<?xml version="1.0" ?> 
<!-- 
# vtk DataFile Version 3.0
-->
<VTKFile type="UnstructuredGrid" version="0.1" compressor="vtkZLibDataCompressor" byte_order="LittleEndian">
  <UnstructuredGrid>
    <FieldData>
      <DataArray type="Float64" Name="TIME" NumberOfTuples="1" format="ascii">
1.000000000000000e+00 
      </DataArray>
    </FieldData>

    <Piece NumberOfPoints="224" NumberOfCells="56" >
      <Points>
        <DataArray type="Float64" NumberOfComponents="3" format="ascii">
0.000000000000000e+00 0.000000000000000e+00 1.000000000000000e+00
0.000000000000000e+00 0.000000000000000e+00 0.000000000000000e+00
0.000000000000000e+00 5.000000000000000e-01 5.000000000000000e-01
5.000000000000000e-01 0.000000000000000e+00 5.000000000000000e-01
0.000000000000000e+00 0.000000000000000e+00 0.000000000000000e+00
0.000000000000000e+00 1.000000000000000e+00 0.000000000000000e+00
0.000000000000000e+00 5.000000000000000e-01 5.000000000000000e-01
5.000000000000000e-01 5.000000000000000e-01 0.000000000000000e+00
0.000000000000000e+00 1.000000000000000e+00 0.000000000000000e+00
0.000000000000000e+00 1.000000000000000e+00 1.000000000000000e+00
0.000000000000000e+00 5.000000000000000e-01 5.000000000000000e-01
5.000000000000000e-01 1.000000000000000e+00 5.000000000000000e-01
0.000000000000000e+00 1.000000000000000e+00 1.000000000000000e+00
0.000000000000000e+00 0.000000000000000e+00 1.000000000000000e+00
0.000000000000000e+00 5.000000000000000e-01 5.000000000000000e-01
5.000000000000000e-01 5.000000000000000e-01 1.000000000000000e+00
0.000000000000000e+00 0.000000000000000e+00 1.000000000000000e+00
1.000000000000000e+00 0.000000000000000e+00 1.000000000000000e+00
5.000000000000000e-01 0.000000000000000e+00 5.000000000000000e-01
5.000000000000000e-01 5.000000000000000e-01 1.000000000000000e+00
0.000000000000000e+00 0.000000000000000e+00 0.000000000000000e+00
1.000000000000000e+00 0.000000000000000e+00 0.000000000000000e+00
5.000000000000000e-01 5.000000000000000e-01 0.000000000000000e+00
5.000000000000000e-01 0.000000000000000e+00 5.000000000000000e-01
0.000000000000000e+00 1.000000000000000e+00 0.000000000000000e+00
1.000000000000000e+00 1.000000000000000e+00 0.000000000000000e+00
5.000000000000000e-01 1.000000000000000e+00 5.000000000000000e-01
5.000000000000000e-01 5.000000000000000e-01 0.000000000000000e+00
0.000000000000000e+00 1.000000000000000e+00 1.000000000000000e+00
1.000000000000000e+00 1.000000000000000e+00 1.000000000000000e+00
5.000000000000000e-01 5.000000000000000e-01 1.000000000000000e+00
5.000000000000000e-01 1.000000000000000e+00 5.000000000000000e-01
1.000000000000000e+00 0.000000000000000e+00 1.000000000000000e+00
1.000000000000000e+00 0.000000000000000e+00 0.000000000000000e+00
5.000000000000000e-01 0.000000000000000e+00 5.000000000000000e-01
1.000000000000000e+00 5.000000000000000e-01 5.000000000000000e-01
1.000000000000000e+00 0.000000000000000e+00 0.000000000000000e+00
1.000000000000000e+00 1.000000000000000e+00 0.000000000000000e+00
5.000000000000000e-01 5.000000000000000e-01 0.000000000000000e+00
1.000000000000000e+00 5.000000000000000e-01 5.000000000000000e-01
1.000000000000000e+00 1.000000000000000e+00 0.000000000000000e+00
1.000000000000000e+00 1.000000000000000e+00 1.000000000000000e+00
5.000000000000000e-01 1.000000000000000e+00 5.000000000000000e-01
1.000000000000000e+00 5.000000000000000e-01 5.000000000000000e-01
1.000000000000000e+00 1.000000000000000e+00 1.000000000000000e+00
1.000000000000000e+00 0.000000000000000e+00 1.000000000000000e+00
5.000000000000000e-01 5.000000000000000e-01 1.000000000000000e+00
1.000000000000000e+00 5.000000000000000e-01 5.000000000000000e-01
0.000000000000000e+00 5.000000000000000e-01 5.000000000000000e-01
5.000000000000000e-01 0.000000000000000e+00 5.000000000000000e-01
5.000000000000000e-01 5.000000000000000e-01 1.000000000000000e+00
0.000000000000000e+00 0.000000000000000e+00 1.000000000000000e+00
0.000000000000000e+00 5.000000000000000e-01 5.000000000000000e-01
5.000000000000000e-01 5.000000000000000e-01 0.000000000000000e+00
5.000000000000000e-01 0.000000000000000e+00 5.000000000000000e-01
0.000000000000000e+00 0.000000000000000e+00 0.000000000000000e+00
0.000000000000000e+00 5.000000000000000e-01 5.000000000000000e-01
5.000000000000000e-01 1.000000000000000e+00 5.000000000000000e-01
5.000000000000000e-01 5.000000000000000e-01 0.000000000000000e+00
0.000000000000000e+00 1.000000000000000e+00 0.000000000000000e+00
0.000000000000000e+00 5.000000000000000e-01 5.000000000000000e-01
5.000000000000000e-01 5.000000000000000e-01 1.000000000000000e+00
5.000000000000000e-01 1.000000000000000e+00 5.000000000000000e-01
0.000000000000000e+00 1.000000000000000e+00 1.000000000000000e+00
1.000000000000000e+00 5.000000000000000e-01 5.000000000000000e-01
5.000000000000000e-01 5.000000000000000e-01 1.000000000000000e+00
5.000000000000000e-01 0.000000000000000e+00 5.000000000000000e-01
1.000000000000000e+00 0.000000000000000e+00 1.000000000000000e+00
1.000000000000000e+00 5.000000000000000e-01 5.000000000000000e-01
5.000000000000000e-01 0.000000000000000e+00 5.000000000000000e-01
5.000000000000000e-01 5.000000000000000e-01 0.000000000000000e+00
1.000000000000000e+00 0.000000000000000e+00 0.000000000000000e+00
1.000000000000000e+00 5.000000000000000e-01 5.000000000000000e-01
5.000000000000000e-01 5.000000000000000e-01 0.000000000000000e+00
5.000000000000000e-01 1.000000000000000e+00 5.000000000000000e-01
1.000000000000000e+00 1.000000000000000e+00 0.000000000000000e+00
1.000000000000000e+00 5.000000000000000e-01 5.000000000000000e-01
5.000000000000000e-01 1.000000000000000e+00 5.000000000000000e-01
5.000000000000000e-01 5.000000000000000e-01 1.000000000000000e+00
1.000000000000000e+00 1.000000000000000e+00 1.000000000000000e+00
0.000000000000000e+00 5.000000000000000e-01 5.000000000000000e-01
5.000000000000000e-01 5.000000000000000e-01 1.000000000000000e+00
5.000000000000000e-01 0.000000000000000e+00 5.000000000000000e-01
5.000000000000000e-01 5.000000000000000e-01 5.000000000000000e-01
0.000000000000000e+00 5.000000000000000e-01 5.000000000000000e-01
5.000000000000000e-01 0.000000000000000e+00 5.000000000000000e-01
5.000000000000000e-01 5.000000000000000e-01 0.000000000000000e+00
5.000000000000000e-01 5.000000000000000e-01 5.000000000000000e-01
0.000000000000000e+00 5.000000000000000e-01 5.000000000000000e-01
5.000000000000000e-01 5.000000000000000e-01 0.000000000000000e+00
5.000000000000000e-01 1.000000000000000e+00 5.000000000000000e-01
5.000000000000000e-01 5.000000000000000e-01 5.000000000000000e-01
0.000000000000000e+00 5.000000000000000e-01 5.000000000000000e-01
5.000000000000000e-01 1.000000000000000e+00 5.000000000000000e-01
5.000000000000000e-01 5.000000000000000e-01 1.000000000000000e+00
5.000000000000000e-01 5.000000000000000e-01 5.000000000000000e-01
1.000000000000000e+00 5.000000000000000e-01 5.000000000000000e-01
5.000000000000000e-01 0.000000000000000e+00 5.000000000000000e-01
5.000000000000000e-01 5.000000000000000e-01 1.000000000000000e+00
5.000000000000000e-01 5.000000000000000e-01 5.000000000000000e-01
1.000000000000000e+00 5.000000000000000e-01 5.000000000000000e-01
5.000000000000000e-01 5.000000000000000e-01 0.000000000000000e+00
5.000000000000000e-01 0.000000000000000e+00 5.000000000000000e-01
5.000000000000000e-01 5.000000000000000e-01 5.000000000000000e-01
1.000000000000000e+00 5.000000000000000e-01 5.000000000000000e-01
5.000000000000000e-01 1.000000000000000e+00 5.000000000000000e-01
5.000000000000000e-01 5.000000000000000e-01 0.000000000000000e+00
5.000000000000000e-01 5.000000000000000e-01 5.000000000000000e-01
1.000000000000000e+00 5.000000000000000e-01 5.000000000000000e-01
5.000000000000000e-01 5.000000000000000e-01 1.000000000000000e+00
5.000000000000000e-01 1.000000000000000e+00 5.000000000000000e-01
5.000000000000000e-01 5.000000000000000e-01 5.000000000000000e-01
1.000000000000000e+00 0.000000000000000e+00 1.000000000000000e+00
1.000000000000000e+00 0.000000000000000e+00 0.000000000000000e+00
1.000000000000000e+00 5.000000000000000e-01 5.000000000000000e-01
1.500000000000000e+00 0.000000000000000e+00 5.000000000000000e-01
1.000000000000000e+00 0.000000000000000e+00 0.000000000000000e+00
1.000000000000000e+00 1.000000000000000e+00 0.000000000000000e+00
1.000000000000000e+00 5.000000000000000e-01 5.000000000000000e-01
1.500000000000000e+00 5.000000000000000e-01 0.000000000000000e+00
1.000000000000000e+00 1.000000000000000e+00 0.000000000000000e+00
1.000000000000000e+00 1.000000000000000e+00 1.000000000000000e+00
1.000000000000000e+00 5.000000000000000e-01 5.000000000000000e-01
1.500000000000000e+00 1.000000000000000e+00 5.000000000000000e-01
1.000000000000000e+00 1.000000000000000e+00 1.000000000000000e+00
1.000000000000000e+00 0.000000000000000e+00 1.000000000000000e+00
1.000000000000000e+00 5.000000000000000e-01 5.000000000000000e-01
1.500000000000000e+00 5.000000000000000e-01 1.000000000000000e+00
1.000000000000000e+00 0.000000000000000e+00 1.000000000000000e+00
2.000000000000000e+00 0.000000000000000e+00 1.000000000000000e+00
1.500000000000000e+00 0.000000000000000e+00 5.000000000000000e-01
1.500000000000000e+00 5.000000000000000e-01 1.000000000000000e+00
1.000000000000000e+00 0.000000000000000e+00 0.000000000000000e+00
2.000000000000000e+00 0.000000000000000e+00 0.000000000000000e+00
1.500000000000000e+00 5.000000000000000e-01 0.000000000000000e+00
1.500000000000000e+00 0.000000000000000e+00 5.000000000000000e-01
1.000000000000000e+00 1.000000000000000e+00 0.000000000000000e+00
2.000000000000000e+00 1.000000000000000e+00 0.000000000000000e+00
1.500000000000000e+00 1.000000000000000e+00 5.000000000000000e-01
1.500000000000000e+00 5.000000000000000e-01 0.000000000000000e+00
1.000000000000000e+00 1.000000000000000e+00 1.000000000000000e+00
2.000000000000000e+00 1.000000000000000e+00 1.000000000000000e+00
1.500000000000000e+00 5.000000000000000e-01 1.000000000000000e+00
1.500000000000000e+00 1.000000000000000e+00 5.000000000000000e-01
2.000000000000000e+00 0.000000000000000e+00 1.000000000000000e+00
2.000000000000000e+00 0.000000000000000e+00 0.000000000000000e+00
1.500000000000000e+00 0.000000000000000e+00 5.000000000000000e-01
2.000000000000000e+00 5.000000000000000e-01 5.000000000000000e-01
2.000000000000000e+00 0.000000000000000e+00 0.000000000000000e+00
2.000000000000000e+00 1.000000000000000e+00 0.000000000000000e+00
1.500000000000000e+00 5.000000000000000e-01 0.000000000000000e+00
2.000000000000000e+00 5.000000000000000e-01 5.000000000000000e-01
2.000000000000000e+00 1.000000000000000e+00 0.000000000000000e+00
2.000000000000000e+00 1.000000000000000e+00 1.000000000000000e+00
1.500000000000000e+00 1.000000000000000e+00 5.000000000000000e-01
2.000000000000000e+00 5.000000000000000e-01 5.000000000000000e-01
2.000000000000000e+00 1.000000000000000e+00 1.000000000000000e+00
2.000000000000000e+00 0.000000000000000e+00 1.000000000000000e+00
1.500000000000000e+00 5.000000000000000e-01 1.000000000000000e+00
2.000000000000000e+00 5.000000000000000e-01 5.000000000000000e-01
1.000000000000000e+00 5.000000000000000e-01 5.000000000000000e-01
1.500000000000000e+00 0.000000000000000e+00 5.000000000000000e-01
1.500000000000000e+00 5.000000000000000e-01 1.000000000000000e+00
1.000000000000000e+00 0.000000000000000e+00 1.000000000000000e+00
1.000000000000000e+00 5.000000000000000e-01 5.000000000000000e-01
1.500000000000000e+00 5.000000000000000e-01 0.000000000000000e+00
1.500000000000000e+00 0.000000000000000e+00 5.000000000000000e-01
1.000000000000000e+00 0.000000000000000e+00 0.000000000000000e+00
1.000000000000000e+00 5.000000000000000e-01 5.000000000000000e-01
1.500000000000000e+00 1.000000000000000e+00 5.000000000000000e-01
1.500000000000000e+00 5.000000000000000e-01 0.000000000000000e+00
1.000000000000000e+00 1.000000000000000e+00 0.000000000000000e+00
1.000000000000000e+00 5.000000000000000e-01 5.000000000000000e-01
1.500000000000000e+00 5.000000000000000e-01 1.000000000000000e+00
1.500000000000000e+00 1.000000000000000e+00 5.000000000000000e-01
1.000000000000000e+00 1.000000000000000e+00 1.000000000000000e+00
2.000000000000000e+00 5.000000000000000e-01 5.000000000000000e-01
1.500000000000000e+00 5.000000000000000e-01 1.000000000000000e+00
1.500000000000000e+00 0.000000000000000e+00 5.000000000000000e-01
2.000000000000000e+00 0.000000000000000e+00 1.000000000000000e+00
2.000000000000000e+00 5.000000000000000e-01 5.000000000000000e-01
1.500000000000000e+00 0.000000000000000e+00 5.000000000000000e-01
1.500000000000000e+00 5.000000000000000e-01 0.000000000000000e+00
2.000000000000000e+00 0.000000000000000e+00 0.000000000000000e+00
2.000000000000000e+00 5.000000000000000e-01 5.000000000000000e-01
1.500000000000000e+00 5.000000000000000e-01 0.000000000000000e+00
1.500000000000000e+00 1.000000000000000e+00 5.000000000000000e-01
2.000000000000000e+00 1.000000000000000e+00 0.000000000000000e+00
2.000000000000000e+00 5.000000000000000e-01 5.000000000000000e-01
1.500000000000000e+00 1.000000000000000e+00 5.000000000000000e-01
1.500000000000000e+00 5.000000000000000e-01 1.000000000000000e+00
2.000000000000000e+00 1.000000000000000e+00 1.000000000000000e+00
1.000000000000000e+00 5.000000000000000e-01 5.000000000000000e-01
1.500000000000000e+00 5.000000000000000e-01 1.000000000000000e+00
1.500000000000000e+00 0.000000000000000e+00 5.000000000000000e-01
1.500000000000000e+00 5.000000000000000e-01 5.000000000000000e-01
1.000000000000000e+00 5.000000000000000e-01 5.000000000000000e-01
1.500000000000000e+00 0.000000000000000e+00 5.000000000000000e-01
1.500000000000000e+00 5.000000000000000e-01 0.000000000000000e+00
1.500000000000000e+00 5.000000000000000e-01 5.000000000000000e-01
1.000000000000000e+00 5.000000000000000e-01 5.000000000000000e-01
1.500000000000000e+00 5.000000000000000e-01 0.000000000000000e+00
1.500000000000000e+00 1.000000000000000e+00 5.000000000000000e-01
1.500000000000000e+00 5.000000000000000e-01 5.000000000000000e-01
1.000000000000000e+00 5.000000000000000e-01 5.000000000000000e-01
1.500000000000000e+00 1.000000000000000e+00 5.000000000000000e-01
1.500000000000000e+00 5.000000000000000e-01 1.000000000000000e+00
1.500000000000000e+00 5.000000000000000e-01 5.000000000000000e-01
2.000000000000000e+00 5.000000000000000e-01 5.000000000000000e-01
1.500000000000000e+00 0.000000000000000e+00 5.000000000000000e-01
1.500000000000000e+00 5.000000000000000e-01 1.000000000000000e+00
1.500000000000000e+00 5.000000000000000e-01 5.000000000000000e-01
2.000000000000000e+00 5.000000000000000e-01 5.000000000000000e-01
1.500000000000000e+00 5.000000000000000e-01 0.000000000000000e+00
1.500000000000000e+00 0.000000000000000e+00 5.000000000000000e-01
1.500000000000000e+00 5.000000000000000e-01 5.000000000000000e-01
2.000000000000000e+00 5.000000000000000e-01 5.000000000000000e-01
1.500000000000000e+00 1.000000000000000e+00 5.000000000000000e-01
1.500000000000000e+00 5.000000000000000e-01 0.000000000000000e+00
1.500000000000000e+00 5.000000000000000e-01 5.000000000000000e-01
2.000000000000000e+00 5.000000000000000e-01 5.000000000000000e-01
1.500000000000000e+00 5.000000000000000e-01 1.000000000000000e+00
1.500000000000000e+00 1.000000000000000e+00 5.000000000000000e-01
1.500000000000000e+00 5.000000000000000e-01 5.000000000000000e-01
        </DataArray>
      </Points>

      <Cells>
        <DataArray type="Int32" Name="connectivity" format="ascii">
0 1 2 3 4 5 6 7 8 9 10 11 12 13 14 15 16 17 18 19 20 21 22 23 24 25 26 27 28 29 30 31 32 33 34 35 36 37 38 39 40 41 42 43 44 45 46 47 48 49 50 51 52 53 54 55 56 57 58 59 60 61 62 63 64 65 66 67 68 69 70 71 72 73 74 75 76 77 78 79 80 81 82 83 84 85 86 87 88 89 90 91 92 93 94 95 96 97 98 99 100 101 102 103 104 105 106 107 108 109 110 111 112 113 114 115 116 117 118 119 120 121 122 123 124 125 126 127 128 129 130 131 132 133 134 135 136 137 138 139 140 141 142 143 144 145 146 147 148 149 150 151 152 153 154 155 156 157 158 159 160 161 162 163 164 165 166 167 168 169 170 171 172 173 174 175 176 177 178 179 180 181 182 183 184 185 186 187 188 189 190 191 192 193 194 195 196 197 198 199 200 201 202 203 204 205 206 207 208 209 210 211 212 213 214 215 216 217 218 219 220 221 222 223 
        </DataArray>
        <DataArray type="Int32" Name="offsets" format="ascii">
4 8 12 16 20 24 28 32 36 40 44 48 52 56 60 64 68 72 76 80 84 88 92 96 100 104 108 112 116 120 124 128 132 136 140 144 148 152 156 160 164 168 172 176 180 184 188 192 196 200 204 208 212 216 220 224 
        </DataArray>
        <DataArray type="UInt8" Name="types" format="ascii">
10 10 10 10 10 10 10 10 10 10 10 10 10 10 10 10 10 10 10 10 10 10 10 10 10 10 10 10 10 10 10 10 10 10 10 10 10 10 10 10 10 10 10 10 10 10 10 10 10 10 10 10 10 10 10 10 
        </DataArray>
      </Cells>

  <PointData>
        <DataArray type="Float64" Name="displacement" NumberOfComponents="3" format="ascii">
0.000000000000000e+00 0.000000000000000e+00 0.000000000000000e+00
0.000000000000000e+00 0.000000000000000e+00 0.000000000000000e+00
0.000000000000000e+00 0.000000000000000e+00 0.000000000000000e+00
5.453169009801578e-02 -4.589019779833054e-04 -1.007841828037441e-03
0.000000000000000e+00 0.000000000000000e+00 0.000000000000000e+00
0.000000000000000e+00 0.000000000000000e+00 0.000000000000000e+00
0.000000000000000e+00 0.000000000000000e+00 0.000000000000000e+00
5.363360187961246e-02 -5.018480325965351e-04 -9.167754976462718e-04
0.000000000000000e+00 0.000000000000000e+00 0.000000000000000e+00
0.000000000000000e+00 0.000000000000000e+00 0.000000000000000e+00
0.000000000000000e+00 0.000000000000000e+00 0.000000000000000e+00
5.633083586049530e-02 -4.649838658579801e-04 -1.016139180771836e-03
0.000000000000000e+00 0.000000000000000e+00 0.000000000000000e+00
0.000000000000000e+00 0.000000000000000e+00 0.000000000000000e+00
0.000000000000000e+00 0.000000000000000e+00 0.000000000000000e+00
5.723192277027862e-02 -5.101452786942047e-04 -9.310838565000336e-04
0.000000000000000e+00 0.000000000000000e+00 0.000000000000000e+00
1.127873825615497e-01 -1.749930976678764e-03 -3.458092868528195e-03
5.453169009801578e-02 -4.589019779833054e-04 -1.007841828037441e-03
5.723192277027862e-02 -5.101452786942047e-04 -9.310838565000336e-04
0.000000000000000e+00 0.000000000000000e+00 0.000000000000000e+00
1.050653623460737e-01 -1.665588224097927e-03 -3.377553612927764e-03
5.363360187961246e-02 -5.018480325965351e-04 -9.167754976462718e-04
5.453169009801578e-02 -4.589019779833054e-04 -1.007841828037441e-03
0.000000000000000e+00 0.000000000000000e+00 0.000000000000000e+00
1.089268070333990e-01 -1.738101710669420e-03 -3.433916464819361e-03
5.633083586049530e-02 -4.649838658579801e-04 -1.016139180771836e-03
5.363360187961246e-02 -5.018480325965351e-04 -9.167754976462718e-04
0.000000000000000e+00 0.000000000000000e+00 0.000000000000000e+00
1.166469583186951e-01 -1.710169417801801e-03 -3.458141383392518e-03
5.723192277027862e-02 -5.101452786942047e-04 -9.310838565000336e-04
5.633083586049530e-02 -4.649838658579801e-04 -1.016139180771836e-03
1.127873825615497e-01 -1.749930976678764e-03 -3.458092868528195e-03
1.050653623460737e-01 -1.665588224097927e-03 -3.377553612927764e-03
5.453169009801578e-02 -4.589019779833054e-04 -1.007841828037441e-03
1.108589089434464e-01 -1.662757500554792e-03 -3.325558371330779e-03
1.050653623460737e-01 -1.665588224097927e-03 -3.377553612927764e-03
1.089268070333990e-01 -1.738101710669420e-03 -3.433916464819361e-03
5.363360187961246e-02 -5.018480325965351e-04 -9.167754976462718e-04
1.108589089434464e-01 -1.662757500554792e-03 -3.325558371330779e-03
1.089268070333990e-01 -1.738101710669420e-03 -3.433916464819361e-03
1.166469583186951e-01 -1.710169417801801e-03 -3.458141383392518e-03
5.633083586049530e-02 -4.649838658579801e-04 -1.016139180771836e-03
1.108589089434464e-01 -1.662757500554792e-03 -3.325558371330779e-03
1.166469583186951e-01 -1.710169417801801e-03 -3.458141383392518e-03
1.127873825615497e-01 -1.749930976678764e-03 -3.458092868528195e-03
5.723192277027862e-02 -5.101452786942047e-04 -9.310838565000336e-04
1.108589089434464e-01 -1.662757500554792e-03 -3.325558371330779e-03
0.000000000000000e+00 0.000000000000000e+00 0.000000000000000e+00
5.453169009801578e-02 -4.589019779833054e-04 -1.007841828037441e-03
5.723192277027862e-02 -5.101452786942047e-04 -9.310838565000336e-04
0.000000000000000e+00 0.000000000000000e+00 0.000000000000000e+00
0.000000000000000e+00 0.000000000000000e+00 0.000000000000000e+00
5.363360187961246e-02 -5.018480325965351e-04 -9.167754976462718e-04
5.453169009801578e-02 -4.589019779833054e-04 -1.007841828037441e-03
0.000000000000000e+00 0.000000000000000e+00 0.000000000000000e+00
0.000000000000000e+00 0.000000000000000e+00 0.000000000000000e+00
5.633083586049530e-02 -4.649838658579801e-04 -1.016139180771836e-03
5.363360187961246e-02 -5.018480325965351e-04 -9.167754976462718e-04
0.000000000000000e+00 0.000000000000000e+00 0.000000000000000e+00
0.000000000000000e+00 0.000000000000000e+00 0.000000000000000e+00
5.723192277027862e-02 -5.101452786942047e-04 -9.310838565000336e-04
5.633083586049530e-02 -4.649838658579801e-04 -1.016139180771836e-03
0.000000000000000e+00 0.000000000000000e+00 0.000000000000000e+00
1.108589089434464e-01 -1.662757500554792e-03 -3.325558371330779e-03
5.723192277027862e-02 -5.101452786942047e-04 -9.310838565000336e-04
5.453169009801578e-02 -4.589019779833054e-04 -1.007841828037441e-03
1.127873825615497e-01 -1.749930976678764e-03 -3.458092868528195e-03
1.108589089434464e-01 -1.662757500554792e-03 -3.325558371330779e-03
5.453169009801578e-02 -4.589019779833054e-04 -1.007841828037441e-03
5.363360187961246e-02 -5.018480325965351e-04 -9.167754976462718e-04
1.050653623460737e-01 -1.665588224097927e-03 -3.377553612927764e-03
1.108589089434464e-01 -1.662757500554792e-03 -3.325558371330779e-03
5.363360187961246e-02 -5.018480325965351e-04 -9.167754976462718e-04
5.633083586049530e-02 -4.649838658579801e-04 -1.016139180771836e-03
1.089268070333990e-01 -1.738101710669420e-03 -3.433916464819361e-03
1.108589089434464e-01 -1.662757500554792e-03 -3.325558371330779e-03
5.633083586049530e-02 -4.649838658579801e-04 -1.016139180771836e-03
5.723192277027862e-02 -5.101452786942047e-04 -9.310838565000336e-04
1.166469583186951e-01 -1.710169417801801e-03 -3.458141383392518e-03
0.000000000000000e+00 0.000000000000000e+00 0.000000000000000e+00
5.723192277027862e-02 -5.101452786942047e-04 -9.310838565000336e-04
5.453169009801578e-02 -4.589019779833054e-04 -1.007841828037441e-03
5.543133285957461e-02 -5.800222988837207e-04 -1.160069851307175e-03
0.000000000000000e+00 0.000000000000000e+00 0.000000000000000e+00
5.453169009801578e-02 -4.589019779833054e-04 -1.007841828037441e-03
5.363360187961246e-02 -5.018480325965351e-04 -9.167754976462718e-04
5.543133285957461e-02 -5.800222988837207e-04 -1.160069851307175e-03
0.000000000000000e+00 0.000000000000000e+00 0.000000000000000e+00
5.363360187961246e-02 -5.018480325965351e-04 -9.167754976462718e-04
5.633083586049530e-02 -4.649838658579801e-04 -1.016139180771836e-03
5.543133285957461e-02 -5.800222988837207e-04 -1.160069851307175e-03
0.000000000000000e+00 0.000000000000000e+00 0.000000000000000e+00
5.633083586049530e-02 -4.649838658579801e-04 -1.016139180771836e-03
5.723192277027862e-02 -5.101452786942047e-04 -9.310838565000336e-04
5.543133285957461e-02 -5.800222988837207e-04 -1.160069851307175e-03
1.108589089434464e-01 -1.662757500554792e-03 -3.325558371330779e-03
5.453169009801578e-02 -4.589019779833054e-04 -1.007841828037441e-03
5.723192277027862e-02 -5.101452786942047e-04 -9.310838565000336e-04
5.543133285957461e-02 -5.800222988837207e-04 -1.160069851307175e-03
1.108589089434464e-01 -1.662757500554792e-03 -3.325558371330779e-03
5.363360187961246e-02 -5.018480325965351e-04 -9.167754976462718e-04
5.453169009801578e-02 -4.589019779833054e-04 -1.007841828037441e-03
5.543133285957461e-02 -5.800222988837207e-04 -1.160069851307175e-03
1.108589089434464e-01 -1.662757500554792e-03 -3.325558371330779e-03
5.633083586049530e-02 -4.649838658579801e-04 -1.016139180771836e-03
5.363360187961246e-02 -5.018480325965351e-04 -9.167754976462718e-04
5.543133285957461e-02 -5.800222988837207e-04 -1.160069851307175e-03
1.108589089434464e-01 -1.662757500554792e-03 -3.325558371330779e-03
5.723192277027862e-02 -5.101452786942047e-04 -9.310838565000336e-04
5.633083586049530e-02 -4.649838658579801e-04 -1.016139180771836e-03
5.543133285957461e-02 -5.800222988837207e-04 -1.160069851307175e-03
1.127873825615497e-01 -1.749930976678764e-03 -3.458092868528195e-03
1.050653623460737e-01 -1.665588224097927e-03 -3.377553612927764e-03
1.108589089434464e-01 -1.662757500554792e-03 -3.325558371330779e-03
1.629304450824684e-01 -4.180409749892527e-03 -8.503556798026791e-03
1.050653623460737e-01 -1.665588224097927e-03 -3.377553612927764e-03
1.089268070333990e-01 -1.738101710669420e-03 -3.433916464819361e-03
1.108589089434464e-01 -1.662757500554792e-03 -3.325558371330779e-03
1.595985507295017e-01 -4.240712037763467e-03 -8.339899721910493e-03
1.089268070333990e-01 -1.738101710669420e-03 -3.433916464819361e-03
1.166469583186951e-01 -1.710169417801801e-03 -3.458141383392518e-03
1.108589089434464e-01 -1.662757500554792e-03 -3.325558371330779e-03
1.695833896225444e-01 -4.203282649275438e-03 -8.547737084874600e-03
1.166469583186951e-01 -1.710169417801801e-03 -3.458141383392518e-03
1.127873825615497e-01 -1.749930976678764e-03 -3.458092868528195e-03
1.108589089434464e-01 -1.662757500554792e-03 -3.325558371330779e-03
1.729042420169729e-01 -4.284890792455930e-03 -8.427183055357189e-03
1.127873825615497e-01 -1.749930976678764e-03 -3.458092868528195e-03
2.268456835990317e-01 -7.899633941487618e-03 -1.599853491853712e-02
1.629304450824684e-01 -4.180409749892527e-03 -8.503556798026791e-03
1.729042420169729e-01 -4.284890792455930e-03 -8.427183055357189e-03
1.050653623460737e-01 -1.665588224097927e-03 -3.377553612927764e-03
2.058661468328218e-01 -8.123289794923697e-03 -1.604744245804108e-02
1.595985507295017e-01 -4.240712037763467e-03 -8.339899721910493e-03
1.629304450824684e-01 -4.180409749892527e-03 -8.503556798026791e-03
1.089268070333990e-01 -1.738101710669420e-03 -3.433916464819361e-03
2.164053315473189e-01 -7.881995605632460e-03 -1.595455818657803e-02
1.695833896225444e-01 -4.203282649275438e-03 -8.547737084874600e-03
1.595985507295017e-01 -4.240712037763467e-03 -8.339899721910493e-03
1.166469583186951e-01 -1.710169417801801e-03 -3.458141383392518e-03
2.371901704670598e-01 -8.177429578318794e-03 -1.616321629118577e-02
1.729042420169729e-01 -4.284890792455930e-03 -8.427183055357189e-03
1.695833896225444e-01 -4.203282649275438e-03 -8.547737084874600e-03
2.268456835990317e-01 -7.899633941487618e-03 -1.599853491853712e-02
2.058661468328218e-01 -8.123289794923697e-03 -1.604744245804108e-02
1.629304450824684e-01 -4.180409749892527e-03 -8.503556798026791e-03
2.216366093778066e-01 -7.916265888173410e-03 -1.583213469030467e-02
2.058661468328218e-01 -8.123289794923697e-03 -1.604744245804108e-02
2.164053315473189e-01 -7.881995605632460e-03 -1.595455818657803e-02
1.595985507295017e-01 -4.240712037763467e-03 -8.339899721910493e-03
2.216366093778066e-01 -7.916265888173410e-03 -1.583213469030467e-02
2.164053315473189e-01 -7.881995605632460e-03 -1.595455818657803e-02
2.371901704670598e-01 -8.177429578318794e-03 -1.616321629118577e-02
1.695833896225444e-01 -4.203282649275438e-03 -8.547737084874600e-03
2.216366093778066e-01 -7.916265888173410e-03 -1.583213469030467e-02
2.371901704670598e-01 -8.177429578318794e-03 -1.616321629118577e-02
2.268456835990317e-01 -7.899633941487618e-03 -1.599853491853712e-02
1.729042420169729e-01 -4.284890792455930e-03 -8.427183055357189e-03
2.216366093778066e-01 -7.916265888173410e-03 -1.583213469030467e-02
1.108589089434464e-01 -1.662757500554792e-03 -3.325558371330779e-03
1.629304450824684e-01 -4.180409749892527e-03 -8.503556798026791e-03
1.729042420169729e-01 -4.284890792455930e-03 -8.427183055357189e-03
1.127873825615497e-01 -1.749930976678764e-03 -3.458092868528195e-03
1.108589089434464e-01 -1.662757500554792e-03 -3.325558371330779e-03
1.595985507295017e-01 -4.240712037763467e-03 -8.339899721910493e-03
1.629304450824684e-01 -4.180409749892527e-03 -8.503556798026791e-03
1.050653623460737e-01 -1.665588224097927e-03 -3.377553612927764e-03
1.108589089434464e-01 -1.662757500554792e-03 -3.325558371330779e-03
1.695833896225444e-01 -4.203282649275438e-03 -8.547737084874600e-03
1.595985507295017e-01 -4.240712037763467e-03 -8.339899721910493e-03
1.089268070333990e-01 -1.738101710669420e-03 -3.433916464819361e-03
1.108589089434464e-01 -1.662757500554792e-03 -3.325558371330779e-03
1.729042420169729e-01 -4.284890792455930e-03 -8.427183055357189e-03
1.695833896225444e-01 -4.203282649275438e-03 -8.547737084874600e-03
1.166469583186951e-01 -1.710169417801801e-03 -3.458141383392518e-03
2.216366093778066e-01 -7.916265888173410e-03 -1.583213469030467e-02
1.729042420169729e-01 -4.284890792455930e-03 -8.427183055357189e-03
1.629304450824684e-01 -4.180409749892527e-03 -8.503556798026791e-03
2.268456835990317e-01 -7.899633941487618e-03 -1.599853491853712e-02
2.216366093778066e-01 -7.916265888173410e-03 -1.583213469030467e-02
1.629304450824684e-01 -4.180409749892527e-03 -8.503556798026791e-03
1.595985507295017e-01 -4.240712037763467e-03 -8.339899721910493e-03
2.058661468328218e-01 -8.123289794923697e-03 -1.604744245804108e-02
2.216366093778066e-01 -7.916265888173410e-03 -1.583213469030467e-02
1.595985507295017e-01 -4.240712037763467e-03 -8.339899721910493e-03
1.695833896225444e-01 -4.203282649275438e-03 -8.547737084874600e-03
2.164053315473189e-01 -7.881995605632460e-03 -1.595455818657803e-02
2.216366093778066e-01 -7.916265888173410e-03 -1.583213469030467e-02
1.695833896225444e-01 -4.203282649275438e-03 -8.547737084874600e-03
1.729042420169729e-01 -4.284890792455930e-03 -8.427183055357189e-03
2.371901704670598e-01 -8.177429578318794e-03 -1.616321629118577e-02
1.108589089434464e-01 -1.662757500554792e-03 -3.325558371330779e-03
1.729042420169729e-01 -4.284890792455930e-03 -8.427183055357189e-03
1.629304450824684e-01 -4.180409749892527e-03 -8.503556798026791e-03
1.662548010382073e-01 -4.382807873071350e-03 -8.765522564198033e-03
1.108589089434464e-01 -1.662757500554792e-03 -3.325558371330779e-03
1.629304450824684e-01 -4.180409749892527e-03 -8.503556798026791e-03
1.595985507295017e-01 -4.240712037763467e-03 -8.339899721910493e-03
1.662548010382073e-01 -4.382807873071350e-03 -8.765522564198033e-03
1.108589089434464e-01 -1.662757500554792e-03 -3.325558371330779e-03
1.595985507295017e-01 -4.240712037763467e-03 -8.339899721910493e-03
1.695833896225444e-01 -4.203282649275438e-03 -8.547737084874600e-03
1.662548010382073e-01 -4.382807873071350e-03 -8.765522564198033e-03
1.108589089434464e-01 -1.662757500554792e-03 -3.325558371330779e-03
1.695833896225444e-01 -4.203282649275438e-03 -8.547737084874600e-03
1.729042420169729e-01 -4.284890792455930e-03 -8.427183055357189e-03
1.662548010382073e-01 -4.382807873071350e-03 -8.765522564198033e-03
2.216366093778066e-01 -7.916265888173410e-03 -1.583213469030467e-02
1.629304450824684e-01 -4.180409749892527e-03 -8.503556798026791e-03
1.729042420169729e-01 -4.284890792455930e-03 -8.427183055357189e-03
1.662548010382073e-01 -4.382807873071350e-03 -8.765522564198033e-03
2.216366093778066e-01 -7.916265888173410e-03 -1.583213469030467e-02
1.595985507295017e-01 -4.240712037763467e-03 -8.339899721910493e-03
1.629304450824684e-01 -4.180409749892527e-03 -8.503556798026791e-03
1.662548010382073e-01 -4.382807873071350e-03 -8.765522564198033e-03
2.216366093778066e-01 -7.916265888173410e-03 -1.583213469030467e-02
1.695833896225444e-01 -4.203282649275438e-03 -8.547737084874600e-03
1.595985507295017e-01 -4.240712037763467e-03 -8.339899721910493e-03
1.662548010382073e-01 -4.382807873071350e-03 -8.765522564198033e-03
2.216366093778066e-01 -7.916265888173410e-03 -1.583213469030467e-02
1.729042420169729e-01 -4.284890792455930e-03 -8.427183055357189e-03
1.695833896225444e-01 -4.203282649275438e-03 -8.547737084874600e-03
1.662548010382073e-01 -4.382807873071350e-03 -8.765522564198033e-03
        </DataArray>
        <DataArray type="Float64" Name="nodal_GL_strains_xyz" NumberOfComponents="6" format="ascii">
1.182993083939080e-01 1.712479864585809e-04 -3.384201917940033e-04 2.544996079583626e-05 9.999332515417660e-05 -2.653102083530146e-04
1.131612618897826e-01 1.557973824241748e-04 3.201027463289319e-04 -3.895426460466749e-04 3.045479069346507e-04 -4.679769544037520e-04
1.170136457116155e-01 -1.801524857949113e-06 -4.279318575564621e-06 -1.633009657174482e-05 -2.530131466289943e-06 -3.267569599237222e-05
1.159409809471209e-01 3.763501459849254e-05 -1.804731399587810e-05 1.930657541160691e-04 1.015529715579193e-04 3.838132402170215e-04
1.131612618897826e-01 1.557973824241748e-04 3.201027463289319e-04 -3.895426460466749e-04 3.045479069346507e-04 -4.679769544037520e-04
1.157281525820009e-01 -1.727427312379903e-04 3.285502534614154e-04 2.531792073709878e-05 -1.055103676772500e-04 -2.628995544324178e-04
1.170136457116155e-01 -1.801524857949113e-06 -4.279318575564621e-06 -1.633009657174482e-05 -2.530131466289943e-06 -3.267569599237222e-05
1.148697831856589e-01 -1.805736382204380e-05 7.232351599863188e-05 1.927595642667948e-04 4.753555489426157e-05 3.846836669113060e-04
1.157281525820009e-01 -1.727427312379903e-04 3.285502534614154e-04 2.531792073709878e-05 -1.055103676772500e-04 -2.628995544324178e-04
1.208746544122717e-01 -1.601030771716527e-04 -3.327837317850246e-04 -3.992983671632548e-04 -3.119623888225201e-04 -4.800114979149542e-04
1.170136457116155e-01 -1.801524857949113e-06 -4.279318575564621e-06 -1.633009657174482e-05 -2.530131466289943e-06 -3.267569599237222e-05
1.180852851799359e-01 -4.567227993321207e-05 -3.969897482432774e-06 1.890534628239571e-04 -1.145159656537671e-04 3.804123651772134e-04
1.208746544122717e-01 -1.601030771716527e-04 -3.327837317850246e-04 -3.992983671632548e-04 -3.119623888225201e-04 -4.800114979149542e-04
1.182993083939080e-01 1.712479864585809e-04 -3.384201917940033e-04 2.544996079583626e-05 9.999332515417660e-05 -2.653102083530146e-04
1.170136457116155e-01 -1.801524857949113e-06 -4.279318575564621e-06 -1.633009657174482e-05 -2.530131466289943e-06 -3.267569599237222e-05
1.191584205122549e-01 1.001571108757519e-05 -9.433634007720298e-05 1.893588177822046e-04 -6.049854899010940e-05 3.795401100133716e-04
1.182993083939080e-01 1.712479864585809e-04 -3.384201917940033e-04 2.544996079583626e-05 9.999332515417660e-05 -2.653102083530146e-04
1.187434942281991e-01 2.720180432149305e-04 -5.484168541921089e-04 3.306336123636070e-04 1.497296032004613e-04 7.054772176304580e-04
1.159409809471209e-01 3.763501459849254e-05 -1.804731399587810e-05 1.930657541160691e-04 1.015529715579193e-04 3.838132402170215e-04
1.191584205122549e-01 1.001571108757519e-05 -9.433634007720298e-05 1.893588177822046e-04 -6.049854899010940e-05 3.795401100133716e-04
1.131612618897826e-01 1.557973824241748e-04 3.201027463289319e-04 -3.895426460466749e-04 3.045479069346507e-04 -4.679769544037520e-04
1.117959060174800e-01 2.492883978115965e-04 5.120786458155599e-04 3.893659523924054e-04 4.684024307381266e-04 7.325103432398949e-04
1.148697831856589e-01 -1.805736382204380e-05 7.232351599863188e-05 1.927595642667948e-04 4.753555489426157e-05 3.846836669113060e-04
1.159409809471209e-01 3.763501459849254e-05 -1.804731399587810e-05 1.930657541160691e-04 1.015529715579193e-04 3.838132402170215e-04
1.157281525820009e-01 -1.727427312379903e-04 3.285502534614154e-04 2.531792073709878e-05 -1.055103676772500e-04 -2.628995544324178e-04
1.152718961530452e-01 -2.814124777488353e-04 5.231021534006855e-04 3.305488938428287e-04 -1.668346656553786e-04 7.022098733016047e-04
1.180852851799359e-01 -4.567227993321207e-05 -3.969897482432774e-06 1.890534628239571e-04 -1.145159656537671e-04 3.804123651772134e-04
1.148697831856589e-01 -1.805736382204380e-05 7.232351599863188e-05 1.927595642667948e-04 4.753555489426157e-05 3.846836669113060e-04
1.208746544122717e-01 -1.601030771716527e-04 -3.327837317850246e-04 -3.992983671632548e-04 -3.119623888225201e-04 -4.800114979149542e-04
1.222110366514943e-01 -2.570048441821390e-04 -5.357152734840193e-04 3.854838944444549e-04 -4.812092759821532e-04 7.319801473613829e-04
1.191584205122549e-01 1.001571108757519e-05 -9.433634007720298e-05 1.893588177822046e-04 -6.049854899010940e-05 3.795401100133716e-04
1.180852851799359e-01 -4.567227993321207e-05 -3.969897482432774e-06 1.890534628239571e-04 -1.145159656537671e-04 3.804123651772134e-04
1.187434942281991e-01 2.720180432149305e-04 -5.484168541921089e-04 3.306336123636070e-04 1.497296032004613e-04 7.054772176304580e-04
1.117959060174800e-01 2.492883978115965e-04 5.120786458155599e-04 3.893659523924054e-04 4.684024307381266e-04 7.325103432398949e-04
1.159409809471209e-01 3.763501459849254e-05 -1.804731399587810e-05 1.930657541160691e-04 1.015529715579193e-04 3.838132402170215e-04
1.170076588732376e-01 -4.953117800845133e-06 -1.360604602180840e-05 3.642282943011224e-04 -7.897484585524750e-06 7.284781958158581e-04
1.117959060174800e-01 2.492883978115965e-04 5.120786458155599e-04 3.893659523924054e-04 4.684024307381266e-04 7.325103432398949e-04
1.152718961530452e-01 -2.814124777488353e-04 5.231021534006855e-04 3.305488938428287e-04 -1.668346656553786e-04 7.022098733016047e-04
1.148697831856589e-01 -1.805736382204380e-05 7.232351599863188e-05 1.927595642667948e-04 4.753555489426157e-05 3.846836669113060e-04
1.170076588732376e-01 -4.953117800845133e-06 -1.360604602180840e-05 3.642282943011224e-04 -7.897484585524750e-06 7.284781958158581e-04
1.152718961530452e-01 -2.814124777488353e-04 5.231021534006855e-04 3.305488938428287e-04 -1.668346656553786e-04 7.022098733016047e-04
1.222110366514943e-01 -2.570048441821390e-04 -5.357152734840193e-04 3.854838944444549e-04 -4.812092759821532e-04 7.319801473613829e-04
1.180852851799359e-01 -4.567227993321207e-05 -3.969897482432774e-06 1.890534628239571e-04 -1.145159656537671e-04 3.804123651772134e-04
1.170076588732376e-01 -4.953117800845133e-06 -1.360604602180840e-05 3.642282943011224e-04 -7.897484585524750e-06 7.284781958158581e-04
1.222110366514943e-01 -2.570048441821390e-04 -5.357152734840193e-04 3.854838944444549e-04 -4.812092759821532e-04 7.319801473613829e-04
1.187434942281991e-01 2.720180432149305e-04 -5.484168541921089e-04 3.306336123636070e-04 1.497296032004613e-04 7.054772176304580e-04
1.191584205122549e-01 1.001571108757519e-05 -9.433634007720298e-05 1.893588177822046e-04 -6.049854899010940e-05 3.795401100133716e-04
1.170076588732376e-01 -4.953117800845133e-06 -1.360604602180840e-05 3.642282943011224e-04 -7.897484585524750e-06 7.284781958158581e-04
1.170136457116155e-01 -1.801524857949113e-06 -4.279318575564621e-06 -1.633009657174482e-05 -2.530131466289943e-06 -3.267569599237222e-05
1.159409809471209e-01 3.763501459849254e-05 -1.804731399587810e-05 1.930657541160691e-04 1.015529715579193e-04 3.838132402170215e-04
1.191584205122549e-01 1.001571108757519e-05 -9.433634007720298e-05 1.893588177822046e-04 -6.049854899010940e-05 3.795401100133716e-04
1.182993083939080e-01 1.712479864585809e-04 -3.384201917940033e-04 2.544996079583626e-05 9.999332515417660e-05 -2.653102083530146e-04
1.170136457116155e-01 -1.801524857949113e-06 -4.279318575564621e-06 -1.633009657174482e-05 -2.530131466289943e-06 -3.267569599237222e-05
1.148697831856589e-01 -1.805736382204380e-05 7.232351599863188e-05 1.927595642667948e-04 4.753555489426157e-05 3.846836669113060e-04
1.159409809471209e-01 3.763501459849254e-05 -1.804731399587810e-05 1.930657541160691e-04 1.015529715579193e-04 3.838132402170215e-04
1.131612618897826e-01 1.557973824241748e-04 3.201027463289319e-04 -3.895426460466749e-04 3.045479069346507e-04 -4.679769544037520e-04
1.170136457116155e-01 -1.801524857949113e-06 -4.279318575564621e-06 -1.633009657174482e-05 -2.530131466289943e-06 -3.267569599237222e-05
1.180852851799359e-01 -4.567227993321207e-05 -3.969897482432774e-06 1.890534628239571e-04 -1.145159656537671e-04 3.804123651772134e-04
1.148697831856589e-01 -1.805736382204380e-05 7.232351599863188e-05 1.927595642667948e-04 4.753555489426157e-05 3.846836669113060e-04
1.157281525820009e-01 -1.727427312379903e-04 3.285502534614154e-04 2.531792073709878e-05 -1.055103676772500e-04 -2.628995544324178e-04
1.170136457116155e-01 -1.801524857949113e-06 -4.279318575564621e-06 -1.633009657174482e-05 -2.530131466289943e-06 -3.267569599237222e-05
1.191584205122549e-01 1.001571108757519e-05 -9.433634007720298e-05 1.893588177822046e-04 -6.049854899010940e-05 3.795401100133716e-04
1.180852851799359e-01 -4.567227993321207e-05 -3.969897482432774e-06 1.890534628239571e-04 -1.145159656537671e-04 3.804123651772134e-04
1.208746544122717e-01 -1.601030771716527e-04 -3.327837317850246e-04 -3.992983671632548e-04 -3.119623888225201e-04 -4.800114979149542e-04
1.170076588732376e-01 -4.953117800845133e-06 -1.360604602180840e-05 3.642282943011224e-04 -7.897484585524750e-06 7.284781958158581e-04
1.191584205122549e-01 1.001571108757519e-05 -9.433634007720298e-05 1.893588177822046e-04 -6.049854899010940e-05 3.795401100133716e-04
1.159409809471209e-01 3.763501459849254e-05 -1.804731399587810e-05 1.930657541160691e-04 1.015529715579193e-04 3.838132402170215e-04
1.187434942281991e-01 2.720180432149305e-04 -5.484168541921089e-04 3.306336123636070e-04 1.497296032004613e-04 7.054772176304580e-04
1.170076588732376e-01 -4.953117800845133e-06 -1.360604602180840e-05 3.642282943011224e-04 -7.897484585524750e-06 7.284781958158581e-04
1.159409809471209e-01 3.763501459849254e-05 -1.804731399587810e-05 1.930657541160691e-04 1.015529715579193e-04 3.838132402170215e-04
1.148697831856589e-01 -1.805736382204380e-05 7.232351599863188e-05 1.927595642667948e-04 4.753555489426157e-05 3.846836669113060e-04
1.117959060174800e-01 2.492883978115965e-04 5.120786458155599e-04 3.893659523924054e-04 4.684024307381266e-04 7.325103432398949e-04
1.170076588732376e-01 -4.953117800845133e-06 -1.360604602180840e-05 3.642282943011224e-04 -7.897484585524750e-06 7.284781958158581e-04
1.148697831856589e-01 -1.805736382204380e-05 7.232351599863188e-05 1.927595642667948e-04 4.753555489426157e-05 3.846836669113060e-04
1.180852851799359e-01 -4.567227993321207e-05 -3.969897482432774e-06 1.890534628239571e-04 -1.145159656537671e-04 3.804123651772134e-04
1.152718961530452e-01 -2.814124777488353e-04 5.231021534006855e-04 3.305488938428287e-04 -1.668346656553786e-04 7.022098733016047e-04
1.170076588732376e-01 -4.953117800845133e-06 -1.360604602180840e-05 3.642282943011224e-04 -7.897484585524750e-06 7.284781958158581e-04
1.180852851799359e-01 -4.567227993321207e-05 -3.969897482432774e-06 1.890534628239571e-04 -1.145159656537671e-04 3.804123651772134e-04
1.191584205122549e-01 1.001571108757519e-05 -9.433634007720298e-05 1.893588177822046e-04 -6.049854899010940e-05 3.795401100133716e-04
1.222110366514943e-01 -2.570048441821390e-04 -5.357152734840193e-04 3.854838944444549e-04 -4.812092759821532e-04 7.319801473613829e-04
1.170136457116155e-01 -1.801524857949113e-06 -4.279318575564621e-06 -1.633009657174482e-05 -2.530131466289943e-06 -3.267569599237222e-05
1.191584205122549e-01 1.001571108757519e-05 -9.433634007720298e-05 1.893588177822046e-04 -6.049854899010940e-05 3.795401100133716e-04
1.159409809471209e-01 3.763501459849254e-05 -1.804731399587810e-05 1.930657541160691e-04 1.015529715579193e-04 3.838132402170215e-04
1.170113016405431e-01 -4.391631745370717e-06 -7.711777408686560e-06 1.679386521094793e-04 -5.060262932579896e-06 3.358649134468958e-04
1.170136457116155e-01 -1.801524857949113e-06 -4.279318575564621e-06 -1.633009657174482e-05 -2.530131466289943e-06 -3.267569599237222e-05
1.159409809471209e-01 3.763501459849254e-05 -1.804731399587810e-05 1.930657541160691e-04 1.015529715579193e-04 3.838132402170215e-04
1.148697831856589e-01 -1.805736382204380e-05 7.232351599863188e-05 1.927595642667948e-04 4.753555489426157e-05 3.846836669113060e-04
1.170113016405431e-01 -4.391631745370717e-06 -7.711777408686560e-06 1.679386521094793e-04 -5.060262932579896e-06 3.358649134468958e-04
1.170136457116155e-01 -1.801524857949113e-06 -4.279318575564621e-06 -1.633009657174482e-05 -2.530131466289943e-06 -3.267569599237222e-05
1.148697831856589e-01 -1.805736382204380e-05 7.232351599863188e-05 1.927595642667948e-04 4.753555489426157e-05 3.846836669113060e-04
1.180852851799359e-01 -4.567227993321207e-05 -3.969897482432774e-06 1.890534628239571e-04 -1.145159656537671e-04 3.804123651772134e-04
1.170113016405431e-01 -4.391631745370717e-06 -7.711777408686560e-06 1.679386521094793e-04 -5.060262932579896e-06 3.358649134468958e-04
1.170136457116155e-01 -1.801524857949113e-06 -4.279318575564621e-06 -1.633009657174482e-05 -2.530131466289943e-06 -3.267569599237222e-05
1.180852851799359e-01 -4.567227993321207e-05 -3.969897482432774e-06 1.890534628239571e-04 -1.145159656537671e-04 3.804123651772134e-04
1.191584205122549e-01 1.001571108757519e-05 -9.433634007720298e-05 1.893588177822046e-04 -6.049854899010940e-05 3.795401100133716e-04
1.170113016405431e-01 -4.391631745370717e-06 -7.711777408686560e-06 1.679386521094793e-04 -5.060262932579896e-06 3.358649134468958e-04
1.170076588732376e-01 -4.953117800845133e-06 -1.360604602180840e-05 3.642282943011224e-04 -7.897484585524750e-06 7.284781958158581e-04
1.159409809471209e-01 3.763501459849254e-05 -1.804731399587810e-05 1.930657541160691e-04 1.015529715579193e-04 3.838132402170215e-04
1.191584205122549e-01 1.001571108757519e-05 -9.433634007720298e-05 1.893588177822046e-04 -6.049854899010940e-05 3.795401100133716e-04
1.170113016405431e-01 -4.391631745370717e-06 -7.711777408686560e-06 1.679386521094793e-04 -5.060262932579896e-06 3.358649134468958e-04
1.170076588732376e-01 -4.953117800845133e-06 -1.360604602180840e-05 3.642282943011224e-04 -7.897484585524750e-06 7.284781958158581e-04
1.148697831856589e-01 -1.805736382204380e-05 7.232351599863188e-05 1.927595642667948e-04 4.753555489426157e-05 3.846836669113060e-04
1.159409809471209e-01 3.763501459849254e-05 -1.804731399587810e-05 1.930657541160691e-04 1.015529715579193e-04 3.838132402170215e-04
1.170113016405431e-01 -4.391631745370717e-06 -7.711777408686560e-06 1.679386521094793e-04 -5.060262932579896e-06 3.358649134468958e-04
1.170076588732376e-01 -4.953117800845133e-06 -1.360604602180840e-05 3.642282943011224e-04 -7.897484585524750e-06 7.284781958158581e-04
1.180852851799359e-01 -4.567227993321207e-05 -3.969897482432774e-06 1.890534628239571e-04 -1.145159656537671e-04 3.804123651772134e-04
1.148697831856589e-01 -1.805736382204380e-05 7.232351599863188e-05 1.927595642667948e-04 4.753555489426157e-05 3.846836669113060e-04
1.170113016405431e-01 -4.391631745370717e-06 -7.711777408686560e-06 1.679386521094793e-04 -5.060262932579896e-06 3.358649134468958e-04
1.170076588732376e-01 -4.953117800845133e-06 -1.360604602180840e-05 3.642282943011224e-04 -7.897484585524750e-06 7.284781958158581e-04
1.191584205122549e-01 1.001571108757519e-05 -9.433634007720298e-05 1.893588177822046e-04 -6.049854899010940e-05 3.795401100133716e-04
1.180852851799359e-01 -4.567227993321207e-05 -3.969897482432774e-06 1.890534628239571e-04 -1.145159656537671e-04 3.804123651772134e-04
1.170113016405431e-01 -4.391631745370717e-06 -7.711777408686560e-06 1.679386521094793e-04 -5.060262932579896e-06 3.358649134468958e-04
1.187434942281991e-01 2.720180432149305e-04 -5.484168541921089e-04 3.306336123636070e-04 1.497296032004613e-04 7.054772176304580e-04
1.117959060174800e-01 2.492883978115965e-04 5.120786458155599e-04 3.893659523924054e-04 4.684024307381266e-04 7.325103432398949e-04
1.170076588732376e-01 -4.953117800845133e-06 -1.360604602180840e-05 3.642282943011224e-04 -7.897484585524750e-06 7.284781958158581e-04
1.151628875809248e-01 1.115006546687734e-04 5.091769865095404e-05 6.998853162411806e-04 2.608366741476382e-04 1.389331373955922e-03
1.117959060174800e-01 2.492883978115965e-04 5.120786458155599e-04 3.893659523924054e-04 4.684024307381266e-04 7.325103432398949e-04
1.152718961530452e-01 -2.814124777488353e-04 5.231021534006855e-04 3.305488938428287e-04 -1.668346656553786e-04 7.022098733016047e-04
1.170076588732376e-01 -4.953117800845133e-06 -1.360604602180840e-05 3.642282943011224e-04 -7.897484585524750e-06 7.284781958158581e-04
1.133385647057759e-01 5.897164929294375e-05 2.325810582380257e-04 6.954427343897419e-04 1.370809786831704e-04 1.385938697929198e-03
1.152718961530452e-01 -2.814124777488353e-04 5.231021534006855e-04 3.305488938428287e-04 -1.668346656553786e-04 7.022098733016047e-04
1.222110366514943e-01 -2.570048441821390e-04 -5.357152734840193e-04 3.854838944444549e-04 -4.812092759821532e-04 7.319801473613829e-04
1.170076588732376e-01 -4.953117800845133e-06 -1.360604602180840e-05 3.642282943011224e-04 -7.897484585524750e-06 7.284781958158581e-04
1.188177679013785e-01 -9.578835768530212e-05 -3.040949012600571e-07 6.878145167894039e-04 -2.342577890797616e-04 1.386128624743641e-03
1.222110366514943e-01 -2.570048441821390e-04 -5.357152734840193e-04 3.854838944444549e-04 -4.812092759821532e-04 7.319801473613829e-04
1.187434942281991e-01 2.720180432149305e-04 -5.484168541921089e-04 3.306336123636070e-04 1.497296032004613e-04 7.054772176304580e-04
1.170076588732376e-01 -4.953117800845133e-06 -1.360604602180840e-05 3.642282943011224e-04 -7.897484585524750e-06 7.284781958158581e-04
1.206478093168532e-01 -4.327530591048680e-05 -1.819515008873268e-04 6.922398377897344e-04 -1.105020936152939e-04 1.389487935158565e-03
1.187434942281991e-01 2.720180432149305e-04 -5.484168541921089e-04 3.306336123636070e-04 1.497296032004613e-04 7.054772176304580e-04
1.194635899212147e-01 2.537775725886954e-04 -5.845966289539789e-04 8.405401918472791e-04 2.813461086826381e-04 2.616971359096108e-03
1.151628875809248e-01 1.115006546687734e-04 5.091769865095404e-05 6.998853162411806e-04 2.608366741476382e-04 1.389331373955922e-03
1.206478093168532e-01 -4.327530591048680e-05 -1.819515008873268e-04 6.922398377897344e-04 -1.105020936152939e-04 1.389487935158565e-03
1.117959060174800e-01 2.492883978115965e-04 5.120786458155599e-04 3.893659523924054e-04 4.684024307381266e-04 7.325103432398949e-04
1.094605087926773e-01 5.283797797535628e-04 8.986875519374771e-04 2.104483721196623e-03 8.128957644721063e-04 3.226363924448188e-03
1.133385647057759e-01 5.897164929294375e-05 2.325810582380257e-04 6.954427343897419e-04 1.370809786831704e-04 1.385938697929198e-03
1.151628875809248e-01 1.115006546687734e-04 5.091769865095404e-05 6.998853162411806e-04 2.608366741476382e-04 1.389331373955922e-03
1.152718961530452e-01 -2.814124777488353e-04 5.231021534006855e-04 3.305488938428287e-04 -1.668346656553786e-04 7.022098733016047e-04
1.144812296758515e-01 -2.272768622080673e-04 7.470427761534226e-04 8.212676454691008e-04 -2.149725985032910e-04 2.590452384991518e-03
1.188177679013785e-01 -9.578835768530212e-05 -3.040949012600571e-07 6.878145167894039e-04 -2.342577890797616e-04 1.386128624743641e-03
1.133385647057759e-01 5.897164929294375e-05 2.325810582380257e-04 6.954427343897419e-04 1.370809786831704e-04 1.385938697929198e-03
1.222110366514943e-01 -2.570048441821390e-04 -5.357152734840193e-04 3.854838944444549e-04 -4.812092759821532e-04 7.319801473613829e-04
1.244094532639664e-01 -4.458096535719380e-04 -6.801711699765539e-04 2.069411319307641e-03 -6.766477383926093e-04 3.237083747297658e-03
1.206478093168532e-01 -4.327530591048680e-05 -1.819515008873268e-04 6.922398377897344e-04 -1.105020936152939e-04 1.389487935158565e-03
1.188177679013785e-01 -9.578835768530212e-05 -3.040949012600571e-07 6.878145167894039e-04 -2.342577890797616e-04 1.386128624743641e-03
1.194635899212147e-01 2.537775725886954e-04 -5.845966289539789e-04 8.405401918472791e-04 2.813461086826381e-04 2.616971359096108e-03
1.094605087926773e-01 5.283797797535628e-04 8.986875519374771e-04 2.104483721196623e-03 8.128957644721063e-04 3.226363924448188e-03
1.151628875809248e-01 1.115006546687734e-04 5.091769865095404e-05 6.998853162411806e-04 2.608366741476382e-04 1.389331373955922e-03
1.169776697748529e-01 1.967116852483186e-05 6.805263149052090e-05 1.057692557940112e-03 3.663792774439824e-05 2.115369714373095e-03
1.094605087926773e-01 5.283797797535628e-04 8.986875519374771e-04 2.104483721196623e-03 8.128957644721063e-04 3.226363924448188e-03
1.144812296758515e-01 -2.272768622080673e-04 7.470427761534226e-04 8.212676454691008e-04 -2.149725985032910e-04 2.590452384991518e-03
1.133385647057759e-01 5.897164929294375e-05 2.325810582380257e-04 6.954427343897419e-04 1.370809786831704e-04 1.385938697929198e-03
1.169776697748529e-01 1.967116852483186e-05 6.805263149052090e-05 1.057692557940112e-03 3.663792774439824e-05 2.115369714373095e-03
1.144812296758515e-01 -2.272768622080673e-04 7.470427761534226e-04 8.212676454691008e-04 -2.149725985032910e-04 2.590452384991518e-03
1.244094532639664e-01 -4.458096535719380e-04 -6.801711699765539e-04 2.069411319307641e-03 -6.766477383926093e-04 3.237083747297658e-03
1.188177679013785e-01 -9.578835768530212e-05 -3.040949012600571e-07 6.878145167894039e-04 -2.342577890797616e-04 1.386128624743641e-03
1.169776697748529e-01 1.967116852483186e-05 6.805263149052090e-05 1.057692557940112e-03 3.663792774439824e-05 2.115369714373095e-03
1.244094532639664e-01 -4.458096535719380e-04 -6.801711699765539e-04 2.069411319307641e-03 -6.766477383926093e-04 3.237083747297658e-03
1.194635899212147e-01 2.537775725886954e-04 -5.845966289539789e-04 8.405401918472791e-04 2.813461086826381e-04 2.616971359096108e-03
1.206478093168532e-01 -4.327530591048680e-05 -1.819515008873268e-04 6.922398377897344e-04 -1.105020936152939e-04 1.389487935158565e-03
1.169776697748529e-01 1.967116852483186e-05 6.805263149052090e-05 1.057692557940112e-03 3.663792774439824e-05 2.115369714373095e-03
1.170076588732376e-01 -4.953117800845133e-06 -1.360604602180840e-05 3.642282943011224e-04 -7.897484585524750e-06 7.284781958158581e-04
1.151628875809248e-01 1.115006546687734e-04 5.091769865095404e-05 6.998853162411806e-04 2.608366741476382e-04 1.389331373955922e-03
1.206478093168532e-01 -4.327530591048680e-05 -1.819515008873268e-04 6.922398377897344e-04 -1.105020936152939e-04 1.389487935158565e-03
1.187434942281991e-01 2.720180432149305e-04 -5.484168541921089e-04 3.306336123636070e-04 1.497296032004613e-04 7.054772176304580e-04
1.170076588732376e-01 -4.953117800845133e-06 -1.360604602180840e-05 3.642282943011224e-04 -7.897484585524750e-06 7.284781958158581e-04
1.133385647057759e-01 5.897164929294375e-05 2.325810582380257e-04 6.954427343897419e-04 1.370809786831704e-04 1.385938697929198e-03
1.151628875809248e-01 1.115006546687734e-04 5.091769865095404e-05 6.998853162411806e-04 2.608366741476382e-04 1.389331373955922e-03
1.117959060174800e-01 2.492883978115965e-04 5.120786458155599e-04 3.893659523924054e-04 4.684024307381266e-04 7.325103432398949e-04
1.170076588732376e-01 -4.953117800845133e-06 -1.360604602180840e-05 3.642282943011224e-04 -7.897484585524750e-06 7.284781958158581e-04
1.188177679013785e-01 -9.578835768530212e-05 -3.040949012600571e-07 6.878145167894039e-04 -2.342577890797616e-04 1.386128624743641e-03
1.133385647057759e-01 5.897164929294375e-05 2.325810582380257e-04 6.954427343897419e-04 1.370809786831704e-04 1.385938697929198e-03
1.152718961530452e-01 -2.814124777488353e-04 5.231021534006855e-04 3.305488938428287e-04 -1.668346656553786e-04 7.022098733016047e-04
1.170076588732376e-01 -4.953117800845133e-06 -1.360604602180840e-05 3.642282943011224e-04 -7.897484585524750e-06 7.284781958158581e-04
1.206478093168532e-01 -4.327530591048680e-05 -1.819515008873268e-04 6.922398377897344e-04 -1.105020936152939e-04 1.389487935158565e-03
1.188177679013785e-01 -9.578835768530212e-05 -3.040949012600571e-07 6.878145167894039e-04 -2.342577890797616e-04 1.386128624743641e-03
1.222110366514943e-01 -2.570048441821390e-04 -5.357152734840193e-04 3.854838944444549e-04 -4.812092759821532e-04 7.319801473613829e-04
1.169776697748529e-01 1.967116852483186e-05 6.805263149052090e-05 1.057692557940112e-03 3.663792774439824e-05 2.115369714373095e-03
1.206478093168532e-01 -4.327530591048680e-05 -1.819515008873268e-04 6.922398377897344e-04 -1.105020936152939e-04 1.389487935158565e-03
1.151628875809248e-01 1.115006546687734e-04 5.091769865095404e-05 6.998853162411806e-04 2.608366741476382e-04 1.389331373955922e-03
1.194635899212147e-01 2.537775725886954e-04 -5.845966289539789e-04 8.405401918472791e-04 2.813461086826381e-04 2.616971359096108e-03
1.169776697748529e-01 1.967116852483186e-05 6.805263149052090e-05 1.057692557940112e-03 3.663792774439824e-05 2.115369714373095e-03
1.151628875809248e-01 1.115006546687734e-04 5.091769865095404e-05 6.998853162411806e-04 2.608366741476382e-04 1.389331373955922e-03
1.133385647057759e-01 5.897164929294375e-05 2.325810582380257e-04 6.954427343897419e-04 1.370809786831704e-04 1.385938697929198e-03
1.094605087926773e-01 5.283797797535628e-04 8.986875519374771e-04 2.104483721196623e-03 8.128957644721063e-04 3.226363924448188e-03
1.169776697748529e-01 1.967116852483186e-05 6.805263149052090e-05 1.057692557940112e-03 3.663792774439824e-05 2.115369714373095e-03
1.133385647057759e-01 5.897164929294375e-05 2.325810582380257e-04 6.954427343897419e-04 1.370809786831704e-04 1.385938697929198e-03
1.188177679013785e-01 -9.578835768530212e-05 -3.040949012600571e-07 6.878145167894039e-04 -2.342577890797616e-04 1.386128624743641e-03
1.144812296758515e-01 -2.272768622080673e-04 7.470427761534226e-04 8.212676454691008e-04 -2.149725985032910e-04 2.590452384991518e-03
1.169776697748529e-01 1.967116852483186e-05 6.805263149052090e-05 1.057692557940112e-03 3.663792774439824e-05 2.115369714373095e-03
1.188177679013785e-01 -9.578835768530212e-05 -3.040949012600571e-07 6.878145167894039e-04 -2.342577890797616e-04 1.386128624743641e-03
1.206478093168532e-01 -4.327530591048680e-05 -1.819515008873268e-04 6.922398377897344e-04 -1.105020936152939e-04 1.389487935158565e-03
1.244094532639664e-01 -4.458096535719380e-04 -6.801711699765539e-04 2.069411319307641e-03 -6.766477383926093e-04 3.237083747297658e-03
1.170076588732376e-01 -4.953117800845133e-06 -1.360604602180840e-05 3.642282943011224e-04 -7.897484585524750e-06 7.284781958158581e-04
1.206478093168532e-01 -4.327530591048680e-05 -1.819515008873268e-04 6.922398377897344e-04 -1.105020936152939e-04 1.389487935158565e-03
1.151628875809248e-01 1.115006546687734e-04 5.091769865095404e-05 6.998853162411806e-04 2.608366741476382e-04 1.389331373955922e-03
1.170129642072327e-01 -5.528040147584345e-07 1.562807463828531e-06 5.685648148608374e-04 8.392568078276447e-08 1.137228369948509e-03
1.170076588732376e-01 -4.953117800845133e-06 -1.360604602180840e-05 3.642282943011224e-04 -7.897484585524750e-06 7.284781958158581e-04
1.151628875809248e-01 1.115006546687734e-04 5.091769865095404e-05 6.998853162411806e-04 2.608366741476382e-04 1.389331373955922e-03
1.133385647057759e-01 5.897164929294375e-05 2.325810582380257e-04 6.954427343897419e-04 1.370809786831704e-04 1.385938697929198e-03
1.170129642072327e-01 -5.528040147584345e-07 1.562807463828531e-06 5.685648148608374e-04 8.392568078276447e-08 1.137228369948509e-03
1.170076588732376e-01 -4.953117800845133e-06 -1.360604602180840e-05 3.642282943011224e-04 -7.897484585524750e-06 7.284781958158581e-04
1.133385647057759e-01 5.897164929294375e-05 2.325810582380257e-04 6.954427343897419e-04 1.370809786831704e-04 1.385938697929198e-03
1.188177679013785e-01 -9.578835768530212e-05 -3.040949012600571e-07 6.878145167894039e-04 -2.342577890797616e-04 1.386128624743641e-03
1.170129642072327e-01 -5.528040147584345e-07 1.562807463828531e-06 5.685648148608374e-04 8.392568078276447e-08 1.137228369948509e-03
1.170076588732376e-01 -4.953117800845133e-06 -1.360604602180840e-05 3.642282943011224e-04 -7.897484585524750e-06 7.284781958158581e-04
1.188177679013785e-01 -9.578835768530212e-05 -3.040949012600571e-07 6.878145167894039e-04 -2.342577890797616e-04 1.386128624743641e-03
1.206478093168532e-01 -4.327530591048680e-05 -1.819515008873268e-04 6.922398377897344e-04 -1.105020936152939e-04 1.389487935158565e-03
1.170129642072327e-01 -5.528040147584345e-07 1.562807463828531e-06 5.685648148608374e-04 8.392568078276447e-08 1.137228369948509e-03
1.169776697748529e-01 1.967116852483186e-05 6.805263149052090e-05 1.057692557940112e-03 3.663792774439824e-05 2.115369714373095e-03
1.151628875809248e-01 1.115006546687734e-04 5.091769865095404e-05 6.998853162411806e-04 2.608366741476382e-04 1.389331373955922e-03
1.206478093168532e-01 -4.327530591048680e-05 -1.819515008873268e-04 6.922398377897344e-04 -1.105020936152939e-04 1.389487935158565e-03
1.170129642072327e-01 -5.528040147584345e-07 1.562807463828531e-06 5.685648148608374e-04 8.392568078276447e-08 1.137228369948509e-03
1.169776697748529e-01 1.967116852483186e-05 6.805263149052090e-05 1.057692557940112e-03 3.663792774439824e-05 2.115369714373095e-03
1.133385647057759e-01 5.897164929294375e-05 2.325810582380257e-04 6.954427343897419e-04 1.370809786831704e-04 1.385938697929198e-03
1.151628875809248e-01 1.115006546687734e-04 5.091769865095404e-05 6.998853162411806e-04 2.608366741476382e-04 1.389331373955922e-03
1.170129642072327e-01 -5.528040147584345e-07 1.562807463828531e-06 5.685648148608374e-04 8.392568078276447e-08 1.137228369948509e-03
1.169776697748529e-01 1.967116852483186e-05 6.805263149052090e-05 1.057692557940112e-03 3.663792774439824e-05 2.115369714373095e-03
1.188177679013785e-01 -9.578835768530212e-05 -3.040949012600571e-07 6.878145167894039e-04 -2.342577890797616e-04 1.386128624743641e-03
1.133385647057759e-01 5.897164929294375e-05 2.325810582380257e-04 6.954427343897419e-04 1.370809786831704e-04 1.385938697929198e-03
1.170129642072327e-01 -5.528040147584345e-07 1.562807463828531e-06 5.685648148608374e-04 8.392568078276447e-08 1.137228369948509e-03
1.169776697748529e-01 1.967116852483186e-05 6.805263149052090e-05 1.057692557940112e-03 3.663792774439824e-05 2.115369714373095e-03
1.206478093168532e-01 -4.327530591048680e-05 -1.819515008873268e-04 6.922398377897344e-04 -1.105020936152939e-04 1.389487935158565e-03
1.188177679013785e-01 -9.578835768530212e-05 -3.040949012600571e-07 6.878145167894039e-04 -2.342577890797616e-04 1.386128624743641e-03
1.170129642072327e-01 -5.528040147584345e-07 1.562807463828531e-06 5.685648148608374e-04 8.392568078276447e-08 1.137228369948509e-03
        </DataArray>
        <DataArray type="Float64" Name="nodal_cauchy_stresses_xyz" NumberOfComponents="6" format="ascii">
1.315802889056690e+01 1.541887414336358e-02 -3.018083063366728e-02 -1.120642688388475e-02 9.080715954273798e-03 -5.409079901921226e-02
1.252598513488305e+01 1.419895216294596e-02 2.926053303275702e-02 -5.163059769031193e-02 2.771644801568108e-02 -7.239900010400091e-02
1.299954227803499e+01 -1.514077146344646e-04 -3.421636387829319e-04 -1.371123310772056e-02 -2.031422990779813e-04 -2.742350634374890e-02
1.286935236728660e+01 3.383665905179959e-03 -1.638902869645148e-03 -1.890237900905611e-04 9.142720577209339e-03 -6.862173743140063e-04
1.252598513488305e+01 1.419895216294596e-02 2.926053303275702e-02 -5.163059769031193e-02 2.771644801568108e-02 -7.239900010400091e-02
1.284112519926329e+01 -1.554826925679509e-02 2.985419581943781e-02 -1.091503321177655e-02 -9.421589194593008e-03 -5.288069073135267e-02
1.299954227803499e+01 -1.514077146344646e-04 -3.421636387829319e-04 -1.371123310772056e-02 -2.031422990779813e-04 -2.742350634374890e-02
1.273881656623448e+01 -1.632793115648877e-03 6.496948802139377e-03 -1.827467545401128e-05 4.278451924395129e-03 -1.173107014041976e-04
1.284112519926329e+01 -1.554826925679509e-02 2.985419581943781e-02 -1.091503321177655e-02 -9.421589194593008e-03 -5.288069073135267e-02
1.347669413290329e+01 -1.423091082716140e-02 -2.948971393627836e-02 -5.413389304554134e-02 -2.776917604587741e-02 -7.640380328907341e-02
1.299954227803499e+01 -1.514077146344646e-04 -3.421636387829319e-04 -1.371123310772056e-02 -2.031422990779813e-04 -2.742350634374890e-02
1.313104501451259e+01 -4.112735621400895e-03 -3.634936740224146e-04 -1.149880385502461e-03 -1.030328391217146e-02 -1.990372360840480e-03
1.347669413290329e+01 -1.423091082716140e-02 -2.948971393627836e-02 -5.413389304554134e-02 -2.776917604587741e-02 -7.640380328907341e-02
1.315802889056690e+01 1.541887414336358e-02 -3.018083063366728e-02 -1.120642688388475e-02 9.080715954273798e-03 -5.409079901921226e-02
1.299954227803499e+01 -1.514077146344646e-04 -3.421636387829319e-04 -1.371123310772056e-02 -2.031422990779813e-04 -2.742350634374890e-02
1.326220387375835e+01 8.987645405369635e-04 -8.491032129629279e-03 -1.322442298723749e-03 -5.439006481071089e-03 -2.562804157306068e-03
1.315802889056690e+01 1.541887414336358e-02 -3.018083063366728e-02 -1.120642688388475e-02 9.080715954273798e-03 -5.409079901921226e-02
1.321491017751981e+01 2.440444046004665e-02 -4.918969525036562e-02 -1.191457948526497e-02 1.344904085691604e-02 -2.054852439362070e-02
1.286935236728660e+01 3.383665905179959e-03 -1.638902869645148e-03 -1.890237900905611e-04 9.142720577209339e-03 -6.862173743140063e-04
1.326220387375835e+01 8.987645405369635e-04 -8.491032129629279e-03 -1.322442298723749e-03 -5.439006481071089e-03 -2.562804157306068e-03
1.252598513488305e+01 1.419895216294596e-02 2.926053303275702e-02 -5.163059769031193e-02 2.771644801568108e-02 -7.239900010400091e-02
1.235910644827205e+01 2.268348636856910e-02 4.656479206858411e-02 -2.838857927762461e-03 4.255124117208272e-02 -1.044482730535189e-02
1.273881656623448e+01 -1.632793115648877e-03 6.496948802139377e-03 -1.827467545401128e-05 4.278451924395129e-03 -1.173107014041976e-04
1.286935236728660e+01 3.383665905179959e-03 -1.638902869645148e-03 -1.890237900905611e-04 9.142720577209339e-03 -6.862173743140063e-04
1.284112519926329e+01 -1.554826925679509e-02 2.985419581943781e-02 -1.091503321177655e-02 -9.421589194593008e-03 -5.288069073135267e-02
1.278598846031248e+01 -2.542110988157908e-02 4.724453087118605e-02 -1.078350852152684e-02 -1.506014465566558e-02 -1.686737755457882e-02
1.313104501451259e+01 -4.112735621400895e-03 -3.634936740224146e-04 -1.149880385502461e-03 -1.030328391217146e-02 -1.990372360840480e-03
1.273881656623448e+01 -1.632793115648877e-03 6.496948802139377e-03 -1.827467545401128e-05 4.278451924395129e-03 -1.173107014041976e-04
1.347669413290329e+01 -1.423091082716140e-02 -2.948971393627836e-02 -5.413389304554134e-02 -2.776917604587741e-02 -7.640380328907341e-02
1.364582184749057e+01 -2.287288002370191e-02 -4.768287344674330e-02 -9.221537255922358e-03 -4.289493955912829e-02 -2.163956033295727e-02
1.326220387375835e+01 8.987645405369635e-04 -8.491032129629279e-03 -1.322442298723749e-03 -5.439006481071089e-03 -2.562804157306068e-03
1.313104501451259e+01 -4.112735621400895e-03 -3.634936740224146e-04 -1.149880385502461e-03 -1.030328391217146e-02 -1.990372360840480e-03
1.321491017751981e+01 2.440444046004665e-02 -4.918969525036562e-02 -1.191457948526497e-02 1.344904085691604e-02 -2.054852439362070e-02
1.235910644827205e+01 2.268348636856910e-02 4.656479206858411e-02 -2.838857927762461e-03 4.255124117208272e-02 -1.044482730535189e-02
1.286935236728660e+01 3.383665905179959e-03 -1.638902869645148e-03 -1.890237900905611e-04 9.142720577209339e-03 -6.862173743140063e-04
1.300039753045876e+01 -5.208172386402057e-04 -1.512359998620292e-03 -7.625410759579256e-03 -8.500556116376086e-04 -1.524593642691725e-02
1.235910644827205e+01 2.268348636856910e-02 4.656479206858411e-02 -2.838857927762461e-03 4.255124117208272e-02 -1.044482730535189e-02
1.278598846031248e+01 -2.542110988157908e-02 4.724453087118605e-02 -1.078350852152684e-02 -1.506014465566558e-02 -1.686737755457882e-02
1.273881656623448e+01 -1.632793115648877e-03 6.496948802139377e-03 -1.827467545401128e-05 4.278451924395129e-03 -1.173107014041976e-04
1.300039753045876e+01 -5.208172386402057e-04 -1.512359998620292e-03 -7.625410759579256e-03 -8.500556116376086e-04 -1.524593642691725e-02
1.278598846031248e+01 -2.542110988157908e-02 4.724453087118605e-02 -1.078350852152684e-02 -1.506014465566558e-02 -1.686737755457882e-02
1.364582184749057e+01 -2.287288002370191e-02 -4.768287344674330e-02 -9.221537255922358e-03 -4.289493955912829e-02 -2.163956033295727e-02
1.313104501451259e+01 -4.112735621400895e-03 -3.634936740224146e-04 -1.149880385502461e-03 -1.030328391217146e-02 -1.990372360840480e-03
1.300039753045876e+01 -5.208172386402057e-04 -1.512359998620292e-03 -7.625410759579256e-03 -8.500556116376086e-04 -1.524593642691725e-02
1.364582184749057e+01 -2.287288002370191e-02 -4.768287344674330e-02 -9.221537255922358e-03 -4.289493955912829e-02 -2.163956033295727e-02
1.321491017751981e+01 2.440444046004665e-02 -4.918969525036562e-02 -1.191457948526497e-02 1.344904085691604e-02 -2.054852439362070e-02
1.326220387375835e+01 8.987645405369635e-04 -8.491032129629279e-03 -1.322442298723749e-03 -5.439006481071089e-03 -2.562804157306068e-03
1.300039753045876e+01 -5.208172386402057e-04 -1.512359998620292e-03 -7.625410759579256e-03 -8.500556116376086e-04 -1.524593642691725e-02
1.299954227803499e+01 -1.514077146344646e-04 -3.421636387829319e-04 -1.371123310772056e-02 -2.031422990779813e-04 -2.742350634374890e-02
1.286935236728660e+01 3.383665905179959e-03 -1.638902869645148e-03 -1.890237900905611e-04 9.142720577209339e-03 -6.862173743140063e-04
1.326220387375835e+01 8.987645405369635e-04 -8.491032129629279e-03 -1.322442298723749e-03 -5.439006481071089e-03 -2.562804157306068e-03
1.315802889056690e+01 1.541887414336358e-02 -3.018083063366728e-02 -1.120642688388475e-02 9.080715954273798e-03 -5.409079901921226e-02
1.299954227803499e+01 -1.514077146344646e-04 -3.421636387829319e-04 -1.371123310772056e-02 -2.031422990779813e-04 -2.742350634374890e-02
1.273881656623448e+01 -1.632793115648877e-03 6.496948802139377e-03 -1.827467545401128e-05 4.278451924395129e-03 -1.173107014041976e-04
1.286935236728660e+01 3.383665905179959e-03 -1.638902869645148e-03 -1.890237900905611e-04 9.142720577209339e-03 -6.862173743140063e-04
1.252598513488305e+01 1.419895216294596e-02 2.926053303275702e-02 -5.163059769031193e-02 2.771644801568108e-02 -7.239900010400091e-02
1.299954227803499e+01 -1.514077146344646e-04 -3.421636387829319e-04 -1.371123310772056e-02 -2.031422990779813e-04 -2.742350634374890e-02
1.313104501451259e+01 -4.112735621400895e-03 -3.634936740224146e-04 -1.149880385502461e-03 -1.030328391217146e-02 -1.990372360840480e-03
1.273881656623448e+01 -1.632793115648877e-03 6.496948802139377e-03 -1.827467545401128e-05 4.278451924395129e-03 -1.173107014041976e-04
1.284112519926329e+01 -1.554826925679509e-02 2.985419581943781e-02 -1.091503321177655e-02 -9.421589194593008e-03 -5.288069073135267e-02
1.299954227803499e+01 -1.514077146344646e-04 -3.421636387829319e-04 -1.371123310772056e-02 -2.031422990779813e-04 -2.742350634374890e-02
1.326220387375835e+01 8.987645405369635e-04 -8.491032129629279e-03 -1.322442298723749e-03 -5.439006481071089e-03 -2.562804157306068e-03
1.313104501451259e+01 -4.112735621400895e-03 -3.634936740224146e-04 -1.149880385502461e-03 -1.030328391217146e-02 -1.990372360840480e-03
1.347669413290329e+01 -1.423091082716140e-02 -2.948971393627836e-02 -5.413389304554134e-02 -2.776917604587741e-02 -7.640380328907341e-02
1.300039753045876e+01 -5.208172386402057e-04 -1.512359998620292e-03 -7.625410759579256e-03 -8.500556116376086e-04 -1.524593642691725e-02
1.326220387375835e+01 8.987645405369635e-04 -8.491032129629279e-03 -1.322442298723749e-03 -5.439006481071089e-03 -2.562804157306068e-03
1.286935236728660e+01 3.383665905179959e-03 -1.638902869645148e-03 -1.890237900905611e-04 9.142720577209339e-03 -6.862173743140063e-04
1.321491017751981e+01 2.440444046004665e-02 -4.918969525036562e-02 -1.191457948526497e-02 1.344904085691604e-02 -2.054852439362070e-02
1.300039753045876e+01 -5.208172386402057e-04 -1.512359998620292e-03 -7.625410759579256e-03 -8.500556116376086e-04 -1.524593642691725e-02
1.286935236728660e+01 3.383665905179959e-03 -1.638902869645148e-03 -1.890237900905611e-04 9.142720577209339e-03 -6.862173743140063e-04
1.273881656623448e+01 -1.632793115648877e-03 6.496948802139377e-03 -1.827467545401128e-05 4.278451924395129e-03 -1.173107014041976e-04
1.235910644827205e+01 2.268348636856910e-02 4.656479206858411e-02 -2.838857927762461e-03 4.255124117208272e-02 -1.044482730535189e-02
1.300039753045876e+01 -5.208172386402057e-04 -1.512359998620292e-03 -7.625410759579256e-03 -8.500556116376086e-04 -1.524593642691725e-02
1.273881656623448e+01 -1.632793115648877e-03 6.496948802139377e-03 -1.827467545401128e-05 4.278451924395129e-03 -1.173107014041976e-04
1.313104501451259e+01 -4.112735621400895e-03 -3.634936740224146e-04 -1.149880385502461e-03 -1.030328391217146e-02 -1.990372360840480e-03
1.278598846031248e+01 -2.542110988157908e-02 4.724453087118605e-02 -1.078350852152684e-02 -1.506014465566558e-02 -1.686737755457882e-02
1.300039753045876e+01 -5.208172386402057e-04 -1.512359998620292e-03 -7.625410759579256e-03 -8.500556116376086e-04 -1.524593642691725e-02
1.313104501451259e+01 -4.112735621400895e-03 -3.634936740224146e-04 -1.149880385502461e-03 -1.030328391217146e-02 -1.990372360840480e-03
1.326220387375835e+01 8.987645405369635e-04 -8.491032129629279e-03 -1.322442298723749e-03 -5.439006481071089e-03 -2.562804157306068e-03
1.364582184749057e+01 -2.287288002370191e-02 -4.768287344674330e-02 -9.221537255922358e-03 -4.289493955912829e-02 -2.163956033295727e-02
1.299954227803499e+01 -1.514077146344646e-04 -3.421636387829319e-04 -1.371123310772056e-02 -2.031422990779813e-04 -2.742350634374890e-02
1.326220387375835e+01 8.987645405369635e-04 -8.491032129629279e-03 -1.322442298723749e-03 -5.439006481071089e-03 -2.562804157306068e-03
1.286935236728660e+01 3.383665905179959e-03 -1.638902869645148e-03 -1.890237900905611e-04 9.142720577209339e-03 -6.862173743140063e-04
1.299870045381491e+01 -3.840735319587084e-04 -6.491746396819712e-04 -2.664988988405834e-03 -4.344001783200073e-04 -5.330163344627133e-03
1.299954227803499e+01 -1.514077146344646e-04 -3.421636387829319e-04 -1.371123310772056e-02 -2.031422990779813e-04 -2.742350634374890e-02
1.286935236728660e+01 3.383665905179959e-03 -1.638902869645148e-03 -1.890237900905611e-04 9.142720577209339e-03 -6.862173743140063e-04
1.273881656623448e+01 -1.632793115648877e-03 6.496948802139377e-03 -1.827467545401128e-05 4.278451924395129e-03 -1.173107014041976e-04
1.299870045381491e+01 -3.840735319587084e-04 -6.491746396819712e-04 -2.664988988405834e-03 -4.344001783200073e-04 -5.330163344627133e-03
1.299954227803499e+01 -1.514077146344646e-04 -3.421636387829319e-04 -1.371123310772056e-02 -2.031422990779813e-04 -2.742350634374890e-02
1.273881656623448e+01 -1.632793115648877e-03 6.496948802139377e-03 -1.827467545401128e-05 4.278451924395129e-03 -1.173107014041976e-04
1.313104501451259e+01 -4.112735621400895e-03 -3.634936740224146e-04 -1.149880385502461e-03 -1.030328391217146e-02 -1.990372360840480e-03
1.299870045381491e+01 -3.840735319587084e-04 -6.491746396819712e-04 -2.664988988405834e-03 -4.344001783200073e-04 -5.330163344627133e-03
1.299954227803499e+01 -1.514077146344646e-04 -3.421636387829319e-04 -1.371123310772056e-02 -2.031422990779813e-04 -2.742350634374890e-02
1.313104501451259e+01 -4.112735621400895e-03 -3.634936740224146e-04 -1.149880385502461e-03 -1.030328391217146e-02 -1.990372360840480e-03
1.326220387375835e+01 8.987645405369635e-04 -8.491032129629279e-03 -1.322442298723749e-03 -5.439006481071089e-03 -2.562804157306068e-03
1.299870045381491e+01 -3.840735319587084e-04 -6.491746396819712e-04 -2.664988988405834e-03 -4.344001783200073e-04 -5.330163344627133e-03
1.300039753045876e+01 -5.208172386402057e-04 -1.512359998620292e-03 -7.625410759579256e-03 -8.500556116376086e-04 -1.524593642691725e-02
1.286935236728660e+01 3.383665905179959e-03 -1.638902869645148e-03 -1.890237900905611e-04 9.142720577209339e-03 -6.862173743140063e-04
1.326220387375835e+01 8.987645405369635e-04 -8.491032129629279e-03 -1.322442298723749e-03 -5.439006481071089e-03 -2.562804157306068e-03
1.299870045381491e+01 -3.840735319587084e-04 -6.491746396819712e-04 -2.664988988405834e-03 -4.344001783200073e-04 -5.330163344627133e-03
1.300039753045876e+01 -5.208172386402057e-04 -1.512359998620292e-03 -7.625410759579256e-03 -8.500556116376086e-04 -1.524593642691725e-02
1.273881656623448e+01 -1.632793115648877e-03 6.496948802139377e-03 -1.827467545401128e-05 4.278451924395129e-03 -1.173107014041976e-04
1.286935236728660e+01 3.383665905179959e-03 -1.638902869645148e-03 -1.890237900905611e-04 9.142720577209339e-03 -6.862173743140063e-04
1.299870045381491e+01 -3.840735319587084e-04 -6.491746396819712e-04 -2.664988988405834e-03 -4.344001783200073e-04 -5.330163344627133e-03
1.300039753045876e+01 -5.208172386402057e-04 -1.512359998620292e-03 -7.625410759579256e-03 -8.500556116376086e-04 -1.524593642691725e-02
1.313104501451259e+01 -4.112735621400895e-03 -3.634936740224146e-04 -1.149880385502461e-03 -1.030328391217146e-02 -1.990372360840480e-03
1.273881656623448e+01 -1.632793115648877e-03 6.496948802139377e-03 -1.827467545401128e-05 4.278451924395129e-03 -1.173107014041976e-04
1.299870045381491e+01 -3.840735319587084e-04 -6.491746396819712e-04 -2.664988988405834e-03 -4.344001783200073e-04 -5.330163344627133e-03
1.300039753045876e+01 -5.208172386402057e-04 -1.512359998620292e-03 -7.625410759579256e-03 -8.500556116376086e-04 -1.524593642691725e-02
1.326220387375835e+01 8.987645405369635e-04 -8.491032129629279e-03 -1.322442298723749e-03 -5.439006481071089e-03 -2.562804157306068e-03
1.313104501451259e+01 -4.112735621400895e-03 -3.634936740224146e-04 -1.149880385502461e-03 -1.030328391217146e-02 -1.990372360840480e-03
1.299870045381491e+01 -3.840735319587084e-04 -6.491746396819712e-04 -2.664988988405834e-03 -4.344001783200073e-04 -5.330163344627133e-03
1.321491017751981e+01 2.440444046004665e-02 -4.918969525036562e-02 -1.191457948526497e-02 1.344904085691604e-02 -2.054852439362070e-02
1.235910644827205e+01 2.268348636856910e-02 4.656479206858411e-02 -2.838857927762461e-03 4.255124117208272e-02 -1.044482730535189e-02
1.300039753045876e+01 -5.208172386402057e-04 -1.512359998620292e-03 -7.625410759579256e-03 -8.500556116376086e-04 -1.524593642691725e-02
1.277793934498662e+01 9.743886442837581e-03 3.381396892278046e-03 -1.808340371482356e-03 2.290439301772709e-02 -5.301714873352084e-03
1.235910644827205e+01 2.268348636856910e-02 4.656479206858411e-02 -2.838857927762461e-03 4.255124117208272e-02 -1.044482730535189e-02
1.278598846031248e+01 -2.542110988157908e-02 4.724453087118605e-02 -1.078350852152684e-02 -1.506014465566558e-02 -1.686737755457882e-02
1.300039753045876e+01 -5.208172386402057e-04 -1.512359998620292e-03 -7.625410759579256e-03 -8.500556116376086e-04 -1.524593642691725e-02
1.255502267607217e+01 5.019646583371992e-03 1.973750061058063e-02 -1.238100582149231e-03 1.175988095090768e-02 -3.059536928795003e-03
1.278598846031248e+01 -2.542110988157908e-02 4.724453087118605e-02 -1.078350852152684e-02 -1.506014465566558e-02 -1.686737755457882e-02
1.364582184749057e+01 -2.287288002370191e-02 -4.768287344674330e-02 -9.221537255922358e-03 -4.289493955912829e-02 -2.163956033295727e-02
1.300039753045876e+01 -5.208172386402057e-04 -1.512359998620292e-03 -7.625410759579256e-03 -8.500556116376086e-04 -1.524593642691725e-02
1.322554127029307e+01 -8.891585074922896e-03 -1.177887611539908e-03 -6.321803347980728e-03 -2.162633796623537e-02 -1.096303694763758e-02
1.364582184749057e+01 -2.287288002370191e-02 -4.768287344674330e-02 -9.221537255922358e-03 -4.289493955912829e-02 -2.163956033295727e-02
1.321491017751981e+01 2.440444046004665e-02 -4.918969525036562e-02 -1.191457948526497e-02 1.344904085691604e-02 -2.054852439362070e-02
1.300039753045876e+01 -5.208172386402057e-04 -1.512359998620292e-03 -7.625410759579256e-03 -8.500556116376086e-04 -1.524593642691725e-02
1.345037237807494e+01 -4.159890951708901e-03 -1.749468772433291e-02 -6.899639689533490e-03 -1.048174025460763e-02 -1.321927022087103e-02
1.321491017751981e+01 2.440444046004665e-02 -4.918969525036562e-02 -1.191457948526497e-02 1.344904085691604e-02 -2.054852439362070e-02
1.331311481351301e+01 2.229897119524253e-02 -5.682512276490145e-02 -1.049221547570076e-03 2.371062208391825e-02 8.840715231758649e-02
1.277793934498662e+01 9.743886442837581e-03 3.381396892278046e-03 -1.808340371482356e-03 2.290439301772709e-02 -5.301714873352084e-03
1.345037237807494e+01 -4.159890951708901e-03 -1.749468772433291e-02 -6.899639689533490e-03 -1.048174025460763e-02 -1.321927022087103e-02
1.235910644827205e+01 2.268348636856910e-02 4.656479206858411e-02 -2.838857927762461e-03 4.255124117208272e-02 -1.044482730535189e-02
1.208368230369238e+01 4.574451964193663e-02 7.535497715948064e-02 1.319494679905296e-01 6.998053716271892e-02 1.655961053034880e-01
1.255502267607217e+01 5.019646583371992e-03 1.973750061058063e-02 -1.238100582149231e-03 1.175988095090768e-02 -3.059536928795003e-03
1.277793934498662e+01 9.743886442837581e-03 3.381396892278046e-03 -1.808340371482356e-03 2.290439301772709e-02 -5.301714873352084e-03
1.278598846031248e+01 -2.542110988157908e-02 4.724453087118605e-02 -1.078350852152684e-02 -1.506014465566558e-02 -1.686737755457882e-02
1.269615248098128e+01 -2.099442612328357e-02 6.302525220881340e-02 -4.134478643342265e-04 -2.096265354728455e-02 9.454349234413315e-02
1.322554127029307e+01 -8.891585074922896e-03 -1.177887611539908e-03 -6.321803347980728e-03 -2.162633796623537e-02 -1.096303694763758e-02
1.255502267607217e+01 5.019646583371992e-03 1.973750061058063e-02 -1.238100582149231e-03 1.175988095090768e-02 -3.059536928795003e-03
1.364582184749057e+01 -2.287288002370191e-02 -4.768287344674330e-02 -9.221537255922358e-03 -4.289493955912829e-02 -2.163956033295727e-02
1.393387383295426e+01 -4.185611733566943e-02 -6.657227708435645e-02 1.145819188230182e-01 -6.396166217469040e-02 1.414574776274952e-01
1.345037237807494e+01 -4.159890951708901e-03 -1.749468772433291e-02 -6.899639689533490e-03 -1.048174025460763e-02 -1.321927022087103e-02
1.322554127029307e+01 -8.891585074922896e-03 -1.177887611539908e-03 -6.321803347980728e-03 -2.162633796623537e-02 -1.096303694763758e-02
1.331311481351301e+01 2.229897119524253e-02 -5.682512276490145e-02 -1.049221547570076e-03 2.371062208391825e-02 8.840715231758649e-02
1.208368230369238e+01 4.574451964193663e-02 7.535497715948064e-02 1.319494679905296e-01 6.998053716271892e-02 1.655961053034880e-01
1.277793934498662e+01 9.743886442837581e-03 3.381396892278046e-03 -1.808340371482356e-03 2.290439301772709e-02 -5.301714873352084e-03
1.300344269020187e+01 9.605257895524211e-04 2.779346576185955e-03 1.949237060924437e-02 1.645617049890756e-03 3.897104804235210e-02
1.208368230369238e+01 4.574451964193663e-02 7.535497715948064e-02 1.319494679905296e-01 6.998053716271892e-02 1.655961053034880e-01
1.269615248098128e+01 -2.099442612328357e-02 6.302525220881340e-02 -4.134478643342265e-04 -2.096265354728455e-02 9.454349234413315e-02
1.255502267607217e+01 5.019646583371992e-03 1.973750061058063e-02 -1.238100582149231e-03 1.175988095090768e-02 -3.059536928795003e-03
1.300344269020187e+01 9.605257895524211e-04 2.779346576185955e-03 1.949237060924437e-02 1.645617049890756e-03 3.897104804235210e-02
1.269615248098128e+01 -2.099442612328357e-02 6.302525220881340e-02 -4.134478643342265e-04 -2.096265354728455e-02 9.454349234413315e-02
1.393387383295426e+01 -4.185611733566943e-02 -6.657227708435645e-02 1.145819188230182e-01 -6.396166217469040e-02 1.414574776274952e-01
1.322554127029307e+01 -8.891585074922896e-03 -1.177887611539908e-03 -6.321803347980728e-03 -2.162633796623537e-02 -1.096303694763758e-02
1.300344269020187e+01 9.605257895524211e-04 2.779346576185955e-03 1.949237060924437e-02 1.645617049890756e-03 3.897104804235210e-02
1.393387383295426e+01 -4.185611733566943e-02 -6.657227708435645e-02 1.145819188230182e-01 -6.396166217469040e-02 1.414574776274952e-01
1.331311481351301e+01 2.229897119524253e-02 -5.682512276490145e-02 -1.049221547570076e-03 2.371062208391825e-02 8.840715231758649e-02
1.345037237807494e+01 -4.159890951708901e-03 -1.749468772433291e-02 -6.899639689533490e-03 -1.048174025460763e-02 -1.321927022087103e-02
1.300344269020187e+01 9.605257895524211e-04 2.779346576185955e-03 1.949237060924437e-02 1.645617049890756e-03 3.897104804235210e-02
1.300039753045876e+01 -5.208172386402057e-04 -1.512359998620292e-03 -7.625410759579256e-03 -8.500556116376086e-04 -1.524593642691725e-02
1.277793934498662e+01 9.743886442837581e-03 3.381396892278046e-03 -1.808340371482356e-03 2.290439301772709e-02 -5.301714873352084e-03
1.345037237807494e+01 -4.159890951708901e-03 -1.749468772433291e-02 -6.899639689533490e-03 -1.048174025460763e-02 -1.321927022087103e-02
1.321491017751981e+01 2.440444046004665e-02 -4.918969525036562e-02 -1.191457948526497e-02 1.344904085691604e-02 -2.054852439362070e-02
1.300039753045876e+01 -5.208172386402057e-04 -1.512359998620292e-03 -7.625410759579256e-03 -8.500556116376086e-04 -1.524593642691725e-02
1.255502267607217e+01 5.019646583371992e-03 1.973750061058063e-02 -1.238100582149231e-03 1.175988095090768e-02 -3.059536928795003e-03
1.277793934498662e+01 9.743886442837581e-03 3.381396892278046e-03 -1.808340371482356e-03 2.290439301772709e-02 -5.301714873352084e-03
1.235910644827205e+01 2.268348636856910e-02 4.656479206858411e-02 -2.838857927762461e-03 4.255124117208272e-02 -1.044482730535189e-02
1.300039753045876e+01 -5.208172386402057e-04 -1.512359998620292e-03 -7.625410759579256e-03 -8.500556116376086e-04 -1.524593642691725e-02
1.322554127029307e+01 -8.891585074922896e-03 -1.177887611539908e-03 -6.321803347980728e-03 -2.162633796623537e-02 -1.096303694763758e-02
1.255502267607217e+01 5.019646583371992e-03 1.973750061058063e-02 -1.238100582149231e-03 1.175988095090768e-02 -3.059536928795003e-03
1.278598846031248e+01 -2.542110988157908e-02 4.724453087118605e-02 -1.078350852152684e-02 -1.506014465566558e-02 -1.686737755457882e-02
1.300039753045876e+01 -5.208172386402057e-04 -1.512359998620292e-03 -7.625410759579256e-03 -8.500556116376086e-04 -1.524593642691725e-02
1.345037237807494e+01 -4.159890951708901e-03 -1.749468772433291e-02 -6.899639689533490e-03 -1.048174025460763e-02 -1.321927022087103e-02
1.322554127029307e+01 -8.891585074922896e-03 -1.177887611539908e-03 -6.321803347980728e-03 -2.162633796623537e-02 -1.096303694763758e-02
1.364582184749057e+01 -2.287288002370191e-02 -4.768287344674330e-02 -9.221537255922358e-03 -4.289493955912829e-02 -2.163956033295727e-02
1.300344269020187e+01 9.605257895524211e-04 2.779346576185955e-03 1.949237060924437e-02 1.645617049890756e-03 3.897104804235210e-02
1.345037237807494e+01 -4.159890951708901e-03 -1.749468772433291e-02 -6.899639689533490e-03 -1.048174025460763e-02 -1.321927022087103e-02
1.277793934498662e+01 9.743886442837581e-03 3.381396892278046e-03 -1.808340371482356e-03 2.290439301772709e-02 -5.301714873352084e-03
1.331311481351301e+01 2.229897119524253e-02 -5.682512276490145e-02 -1.049221547570076e-03 2.371062208391825e-02 8.840715231758649e-02
1.300344269020187e+01 9.605257895524211e-04 2.779346576185955e-03 1.949237060924437e-02 1.645617049890756e-03 3.897104804235210e-02
1.277793934498662e+01 9.743886442837581e-03 3.381396892278046e-03 -1.808340371482356e-03 2.290439301772709e-02 -5.301714873352084e-03
1.255502267607217e+01 5.019646583371992e-03 1.973750061058063e-02 -1.238100582149231e-03 1.175988095090768e-02 -3.059536928795003e-03
1.208368230369238e+01 4.574451964193663e-02 7.535497715948064e-02 1.319494679905296e-01 6.998053716271892e-02 1.655961053034880e-01
1.300344269020187e+01 9.605257895524211e-04 2.779346576185955e-03 1.949237060924437e-02 1.645617049890756e-03 3.897104804235210e-02
1.255502267607217e+01 5.019646583371992e-03 1.973750061058063e-02 -1.238100582149231e-03 1.175988095090768e-02 -3.059536928795003e-03
1.322554127029307e+01 -8.891585074922896e-03 -1.177887611539908e-03 -6.321803347980728e-03 -2.162633796623537e-02 -1.096303694763758e-02
1.269615248098128e+01 -2.099442612328357e-02 6.302525220881340e-02 -4.134478643342265e-04 -2.096265354728455e-02 9.454349234413315e-02
1.300344269020187e+01 9.605257895524211e-04 2.779346576185955e-03 1.949237060924437e-02 1.645617049890756e-03 3.897104804235210e-02
1.322554127029307e+01 -8.891585074922896e-03 -1.177887611539908e-03 -6.321803347980728e-03 -2.162633796623537e-02 -1.096303694763758e-02
1.345037237807494e+01 -4.159890951708901e-03 -1.749468772433291e-02 -6.899639689533490e-03 -1.048174025460763e-02 -1.321927022087103e-02
1.393387383295426e+01 -4.185611733566943e-02 -6.657227708435645e-02 1.145819188230182e-01 -6.396166217469040e-02 1.414574776274952e-01
1.300039753045876e+01 -5.208172386402057e-04 -1.512359998620292e-03 -7.625410759579256e-03 -8.500556116376086e-04 -1.524593642691725e-02
1.345037237807494e+01 -4.159890951708901e-03 -1.749468772433291e-02 -6.899639689533490e-03 -1.048174025460763e-02 -1.321927022087103e-02
1.277793934498662e+01 9.743886442837581e-03 3.381396892278046e-03 -1.808340371482356e-03 2.290439301772709e-02 -5.301714873352084e-03
1.300032905248300e+01 -1.930575289039614e-04 -4.328398844971933e-04 -1.633226659770681e-02 -2.827506191642494e-04 -3.264715378876012e-02
1.300039753045876e+01 -5.208172386402057e-04 -1.512359998620292e-03 -7.625410759579256e-03 -8.500556116376086e-04 -1.524593642691725e-02
1.277793934498662e+01 9.743886442837581e-03 3.381396892278046e-03 -1.808340371482356e-03 2.290439301772709e-02 -5.301714873352084e-03
1.255502267607217e+01 5.019646583371992e-03 1.973750061058063e-02 -1.238100582149231e-03 1.175988095090768e-02 -3.059536928795003e-03
1.300032905248300e+01 -1.930575289039614e-04 -4.328398844971933e-04 -1.633226659770681e-02 -2.827506191642494e-04 -3.264715378876012e-02
1.300039753045876e+01 -5.208172386402057e-04 -1.512359998620292e-03 -7.625410759579256e-03 -8.500556116376086e-04 -1.524593642691725e-02
1.255502267607217e+01 5.019646583371992e-03 1.973750061058063e-02 -1.238100582149231e-03 1.175988095090768e-02 -3.059536928795003e-03
1.322554127029307e+01 -8.891585074922896e-03 -1.177887611539908e-03 -6.321803347980728e-03 -2.162633796623537e-02 -1.096303694763758e-02
1.300032905248300e+01 -1.930575289039614e-04 -4.328398844971933e-04 -1.633226659770681e-02 -2.827506191642494e-04 -3.264715378876012e-02
1.300039753045876e+01 -5.208172386402057e-04 -1.512359998620292e-03 -7.625410759579256e-03 -8.500556116376086e-04 -1.524593642691725e-02
1.322554127029307e+01 -8.891585074922896e-03 -1.177887611539908e-03 -6.321803347980728e-03 -2.162633796623537e-02 -1.096303694763758e-02
1.345037237807494e+01 -4.159890951708901e-03 -1.749468772433291e-02 -6.899639689533490e-03 -1.048174025460763e-02 -1.321927022087103e-02
1.300032905248300e+01 -1.930575289039614e-04 -4.328398844971933e-04 -1.633226659770681e-02 -2.827506191642494e-04 -3.264715378876012e-02
1.300344269020187e+01 9.605257895524211e-04 2.779346576185955e-03 1.949237060924437e-02 1.645617049890756e-03 3.897104804235210e-02
1.277793934498662e+01 9.743886442837581e-03 3.381396892278046e-03 -1.808340371482356e-03 2.290439301772709e-02 -5.301714873352084e-03
1.345037237807494e+01 -4.159890951708901e-03 -1.749468772433291e-02 -6.899639689533490e-03 -1.048174025460763e-02 -1.321927022087103e-02
1.300032905248300e+01 -1.930575289039614e-04 -4.328398844971933e-04 -1.633226659770681e-02 -2.827506191642494e-04 -3.264715378876012e-02
1.300344269020187e+01 9.605257895524211e-04 2.779346576185955e-03 1.949237060924437e-02 1.645617049890756e-03 3.897104804235210e-02
1.255502267607217e+01 5.019646583371992e-03 1.973750061058063e-02 -1.238100582149231e-03 1.175988095090768e-02 -3.059536928795003e-03
1.277793934498662e+01 9.743886442837581e-03 3.381396892278046e-03 -1.808340371482356e-03 2.290439301772709e-02 -5.301714873352084e-03
1.300032905248300e+01 -1.930575289039614e-04 -4.328398844971933e-04 -1.633226659770681e-02 -2.827506191642494e-04 -3.264715378876012e-02
1.300344269020187e+01 9.605257895524211e-04 2.779346576185955e-03 1.949237060924437e-02 1.645617049890756e-03 3.897104804235210e-02
1.322554127029307e+01 -8.891585074922896e-03 -1.177887611539908e-03 -6.321803347980728e-03 -2.162633796623537e-02 -1.096303694763758e-02
1.255502267607217e+01 5.019646583371992e-03 1.973750061058063e-02 -1.238100582149231e-03 1.175988095090768e-02 -3.059536928795003e-03
1.300032905248300e+01 -1.930575289039614e-04 -4.328398844971933e-04 -1.633226659770681e-02 -2.827506191642494e-04 -3.264715378876012e-02
1.300344269020187e+01 9.605257895524211e-04 2.779346576185955e-03 1.949237060924437e-02 1.645617049890756e-03 3.897104804235210e-02
1.345037237807494e+01 -4.159890951708901e-03 -1.749468772433291e-02 -6.899639689533490e-03 -1.048174025460763e-02 -1.321927022087103e-02
1.322554127029307e+01 -8.891585074922896e-03 -1.177887611539908e-03 -6.321803347980728e-03 -2.162633796623537e-02 -1.096303694763758e-02
1.300032905248300e+01 -1.930575289039614e-04 -4.328398844971933e-04 -1.633226659770681e-02 -2.827506191642494e-04 -3.264715378876012e-02
        </DataArray>
  </PointData>
  <CellData>
        <DataArray type="Float64" Name="element_GL_strains_xyz" NumberOfComponents="6" format="ascii">
1.150132433182749e-01 0.000000000000000e+00 0.000000000000000e+00 -4.589019779833054e-04 0.000000000000000e+00 -1.007841828037441e-03
1.130225149179082e-01 0.000000000000000e+00 0.000000000000000e+00 -5.018480325965351e-04 0.000000000000000e+00 -9.167754976462718e-04
1.190104953561351e-01 0.000000000000000e+00 0.000000000000000e+00 -4.649838658579801e-04 0.000000000000000e+00 -1.016139180771836e-03
1.210170858392301e-01 0.000000000000000e+00 0.000000000000000e+00 -5.101452786942047e-04 0.000000000000000e+00 -9.310838565000336e-04
1.191553897264477e-01 7.325853594720710e-04 -1.434088625786756e-03 5.441009796090329e-05 3.835660781302434e-04 3.461870631554470e-04
1.105918185547998e-01 6.657272343657539e-04 1.371068965762778e-03 3.806365317747705e-04 1.151593785180490e-03 5.173360708188516e-04
1.148667380685666e-01 -7.314782433184286e-04 1.409921545343251e-03 5.452442107344980e-05 -3.944348641434670e-04 3.507786903407715e-04
1.234576564718293e-01 -6.859843373130392e-04 -1.416600867201967e-03 3.671478689489554e-04 -1.182330570945878e-03 4.991409434742895e-04
1.147216629603087e-01 9.749467022501790e-05 -5.071765736053280e-05 8.933611685476251e-04 6.500535240201456e-05 1.871364962011739e-03
1.124353445880520e-01 -6.505389154637387e-05 1.902120697717669e-04 9.370089854447551e-04 2.581476972150426e-05 1.785631575512933e-03
1.193016437295116e-01 -1.152854010929016e-04 5.576132890650065e-06 8.872536137440597e-04 -9.161895349231669e-05 1.866058814586897e-03
1.215953508693245e-01 4.721051188150138e-05 -2.353009454447719e-04 9.317032456040634e-04 -5.242837081180612e-05 1.775648604788045e-03
1.180115146916794e-01 -4.759341363774761e-05 8.040785861074262e-05 1.016437001899952e-03 1.640722248646299e-05 5.314977879699694e-04
1.140174707681477e-01 -4.253770466905449e-05 -9.065798044705087e-05 -9.780571053816295e-04 6.659784255811308e-05 -4.646265627501473e-04
1.160128619853936e-01 4.050731836646726e-05 -9.572053149758952e-05 1.013579160329461e-03 -2.760660656553300e-05 5.305377703476645e-04
1.200133799818923e-01 4.557202862642828e-05 8.546594006186847e-05 -9.892121930497899e-04 -6.551898434420283e-05 -4.719638978622372e-04
1.181562669002241e-01 3.625052858946543e-05 -4.505292958634222e-05 -7.933187305922426e-04 3.721564547138087e-05 1.512306281670284e-04
1.135791978833959e-01 -2.812153677339557e-05 -1.668028950863043e-05 1.527401810503201e-03 1.107947719752098e-04 1.317151107481228e-03
1.158662448994708e-01 -3.816501530801153e-05 1.971612156814739e-05 -7.918856083838508e-04 -4.598876626112546e-05 1.554293939053475e-04
1.204491951042587e-01 9.714382413705813e-06 -2.515000131880774e-05 1.523529192870902e-03 -1.387557781409268e-04 1.307646194318081e-03
1.170112954201813e-01 -2.405462405975500e-04 4.645708724348996e-04 4.198509526710282e-04 -7.919787094572639e-05 8.395259168068208e-04
1.170112954201813e-01 -2.405462405975500e-04 -4.799944272522727e-04 4.198509526710282e-04 -2.270746488087151e-04 8.376175398641117e-04
1.170112954201813e-01 2.317629771068086e-04 -4.799944272522727e-04 4.187346135655189e-04 6.890251194168899e-05 8.376175398641117e-04
1.170112954201813e-01 2.317629771068086e-04 4.645708724348996e-04 4.187346135655189e-04 2.171289560824329e-04 8.395259168068208e-04
1.170113078609050e-01 -2.405462405975500e-04 4.645708724348996e-04 -8.244082633925046e-05 -7.919787094572639e-05 -1.664369904818852e-04
1.170113078609050e-01 -2.405462405975500e-04 -4.799944272522727e-04 -8.244082633925046e-05 -2.270746488087151e-04 -1.672468124014640e-04
1.170113078609050e-01 2.317629771068086e-04 -4.799944272522727e-04 -8.439013145937942e-05 6.890251194168899e-05 -1.672468124014640e-04
1.170113078609050e-01 2.317629771068086e-04 4.645708724348996e-04 -8.439013145937942e-05 2.171289560824329e-04 -1.664369904818852e-04
1.139049823474312e-01 9.749467022501790e-05 -5.071765736053280e-05 -3.325449959646040e-04 6.500535240201456e-05 -8.070847576896424e-04
1.108005546007009e-01 -6.505389154637387e-05 1.902120697717669e-04 -4.045610079912288e-04 2.581476972150426e-05 -6.659419516077238e-04
1.201090474884955e-01 -1.152854010929016e-04 5.576132890650065e-06 -3.306354637468229e-04 -9.161895349231669e-05 -8.031005518149810e-04
1.232080514044355e-01 4.721051188150138e-05 -2.353009454447719e-04 -4.005766491768588e-04 -5.242837081180612e-05 -6.601413263732604e-04
1.206604898219429e-01 1.102820075149391e-03 -2.350847282921509e-03 3.453993604354718e-04 6.953996785198538e-04 1.420604166785737e-03
1.059822975597825e-01 1.346236721533334e-03 2.533268436626823e-03 1.298922205928067e-03 2.152580003083468e-03 1.862264589140958e-03
1.133515980804231e-01 -1.115537151467894e-03 2.392064378387793e-03 3.457191019092342e-04 -7.089299828874719e-04 1.382380029472585e-03
1.279101673370858e-01 -1.280891400411488e-03 -2.413987152859731e-03 1.286430361001778e-03 -2.060650703122176e-03 1.887677729604952e-03
1.127019396174498e-01 2.462543967733932e-04 2.690042279105409e-04 2.010289551226022e-03 4.134990673603473e-04 4.089953513616305e-03
1.085322296794156e-01 2.968648217013259e-04 5.583397665198664e-04 2.049202315828514e-03 2.435260855917581e-04 3.918902958722381e-03
1.211178069520803e-01 -1.734900680214757e-04 7.412069570444935e-06 1.929569067973265e-03 -2.671152077443196e-04 4.073158310892526e-03
1.253615632048143e-01 -2.242392873645915e-04 -2.817846746236974e-04 2.032406370614133e-03 -9.714222597573094e-05 3.959706446921210e-03
1.185457597954787e-01 1.507801829547795e-05 1.469121036834498e-05 1.946635402094498e-03 5.650146030179568e-05 1.546008400198570e-03
1.123513896453687e-01 -5.441679399020849e-05 -7.001677117896010e-05 -1.185297079103343e-03 1.506106414188076e-04 -2.063884974918499e-05
1.154439977691408e-01 -5.440826617797434e-06 -2.846122341854107e-05 1.946967108693033e-03 -5.371534440933953e-05 1.546442986017008e-03
1.216571808070135e-01 3.727238027650959e-05 2.946545861659544e-05 -1.180981013690438e-03 -1.798425070399997e-04 -1.708922969295961e-05
1.191303670406517e-01 -1.097248942034112e-04 2.524121381874966e-05 -1.025934514886510e-03 1.136279148260824e-04 9.976213090611792e-04
1.106255683140613e-01 2.241631790061982e-04 2.341377766926778e-04 3.059520811803888e-03 4.419779018528519e-04 3.034334636313110e-03
1.149232839914872e-01 8.305494895577414e-05 3.035489013558657e-05 -1.039419903834610e-03 -1.273712889731308e-04 9.873682408785816e-04
1.232482755618852e-01 -1.046178584901969e-04 -3.232492199323200e-05 3.029239477641390e-03 -2.816828167282107e-04 3.027792501771942e-03
1.170031776803681e-01 -3.824743791909779e-04 7.653572710978329e-04 9.765681457959102e-04 -1.200553713196407e-04 1.941966427389251e-03
1.170031776803681e-01 -3.824743791909779e-04 -7.622316561701759e-04 9.765681457959102e-04 -3.595255936771406e-04 1.959147725254832e-03
1.170031776803681e-01 3.813687711614611e-04 -7.622316561701759e-04 9.739723541898150e-04 1.197650730769393e-04 1.959147725254832e-03
1.170031776803681e-01 3.813687711614611e-04 7.653572710978329e-04 9.739723541898150e-04 3.601515946429730e-04 1.941966427389251e-03
1.170227507340974e-01 -3.824743791909779e-04 7.653572710978329e-04 1.642483808844283e-04 -1.200553713196407e-04 3.138711844234551e-04
1.170227507340974e-01 -3.824743791909779e-04 -7.622316561701759e-04 1.642483808844283e-04 -3.595255936771406e-04 3.339281427264989e-04
1.170227507340974e-01 3.813687711614611e-04 -7.622316561701759e-04 1.594703785731951e-04 1.197650730769393e-04 3.339281427264989e-04
1.170227507340974e-01 3.813687711614611e-04 7.653572710978329e-04 1.594703785731951e-04 3.601515946429730e-04 3.138711844234551e-04
        </DataArray>
        <DataArray type="Float64" Name="element_cauchy_stresses_xyz" NumberOfComponents="6" format="ascii">
1.275569764018746e+01 8.468831860632356e-05 4.084777532794526e-04 -5.644615876893685e-02 1.859927259688548e-04 -1.239672142826251e-01
1.251461240549874e+01 1.012642046609068e-04 3.379383655778362e-04 -6.152882860978647e-02 1.849893505438795e-04 -1.124008042364469e-01
1.324184167153004e+01 8.697747404218425e-05 4.153721916580736e-04 -5.756597862747179e-02 1.900737331084579e-04 -1.258001635280702e-01
1.348691668605001e+01 1.047114039457174e-04 3.488059082827032e-04 -6.336178686586337e-02 1.911124181230592e-04 -1.156437966471205e-01
1.326900187595320e+01 6.593376756738546e-02 -1.285686489910724e-01 -1.520677878283306e-02 3.467432505872582e-02 -7.054089275081353e-03
1.219683429759142e+01 6.026898503813725e-02 1.242755858805863e-01 2.021601773729579e-02 1.042565739241503e-01 1.520528998813036e-02
1.272948455512240e+01 -6.586420744012937e-02 1.274311728597489e-01 -1.472021083697017e-02 -3.537040121136963e-02 -3.906937610347272e-03
1.381543243274215e+01 -6.139162531438980e-02 -1.266052161030083e-01 1.501314249976667e-02 -1.058082145640207e-01 6.368640306259020e-03
1.272313850989087e+01 8.455146600206740e-03 -5.957562057608693e-03 6.074625815314093e-02 5.179218108594812e-03 1.318152443102753e-01
1.244535427168214e+01 -6.223926755737490e-03 1.583532940947129e-02 6.670647170484849e-02 1.646811513311059e-03 1.227350099702238e-01
1.328217753878559e+01 -1.069145744497394e-02 -8.714218718541113e-04 5.857451122237419e-02 -8.907989351333209e-03 1.285798217508581e-01
1.356344869548664e+01 3.893799788320418e-03 -2.242744907372512e-02 6.347102216689100e-02 -5.375512726205145e-03 1.158949776811123e-01
1.312049936007691e+01 -4.447670716483186e-03 7.088042794841144e-03 9.018901688209426e-02 1.271433614277455e-03 3.030190412797800e-02
1.263679619625459e+01 -3.659128909620637e-03 -7.979869868415481e-03 -1.087634211198202e-01 6.238236062061295e-03 -6.843327188506201e-02
1.287856216490197e+01 3.482888734245918e-03 -8.767700139233593e-03 9.015488522712223e-02 -2.691018650654740e-03 3.058514244945370e-02
1.336258574129097e+01 4.276293127756290e-03 7.882182257954057e-03 -1.106209491885969e-01 -5.649675770720416e-03 -7.053989328736190e-02
1.313758128940649e+01 3.671764813235904e-03 -3.932303207672673e-03 -1.081917556095416e-01 3.786549824071173e-03 -4.215397237960593e-02
1.258559816123135e+01 -3.133026927952594e-03 -2.405259320381505e-03 1.259051584900947e-01 9.176427104916309e-03 7.749301182955043e-02
1.285920352020665e+01 -3.030352607904403e-03 1.886154498776770e-03 -1.074085895757171e-01 -3.709900134774042e-03 -4.035931185205945e-02
1.342072999589893e+01 2.807093488563317e-04 -3.134368084152900e-03 1.233779140981293e-01 -1.327318906598713e-02 7.238802927287163e-02
1.299617911939325e+01 -2.171413452148959e-02 4.155994033657393e-02 2.834145107609190e-02 -7.263905343883780e-03 5.695425318502535e-02
1.300845838911325e+01 -2.172621818637742e-02 -4.347892181742583e-02 2.829555793964720e-02 -2.057455675495776e-02 5.640774110123375e-02
1.300231457655075e+01 2.080286299110294e-02 -4.346736067911643e-02 2.836265597659080e-02 6.068741244946637e-03 5.645385254150623e-02
1.299004338557201e+01 2.079057350399698e-02 4.154712923062895e-02 2.840875878628235e-02 1.941086978225129e-02 5.700017433650297e-02
1.299508167601103e+01 -2.155908691732819e-02 4.218123076584316e-02 -3.363947471227539e-02 -6.953540744093775e-03 -6.717232359606928e-02
1.300736189232944e+01 -2.157109529616053e-02 -4.285754670428912e-02 -3.371415676604444e-02 -2.026410665331864e-02 -6.763118161551754e-02
1.300121836433102e+01 2.095843776794890e-02 -4.284613685962663e-02 -3.372483627270889e-02 6.379627297886869e-03 -6.755626909751548e-02
1.298894622721855e+01 2.094607240263723e-02 4.216826860995621e-02 -3.364986793483023e-02 1.972166974460911e-02 -6.709755361218306e-02
1.261802981515668e+01 9.346997791145076e-03 -2.028905398407076e-03 -8.948870779379051e-02 7.050803837788948e-03 -1.965527579213935e-01
1.224225469739049e+01 -5.253752744656171e-03 1.937813484844149e-02 -9.670465996223136e-02 3.506621733269802e-03 -1.757655559875845e-01
1.337455401555390e+01 -9.791478333733186e-03 3.099271997814665e-03 -9.272090166233311e-02 -7.017889639299205e-03 -2.028853726303834e-01
1.375521083932436e+01 4.885966726019560e-03 -1.880363186196558e-02 -1.030369366796831e-01 -3.473855364886340e-03 -1.886434474459755e-01
1.346248074987636e+01 9.919064234094759e-02 -2.113978616469801e-01 -3.838992617355504e-02 6.260289987687430e-02 -1.206060583753690e-02
1.162848251185827e+01 1.215686524981185e-01 2.286590235734666e-01 6.554918985959994e-02 1.943659337210046e-01 5.755850825871831e-02
1.254084855201506e+01 -1.005166813175191e-01 2.155142476037422e-01 -3.640322845741777e-02 -6.383845643683819e-02 -8.794992910829691e-04
1.439266490465123e+01 -1.148848043010303e-01 -2.165344495122105e-01 4.199772390702664e-02 -1.848293622603155e-01 2.084160417373285e-02
1.248840186660291e+01 2.007415457898641e-02 1.551135777363124e-02 1.156812293171044e-01 3.296955005700158e-02 2.402171149895958e-01
1.198143182017369e+01 2.466978891982787e-02 4.203400737072632e-02 1.239392163766087e-01 1.769654621493056e-02 2.266846057874507e-01
1.351976324227605e+01 -1.755922141972294e-02 -7.837936147385420e-03 9.938095665153504e-02 -2.809913270865758e-02 2.248413282622753e-01
1.404482484911004e+01 -2.214209911953505e-02 -3.339307886543386e-02 1.085637981511859e-01 -1.282495329878038e-02 2.031760464020869e-01
1.319038964506389e+01 -1.425619468875382e-04 -4.011997654933115e-04 1.347801888372516e-01 3.147898240364785e-03 3.436645571924006e-02
1.243315932137523e+01 -3.561184550708532e-03 -5.238010386895460e-03 -1.756405916110577e-01 1.522753943362591e-02 -1.160473688907353e-01
1.281403053174358e+01 -1.997022407979000e-03 -4.316642376652823e-03 1.364085393952322e-01 -6.789953718291256e-03 3.754282521374518e-02
1.356235635748177e+01 4.715849341315608e-03 3.814276935155428e-03 -1.804487735995504e-01 -1.447350350097902e-02 -1.256607357721331e-01
1.325675178846273e+01 -7.926813019428812e-03 1.979091679176914e-03 -1.900519874850156e-01 1.209499170057749e-02 -7.770394628379979e-02
1.223641301613464e+01 1.666548257081370e-02 1.521551992009838e-02 2.226282364088055e-01 3.489011865793890e-02 1.379241921781873e-01
1.274256630946030e+01 9.428409324279905e-03 2.390690008170516e-03 -1.885707360280628e-01 -9.609571258572987e-03 -7.247246538211040e-02
1.377824233577972e+01 -1.283834450238946e-02 -8.523643812396085e-03 2.083851965823251e-01 -3.009320043100812e-02 1.169709316718859e-01
1.299744168943981e+01 -3.503852614126290e-02 6.641877104986821e-02 3.360162587759626e-02 -1.205878410978964e-02 6.776239252731492e-02
1.301733915398472e+01 -3.506854795100856e-02 -7.113440586908348e-02 3.327188408853701e-02 -3.361576080084087e-02 6.731247653323802e-02
1.300740540504064e+01 3.372061360283816e-02 -7.110640181328029e-02 3.409337068780332e-02 9.525008413640569e-03 6.764133200011510e-02
1.298752911697643e+01 3.368704811640417e-02 6.638316656887455e-02 3.442244922796262e-02 3.116447587841634e-02 6.809179974659724e-02
1.299324486359247e+01 -3.407619602357050e-02 7.027971087640374e-02 -6.661818001775921e-02 -1.013136736227831e-02 -1.330882692941552e-01
1.301313771829171e+01 -3.410546283309349e-02 -6.728632909844909e-02 -6.702304576550493e-02 -3.169110703954263e-02 -1.333087704588987e-01
1.300320307539767e+01 3.468546388955061e-02 -6.725982645331681e-02 -6.640538197810278e-02 1.145165249056770e-02 -1.329047231065828e-01
1.298333139714052e+01 3.465114710891081e-02 7.024259566300563e-02 -6.600085490218674e-02 3.309387757651284e-02 -1.326834682577096e-01
        </DataArray>
      </CellData>

    </Piece>
  </UnstructuredGrid>
</VTKFile>
