<?xml version="1.0" ?> 
<!-- 
# vtk DataFile Version 3.0
-->
<VTKFile type="UnstructuredGrid" version="0.1" compressor="vtkZLibDataCompressor" byte_order="LittleEndian">
  <UnstructuredGrid>
    <FieldData>
      <DataArray type="Float64" Name="TIME" NumberOfTuples="1" format="ascii">
5.000000000000000e-01 
      </DataArray>
    </FieldData>

    <Piece NumberOfPoints="240" NumberOfCells="30" >
      <Points>
        <DataArray type="Float64" NumberOfComponents="3" format="ascii">
-1.000000000000000e+00 0.000000000000000e+00 1.600000000000000e+01
-1.000000000000000e+00 0.000000000000000e+00 1.550000000000000e+01
-1.000000000000000e+00 5.000000000000000e-01 1.550000000000000e+01
-1.000000000000000e+00 5.000000000000000e-01 1.600000000000000e+01
-5.000000000000000e-01 0.000000000000000e+00 1.600000000000000e+01
-5.000000000000000e-01 0.000000000000000e+00 1.550000000000000e+01
-5.000000000000000e-01 5.000000000000000e-01 1.550000000000000e+01
-5.000000000000000e-01 5.000000000000000e-01 1.600000000000000e+01
-1.000000000000000e+00 0.000000000000000e+00 1.550000000000000e+01
-1.000000000000000e+00 0.000000000000000e+00 1.500000000000000e+01
-1.000000000000000e+00 5.000000000000000e-01 1.500000000000000e+01
-1.000000000000000e+00 5.000000000000000e-01 1.550000000000000e+01
-5.000000000000000e-01 0.000000000000000e+00 1.550000000000000e+01
-5.000000000000000e-01 0.000000000000000e+00 1.500000000000000e+01
-5.000000000000000e-01 5.000000000000000e-01 1.500000000000000e+01
-5.000000000000000e-01 5.000000000000000e-01 1.550000000000000e+01
-1.000000000000000e+00 0.000000000000000e+00 1.500000000000000e+01
-1.000000000000000e+00 0.000000000000000e+00 1.450000000000000e+01
-1.000000000000000e+00 5.000000000000000e-01 1.450000000000000e+01
-1.000000000000000e+00 5.000000000000000e-01 1.500000000000000e+01
-5.000000000000000e-01 0.000000000000000e+00 1.500000000000000e+01
-5.000000000000000e-01 0.000000000000000e+00 1.450000000000000e+01
-5.000000000000000e-01 5.000000000000000e-01 1.450000000000000e+01
-5.000000000000000e-01 5.000000000000000e-01 1.500000000000000e+01
-1.000000000000000e+00 5.000000000000000e-01 1.600000000000000e+01
-1.000000000000000e+00 5.000000000000000e-01 1.550000000000000e+01
-1.000000000000000e+00 1.000000000000000e+00 1.550000000000000e+01
-1.000000000000000e+00 1.000000000000000e+00 1.600000000000000e+01
-5.000000000000000e-01 5.000000000000000e-01 1.600000000000000e+01
-5.000000000000000e-01 5.000000000000000e-01 1.550000000000000e+01
-5.000000000000000e-01 1.000000000000000e+00 1.550000000000000e+01
-5.000000000000000e-01 1.000000000000000e+00 1.600000000000000e+01
-1.000000000000000e+00 5.000000000000000e-01 1.550000000000000e+01
-1.000000000000000e+00 5.000000000000000e-01 1.500000000000000e+01
-1.000000000000000e+00 1.000000000000000e+00 1.500000000000000e+01
-1.000000000000000e+00 1.000000000000000e+00 1.550000000000000e+01
-5.000000000000000e-01 5.000000000000000e-01 1.550000000000000e+01
-5.000000000000000e-01 5.000000000000000e-01 1.500000000000000e+01
-5.000000000000000e-01 1.000000000000000e+00 1.500000000000000e+01
-5.000000000000000e-01 1.000000000000000e+00 1.550000000000000e+01
-1.000000000000000e+00 5.000000000000000e-01 1.500000000000000e+01
-1.000000000000000e+00 5.000000000000000e-01 1.450000000000000e+01
-1.000000000000000e+00 1.000000000000000e+00 1.450000000000000e+01
-1.000000000000000e+00 1.000000000000000e+00 1.500000000000000e+01
-5.000000000000000e-01 5.000000000000000e-01 1.500000000000000e+01
-5.000000000000000e-01 5.000000000000000e-01 1.450000000000000e+01
-5.000000000000000e-01 1.000000000000000e+00 1.450000000000000e+01
-5.000000000000000e-01 1.000000000000000e+00 1.500000000000000e+01
-1.000000000000000e+00 5.000000000000000e-01 1.450000000000000e+01
-1.000000000000000e+00 5.000000000000000e-01 1.400000000000000e+01
-1.000000000000000e+00 1.000000000000000e+00 1.400000000000000e+01
-1.000000000000000e+00 1.000000000000000e+00 1.450000000000000e+01
-5.000000000000000e-01 5.000000000000000e-01 1.450000000000000e+01
-5.000000000000000e-01 5.000000000000000e-01 1.400000000000000e+01
-5.000000000000000e-01 1.000000000000000e+00 1.400000000000000e+01
-5.000000000000000e-01 1.000000000000000e+00 1.450000000000000e+01
-5.000000000000000e-01 0.000000000000000e+00 1.600000000000000e+01
-5.000000000000000e-01 0.000000000000000e+00 1.550000000000000e+01
-5.000000000000000e-01 5.000000000000000e-01 1.550000000000000e+01
-5.000000000000000e-01 5.000000000000000e-01 1.600000000000000e+01
0.000000000000000e+00 0.000000000000000e+00 1.600000000000000e+01
0.000000000000000e+00 0.000000000000000e+00 1.550000000000000e+01
0.000000000000000e+00 5.000000000000000e-01 1.550000000000000e+01
0.000000000000000e+00 5.000000000000000e-01 1.600000000000000e+01
-5.000000000000000e-01 0.000000000000000e+00 1.550000000000000e+01
-5.000000000000000e-01 0.000000000000000e+00 1.500000000000000e+01
-5.000000000000000e-01 5.000000000000000e-01 1.500000000000000e+01
-5.000000000000000e-01 5.000000000000000e-01 1.550000000000000e+01
0.000000000000000e+00 0.000000000000000e+00 1.550000000000000e+01
0.000000000000000e+00 0.000000000000000e+00 1.500000000000000e+01
0.000000000000000e+00 5.000000000000000e-01 1.500000000000000e+01
0.000000000000000e+00 5.000000000000000e-01 1.550000000000000e+01
-5.000000000000000e-01 0.000000000000000e+00 1.500000000000000e+01
-5.000000000000000e-01 0.000000000000000e+00 1.450000000000000e+01
-5.000000000000000e-01 5.000000000000000e-01 1.450000000000000e+01
-5.000000000000000e-01 5.000000000000000e-01 1.500000000000000e+01
0.000000000000000e+00 0.000000000000000e+00 1.500000000000000e+01
0.000000000000000e+00 0.000000000000000e+00 1.450000000000000e+01
0.000000000000000e+00 5.000000000000000e-01 1.450000000000000e+01
0.000000000000000e+00 5.000000000000000e-01 1.500000000000000e+01
-5.000000000000000e-01 5.000000000000000e-01 1.600000000000000e+01
-5.000000000000000e-01 5.000000000000000e-01 1.550000000000000e+01
-5.000000000000000e-01 1.000000000000000e+00 1.550000000000000e+01
-5.000000000000000e-01 1.000000000000000e+00 1.600000000000000e+01
0.000000000000000e+00 5.000000000000000e-01 1.600000000000000e+01
0.000000000000000e+00 5.000000000000000e-01 1.550000000000000e+01
0.000000000000000e+00 1.000000000000000e+00 1.550000000000000e+01
0.000000000000000e+00 1.000000000000000e+00 1.600000000000000e+01
-5.000000000000000e-01 5.000000000000000e-01 1.550000000000000e+01
-5.000000000000000e-01 5.000000000000000e-01 1.500000000000000e+01
-5.000000000000000e-01 1.000000000000000e+00 1.500000000000000e+01
-5.000000000000000e-01 1.000000000000000e+00 1.550000000000000e+01
0.000000000000000e+00 5.000000000000000e-01 1.550000000000000e+01
0.000000000000000e+00 5.000000000000000e-01 1.500000000000000e+01
0.000000000000000e+00 1.000000000000000e+00 1.500000000000000e+01
0.000000000000000e+00 1.000000000000000e+00 1.550000000000000e+01
-5.000000000000000e-01 5.000000000000000e-01 1.500000000000000e+01
-5.000000000000000e-01 5.000000000000000e-01 1.450000000000000e+01
-5.000000000000000e-01 1.000000000000000e+00 1.450000000000000e+01
-5.000000000000000e-01 1.000000000000000e+00 1.500000000000000e+01
0.000000000000000e+00 5.000000000000000e-01 1.500000000000000e+01
0.000000000000000e+00 5.000000000000000e-01 1.450000000000000e+01
0.000000000000000e+00 1.000000000000000e+00 1.450000000000000e+01
0.000000000000000e+00 1.000000000000000e+00 1.500000000000000e+01
-5.000000000000000e-01 5.000000000000000e-01 1.450000000000000e+01
-5.000000000000000e-01 5.000000000000000e-01 1.400000000000000e+01
-5.000000000000000e-01 1.000000000000000e+00 1.400000000000000e+01
-5.000000000000000e-01 1.000000000000000e+00 1.450000000000000e+01
0.000000000000000e+00 5.000000000000000e-01 1.450000000000000e+01
0.000000000000000e+00 5.000000000000000e-01 1.400000000000000e+01
0.000000000000000e+00 1.000000000000000e+00 1.400000000000000e+01
0.000000000000000e+00 1.000000000000000e+00 1.450000000000000e+01
0.000000000000000e+00 0.000000000000000e+00 1.600000000000000e+01
0.000000000000000e+00 0.000000000000000e+00 1.550000000000000e+01
0.000000000000000e+00 5.000000000000000e-01 1.550000000000000e+01
0.000000000000000e+00 5.000000000000000e-01 1.600000000000000e+01
5.000000000000000e-01 0.000000000000000e+00 1.600000000000000e+01
5.000000000000000e-01 0.000000000000000e+00 1.550000000000000e+01
5.000000000000000e-01 5.000000000000000e-01 1.550000000000000e+01
5.000000000000000e-01 5.000000000000000e-01 1.600000000000000e+01
0.000000000000000e+00 0.000000000000000e+00 1.550000000000000e+01
0.000000000000000e+00 0.000000000000000e+00 1.500000000000000e+01
0.000000000000000e+00 5.000000000000000e-01 1.500000000000000e+01
0.000000000000000e+00 5.000000000000000e-01 1.550000000000000e+01
5.000000000000000e-01 0.000000000000000e+00 1.550000000000000e+01
5.000000000000000e-01 0.000000000000000e+00 1.500000000000000e+01
5.000000000000000e-01 5.000000000000000e-01 1.500000000000000e+01
5.000000000000000e-01 5.000000000000000e-01 1.550000000000000e+01
0.000000000000000e+00 0.000000000000000e+00 1.500000000000000e+01
0.000000000000000e+00 0.000000000000000e+00 1.450000000000000e+01
0.000000000000000e+00 5.000000000000000e-01 1.450000000000000e+01
0.000000000000000e+00 5.000000000000000e-01 1.500000000000000e+01
5.000000000000000e-01 0.000000000000000e+00 1.500000000000000e+01
5.000000000000000e-01 0.000000000000000e+00 1.450000000000000e+01
5.000000000000000e-01 5.000000000000000e-01 1.450000000000000e+01
5.000000000000000e-01 5.000000000000000e-01 1.500000000000000e+01
0.000000000000000e+00 0.000000000000000e+00 1.450000000000000e+01
0.000000000000000e+00 0.000000000000000e+00 1.400000000000000e+01
0.000000000000000e+00 5.000000000000000e-01 1.400000000000000e+01
0.000000000000000e+00 5.000000000000000e-01 1.450000000000000e+01
5.000000000000000e-01 0.000000000000000e+00 1.450000000000000e+01
5.000000000000000e-01 0.000000000000000e+00 1.400000000000000e+01
5.000000000000000e-01 5.000000000000000e-01 1.400000000000000e+01
5.000000000000000e-01 5.000000000000000e-01 1.450000000000000e+01
0.000000000000000e+00 5.000000000000000e-01 1.600000000000000e+01
0.000000000000000e+00 5.000000000000000e-01 1.550000000000000e+01
0.000000000000000e+00 1.000000000000000e+00 1.550000000000000e+01
0.000000000000000e+00 1.000000000000000e+00 1.600000000000000e+01
5.000000000000000e-01 5.000000000000000e-01 1.600000000000000e+01
5.000000000000000e-01 5.000000000000000e-01 1.550000000000000e+01
5.000000000000000e-01 1.000000000000000e+00 1.550000000000000e+01
5.000000000000000e-01 1.000000000000000e+00 1.600000000000000e+01
0.000000000000000e+00 5.000000000000000e-01 1.550000000000000e+01
0.000000000000000e+00 5.000000000000000e-01 1.500000000000000e+01
0.000000000000000e+00 1.000000000000000e+00 1.500000000000000e+01
0.000000000000000e+00 1.000000000000000e+00 1.550000000000000e+01
5.000000000000000e-01 5.000000000000000e-01 1.550000000000000e+01
5.000000000000000e-01 5.000000000000000e-01 1.500000000000000e+01
5.000000000000000e-01 1.000000000000000e+00 1.500000000000000e+01
5.000000000000000e-01 1.000000000000000e+00 1.550000000000000e+01
0.000000000000000e+00 5.000000000000000e-01 1.500000000000000e+01
0.000000000000000e+00 5.000000000000000e-01 1.450000000000000e+01
0.000000000000000e+00 1.000000000000000e+00 1.450000000000000e+01
0.000000000000000e+00 1.000000000000000e+00 1.500000000000000e+01
5.000000000000000e-01 5.000000000000000e-01 1.500000000000000e+01
5.000000000000000e-01 5.000000000000000e-01 1.450000000000000e+01
5.000000000000000e-01 1.000000000000000e+00 1.450000000000000e+01
5.000000000000000e-01 1.000000000000000e+00 1.500000000000000e+01
0.000000000000000e+00 5.000000000000000e-01 1.450000000000000e+01
0.000000000000000e+00 5.000000000000000e-01 1.400000000000000e+01
0.000000000000000e+00 1.000000000000000e+00 1.400000000000000e+01
0.000000000000000e+00 1.000000000000000e+00 1.450000000000000e+01
5.000000000000000e-01 5.000000000000000e-01 1.450000000000000e+01
5.000000000000000e-01 5.000000000000000e-01 1.400000000000000e+01
5.000000000000000e-01 1.000000000000000e+00 1.400000000000000e+01
5.000000000000000e-01 1.000000000000000e+00 1.450000000000000e+01
5.000000000000000e-01 0.000000000000000e+00 1.600000000000000e+01
5.000000000000000e-01 0.000000000000000e+00 1.550000000000000e+01
5.000000000000000e-01 5.000000000000000e-01 1.550000000000000e+01
5.000000000000000e-01 5.000000000000000e-01 1.600000000000000e+01
1.000000000000000e+00 0.000000000000000e+00 1.600000000000000e+01
1.000000000000000e+00 0.000000000000000e+00 1.550000000000000e+01
1.000000000000000e+00 5.000000000000000e-01 1.550000000000000e+01
1.000000000000000e+00 5.000000000000000e-01 1.600000000000000e+01
5.000000000000000e-01 0.000000000000000e+00 1.550000000000000e+01
5.000000000000000e-01 0.000000000000000e+00 1.500000000000000e+01
5.000000000000000e-01 5.000000000000000e-01 1.500000000000000e+01
5.000000000000000e-01 5.000000000000000e-01 1.550000000000000e+01
1.000000000000000e+00 0.000000000000000e+00 1.550000000000000e+01
1.000000000000000e+00 0.000000000000000e+00 1.500000000000000e+01
1.000000000000000e+00 5.000000000000000e-01 1.500000000000000e+01
1.000000000000000e+00 5.000000000000000e-01 1.550000000000000e+01
5.000000000000000e-01 0.000000000000000e+00 1.500000000000000e+01
5.000000000000000e-01 0.000000000000000e+00 1.450000000000000e+01
5.000000000000000e-01 5.000000000000000e-01 1.450000000000000e+01
5.000000000000000e-01 5.000000000000000e-01 1.500000000000000e+01
1.000000000000000e+00 0.000000000000000e+00 1.500000000000000e+01
1.000000000000000e+00 0.000000000000000e+00 1.450000000000000e+01
1.000000000000000e+00 5.000000000000000e-01 1.450000000000000e+01
1.000000000000000e+00 5.000000000000000e-01 1.500000000000000e+01
5.000000000000000e-01 0.000000000000000e+00 1.450000000000000e+01
5.000000000000000e-01 0.000000000000000e+00 1.400000000000000e+01
5.000000000000000e-01 5.000000000000000e-01 1.400000000000000e+01
5.000000000000000e-01 5.000000000000000e-01 1.450000000000000e+01
1.000000000000000e+00 0.000000000000000e+00 1.450000000000000e+01
1.000000000000000e+00 0.000000000000000e+00 1.400000000000000e+01
1.000000000000000e+00 5.000000000000000e-01 1.400000000000000e+01
1.000000000000000e+00 5.000000000000000e-01 1.450000000000000e+01
5.000000000000000e-01 5.000000000000000e-01 1.600000000000000e+01
5.000000000000000e-01 5.000000000000000e-01 1.550000000000000e+01
5.000000000000000e-01 1.000000000000000e+00 1.550000000000000e+01
5.000000000000000e-01 1.000000000000000e+00 1.600000000000000e+01
1.000000000000000e+00 5.000000000000000e-01 1.600000000000000e+01
1.000000000000000e+00 5.000000000000000e-01 1.550000000000000e+01
1.000000000000000e+00 1.000000000000000e+00 1.550000000000000e+01
1.000000000000000e+00 1.000000000000000e+00 1.600000000000000e+01
5.000000000000000e-01 5.000000000000000e-01 1.550000000000000e+01
5.000000000000000e-01 5.000000000000000e-01 1.500000000000000e+01
5.000000000000000e-01 1.000000000000000e+00 1.500000000000000e+01
5.000000000000000e-01 1.000000000000000e+00 1.550000000000000e+01
1.000000000000000e+00 5.000000000000000e-01 1.550000000000000e+01
1.000000000000000e+00 5.000000000000000e-01 1.500000000000000e+01
1.000000000000000e+00 1.000000000000000e+00 1.500000000000000e+01
1.000000000000000e+00 1.000000000000000e+00 1.550000000000000e+01
5.000000000000000e-01 5.000000000000000e-01 1.500000000000000e+01
5.000000000000000e-01 5.000000000000000e-01 1.450000000000000e+01
5.000000000000000e-01 1.000000000000000e+00 1.450000000000000e+01
5.000000000000000e-01 1.000000000000000e+00 1.500000000000000e+01
1.000000000000000e+00 5.000000000000000e-01 1.500000000000000e+01
1.000000000000000e+00 5.000000000000000e-01 1.450000000000000e+01
1.000000000000000e+00 1.000000000000000e+00 1.450000000000000e+01
1.000000000000000e+00 1.000000000000000e+00 1.500000000000000e+01
5.000000000000000e-01 5.000000000000000e-01 1.450000000000000e+01
5.000000000000000e-01 5.000000000000000e-01 1.400000000000000e+01
5.000000000000000e-01 1.000000000000000e+00 1.400000000000000e+01
5.000000000000000e-01 1.000000000000000e+00 1.450000000000000e+01
1.000000000000000e+00 5.000000000000000e-01 1.450000000000000e+01
1.000000000000000e+00 5.000000000000000e-01 1.400000000000000e+01
1.000000000000000e+00 1.000000000000000e+00 1.400000000000000e+01
1.000000000000000e+00 1.000000000000000e+00 1.450000000000000e+01
        </DataArray>
      </Points>

      <Cells>
        <DataArray type="Int32" Name="connectivity" format="ascii">
0 1 2 3 4 5 6 7 8 9 10 11 12 13 14 15 16 17 18 19 20 21 22 23 24 25 26 27 28 29 30 31 32 33 34 35 36 37 38 39 40 41 42 43 44 45 46 47 48 49 50 51 52 53 54 55 56 57 58 59 60 61 62 63 64 65 66 67 68 69 70 71 72 73 74 75 76 77 78 79 80 81 82 83 84 85 86 87 88 89 90 91 92 93 94 95 96 97 98 99 100 101 102 103 104 105 106 107 108 109 110 111 112 113 114 115 116 117 118 119 120 121 122 123 124 125 126 127 128 129 130 131 132 133 134 135 136 137 138 139 140 141 142 143 144 145 146 147 148 149 150 151 152 153 154 155 156 157 158 159 160 161 162 163 164 165 166 167 168 169 170 171 172 173 174 175 176 177 178 179 180 181 182 183 184 185 186 187 188 189 190 191 192 193 194 195 196 197 198 199 200 201 202 203 204 205 206 207 208 209 210 211 212 213 214 215 216 217 218 219 220 221 222 223 224 225 226 227 228 229 230 231 232 233 234 235 236 237 238 239 
        </DataArray>
        <DataArray type="Int32" Name="offsets" format="ascii">
8 16 24 32 40 48 56 64 72 80 88 96 104 112 120 128 136 144 152 160 168 176 184 192 200 208 216 224 232 240 
        </DataArray>
        <DataArray type="UInt8" Name="types" format="ascii">
12 12 12 12 12 12 12 12 12 12 12 12 12 12 12 12 12 12 12 12 12 12 12 12 12 12 12 12 12 12 
        </DataArray>
      </Cells>

  <PointData>
        <DataArray type="Float64" Name="curnormals" NumberOfComponents="3" format="ascii">
-1.000000000000000e+00 2.220446049250318e-16 -4.440892098500612e-16
-1.000000000000000e+00 -1.110223024625156e-15 1.110223024625163e-15
-1.000000000000000e+00 -1.332267629550192e-15 1.110223024625157e-15
-1.000000000000000e+00 -6.661338147751066e-16 3.552713678800501e-15
0.000000000000000e+00 0.000000000000000e+00 0.000000000000000e+00
0.000000000000000e+00 0.000000000000000e+00 0.000000000000000e+00
0.000000000000000e+00 0.000000000000000e+00 0.000000000000000e+00
0.000000000000000e+00 0.000000000000000e+00 0.000000000000000e+00
-1.000000000000000e+00 -1.110223024625156e-15 1.110223024625163e-15
-1.000000000000000e+00 -1.084683744678891e-30 4.440892098500674e-16
-1.000000000000000e+00 -1.972152263052530e-30 -1.110223024625158e-15
-1.000000000000000e+00 -1.332267629550192e-15 1.110223024625157e-15
0.000000000000000e+00 0.000000000000000e+00 0.000000000000000e+00
0.000000000000000e+00 0.000000000000000e+00 0.000000000000000e+00
0.000000000000000e+00 0.000000000000000e+00 0.000000000000000e+00
0.000000000000000e+00 0.000000000000000e+00 0.000000000000000e+00
-1.000000000000000e+00 -1.084683744678891e-30 4.440892098500674e-16
-1.000000000000000e+00 -4.440892098500599e-16 -1.554312234475220e-15
-1.000000000000000e+00 8.881784197001252e-16 -1.332267629550185e-15
-1.000000000000000e+00 -1.972152263052530e-30 -1.110223024625158e-15
0.000000000000000e+00 0.000000000000000e+00 0.000000000000000e+00
0.000000000000000e+00 0.000000000000000e+00 0.000000000000000e+00
0.000000000000000e+00 0.000000000000000e+00 0.000000000000000e+00
0.000000000000000e+00 0.000000000000000e+00 0.000000000000000e+00
-1.000000000000000e+00 -6.661338147751066e-16 3.552713678800501e-15
-1.000000000000000e+00 -1.332267629550192e-15 1.110223024625157e-15
-1.000000000000000e+00 4.440892098500608e-16 4.440892098500611e-16
-1.000000000000000e+00 -2.220446049250320e-15 8.881784197001207e-16
0.000000000000000e+00 0.000000000000000e+00 0.000000000000000e+00
0.000000000000000e+00 0.000000000000000e+00 0.000000000000000e+00
0.000000000000000e+00 0.000000000000000e+00 0.000000000000000e+00
0.000000000000000e+00 0.000000000000000e+00 0.000000000000000e+00
-1.000000000000000e+00 -1.332267629550192e-15 1.110223024625157e-15
-1.000000000000000e+00 -1.972152263052530e-30 -1.110223024625158e-15
-1.000000000000000e+00 -8.881784197001311e-16 -1.776356839400257e-15
-1.000000000000000e+00 4.440892098500608e-16 4.440892098500611e-16
0.000000000000000e+00 0.000000000000000e+00 0.000000000000000e+00
0.000000000000000e+00 0.000000000000000e+00 0.000000000000000e+00
0.000000000000000e+00 0.000000000000000e+00 0.000000000000000e+00
0.000000000000000e+00 0.000000000000000e+00 0.000000000000000e+00
-1.000000000000000e+00 -1.972152263052530e-30 -1.110223024625158e-15
-1.000000000000000e+00 8.881784197001252e-16 -1.332267629550185e-15
-1.000000000000000e+00 1.776356839400249e-15 -4.440892098500681e-16
-1.000000000000000e+00 -8.881784197001311e-16 -1.776356839400257e-15
0.000000000000000e+00 0.000000000000000e+00 0.000000000000000e+00
0.000000000000000e+00 0.000000000000000e+00 0.000000000000000e+00
0.000000000000000e+00 0.000000000000000e+00 0.000000000000000e+00
0.000000000000000e+00 0.000000000000000e+00 0.000000000000000e+00
-1.000000000000000e+00 8.881784197001252e-16 -1.332267629550185e-15
-1.000000000000000e+00 -1.110223024625157e-15 -1.776356839400244e-15
-1.000000000000000e+00 -2.664535259100376e-15 2.664535259100376e-15
-1.000000000000000e+00 1.776356839400249e-15 -4.440892098500681e-16
0.000000000000000e+00 0.000000000000000e+00 0.000000000000000e+00
0.000000000000000e+00 0.000000000000000e+00 0.000000000000000e+00
0.000000000000000e+00 0.000000000000000e+00 0.000000000000000e+00
0.000000000000000e+00 0.000000000000000e+00 0.000000000000000e+00
0.000000000000000e+00 0.000000000000000e+00 0.000000000000000e+00
0.000000000000000e+00 0.000000000000000e+00 0.000000000000000e+00
0.000000000000000e+00 0.000000000000000e+00 0.000000000000000e+00
0.000000000000000e+00 0.000000000000000e+00 0.000000000000000e+00
0.000000000000000e+00 0.000000000000000e+00 0.000000000000000e+00
0.000000000000000e+00 0.000000000000000e+00 0.000000000000000e+00
0.000000000000000e+00 0.000000000000000e+00 0.000000000000000e+00
0.000000000000000e+00 0.000000000000000e+00 0.000000000000000e+00
0.000000000000000e+00 0.000000000000000e+00 0.000000000000000e+00
0.000000000000000e+00 0.000000000000000e+00 0.000000000000000e+00
0.000000000000000e+00 0.000000000000000e+00 0.000000000000000e+00
0.000000000000000e+00 0.000000000000000e+00 0.000000000000000e+00
0.000000000000000e+00 0.000000000000000e+00 0.000000000000000e+00
0.000000000000000e+00 0.000000000000000e+00 0.000000000000000e+00
0.000000000000000e+00 0.000000000000000e+00 0.000000000000000e+00
0.000000000000000e+00 0.000000000000000e+00 0.000000000000000e+00
0.000000000000000e+00 0.000000000000000e+00 0.000000000000000e+00
0.000000000000000e+00 0.000000000000000e+00 0.000000000000000e+00
0.000000000000000e+00 0.000000000000000e+00 0.000000000000000e+00
0.000000000000000e+00 0.000000000000000e+00 0.000000000000000e+00
0.000000000000000e+00 0.000000000000000e+00 0.000000000000000e+00
0.000000000000000e+00 0.000000000000000e+00 0.000000000000000e+00
0.000000000000000e+00 0.000000000000000e+00 0.000000000000000e+00
0.000000000000000e+00 0.000000000000000e+00 0.000000000000000e+00
0.000000000000000e+00 0.000000000000000e+00 0.000000000000000e+00
0.000000000000000e+00 0.000000000000000e+00 0.000000000000000e+00
0.000000000000000e+00 0.000000000000000e+00 0.000000000000000e+00
0.000000000000000e+00 0.000000000000000e+00 0.000000000000000e+00
0.000000000000000e+00 0.000000000000000e+00 0.000000000000000e+00
0.000000000000000e+00 0.000000000000000e+00 0.000000000000000e+00
0.000000000000000e+00 0.000000000000000e+00 0.000000000000000e+00
0.000000000000000e+00 0.000000000000000e+00 0.000000000000000e+00
0.000000000000000e+00 0.000000000000000e+00 0.000000000000000e+00
0.000000000000000e+00 0.000000000000000e+00 0.000000000000000e+00
0.000000000000000e+00 0.000000000000000e+00 0.000000000000000e+00
0.000000000000000e+00 0.000000000000000e+00 0.000000000000000e+00
0.000000000000000e+00 0.000000000000000e+00 0.000000000000000e+00
0.000000000000000e+00 0.000000000000000e+00 0.000000000000000e+00
0.000000000000000e+00 0.000000000000000e+00 0.000000000000000e+00
0.000000000000000e+00 0.000000000000000e+00 0.000000000000000e+00
0.000000000000000e+00 0.000000000000000e+00 0.000000000000000e+00
0.000000000000000e+00 0.000000000000000e+00 0.000000000000000e+00
0.000000000000000e+00 0.000000000000000e+00 0.000000000000000e+00
0.000000000000000e+00 0.000000000000000e+00 0.000000000000000e+00
0.000000000000000e+00 0.000000000000000e+00 0.000000000000000e+00
0.000000000000000e+00 0.000000000000000e+00 0.000000000000000e+00
0.000000000000000e+00 0.000000000000000e+00 0.000000000000000e+00
0.000000000000000e+00 0.000000000000000e+00 0.000000000000000e+00
0.000000000000000e+00 0.000000000000000e+00 0.000000000000000e+00
0.000000000000000e+00 0.000000000000000e+00 0.000000000000000e+00
0.000000000000000e+00 0.000000000000000e+00 0.000000000000000e+00
0.000000000000000e+00 0.000000000000000e+00 0.000000000000000e+00
0.000000000000000e+00 0.000000000000000e+00 0.000000000000000e+00
0.000000000000000e+00 0.000000000000000e+00 0.000000000000000e+00
0.000000000000000e+00 0.000000000000000e+00 0.000000000000000e+00
0.000000000000000e+00 0.000000000000000e+00 0.000000000000000e+00
0.000000000000000e+00 0.000000000000000e+00 0.000000000000000e+00
0.000000000000000e+00 0.000000000000000e+00 0.000000000000000e+00
0.000000000000000e+00 0.000000000000000e+00 0.000000000000000e+00
0.000000000000000e+00 0.000000000000000e+00 0.000000000000000e+00
0.000000000000000e+00 0.000000000000000e+00 0.000000000000000e+00
0.000000000000000e+00 0.000000000000000e+00 0.000000000000000e+00
0.000000000000000e+00 0.000000000000000e+00 0.000000000000000e+00
0.000000000000000e+00 0.000000000000000e+00 0.000000000000000e+00
0.000000000000000e+00 0.000000000000000e+00 0.000000000000000e+00
0.000000000000000e+00 0.000000000000000e+00 0.000000000000000e+00
0.000000000000000e+00 0.000000000000000e+00 0.000000000000000e+00
0.000000000000000e+00 0.000000000000000e+00 0.000000000000000e+00
0.000000000000000e+00 0.000000000000000e+00 0.000000000000000e+00
0.000000000000000e+00 0.000000000000000e+00 0.000000000000000e+00
0.000000000000000e+00 0.000000000000000e+00 0.000000000000000e+00
0.000000000000000e+00 0.000000000000000e+00 0.000000000000000e+00
0.000000000000000e+00 0.000000000000000e+00 0.000000000000000e+00
0.000000000000000e+00 0.000000000000000e+00 0.000000000000000e+00
0.000000000000000e+00 0.000000000000000e+00 0.000000000000000e+00
0.000000000000000e+00 0.000000000000000e+00 0.000000000000000e+00
0.000000000000000e+00 0.000000000000000e+00 0.000000000000000e+00
0.000000000000000e+00 0.000000000000000e+00 0.000000000000000e+00
0.000000000000000e+00 0.000000000000000e+00 0.000000000000000e+00
0.000000000000000e+00 0.000000000000000e+00 0.000000000000000e+00
0.000000000000000e+00 0.000000000000000e+00 0.000000000000000e+00
0.000000000000000e+00 0.000000000000000e+00 0.000000000000000e+00
0.000000000000000e+00 0.000000000000000e+00 0.000000000000000e+00
0.000000000000000e+00 0.000000000000000e+00 0.000000000000000e+00
0.000000000000000e+00 0.000000000000000e+00 0.000000000000000e+00
0.000000000000000e+00 0.000000000000000e+00 0.000000000000000e+00
0.000000000000000e+00 0.000000000000000e+00 0.000000000000000e+00
0.000000000000000e+00 0.000000000000000e+00 0.000000000000000e+00
0.000000000000000e+00 0.000000000000000e+00 0.000000000000000e+00
0.000000000000000e+00 0.000000000000000e+00 0.000000000000000e+00
0.000000000000000e+00 0.000000000000000e+00 0.000000000000000e+00
0.000000000000000e+00 0.000000000000000e+00 0.000000000000000e+00
0.000000000000000e+00 0.000000000000000e+00 0.000000000000000e+00
0.000000000000000e+00 0.000000000000000e+00 0.000000000000000e+00
0.000000000000000e+00 0.000000000000000e+00 0.000000000000000e+00
0.000000000000000e+00 0.000000000000000e+00 0.000000000000000e+00
0.000000000000000e+00 0.000000000000000e+00 0.000000000000000e+00
0.000000000000000e+00 0.000000000000000e+00 0.000000000000000e+00
0.000000000000000e+00 0.000000000000000e+00 0.000000000000000e+00
0.000000000000000e+00 0.000000000000000e+00 0.000000000000000e+00
0.000000000000000e+00 0.000000000000000e+00 0.000000000000000e+00
0.000000000000000e+00 0.000000000000000e+00 0.000000000000000e+00
0.000000000000000e+00 0.000000000000000e+00 0.000000000000000e+00
0.000000000000000e+00 0.000000000000000e+00 0.000000000000000e+00
0.000000000000000e+00 0.000000000000000e+00 0.000000000000000e+00
0.000000000000000e+00 0.000000000000000e+00 0.000000000000000e+00
0.000000000000000e+00 0.000000000000000e+00 0.000000000000000e+00
0.000000000000000e+00 0.000000000000000e+00 0.000000000000000e+00
0.000000000000000e+00 0.000000000000000e+00 0.000000000000000e+00
0.000000000000000e+00 0.000000000000000e+00 0.000000000000000e+00
0.000000000000000e+00 0.000000000000000e+00 0.000000000000000e+00
0.000000000000000e+00 0.000000000000000e+00 0.000000000000000e+00
0.000000000000000e+00 0.000000000000000e+00 0.000000000000000e+00
0.000000000000000e+00 0.000000000000000e+00 0.000000000000000e+00
0.000000000000000e+00 0.000000000000000e+00 0.000000000000000e+00
0.000000000000000e+00 0.000000000000000e+00 0.000000000000000e+00
0.000000000000000e+00 0.000000000000000e+00 0.000000000000000e+00
0.000000000000000e+00 0.000000000000000e+00 0.000000000000000e+00
0.000000000000000e+00 0.000000000000000e+00 0.000000000000000e+00
0.000000000000000e+00 0.000000000000000e+00 0.000000000000000e+00
0.000000000000000e+00 0.000000000000000e+00 0.000000000000000e+00
0.000000000000000e+00 0.000000000000000e+00 0.000000000000000e+00
0.000000000000000e+00 0.000000000000000e+00 0.000000000000000e+00
0.000000000000000e+00 0.000000000000000e+00 0.000000000000000e+00
0.000000000000000e+00 0.000000000000000e+00 0.000000000000000e+00
0.000000000000000e+00 0.000000000000000e+00 0.000000000000000e+00
0.000000000000000e+00 0.000000000000000e+00 0.000000000000000e+00
0.000000000000000e+00 0.000000000000000e+00 0.000000000000000e+00
0.000000000000000e+00 0.000000000000000e+00 0.000000000000000e+00
0.000000000000000e+00 0.000000000000000e+00 0.000000000000000e+00
0.000000000000000e+00 0.000000000000000e+00 0.000000000000000e+00
0.000000000000000e+00 0.000000000000000e+00 0.000000000000000e+00
0.000000000000000e+00 0.000000000000000e+00 0.000000000000000e+00
0.000000000000000e+00 0.000000000000000e+00 0.000000000000000e+00
0.000000000000000e+00 0.000000000000000e+00 0.000000000000000e+00
0.000000000000000e+00 0.000000000000000e+00 0.000000000000000e+00
0.000000000000000e+00 0.000000000000000e+00 0.000000000000000e+00
0.000000000000000e+00 0.000000000000000e+00 0.000000000000000e+00
0.000000000000000e+00 0.000000000000000e+00 0.000000000000000e+00
0.000000000000000e+00 0.000000000000000e+00 0.000000000000000e+00
0.000000000000000e+00 0.000000000000000e+00 0.000000000000000e+00
0.000000000000000e+00 0.000000000000000e+00 0.000000000000000e+00
0.000000000000000e+00 0.000000000000000e+00 0.000000000000000e+00
0.000000000000000e+00 0.000000000000000e+00 0.000000000000000e+00
0.000000000000000e+00 0.000000000000000e+00 0.000000000000000e+00
0.000000000000000e+00 0.000000000000000e+00 0.000000000000000e+00
0.000000000000000e+00 0.000000000000000e+00 0.000000000000000e+00
0.000000000000000e+00 0.000000000000000e+00 0.000000000000000e+00
0.000000000000000e+00 0.000000000000000e+00 0.000000000000000e+00
0.000000000000000e+00 0.000000000000000e+00 0.000000000000000e+00
0.000000000000000e+00 0.000000000000000e+00 0.000000000000000e+00
0.000000000000000e+00 0.000000000000000e+00 0.000000000000000e+00
0.000000000000000e+00 0.000000000000000e+00 0.000000000000000e+00
0.000000000000000e+00 0.000000000000000e+00 0.000000000000000e+00
0.000000000000000e+00 0.000000000000000e+00 0.000000000000000e+00
0.000000000000000e+00 0.000000000000000e+00 0.000000000000000e+00
0.000000000000000e+00 0.000000000000000e+00 0.000000000000000e+00
0.000000000000000e+00 0.000000000000000e+00 0.000000000000000e+00
0.000000000000000e+00 0.000000000000000e+00 0.000000000000000e+00
0.000000000000000e+00 0.000000000000000e+00 0.000000000000000e+00
0.000000000000000e+00 0.000000000000000e+00 0.000000000000000e+00
0.000000000000000e+00 0.000000000000000e+00 0.000000000000000e+00
0.000000000000000e+00 0.000000000000000e+00 0.000000000000000e+00
0.000000000000000e+00 0.000000000000000e+00 0.000000000000000e+00
0.000000000000000e+00 0.000000000000000e+00 0.000000000000000e+00
0.000000000000000e+00 0.000000000000000e+00 0.000000000000000e+00
0.000000000000000e+00 0.000000000000000e+00 0.000000000000000e+00
0.000000000000000e+00 0.000000000000000e+00 0.000000000000000e+00
0.000000000000000e+00 0.000000000000000e+00 0.000000000000000e+00
0.000000000000000e+00 0.000000000000000e+00 0.000000000000000e+00
0.000000000000000e+00 0.000000000000000e+00 0.000000000000000e+00
0.000000000000000e+00 0.000000000000000e+00 0.000000000000000e+00
0.000000000000000e+00 0.000000000000000e+00 0.000000000000000e+00
0.000000000000000e+00 0.000000000000000e+00 0.000000000000000e+00
0.000000000000000e+00 0.000000000000000e+00 0.000000000000000e+00
0.000000000000000e+00 0.000000000000000e+00 0.000000000000000e+00
0.000000000000000e+00 0.000000000000000e+00 0.000000000000000e+00
0.000000000000000e+00 0.000000000000000e+00 0.000000000000000e+00
0.000000000000000e+00 0.000000000000000e+00 0.000000000000000e+00
0.000000000000000e+00 0.000000000000000e+00 0.000000000000000e+00
0.000000000000000e+00 0.000000000000000e+00 0.000000000000000e+00
0.000000000000000e+00 0.000000000000000e+00 0.000000000000000e+00
0.000000000000000e+00 0.000000000000000e+00 0.000000000000000e+00
0.000000000000000e+00 0.000000000000000e+00 0.000000000000000e+00
        </DataArray>
        <DataArray type="Float64" Name="gap" format="ascii">
-2.999999999999996e-01
-2.999999999999994e-01
-3.000000000000009e-01
-2.999999999999992e-01
0.000000000000000e+00
0.000000000000000e+00
0.000000000000000e+00
0.000000000000000e+00
-2.999999999999994e-01
-3.000000000000007e-01
-3.000000000000003e-01
-3.000000000000009e-01
0.000000000000000e+00
0.000000000000000e+00
0.000000000000000e+00
0.000000000000000e+00
-3.000000000000007e-01
-2.999999999999998e-01
-2.999999999999998e-01
-3.000000000000003e-01
0.000000000000000e+00
0.000000000000000e+00
0.000000000000000e+00
0.000000000000000e+00
-2.999999999999992e-01
-3.000000000000009e-01
-3.000000000000007e-01
-3.000000000000003e-01
0.000000000000000e+00
0.000000000000000e+00
0.000000000000000e+00
0.000000000000000e+00
-3.000000000000009e-01
-3.000000000000003e-01
-3.000000000000007e-01
-3.000000000000007e-01
0.000000000000000e+00
0.000000000000000e+00
0.000000000000000e+00
0.000000000000000e+00
-3.000000000000003e-01
-2.999999999999998e-01
-2.999999999999992e-01
-3.000000000000007e-01
0.000000000000000e+00
0.000000000000000e+00
0.000000000000000e+00
0.000000000000000e+00
-2.999999999999998e-01
-2.999999999999989e-01
-3.000000000000003e-01
-2.999999999999992e-01
0.000000000000000e+00
0.000000000000000e+00
0.000000000000000e+00
0.000000000000000e+00
0.000000000000000e+00
0.000000000000000e+00
0.000000000000000e+00
0.000000000000000e+00
0.000000000000000e+00
0.000000000000000e+00
0.000000000000000e+00
0.000000000000000e+00
0.000000000000000e+00
0.000000000000000e+00
0.000000000000000e+00
0.000000000000000e+00
0.000000000000000e+00
0.000000000000000e+00
0.000000000000000e+00
0.000000000000000e+00
0.000000000000000e+00
0.000000000000000e+00
0.000000000000000e+00
0.000000000000000e+00
0.000000000000000e+00
0.000000000000000e+00
0.000000000000000e+00
0.000000000000000e+00
0.000000000000000e+00
0.000000000000000e+00
0.000000000000000e+00
0.000000000000000e+00
0.000000000000000e+00
0.000000000000000e+00
0.000000000000000e+00
0.000000000000000e+00
0.000000000000000e+00
0.000000000000000e+00
0.000000000000000e+00
0.000000000000000e+00
0.000000000000000e+00
0.000000000000000e+00
0.000000000000000e+00
0.000000000000000e+00
0.000000000000000e+00
0.000000000000000e+00
0.000000000000000e+00
0.000000000000000e+00
0.000000000000000e+00
0.000000000000000e+00
0.000000000000000e+00
0.000000000000000e+00
0.000000000000000e+00
0.000000000000000e+00
0.000000000000000e+00
0.000000000000000e+00
0.000000000000000e+00
0.000000000000000e+00
0.000000000000000e+00
0.000000000000000e+00
0.000000000000000e+00
0.000000000000000e+00
0.000000000000000e+00
0.000000000000000e+00
0.000000000000000e+00
0.000000000000000e+00
0.000000000000000e+00
0.000000000000000e+00
0.000000000000000e+00
0.000000000000000e+00
0.000000000000000e+00
0.000000000000000e+00
0.000000000000000e+00
0.000000000000000e+00
0.000000000000000e+00
0.000000000000000e+00
0.000000000000000e+00
0.000000000000000e+00
0.000000000000000e+00
0.000000000000000e+00
0.000000000000000e+00
0.000000000000000e+00
0.000000000000000e+00
0.000000000000000e+00
0.000000000000000e+00
0.000000000000000e+00
0.000000000000000e+00
0.000000000000000e+00
0.000000000000000e+00
0.000000000000000e+00
0.000000000000000e+00
0.000000000000000e+00
0.000000000000000e+00
0.000000000000000e+00
0.000000000000000e+00
0.000000000000000e+00
0.000000000000000e+00
0.000000000000000e+00
0.000000000000000e+00
0.000000000000000e+00
0.000000000000000e+00
0.000000000000000e+00
0.000000000000000e+00
0.000000000000000e+00
0.000000000000000e+00
0.000000000000000e+00
0.000000000000000e+00
0.000000000000000e+00
0.000000000000000e+00
0.000000000000000e+00
0.000000000000000e+00
0.000000000000000e+00
0.000000000000000e+00
0.000000000000000e+00
0.000000000000000e+00
0.000000000000000e+00
0.000000000000000e+00
0.000000000000000e+00
0.000000000000000e+00
0.000000000000000e+00
0.000000000000000e+00
0.000000000000000e+00
0.000000000000000e+00
0.000000000000000e+00
0.000000000000000e+00
0.000000000000000e+00
0.000000000000000e+00
0.000000000000000e+00
0.000000000000000e+00
0.000000000000000e+00
0.000000000000000e+00
0.000000000000000e+00
0.000000000000000e+00
0.000000000000000e+00
0.000000000000000e+00
0.000000000000000e+00
0.000000000000000e+00
0.000000000000000e+00
0.000000000000000e+00
0.000000000000000e+00
0.000000000000000e+00
0.000000000000000e+00
0.000000000000000e+00
0.000000000000000e+00
0.000000000000000e+00
0.000000000000000e+00
0.000000000000000e+00
0.000000000000000e+00
0.000000000000000e+00
0.000000000000000e+00
0.000000000000000e+00
0.000000000000000e+00
0.000000000000000e+00
0.000000000000000e+00
0.000000000000000e+00
0.000000000000000e+00
0.000000000000000e+00
0.000000000000000e+00
0.000000000000000e+00
0.000000000000000e+00
0.000000000000000e+00
0.000000000000000e+00
0.000000000000000e+00
0.000000000000000e+00
0.000000000000000e+00
0.000000000000000e+00
0.000000000000000e+00
0.000000000000000e+00
0.000000000000000e+00
0.000000000000000e+00
0.000000000000000e+00
0.000000000000000e+00
0.000000000000000e+00
0.000000000000000e+00
0.000000000000000e+00
0.000000000000000e+00
0.000000000000000e+00
0.000000000000000e+00
0.000000000000000e+00
0.000000000000000e+00
0.000000000000000e+00
0.000000000000000e+00
0.000000000000000e+00
0.000000000000000e+00
0.000000000000000e+00
0.000000000000000e+00
0.000000000000000e+00
0.000000000000000e+00
        </DataArray>
        <DataArray type="Float64" Name="springstress" NumberOfComponents="3" format="ascii">
1.499999999999998e+00 -3.330669073875472e-16 6.661338147750909e-16
1.499999999999997e+00 1.665334536937731e-15 -1.665334536937741e-15
1.500000000000005e+00 1.998401444325294e-15 -1.665334536937741e-15
1.499999999999996e+00 9.992007221626571e-16 -5.329070518200736e-15
0.000000000000000e+00 0.000000000000000e+00 0.000000000000000e+00
0.000000000000000e+00 0.000000000000000e+00 0.000000000000000e+00
0.000000000000000e+00 0.000000000000000e+00 0.000000000000000e+00
0.000000000000000e+00 0.000000000000000e+00 0.000000000000000e+00
1.499999999999997e+00 1.665334536937731e-15 -1.665334536937741e-15
1.500000000000004e+00 1.627025617018341e-30 -6.661338147751028e-16
1.500000000000001e+00 2.958228394578797e-30 1.665334536937739e-15
1.500000000000005e+00 1.998401444325294e-15 -1.665334536937741e-15
0.000000000000000e+00 0.000000000000000e+00 0.000000000000000e+00
0.000000000000000e+00 0.000000000000000e+00 0.000000000000000e+00
0.000000000000000e+00 0.000000000000000e+00 0.000000000000000e+00
0.000000000000000e+00 0.000000000000000e+00 0.000000000000000e+00
1.500000000000004e+00 1.627025617018341e-30 -6.661338147751028e-16
1.499999999999999e+00 6.661338147750894e-16 2.331468351712828e-15
1.499999999999999e+00 -1.332267629550187e-15 1.998401444325277e-15
1.500000000000001e+00 2.958228394578797e-30 1.665334536937739e-15
0.000000000000000e+00 0.000000000000000e+00 0.000000000000000e+00
0.000000000000000e+00 0.000000000000000e+00 0.000000000000000e+00
0.000000000000000e+00 0.000000000000000e+00 0.000000000000000e+00
0.000000000000000e+00 0.000000000000000e+00 0.000000000000000e+00
1.499999999999996e+00 9.992007221626571e-16 -5.329070518200736e-15
1.500000000000005e+00 1.998401444325294e-15 -1.665334536937741e-15
1.500000000000004e+00 -6.661338147750928e-16 -6.661338147750932e-16
1.500000000000001e+00 3.330669073875483e-15 -1.332267629550182e-15
0.000000000000000e+00 0.000000000000000e+00 0.000000000000000e+00
0.000000000000000e+00 0.000000000000000e+00 0.000000000000000e+00
0.000000000000000e+00 0.000000000000000e+00 0.000000000000000e+00
0.000000000000000e+00 0.000000000000000e+00 0.000000000000000e+00
1.500000000000005e+00 1.998401444325294e-15 -1.665334536937741e-15
1.500000000000001e+00 2.958228394578797e-30 1.665334536937739e-15
1.500000000000004e+00 1.332267629550200e-15 2.664535259100392e-15
1.500000000000004e+00 -6.661338147750928e-16 -6.661338147750932e-16
0.000000000000000e+00 0.000000000000000e+00 0.000000000000000e+00
0.000000000000000e+00 0.000000000000000e+00 0.000000000000000e+00
0.000000000000000e+00 0.000000000000000e+00 0.000000000000000e+00
0.000000000000000e+00 0.000000000000000e+00 0.000000000000000e+00
1.500000000000001e+00 2.958228394578797e-30 1.665334536937739e-15
1.499999999999999e+00 -1.332267629550187e-15 1.998401444325277e-15
1.499999999999996e+00 -2.664535259100366e-15 6.661338147751003e-16
1.500000000000004e+00 1.332267629550200e-15 2.664535259100392e-15
0.000000000000000e+00 0.000000000000000e+00 0.000000000000000e+00
0.000000000000000e+00 0.000000000000000e+00 0.000000000000000e+00
0.000000000000000e+00 0.000000000000000e+00 0.000000000000000e+00
0.000000000000000e+00 0.000000000000000e+00 0.000000000000000e+00
1.499999999999999e+00 -1.332267629550187e-15 1.998401444325277e-15
1.499999999999995e+00 1.665334536937729e-15 2.664535259100357e-15
1.500000000000001e+00 3.996802888650567e-15 -3.996802888650567e-15
1.499999999999996e+00 -2.664535259100366e-15 6.661338147751003e-16
0.000000000000000e+00 0.000000000000000e+00 0.000000000000000e+00
0.000000000000000e+00 0.000000000000000e+00 0.000000000000000e+00
0.000000000000000e+00 0.000000000000000e+00 0.000000000000000e+00
0.000000000000000e+00 0.000000000000000e+00 0.000000000000000e+00
0.000000000000000e+00 0.000000000000000e+00 0.000000000000000e+00
0.000000000000000e+00 0.000000000000000e+00 0.000000000000000e+00
0.000000000000000e+00 0.000000000000000e+00 0.000000000000000e+00
0.000000000000000e+00 0.000000000000000e+00 0.000000000000000e+00
0.000000000000000e+00 0.000000000000000e+00 0.000000000000000e+00
0.000000000000000e+00 0.000000000000000e+00 0.000000000000000e+00
0.000000000000000e+00 0.000000000000000e+00 0.000000000000000e+00
0.000000000000000e+00 0.000000000000000e+00 0.000000000000000e+00
0.000000000000000e+00 0.000000000000000e+00 0.000000000000000e+00
0.000000000000000e+00 0.000000000000000e+00 0.000000000000000e+00
0.000000000000000e+00 0.000000000000000e+00 0.000000000000000e+00
0.000000000000000e+00 0.000000000000000e+00 0.000000000000000e+00
0.000000000000000e+00 0.000000000000000e+00 0.000000000000000e+00
0.000000000000000e+00 0.000000000000000e+00 0.000000000000000e+00
0.000000000000000e+00 0.000000000000000e+00 0.000000000000000e+00
0.000000000000000e+00 0.000000000000000e+00 0.000000000000000e+00
0.000000000000000e+00 0.000000000000000e+00 0.000000000000000e+00
0.000000000000000e+00 0.000000000000000e+00 0.000000000000000e+00
0.000000000000000e+00 0.000000000000000e+00 0.000000000000000e+00
0.000000000000000e+00 0.000000000000000e+00 0.000000000000000e+00
0.000000000000000e+00 0.000000000000000e+00 0.000000000000000e+00
0.000000000000000e+00 0.000000000000000e+00 0.000000000000000e+00
0.000000000000000e+00 0.000000000000000e+00 0.000000000000000e+00
0.000000000000000e+00 0.000000000000000e+00 0.000000000000000e+00
0.000000000000000e+00 0.000000000000000e+00 0.000000000000000e+00
0.000000000000000e+00 0.000000000000000e+00 0.000000000000000e+00
0.000000000000000e+00 0.000000000000000e+00 0.000000000000000e+00
0.000000000000000e+00 0.000000000000000e+00 0.000000000000000e+00
0.000000000000000e+00 0.000000000000000e+00 0.000000000000000e+00
0.000000000000000e+00 0.000000000000000e+00 0.000000000000000e+00
0.000000000000000e+00 0.000000000000000e+00 0.000000000000000e+00
0.000000000000000e+00 0.000000000000000e+00 0.000000000000000e+00
0.000000000000000e+00 0.000000000000000e+00 0.000000000000000e+00
0.000000000000000e+00 0.000000000000000e+00 0.000000000000000e+00
0.000000000000000e+00 0.000000000000000e+00 0.000000000000000e+00
0.000000000000000e+00 0.000000000000000e+00 0.000000000000000e+00
0.000000000000000e+00 0.000000000000000e+00 0.000000000000000e+00
0.000000000000000e+00 0.000000000000000e+00 0.000000000000000e+00
0.000000000000000e+00 0.000000000000000e+00 0.000000000000000e+00
0.000000000000000e+00 0.000000000000000e+00 0.000000000000000e+00
0.000000000000000e+00 0.000000000000000e+00 0.000000000000000e+00
0.000000000000000e+00 0.000000000000000e+00 0.000000000000000e+00
0.000000000000000e+00 0.000000000000000e+00 0.000000000000000e+00
0.000000000000000e+00 0.000000000000000e+00 0.000000000000000e+00
0.000000000000000e+00 0.000000000000000e+00 0.000000000000000e+00
0.000000000000000e+00 0.000000000000000e+00 0.000000000000000e+00
0.000000000000000e+00 0.000000000000000e+00 0.000000000000000e+00
0.000000000000000e+00 0.000000000000000e+00 0.000000000000000e+00
0.000000000000000e+00 0.000000000000000e+00 0.000000000000000e+00
0.000000000000000e+00 0.000000000000000e+00 0.000000000000000e+00
0.000000000000000e+00 0.000000000000000e+00 0.000000000000000e+00
0.000000000000000e+00 0.000000000000000e+00 0.000000000000000e+00
0.000000000000000e+00 0.000000000000000e+00 0.000000000000000e+00
0.000000000000000e+00 0.000000000000000e+00 0.000000000000000e+00
0.000000000000000e+00 0.000000000000000e+00 0.000000000000000e+00
0.000000000000000e+00 0.000000000000000e+00 0.000000000000000e+00
0.000000000000000e+00 0.000000000000000e+00 0.000000000000000e+00
0.000000000000000e+00 0.000000000000000e+00 0.000000000000000e+00
0.000000000000000e+00 0.000000000000000e+00 0.000000000000000e+00
0.000000000000000e+00 0.000000000000000e+00 0.000000000000000e+00
0.000000000000000e+00 0.000000000000000e+00 0.000000000000000e+00
0.000000000000000e+00 0.000000000000000e+00 0.000000000000000e+00
0.000000000000000e+00 0.000000000000000e+00 0.000000000000000e+00
0.000000000000000e+00 0.000000000000000e+00 0.000000000000000e+00
0.000000000000000e+00 0.000000000000000e+00 0.000000000000000e+00
0.000000000000000e+00 0.000000000000000e+00 0.000000000000000e+00
0.000000000000000e+00 0.000000000000000e+00 0.000000000000000e+00
0.000000000000000e+00 0.000000000000000e+00 0.000000000000000e+00
0.000000000000000e+00 0.000000000000000e+00 0.000000000000000e+00
0.000000000000000e+00 0.000000000000000e+00 0.000000000000000e+00
0.000000000000000e+00 0.000000000000000e+00 0.000000000000000e+00
0.000000000000000e+00 0.000000000000000e+00 0.000000000000000e+00
0.000000000000000e+00 0.000000000000000e+00 0.000000000000000e+00
0.000000000000000e+00 0.000000000000000e+00 0.000000000000000e+00
0.000000000000000e+00 0.000000000000000e+00 0.000000000000000e+00
0.000000000000000e+00 0.000000000000000e+00 0.000000000000000e+00
0.000000000000000e+00 0.000000000000000e+00 0.000000000000000e+00
0.000000000000000e+00 0.000000000000000e+00 0.000000000000000e+00
0.000000000000000e+00 0.000000000000000e+00 0.000000000000000e+00
0.000000000000000e+00 0.000000000000000e+00 0.000000000000000e+00
0.000000000000000e+00 0.000000000000000e+00 0.000000000000000e+00
0.000000000000000e+00 0.000000000000000e+00 0.000000000000000e+00
0.000000000000000e+00 0.000000000000000e+00 0.000000000000000e+00
0.000000000000000e+00 0.000000000000000e+00 0.000000000000000e+00
0.000000000000000e+00 0.000000000000000e+00 0.000000000000000e+00
0.000000000000000e+00 0.000000000000000e+00 0.000000000000000e+00
0.000000000000000e+00 0.000000000000000e+00 0.000000000000000e+00
0.000000000000000e+00 0.000000000000000e+00 0.000000000000000e+00
0.000000000000000e+00 0.000000000000000e+00 0.000000000000000e+00
0.000000000000000e+00 0.000000000000000e+00 0.000000000000000e+00
0.000000000000000e+00 0.000000000000000e+00 0.000000000000000e+00
0.000000000000000e+00 0.000000000000000e+00 0.000000000000000e+00
0.000000000000000e+00 0.000000000000000e+00 0.000000000000000e+00
0.000000000000000e+00 0.000000000000000e+00 0.000000000000000e+00
0.000000000000000e+00 0.000000000000000e+00 0.000000000000000e+00
0.000000000000000e+00 0.000000000000000e+00 0.000000000000000e+00
0.000000000000000e+00 0.000000000000000e+00 0.000000000000000e+00
0.000000000000000e+00 0.000000000000000e+00 0.000000000000000e+00
0.000000000000000e+00 0.000000000000000e+00 0.000000000000000e+00
0.000000000000000e+00 0.000000000000000e+00 0.000000000000000e+00
0.000000000000000e+00 0.000000000000000e+00 0.000000000000000e+00
0.000000000000000e+00 0.000000000000000e+00 0.000000000000000e+00
0.000000000000000e+00 0.000000000000000e+00 0.000000000000000e+00
0.000000000000000e+00 0.000000000000000e+00 0.000000000000000e+00
0.000000000000000e+00 0.000000000000000e+00 0.000000000000000e+00
0.000000000000000e+00 0.000000000000000e+00 0.000000000000000e+00
0.000000000000000e+00 0.000000000000000e+00 0.000000000000000e+00
0.000000000000000e+00 0.000000000000000e+00 0.000000000000000e+00
0.000000000000000e+00 0.000000000000000e+00 0.000000000000000e+00
0.000000000000000e+00 0.000000000000000e+00 0.000000000000000e+00
0.000000000000000e+00 0.000000000000000e+00 0.000000000000000e+00
0.000000000000000e+00 0.000000000000000e+00 0.000000000000000e+00
0.000000000000000e+00 0.000000000000000e+00 0.000000000000000e+00
0.000000000000000e+00 0.000000000000000e+00 0.000000000000000e+00
0.000000000000000e+00 0.000000000000000e+00 0.000000000000000e+00
0.000000000000000e+00 0.000000000000000e+00 0.000000000000000e+00
0.000000000000000e+00 0.000000000000000e+00 0.000000000000000e+00
0.000000000000000e+00 0.000000000000000e+00 0.000000000000000e+00
0.000000000000000e+00 0.000000000000000e+00 0.000000000000000e+00
0.000000000000000e+00 0.000000000000000e+00 0.000000000000000e+00
0.000000000000000e+00 0.000000000000000e+00 0.000000000000000e+00
0.000000000000000e+00 0.000000000000000e+00 0.000000000000000e+00
0.000000000000000e+00 0.000000000000000e+00 0.000000000000000e+00
0.000000000000000e+00 0.000000000000000e+00 0.000000000000000e+00
0.000000000000000e+00 0.000000000000000e+00 0.000000000000000e+00
0.000000000000000e+00 0.000000000000000e+00 0.000000000000000e+00
0.000000000000000e+00 0.000000000000000e+00 0.000000000000000e+00
0.000000000000000e+00 0.000000000000000e+00 0.000000000000000e+00
0.000000000000000e+00 0.000000000000000e+00 0.000000000000000e+00
0.000000000000000e+00 0.000000000000000e+00 0.000000000000000e+00
0.000000000000000e+00 0.000000000000000e+00 0.000000000000000e+00
0.000000000000000e+00 0.000000000000000e+00 0.000000000000000e+00
0.000000000000000e+00 0.000000000000000e+00 0.000000000000000e+00
0.000000000000000e+00 0.000000000000000e+00 0.000000000000000e+00
0.000000000000000e+00 0.000000000000000e+00 0.000000000000000e+00
0.000000000000000e+00 0.000000000000000e+00 0.000000000000000e+00
0.000000000000000e+00 0.000000000000000e+00 0.000000000000000e+00
0.000000000000000e+00 0.000000000000000e+00 0.000000000000000e+00
0.000000000000000e+00 0.000000000000000e+00 0.000000000000000e+00
0.000000000000000e+00 0.000000000000000e+00 0.000000000000000e+00
0.000000000000000e+00 0.000000000000000e+00 0.000000000000000e+00
0.000000000000000e+00 0.000000000000000e+00 0.000000000000000e+00
0.000000000000000e+00 0.000000000000000e+00 0.000000000000000e+00
0.000000000000000e+00 0.000000000000000e+00 0.000000000000000e+00
0.000000000000000e+00 0.000000000000000e+00 0.000000000000000e+00
0.000000000000000e+00 0.000000000000000e+00 0.000000000000000e+00
0.000000000000000e+00 0.000000000000000e+00 0.000000000000000e+00
0.000000000000000e+00 0.000000000000000e+00 0.000000000000000e+00
0.000000000000000e+00 0.000000000000000e+00 0.000000000000000e+00
0.000000000000000e+00 0.000000000000000e+00 0.000000000000000e+00
0.000000000000000e+00 0.000000000000000e+00 0.000000000000000e+00
0.000000000000000e+00 0.000000000000000e+00 0.000000000000000e+00
0.000000000000000e+00 0.000000000000000e+00 0.000000000000000e+00
0.000000000000000e+00 0.000000000000000e+00 0.000000000000000e+00
0.000000000000000e+00 0.000000000000000e+00 0.000000000000000e+00
0.000000000000000e+00 0.000000000000000e+00 0.000000000000000e+00
0.000000000000000e+00 0.000000000000000e+00 0.000000000000000e+00
0.000000000000000e+00 0.000000000000000e+00 0.000000000000000e+00
0.000000000000000e+00 0.000000000000000e+00 0.000000000000000e+00
0.000000000000000e+00 0.000000000000000e+00 0.000000000000000e+00
0.000000000000000e+00 0.000000000000000e+00 0.000000000000000e+00
0.000000000000000e+00 0.000000000000000e+00 0.000000000000000e+00
0.000000000000000e+00 0.000000000000000e+00 0.000000000000000e+00
0.000000000000000e+00 0.000000000000000e+00 0.000000000000000e+00
0.000000000000000e+00 0.000000000000000e+00 0.000000000000000e+00
0.000000000000000e+00 0.000000000000000e+00 0.000000000000000e+00
0.000000000000000e+00 0.000000000000000e+00 0.000000000000000e+00
0.000000000000000e+00 0.000000000000000e+00 0.000000000000000e+00
0.000000000000000e+00 0.000000000000000e+00 0.000000000000000e+00
0.000000000000000e+00 0.000000000000000e+00 0.000000000000000e+00
0.000000000000000e+00 0.000000000000000e+00 0.000000000000000e+00
0.000000000000000e+00 0.000000000000000e+00 0.000000000000000e+00
0.000000000000000e+00 0.000000000000000e+00 0.000000000000000e+00
0.000000000000000e+00 0.000000000000000e+00 0.000000000000000e+00
0.000000000000000e+00 0.000000000000000e+00 0.000000000000000e+00
0.000000000000000e+00 0.000000000000000e+00 0.000000000000000e+00
0.000000000000000e+00 0.000000000000000e+00 0.000000000000000e+00
0.000000000000000e+00 0.000000000000000e+00 0.000000000000000e+00
0.000000000000000e+00 0.000000000000000e+00 0.000000000000000e+00
0.000000000000000e+00 0.000000000000000e+00 0.000000000000000e+00
0.000000000000000e+00 0.000000000000000e+00 0.000000000000000e+00
0.000000000000000e+00 0.000000000000000e+00 0.000000000000000e+00
0.000000000000000e+00 0.000000000000000e+00 0.000000000000000e+00
0.000000000000000e+00 0.000000000000000e+00 0.000000000000000e+00
        </DataArray>
      </PointData>

    </Piece>
  </UnstructuredGrid>
</VTKFile>
