<?xml version="1.0" ?> 
<!-- 
# vtk DataFile Version 3.0
-->
<VTKFile type="UnstructuredGrid" version="0.1" compressor="vtkZLibDataCompressor" byte_order="LittleEndian">
  <UnstructuredGrid>
    <FieldData>
      <DataArray type="Float64" Name="TIME" NumberOfTuples="1" format="ascii">
5.000000000000000e-01 
      </DataArray>
    </FieldData>

    <Piece NumberOfPoints="560" NumberOfCells="56" >
      <Points>
        <DataArray type="Float64" NumberOfComponents="3" format="ascii">
0.000000000000000e+00 0.000000000000000e+00 1.000000000000000e+00
0.000000000000000e+00 0.000000000000000e+00 0.000000000000000e+00
0.000000000000000e+00 5.000000000000000e-01 5.000000000000000e-01
5.000000000000000e-01 0.000000000000000e+00 5.000000000000000e-01
0.000000000000000e+00 0.000000000000000e+00 5.000000000000000e-01
0.000000000000000e+00 2.500000000000000e-01 2.500000000000000e-01
0.000000000000000e+00 2.500000000000000e-01 7.500000000000000e-01
2.500000000000000e-01 0.000000000000000e+00 7.500000000000000e-01
2.500000000000000e-01 0.000000000000000e+00 2.500000000000000e-01
2.500000000000000e-01 2.500000000000000e-01 5.000000000000000e-01
0.000000000000000e+00 0.000000000000000e+00 0.000000000000000e+00
0.000000000000000e+00 1.000000000000000e+00 0.000000000000000e+00
0.000000000000000e+00 5.000000000000000e-01 5.000000000000000e-01
5.000000000000000e-01 5.000000000000000e-01 0.000000000000000e+00
0.000000000000000e+00 5.000000000000000e-01 0.000000000000000e+00
0.000000000000000e+00 7.500000000000000e-01 2.500000000000000e-01
0.000000000000000e+00 2.500000000000000e-01 2.500000000000000e-01
2.500000000000000e-01 2.500000000000000e-01 0.000000000000000e+00
2.500000000000000e-01 7.500000000000000e-01 0.000000000000000e+00
2.500000000000000e-01 5.000000000000000e-01 2.500000000000000e-01
0.000000000000000e+00 1.000000000000000e+00 0.000000000000000e+00
0.000000000000000e+00 1.000000000000000e+00 1.000000000000000e+00
0.000000000000000e+00 5.000000000000000e-01 5.000000000000000e-01
5.000000000000000e-01 1.000000000000000e+00 5.000000000000000e-01
0.000000000000000e+00 1.000000000000000e+00 5.000000000000000e-01
0.000000000000000e+00 7.500000000000000e-01 7.500000000000000e-01
0.000000000000000e+00 7.500000000000000e-01 2.500000000000000e-01
2.500000000000000e-01 1.000000000000000e+00 2.500000000000000e-01
2.500000000000000e-01 1.000000000000000e+00 7.500000000000000e-01
2.500000000000000e-01 7.500000000000000e-01 5.000000000000000e-01
0.000000000000000e+00 1.000000000000000e+00 1.000000000000000e+00
0.000000000000000e+00 0.000000000000000e+00 1.000000000000000e+00
0.000000000000000e+00 5.000000000000000e-01 5.000000000000000e-01
5.000000000000000e-01 5.000000000000000e-01 1.000000000000000e+00
0.000000000000000e+00 5.000000000000000e-01 1.000000000000000e+00
0.000000000000000e+00 2.500000000000000e-01 7.500000000000000e-01
0.000000000000000e+00 7.500000000000000e-01 7.500000000000000e-01
2.500000000000000e-01 7.500000000000000e-01 1.000000000000000e+00
2.500000000000000e-01 2.500000000000000e-01 1.000000000000000e+00
2.500000000000000e-01 5.000000000000000e-01 7.500000000000000e-01
0.000000000000000e+00 0.000000000000000e+00 1.000000000000000e+00
1.000000000000000e+00 0.000000000000000e+00 1.000000000000000e+00
5.000000000000000e-01 0.000000000000000e+00 5.000000000000000e-01
5.000000000000000e-01 5.000000000000000e-01 1.000000000000000e+00
5.000000000000000e-01 0.000000000000000e+00 1.000000000000000e+00
7.500000000000000e-01 0.000000000000000e+00 7.500000000000000e-01
2.500000000000000e-01 0.000000000000000e+00 7.500000000000000e-01
2.500000000000000e-01 2.500000000000000e-01 1.000000000000000e+00
7.500000000000000e-01 2.500000000000000e-01 1.000000000000000e+00
5.000000000000000e-01 2.500000000000000e-01 7.500000000000000e-01
0.000000000000000e+00 0.000000000000000e+00 0.000000000000000e+00
1.000000000000000e+00 0.000000000000000e+00 0.000000000000000e+00
5.000000000000000e-01 5.000000000000000e-01 0.000000000000000e+00
5.000000000000000e-01 0.000000000000000e+00 5.000000000000000e-01
5.000000000000000e-01 0.000000000000000e+00 0.000000000000000e+00
7.500000000000000e-01 2.500000000000000e-01 0.000000000000000e+00
2.500000000000000e-01 2.500000000000000e-01 0.000000000000000e+00
2.500000000000000e-01 0.000000000000000e+00 2.500000000000000e-01
7.500000000000000e-01 0.000000000000000e+00 2.500000000000000e-01
5.000000000000000e-01 2.500000000000000e-01 2.500000000000000e-01
0.000000000000000e+00 1.000000000000000e+00 0.000000000000000e+00
1.000000000000000e+00 1.000000000000000e+00 0.000000000000000e+00
5.000000000000000e-01 1.000000000000000e+00 5.000000000000000e-01
5.000000000000000e-01 5.000000000000000e-01 0.000000000000000e+00
5.000000000000000e-01 1.000000000000000e+00 0.000000000000000e+00
7.500000000000000e-01 1.000000000000000e+00 2.500000000000000e-01
2.500000000000000e-01 1.000000000000000e+00 2.500000000000000e-01
2.500000000000000e-01 7.500000000000000e-01 0.000000000000000e+00
7.500000000000000e-01 7.500000000000000e-01 0.000000000000000e+00
5.000000000000000e-01 7.500000000000000e-01 2.500000000000000e-01
0.000000000000000e+00 1.000000000000000e+00 1.000000000000000e+00
1.000000000000000e+00 1.000000000000000e+00 1.000000000000000e+00
5.000000000000000e-01 5.000000000000000e-01 1.000000000000000e+00
5.000000000000000e-01 1.000000000000000e+00 5.000000000000000e-01
5.000000000000000e-01 1.000000000000000e+00 1.000000000000000e+00
7.500000000000000e-01 7.500000000000000e-01 1.000000000000000e+00
2.500000000000000e-01 7.500000000000000e-01 1.000000000000000e+00
2.500000000000000e-01 1.000000000000000e+00 7.500000000000000e-01
7.500000000000000e-01 1.000000000000000e+00 7.500000000000000e-01
5.000000000000000e-01 7.500000000000000e-01 7.500000000000000e-01
1.000000000000000e+00 0.000000000000000e+00 1.000000000000000e+00
1.000000000000000e+00 0.000000000000000e+00 0.000000000000000e+00
5.000000000000000e-01 0.000000000000000e+00 5.000000000000000e-01
1.000000000000000e+00 5.000000000000000e-01 5.000000000000000e-01
1.000000000000000e+00 0.000000000000000e+00 5.000000000000000e-01
7.500000000000000e-01 0.000000000000000e+00 2.500000000000000e-01
7.500000000000000e-01 0.000000000000000e+00 7.500000000000000e-01
1.000000000000000e+00 2.500000000000000e-01 7.500000000000000e-01
1.000000000000000e+00 2.500000000000000e-01 2.500000000000000e-01
7.500000000000000e-01 2.500000000000000e-01 5.000000000000000e-01
1.000000000000000e+00 0.000000000000000e+00 0.000000000000000e+00
1.000000000000000e+00 1.000000000000000e+00 0.000000000000000e+00
5.000000000000000e-01 5.000000000000000e-01 0.000000000000000e+00
1.000000000000000e+00 5.000000000000000e-01 5.000000000000000e-01
1.000000000000000e+00 5.000000000000000e-01 0.000000000000000e+00
7.500000000000000e-01 7.500000000000000e-01 0.000000000000000e+00
7.500000000000000e-01 2.500000000000000e-01 0.000000000000000e+00
1.000000000000000e+00 2.500000000000000e-01 2.500000000000000e-01
1.000000000000000e+00 7.500000000000000e-01 2.500000000000000e-01
7.500000000000000e-01 5.000000000000000e-01 2.500000000000000e-01
1.000000000000000e+00 1.000000000000000e+00 0.000000000000000e+00
1.000000000000000e+00 1.000000000000000e+00 1.000000000000000e+00
5.000000000000000e-01 1.000000000000000e+00 5.000000000000000e-01
1.000000000000000e+00 5.000000000000000e-01 5.000000000000000e-01
1.000000000000000e+00 1.000000000000000e+00 5.000000000000000e-01
7.500000000000000e-01 1.000000000000000e+00 7.500000000000000e-01
7.500000000000000e-01 1.000000000000000e+00 2.500000000000000e-01
1.000000000000000e+00 7.500000000000000e-01 2.500000000000000e-01
1.000000000000000e+00 7.500000000000000e-01 7.500000000000000e-01
7.500000000000000e-01 7.500000000000000e-01 5.000000000000000e-01
1.000000000000000e+00 1.000000000000000e+00 1.000000000000000e+00
1.000000000000000e+00 0.000000000000000e+00 1.000000000000000e+00
5.000000000000000e-01 5.000000000000000e-01 1.000000000000000e+00
1.000000000000000e+00 5.000000000000000e-01 5.000000000000000e-01
1.000000000000000e+00 5.000000000000000e-01 1.000000000000000e+00
7.500000000000000e-01 2.500000000000000e-01 1.000000000000000e+00
7.500000000000000e-01 7.500000000000000e-01 1.000000000000000e+00
1.000000000000000e+00 7.500000000000000e-01 7.500000000000000e-01
1.000000000000000e+00 2.500000000000000e-01 7.500000000000000e-01
7.500000000000000e-01 5.000000000000000e-01 7.500000000000000e-01
0.000000000000000e+00 5.000000000000000e-01 5.000000000000000e-01
5.000000000000000e-01 0.000000000000000e+00 5.000000000000000e-01
5.000000000000000e-01 5.000000000000000e-01 1.000000000000000e+00
0.000000000000000e+00 0.000000000000000e+00 1.000000000000000e+00
2.500000000000000e-01 2.500000000000000e-01 5.000000000000000e-01
5.000000000000000e-01 2.500000000000000e-01 7.500000000000000e-01
2.500000000000000e-01 5.000000000000000e-01 7.500000000000000e-01
0.000000000000000e+00 2.500000000000000e-01 7.500000000000000e-01
2.500000000000000e-01 0.000000000000000e+00 7.500000000000000e-01
2.500000000000000e-01 2.500000000000000e-01 1.000000000000000e+00
0.000000000000000e+00 5.000000000000000e-01 5.000000000000000e-01
5.000000000000000e-01 5.000000000000000e-01 0.000000000000000e+00
5.000000000000000e-01 0.000000000000000e+00 5.000000000000000e-01
0.000000000000000e+00 0.000000000000000e+00 0.000000000000000e+00
2.500000000000000e-01 5.000000000000000e-01 2.500000000000000e-01
5.000000000000000e-01 2.500000000000000e-01 2.500000000000000e-01
2.500000000000000e-01 2.500000000000000e-01 5.000000000000000e-01
0.000000000000000e+00 2.500000000000000e-01 2.500000000000000e-01
2.500000000000000e-01 2.500000000000000e-01 0.000000000000000e+00
2.500000000000000e-01 0.000000000000000e+00 2.500000000000000e-01
0.000000000000000e+00 5.000000000000000e-01 5.000000000000000e-01
5.000000000000000e-01 1.000000000000000e+00 5.000000000000000e-01
5.000000000000000e-01 5.000000000000000e-01 0.000000000000000e+00
0.000000000000000e+00 1.000000000000000e+00 0.000000000000000e+00
2.500000000000000e-01 7.500000000000000e-01 5.000000000000000e-01
5.000000000000000e-01 7.500000000000000e-01 2.500000000000000e-01
2.500000000000000e-01 5.000000000000000e-01 2.500000000000000e-01
0.000000000000000e+00 7.500000000000000e-01 2.500000000000000e-01
2.500000000000000e-01 1.000000000000000e+00 2.500000000000000e-01
2.500000000000000e-01 7.500000000000000e-01 0.000000000000000e+00
0.000000000000000e+00 5.000000000000000e-01 5.000000000000000e-01
5.000000000000000e-01 5.000000000000000e-01 1.000000000000000e+00
5.000000000000000e-01 1.000000000000000e+00 5.000000000000000e-01
0.000000000000000e+00 1.000000000000000e+00 1.000000000000000e+00
2.500000000000000e-01 5.000000000000000e-01 7.500000000000000e-01
5.000000000000000e-01 7.500000000000000e-01 7.500000000000000e-01
2.500000000000000e-01 7.500000000000000e-01 5.000000000000000e-01
0.000000000000000e+00 7.500000000000000e-01 7.500000000000000e-01
2.500000000000000e-01 7.500000000000000e-01 1.000000000000000e+00
2.500000000000000e-01 1.000000000000000e+00 7.500000000000000e-01
1.000000000000000e+00 5.000000000000000e-01 5.000000000000000e-01
5.000000000000000e-01 5.000000000000000e-01 1.000000000000000e+00
5.000000000000000e-01 0.000000000000000e+00 5.000000000000000e-01
1.000000000000000e+00 0.000000000000000e+00 1.000000000000000e+00
7.500000000000000e-01 5.000000000000000e-01 7.500000000000000e-01
5.000000000000000e-01 2.500000000000000e-01 7.500000000000000e-01
7.500000000000000e-01 2.500000000000000e-01 5.000000000000000e-01
1.000000000000000e+00 2.500000000000000e-01 7.500000000000000e-01
7.500000000000000e-01 2.500000000000000e-01 1.000000000000000e+00
7.500000000000000e-01 0.000000000000000e+00 7.500000000000000e-01
1.000000000000000e+00 5.000000000000000e-01 5.000000000000000e-01
5.000000000000000e-01 0.000000000000000e+00 5.000000000000000e-01
5.000000000000000e-01 5.000000000000000e-01 0.000000000000000e+00
1.000000000000000e+00 0.000000000000000e+00 0.000000000000000e+00
7.500000000000000e-01 2.500000000000000e-01 5.000000000000000e-01
5.000000000000000e-01 2.500000000000000e-01 2.500000000000000e-01
7.500000000000000e-01 5.000000000000000e-01 2.500000000000000e-01
1.000000000000000e+00 2.500000000000000e-01 2.500000000000000e-01
7.500000000000000e-01 0.000000000000000e+00 2.500000000000000e-01
7.500000000000000e-01 2.500000000000000e-01 0.000000000000000e+00
1.000000000000000e+00 5.000000000000000e-01 5.000000000000000e-01
5.000000000000000e-01 5.000000000000000e-01 0.000000000000000e+00
5.000000000000000e-01 1.000000000000000e+00 5.000000000000000e-01
1.000000000000000e+00 1.000000000000000e+00 0.000000000000000e+00
7.500000000000000e-01 5.000000000000000e-01 2.500000000000000e-01
5.000000000000000e-01 7.500000000000000e-01 2.500000000000000e-01
7.500000000000000e-01 7.500000000000000e-01 5.000000000000000e-01
1.000000000000000e+00 7.500000000000000e-01 2.500000000000000e-01
7.500000000000000e-01 7.500000000000000e-01 0.000000000000000e+00
7.500000000000000e-01 1.000000000000000e+00 2.500000000000000e-01
1.000000000000000e+00 5.000000000000000e-01 5.000000000000000e-01
5.000000000000000e-01 1.000000000000000e+00 5.000000000000000e-01
5.000000000000000e-01 5.000000000000000e-01 1.000000000000000e+00
1.000000000000000e+00 1.000000000000000e+00 1.000000000000000e+00
7.500000000000000e-01 7.500000000000000e-01 5.000000000000000e-01
5.000000000000000e-01 7.500000000000000e-01 7.500000000000000e-01
7.500000000000000e-01 5.000000000000000e-01 7.500000000000000e-01
1.000000000000000e+00 7.500000000000000e-01 7.500000000000000e-01
7.500000000000000e-01 1.000000000000000e+00 7.500000000000000e-01
7.500000000000000e-01 7.500000000000000e-01 1.000000000000000e+00
0.000000000000000e+00 5.000000000000000e-01 5.000000000000000e-01
5.000000000000000e-01 5.000000000000000e-01 1.000000000000000e+00
5.000000000000000e-01 0.000000000000000e+00 5.000000000000000e-01
5.000000000000000e-01 5.000000000000000e-01 5.000000000000000e-01
2.500000000000000e-01 5.000000000000000e-01 7.500000000000000e-01
5.000000000000000e-01 2.500000000000000e-01 7.500000000000000e-01
2.500000000000000e-01 2.500000000000000e-01 5.000000000000000e-01
2.500000000000000e-01 5.000000000000000e-01 5.000000000000000e-01
5.000000000000000e-01 5.000000000000000e-01 7.500000000000000e-01
5.000000000000000e-01 2.500000000000000e-01 5.000000000000000e-01
0.000000000000000e+00 5.000000000000000e-01 5.000000000000000e-01
5.000000000000000e-01 0.000000000000000e+00 5.000000000000000e-01
5.000000000000000e-01 5.000000000000000e-01 0.000000000000000e+00
5.000000000000000e-01 5.000000000000000e-01 5.000000000000000e-01
2.500000000000000e-01 2.500000000000000e-01 5.000000000000000e-01
5.000000000000000e-01 2.500000000000000e-01 2.500000000000000e-01
2.500000000000000e-01 5.000000000000000e-01 2.500000000000000e-01
2.500000000000000e-01 5.000000000000000e-01 5.000000000000000e-01
5.000000000000000e-01 2.500000000000000e-01 5.000000000000000e-01
5.000000000000000e-01 5.000000000000000e-01 2.500000000000000e-01
0.000000000000000e+00 5.000000000000000e-01 5.000000000000000e-01
5.000000000000000e-01 5.000000000000000e-01 0.000000000000000e+00
5.000000000000000e-01 1.000000000000000e+00 5.000000000000000e-01
5.000000000000000e-01 5.000000000000000e-01 5.000000000000000e-01
2.500000000000000e-01 5.000000000000000e-01 2.500000000000000e-01
5.000000000000000e-01 7.500000000000000e-01 2.500000000000000e-01
2.500000000000000e-01 7.500000000000000e-01 5.000000000000000e-01
2.500000000000000e-01 5.000000000000000e-01 5.000000000000000e-01
5.000000000000000e-01 5.000000000000000e-01 2.500000000000000e-01
5.000000000000000e-01 7.500000000000000e-01 5.000000000000000e-01
0.000000000000000e+00 5.000000000000000e-01 5.000000000000000e-01
5.000000000000000e-01 1.000000000000000e+00 5.000000000000000e-01
5.000000000000000e-01 5.000000000000000e-01 1.000000000000000e+00
5.000000000000000e-01 5.000000000000000e-01 5.000000000000000e-01
2.500000000000000e-01 7.500000000000000e-01 5.000000000000000e-01
5.000000000000000e-01 7.500000000000000e-01 7.500000000000000e-01
2.500000000000000e-01 5.000000000000000e-01 7.500000000000000e-01
2.500000000000000e-01 5.000000000000000e-01 5.000000000000000e-01
5.000000000000000e-01 7.500000000000000e-01 5.000000000000000e-01
5.000000000000000e-01 5.000000000000000e-01 7.500000000000000e-01
1.000000000000000e+00 5.000000000000000e-01 5.000000000000000e-01
5.000000000000000e-01 0.000000000000000e+00 5.000000000000000e-01
5.000000000000000e-01 5.000000000000000e-01 1.000000000000000e+00
5.000000000000000e-01 5.000000000000000e-01 5.000000000000000e-01
7.500000000000000e-01 2.500000000000000e-01 5.000000000000000e-01
5.000000000000000e-01 2.500000000000000e-01 7.500000000000000e-01
7.500000000000000e-01 5.000000000000000e-01 7.500000000000000e-01
7.500000000000000e-01 5.000000000000000e-01 5.000000000000000e-01
5.000000000000000e-01 2.500000000000000e-01 5.000000000000000e-01
5.000000000000000e-01 5.000000000000000e-01 7.500000000000000e-01
1.000000000000000e+00 5.000000000000000e-01 5.000000000000000e-01
5.000000000000000e-01 5.000000000000000e-01 0.000000000000000e+00
5.000000000000000e-01 0.000000000000000e+00 5.000000000000000e-01
5.000000000000000e-01 5.000000000000000e-01 5.000000000000000e-01
7.500000000000000e-01 5.000000000000000e-01 2.500000000000000e-01
5.000000000000000e-01 2.500000000000000e-01 2.500000000000000e-01
7.500000000000000e-01 2.500000000000000e-01 5.000000000000000e-01
7.500000000000000e-01 5.000000000000000e-01 5.000000000000000e-01
5.000000000000000e-01 5.000000000000000e-01 2.500000000000000e-01
5.000000000000000e-01 2.500000000000000e-01 5.000000000000000e-01
1.000000000000000e+00 5.000000000000000e-01 5.000000000000000e-01
5.000000000000000e-01 1.000000000000000e+00 5.000000000000000e-01
5.000000000000000e-01 5.000000000000000e-01 0.000000000000000e+00
5.000000000000000e-01 5.000000000000000e-01 5.000000000000000e-01
7.500000000000000e-01 7.500000000000000e-01 5.000000000000000e-01
5.000000000000000e-01 7.500000000000000e-01 2.500000000000000e-01
7.500000000000000e-01 5.000000000000000e-01 2.500000000000000e-01
7.500000000000000e-01 5.000000000000000e-01 5.000000000000000e-01
5.000000000000000e-01 7.500000000000000e-01 5.000000000000000e-01
5.000000000000000e-01 5.000000000000000e-01 2.500000000000000e-01
1.000000000000000e+00 5.000000000000000e-01 5.000000000000000e-01
5.000000000000000e-01 5.000000000000000e-01 1.000000000000000e+00
5.000000000000000e-01 1.000000000000000e+00 5.000000000000000e-01
5.000000000000000e-01 5.000000000000000e-01 5.000000000000000e-01
7.500000000000000e-01 5.000000000000000e-01 7.500000000000000e-01
5.000000000000000e-01 7.500000000000000e-01 7.500000000000000e-01
7.500000000000000e-01 7.500000000000000e-01 5.000000000000000e-01
7.500000000000000e-01 5.000000000000000e-01 5.000000000000000e-01
5.000000000000000e-01 5.000000000000000e-01 7.500000000000000e-01
5.000000000000000e-01 7.500000000000000e-01 5.000000000000000e-01
1.000000000000000e+00 0.000000000000000e+00 1.000000000000000e+00
1.000000000000000e+00 0.000000000000000e+00 0.000000000000000e+00
1.000000000000000e+00 5.000000000000000e-01 5.000000000000000e-01
1.500000000000000e+00 0.000000000000000e+00 5.000000000000000e-01
1.000000000000000e+00 0.000000000000000e+00 5.000000000000000e-01
1.000000000000000e+00 2.500000000000000e-01 2.500000000000000e-01
1.000000000000000e+00 2.500000000000000e-01 7.500000000000000e-01
1.250000000000000e+00 0.000000000000000e+00 7.500000000000000e-01
1.250000000000000e+00 0.000000000000000e+00 2.500000000000000e-01
1.250000000000000e+00 2.500000000000000e-01 5.000000000000000e-01
1.000000000000000e+00 0.000000000000000e+00 0.000000000000000e+00
1.000000000000000e+00 1.000000000000000e+00 0.000000000000000e+00
1.000000000000000e+00 5.000000000000000e-01 5.000000000000000e-01
1.500000000000000e+00 5.000000000000000e-01 0.000000000000000e+00
1.000000000000000e+00 5.000000000000000e-01 0.000000000000000e+00
1.000000000000000e+00 7.500000000000000e-01 2.500000000000000e-01
1.000000000000000e+00 2.500000000000000e-01 2.500000000000000e-01
1.250000000000000e+00 2.500000000000000e-01 0.000000000000000e+00
1.250000000000000e+00 7.500000000000000e-01 0.000000000000000e+00
1.250000000000000e+00 5.000000000000000e-01 2.500000000000000e-01
1.000000000000000e+00 1.000000000000000e+00 0.000000000000000e+00
1.000000000000000e+00 1.000000000000000e+00 1.000000000000000e+00
1.000000000000000e+00 5.000000000000000e-01 5.000000000000000e-01
1.500000000000000e+00 1.000000000000000e+00 5.000000000000000e-01
1.000000000000000e+00 1.000000000000000e+00 5.000000000000000e-01
1.000000000000000e+00 7.500000000000000e-01 7.500000000000000e-01
1.000000000000000e+00 7.500000000000000e-01 2.500000000000000e-01
1.250000000000000e+00 1.000000000000000e+00 2.500000000000000e-01
1.250000000000000e+00 1.000000000000000e+00 7.500000000000000e-01
1.250000000000000e+00 7.500000000000000e-01 5.000000000000000e-01
1.000000000000000e+00 1.000000000000000e+00 1.000000000000000e+00
1.000000000000000e+00 0.000000000000000e+00 1.000000000000000e+00
1.000000000000000e+00 5.000000000000000e-01 5.000000000000000e-01
1.500000000000000e+00 5.000000000000000e-01 1.000000000000000e+00
1.000000000000000e+00 5.000000000000000e-01 1.000000000000000e+00
1.000000000000000e+00 2.500000000000000e-01 7.500000000000000e-01
1.000000000000000e+00 7.500000000000000e-01 7.500000000000000e-01
1.250000000000000e+00 7.500000000000000e-01 1.000000000000000e+00
1.250000000000000e+00 2.500000000000000e-01 1.000000000000000e+00
1.250000000000000e+00 5.000000000000000e-01 7.500000000000000e-01
1.000000000000000e+00 0.000000000000000e+00 1.000000000000000e+00
2.000000000000000e+00 0.000000000000000e+00 1.000000000000000e+00
1.500000000000000e+00 0.000000000000000e+00 5.000000000000000e-01
1.500000000000000e+00 5.000000000000000e-01 1.000000000000000e+00
1.500000000000000e+00 0.000000000000000e+00 1.000000000000000e+00
1.750000000000000e+00 0.000000000000000e+00 7.500000000000000e-01
1.250000000000000e+00 0.000000000000000e+00 7.500000000000000e-01
1.250000000000000e+00 2.500000000000000e-01 1.000000000000000e+00
1.750000000000000e+00 2.500000000000000e-01 1.000000000000000e+00
1.500000000000000e+00 2.500000000000000e-01 7.500000000000000e-01
1.000000000000000e+00 0.000000000000000e+00 0.000000000000000e+00
2.000000000000000e+00 0.000000000000000e+00 0.000000000000000e+00
1.500000000000000e+00 5.000000000000000e-01 0.000000000000000e+00
1.500000000000000e+00 0.000000000000000e+00 5.000000000000000e-01
1.500000000000000e+00 0.000000000000000e+00 0.000000000000000e+00
1.750000000000000e+00 2.500000000000000e-01 0.000000000000000e+00
1.250000000000000e+00 2.500000000000000e-01 0.000000000000000e+00
1.250000000000000e+00 0.000000000000000e+00 2.500000000000000e-01
1.750000000000000e+00 0.000000000000000e+00 2.500000000000000e-01
1.500000000000000e+00 2.500000000000000e-01 2.500000000000000e-01
1.000000000000000e+00 1.000000000000000e+00 0.000000000000000e+00
2.000000000000000e+00 1.000000000000000e+00 0.000000000000000e+00
1.500000000000000e+00 1.000000000000000e+00 5.000000000000000e-01
1.500000000000000e+00 5.000000000000000e-01 0.000000000000000e+00
1.500000000000000e+00 1.000000000000000e+00 0.000000000000000e+00
1.750000000000000e+00 1.000000000000000e+00 2.500000000000000e-01
1.250000000000000e+00 1.000000000000000e+00 2.500000000000000e-01
1.250000000000000e+00 7.500000000000000e-01 0.000000000000000e+00
1.750000000000000e+00 7.500000000000000e-01 0.000000000000000e+00
1.500000000000000e+00 7.500000000000000e-01 2.500000000000000e-01
1.000000000000000e+00 1.000000000000000e+00 1.000000000000000e+00
2.000000000000000e+00 1.000000000000000e+00 1.000000000000000e+00
1.500000000000000e+00 5.000000000000000e-01 1.000000000000000e+00
1.500000000000000e+00 1.000000000000000e+00 5.000000000000000e-01
1.500000000000000e+00 1.000000000000000e+00 1.000000000000000e+00
1.750000000000000e+00 7.500000000000000e-01 1.000000000000000e+00
1.250000000000000e+00 7.500000000000000e-01 1.000000000000000e+00
1.250000000000000e+00 1.000000000000000e+00 7.500000000000000e-01
1.750000000000000e+00 1.000000000000000e+00 7.500000000000000e-01
1.500000000000000e+00 7.500000000000000e-01 7.500000000000000e-01
2.000000000000000e+00 0.000000000000000e+00 1.000000000000000e+00
2.000000000000000e+00 0.000000000000000e+00 0.000000000000000e+00
1.500000000000000e+00 0.000000000000000e+00 5.000000000000000e-01
2.000000000000000e+00 5.000000000000000e-01 5.000000000000000e-01
2.000000000000000e+00 0.000000000000000e+00 5.000000000000000e-01
1.750000000000000e+00 0.000000000000000e+00 2.500000000000000e-01
1.750000000000000e+00 0.000000000000000e+00 7.500000000000000e-01
2.000000000000000e+00 2.500000000000000e-01 7.500000000000000e-01
2.000000000000000e+00 2.500000000000000e-01 2.500000000000000e-01
1.750000000000000e+00 2.500000000000000e-01 5.000000000000000e-01
2.000000000000000e+00 0.000000000000000e+00 0.000000000000000e+00
2.000000000000000e+00 1.000000000000000e+00 0.000000000000000e+00
1.500000000000000e+00 5.000000000000000e-01 0.000000000000000e+00
2.000000000000000e+00 5.000000000000000e-01 5.000000000000000e-01
2.000000000000000e+00 5.000000000000000e-01 0.000000000000000e+00
1.750000000000000e+00 7.500000000000000e-01 0.000000000000000e+00
1.750000000000000e+00 2.500000000000000e-01 0.000000000000000e+00
2.000000000000000e+00 2.500000000000000e-01 2.500000000000000e-01
2.000000000000000e+00 7.500000000000000e-01 2.500000000000000e-01
1.750000000000000e+00 5.000000000000000e-01 2.500000000000000e-01
2.000000000000000e+00 1.000000000000000e+00 0.000000000000000e+00
2.000000000000000e+00 1.000000000000000e+00 1.000000000000000e+00
1.500000000000000e+00 1.000000000000000e+00 5.000000000000000e-01
2.000000000000000e+00 5.000000000000000e-01 5.000000000000000e-01
2.000000000000000e+00 1.000000000000000e+00 5.000000000000000e-01
1.750000000000000e+00 1.000000000000000e+00 7.500000000000000e-01
1.750000000000000e+00 1.000000000000000e+00 2.500000000000000e-01
2.000000000000000e+00 7.500000000000000e-01 2.500000000000000e-01
2.000000000000000e+00 7.500000000000000e-01 7.500000000000000e-01
1.750000000000000e+00 7.500000000000000e-01 5.000000000000000e-01
2.000000000000000e+00 1.000000000000000e+00 1.000000000000000e+00
2.000000000000000e+00 0.000000000000000e+00 1.000000000000000e+00
1.500000000000000e+00 5.000000000000000e-01 1.000000000000000e+00
2.000000000000000e+00 5.000000000000000e-01 5.000000000000000e-01
2.000000000000000e+00 5.000000000000000e-01 1.000000000000000e+00
1.750000000000000e+00 2.500000000000000e-01 1.000000000000000e+00
1.750000000000000e+00 7.500000000000000e-01 1.000000000000000e+00
2.000000000000000e+00 7.500000000000000e-01 7.500000000000000e-01
2.000000000000000e+00 2.500000000000000e-01 7.500000000000000e-01
1.750000000000000e+00 5.000000000000000e-01 7.500000000000000e-01
1.000000000000000e+00 5.000000000000000e-01 5.000000000000000e-01
1.500000000000000e+00 0.000000000000000e+00 5.000000000000000e-01
1.500000000000000e+00 5.000000000000000e-01 1.000000000000000e+00
1.000000000000000e+00 0.000000000000000e+00 1.000000000000000e+00
1.250000000000000e+00 2.500000000000000e-01 5.000000000000000e-01
1.500000000000000e+00 2.500000000000000e-01 7.500000000000000e-01
1.250000000000000e+00 5.000000000000000e-01 7.500000000000000e-01
1.000000000000000e+00 2.500000000000000e-01 7.500000000000000e-01
1.250000000000000e+00 0.000000000000000e+00 7.500000000000000e-01
1.250000000000000e+00 2.500000000000000e-01 1.000000000000000e+00
1.000000000000000e+00 5.000000000000000e-01 5.000000000000000e-01
1.500000000000000e+00 5.000000000000000e-01 0.000000000000000e+00
1.500000000000000e+00 0.000000000000000e+00 5.000000000000000e-01
1.000000000000000e+00 0.000000000000000e+00 0.000000000000000e+00
1.250000000000000e+00 5.000000000000000e-01 2.500000000000000e-01
1.500000000000000e+00 2.500000000000000e-01 2.500000000000000e-01
1.250000000000000e+00 2.500000000000000e-01 5.000000000000000e-01
1.000000000000000e+00 2.500000000000000e-01 2.500000000000000e-01
1.250000000000000e+00 2.500000000000000e-01 0.000000000000000e+00
1.250000000000000e+00 0.000000000000000e+00 2.500000000000000e-01
1.000000000000000e+00 5.000000000000000e-01 5.000000000000000e-01
1.500000000000000e+00 1.000000000000000e+00 5.000000000000000e-01
1.500000000000000e+00 5.000000000000000e-01 0.000000000000000e+00
1.000000000000000e+00 1.000000000000000e+00 0.000000000000000e+00
1.250000000000000e+00 7.500000000000000e-01 5.000000000000000e-01
1.500000000000000e+00 7.500000000000000e-01 2.500000000000000e-01
1.250000000000000e+00 5.000000000000000e-01 2.500000000000000e-01
1.000000000000000e+00 7.500000000000000e-01 2.500000000000000e-01
1.250000000000000e+00 1.000000000000000e+00 2.500000000000000e-01
1.250000000000000e+00 7.500000000000000e-01 0.000000000000000e+00
1.000000000000000e+00 5.000000000000000e-01 5.000000000000000e-01
1.500000000000000e+00 5.000000000000000e-01 1.000000000000000e+00
1.500000000000000e+00 1.000000000000000e+00 5.000000000000000e-01
1.000000000000000e+00 1.000000000000000e+00 1.000000000000000e+00
1.250000000000000e+00 5.000000000000000e-01 7.500000000000000e-01
1.500000000000000e+00 7.500000000000000e-01 7.500000000000000e-01
1.250000000000000e+00 7.500000000000000e-01 5.000000000000000e-01
1.000000000000000e+00 7.500000000000000e-01 7.500000000000000e-01
1.250000000000000e+00 7.500000000000000e-01 1.000000000000000e+00
1.250000000000000e+00 1.000000000000000e+00 7.500000000000000e-01
2.000000000000000e+00 5.000000000000000e-01 5.000000000000000e-01
1.500000000000000e+00 5.000000000000000e-01 1.000000000000000e+00
1.500000000000000e+00 0.000000000000000e+00 5.000000000000000e-01
2.000000000000000e+00 0.000000000000000e+00 1.000000000000000e+00
1.750000000000000e+00 5.000000000000000e-01 7.500000000000000e-01
1.500000000000000e+00 2.500000000000000e-01 7.500000000000000e-01
1.750000000000000e+00 2.500000000000000e-01 5.000000000000000e-01
2.000000000000000e+00 2.500000000000000e-01 7.500000000000000e-01
1.750000000000000e+00 2.500000000000000e-01 1.000000000000000e+00
1.750000000000000e+00 0.000000000000000e+00 7.500000000000000e-01
2.000000000000000e+00 5.000000000000000e-01 5.000000000000000e-01
1.500000000000000e+00 0.000000000000000e+00 5.000000000000000e-01
1.500000000000000e+00 5.000000000000000e-01 0.000000000000000e+00
2.000000000000000e+00 0.000000000000000e+00 0.000000000000000e+00
1.750000000000000e+00 2.500000000000000e-01 5.000000000000000e-01
1.500000000000000e+00 2.500000000000000e-01 2.500000000000000e-01
1.750000000000000e+00 5.000000000000000e-01 2.500000000000000e-01
2.000000000000000e+00 2.500000000000000e-01 2.500000000000000e-01
1.750000000000000e+00 0.000000000000000e+00 2.500000000000000e-01
1.750000000000000e+00 2.500000000000000e-01 0.000000000000000e+00
2.000000000000000e+00 5.000000000000000e-01 5.000000000000000e-01
1.500000000000000e+00 5.000000000000000e-01 0.000000000000000e+00
1.500000000000000e+00 1.000000000000000e+00 5.000000000000000e-01
2.000000000000000e+00 1.000000000000000e+00 0.000000000000000e+00
1.750000000000000e+00 5.000000000000000e-01 2.500000000000000e-01
1.500000000000000e+00 7.500000000000000e-01 2.500000000000000e-01
1.750000000000000e+00 7.500000000000000e-01 5.000000000000000e-01
2.000000000000000e+00 7.500000000000000e-01 2.500000000000000e-01
1.750000000000000e+00 7.500000000000000e-01 0.000000000000000e+00
1.750000000000000e+00 1.000000000000000e+00 2.500000000000000e-01
2.000000000000000e+00 5.000000000000000e-01 5.000000000000000e-01
1.500000000000000e+00 1.000000000000000e+00 5.000000000000000e-01
1.500000000000000e+00 5.000000000000000e-01 1.000000000000000e+00
2.000000000000000e+00 1.000000000000000e+00 1.000000000000000e+00
1.750000000000000e+00 7.500000000000000e-01 5.000000000000000e-01
1.500000000000000e+00 7.500000000000000e-01 7.500000000000000e-01
1.750000000000000e+00 5.000000000000000e-01 7.500000000000000e-01
2.000000000000000e+00 7.500000000000000e-01 7.500000000000000e-01
1.750000000000000e+00 1.000000000000000e+00 7.500000000000000e-01
1.750000000000000e+00 7.500000000000000e-01 1.000000000000000e+00
1.000000000000000e+00 5.000000000000000e-01 5.000000000000000e-01
1.500000000000000e+00 5.000000000000000e-01 1.000000000000000e+00
1.500000000000000e+00 0.000000000000000e+00 5.000000000000000e-01
1.500000000000000e+00 5.000000000000000e-01 5.000000000000000e-01
1.250000000000000e+00 5.000000000000000e-01 7.500000000000000e-01
1.500000000000000e+00 2.500000000000000e-01 7.500000000000000e-01
1.250000000000000e+00 2.500000000000000e-01 5.000000000000000e-01
1.250000000000000e+00 5.000000000000000e-01 5.000000000000000e-01
1.500000000000000e+00 5.000000000000000e-01 7.500000000000000e-01
1.500000000000000e+00 2.500000000000000e-01 5.000000000000000e-01
1.000000000000000e+00 5.000000000000000e-01 5.000000000000000e-01
1.500000000000000e+00 0.000000000000000e+00 5.000000000000000e-01
1.500000000000000e+00 5.000000000000000e-01 0.000000000000000e+00
1.500000000000000e+00 5.000000000000000e-01 5.000000000000000e-01
1.250000000000000e+00 2.500000000000000e-01 5.000000000000000e-01
1.500000000000000e+00 2.500000000000000e-01 2.500000000000000e-01
1.250000000000000e+00 5.000000000000000e-01 2.500000000000000e-01
1.250000000000000e+00 5.000000000000000e-01 5.000000000000000e-01
1.500000000000000e+00 2.500000000000000e-01 5.000000000000000e-01
1.500000000000000e+00 5.000000000000000e-01 2.500000000000000e-01
1.000000000000000e+00 5.000000000000000e-01 5.000000000000000e-01
1.500000000000000e+00 5.000000000000000e-01 0.000000000000000e+00
1.500000000000000e+00 1.000000000000000e+00 5.000000000000000e-01
1.500000000000000e+00 5.000000000000000e-01 5.000000000000000e-01
1.250000000000000e+00 5.000000000000000e-01 2.500000000000000e-01
1.500000000000000e+00 7.500000000000000e-01 2.500000000000000e-01
1.250000000000000e+00 7.500000000000000e-01 5.000000000000000e-01
1.250000000000000e+00 5.000000000000000e-01 5.000000000000000e-01
1.500000000000000e+00 5.000000000000000e-01 2.500000000000000e-01
1.500000000000000e+00 7.500000000000000e-01 5.000000000000000e-01
1.000000000000000e+00 5.000000000000000e-01 5.000000000000000e-01
1.500000000000000e+00 1.000000000000000e+00 5.000000000000000e-01
1.500000000000000e+00 5.000000000000000e-01 1.000000000000000e+00
1.500000000000000e+00 5.000000000000000e-01 5.000000000000000e-01
1.250000000000000e+00 7.500000000000000e-01 5.000000000000000e-01
1.500000000000000e+00 7.500000000000000e-01 7.500000000000000e-01
1.250000000000000e+00 5.000000000000000e-01 7.500000000000000e-01
1.250000000000000e+00 5.000000000000000e-01 5.000000000000000e-01
1.500000000000000e+00 7.500000000000000e-01 5.000000000000000e-01
1.500000000000000e+00 5.000000000000000e-01 7.500000000000000e-01
2.000000000000000e+00 5.000000000000000e-01 5.000000000000000e-01
1.500000000000000e+00 0.000000000000000e+00 5.000000000000000e-01
1.500000000000000e+00 5.000000000000000e-01 1.000000000000000e+00
1.500000000000000e+00 5.000000000000000e-01 5.000000000000000e-01
1.750000000000000e+00 2.500000000000000e-01 5.000000000000000e-01
1.500000000000000e+00 2.500000000000000e-01 7.500000000000000e-01
1.750000000000000e+00 5.000000000000000e-01 7.500000000000000e-01
1.750000000000000e+00 5.000000000000000e-01 5.000000000000000e-01
1.500000000000000e+00 2.500000000000000e-01 5.000000000000000e-01
1.500000000000000e+00 5.000000000000000e-01 7.500000000000000e-01
2.000000000000000e+00 5.000000000000000e-01 5.000000000000000e-01
1.500000000000000e+00 5.000000000000000e-01 0.000000000000000e+00
1.500000000000000e+00 0.000000000000000e+00 5.000000000000000e-01
1.500000000000000e+00 5.000000000000000e-01 5.000000000000000e-01
1.750000000000000e+00 5.000000000000000e-01 2.500000000000000e-01
1.500000000000000e+00 2.500000000000000e-01 2.500000000000000e-01
1.750000000000000e+00 2.500000000000000e-01 5.000000000000000e-01
1.750000000000000e+00 5.000000000000000e-01 5.000000000000000e-01
1.500000000000000e+00 5.000000000000000e-01 2.500000000000000e-01
1.500000000000000e+00 2.500000000000000e-01 5.000000000000000e-01
2.000000000000000e+00 5.000000000000000e-01 5.000000000000000e-01
1.500000000000000e+00 1.000000000000000e+00 5.000000000000000e-01
1.500000000000000e+00 5.000000000000000e-01 0.000000000000000e+00
1.500000000000000e+00 5.000000000000000e-01 5.000000000000000e-01
1.750000000000000e+00 7.500000000000000e-01 5.000000000000000e-01
1.500000000000000e+00 7.500000000000000e-01 2.500000000000000e-01
1.750000000000000e+00 5.000000000000000e-01 2.500000000000000e-01
1.750000000000000e+00 5.000000000000000e-01 5.000000000000000e-01
1.500000000000000e+00 7.500000000000000e-01 5.000000000000000e-01
1.500000000000000e+00 5.000000000000000e-01 2.500000000000000e-01
2.000000000000000e+00 5.000000000000000e-01 5.000000000000000e-01
1.500000000000000e+00 5.000000000000000e-01 1.000000000000000e+00
1.500000000000000e+00 1.000000000000000e+00 5.000000000000000e-01
1.500000000000000e+00 5.000000000000000e-01 5.000000000000000e-01
1.750000000000000e+00 5.000000000000000e-01 7.500000000000000e-01
1.500000000000000e+00 7.500000000000000e-01 7.500000000000000e-01
1.750000000000000e+00 7.500000000000000e-01 5.000000000000000e-01
1.750000000000000e+00 5.000000000000000e-01 5.000000000000000e-01
1.500000000000000e+00 5.000000000000000e-01 7.500000000000000e-01
1.500000000000000e+00 7.500000000000000e-01 5.000000000000000e-01
        </DataArray>
      </Points>

      <Cells>
        <DataArray type="Int32" Name="connectivity" format="ascii">
0 1 2 3 4 5 6 7 8 9 10 11 12 13 14 15 16 17 18 19 20 21 22 23 24 25 26 27 28 29 30 31 32 33 34 35 36 37 38 39 40 41 42 43 44 45 46 47 48 49 50 51 52 53 54 55 56 57 58 59 60 61 62 63 64 65 66 67 68 69 70 71 72 73 74 75 76 77 78 79 80 81 82 83 84 85 86 87 88 89 90 91 92 93 94 95 96 97 98 99 100 101 102 103 104 105 106 107 108 109 110 111 112 113 114 115 116 117 118 119 120 121 122 123 124 125 126 127 128 129 130 131 132 133 134 135 136 137 138 139 140 141 142 143 144 145 146 147 148 149 150 151 152 153 154 155 156 157 158 159 160 161 162 163 164 165 166 167 168 169 170 171 172 173 174 175 176 177 178 179 180 181 182 183 184 185 186 187 188 189 190 191 192 193 194 195 196 197 198 199 200 201 202 203 204 205 206 207 208 209 210 211 212 213 214 215 216 217 218 219 220 221 222 223 224 225 226 227 228 229 230 231 232 233 234 235 236 237 238 239 240 241 242 243 244 245 246 247 248 249 250 251 252 253 254 255 256 257 258 259 260 261 262 263 264 265 266 267 268 269 270 271 272 273 274 275 276 277 278 279 280 281 282 283 284 285 286 287 288 289 290 291 292 293 294 295 296 297 298 299 300 301 302 303 304 305 306 307 308 309 310 311 312 313 314 315 316 317 318 319 320 321 322 323 324 325 326 327 328 329 330 331 332 333 334 335 336 337 338 339 340 341 342 343 344 345 346 347 348 349 350 351 352 353 354 355 356 357 358 359 360 361 362 363 364 365 366 367 368 369 370 371 372 373 374 375 376 377 378 379 380 381 382 383 384 385 386 387 388 389 390 391 392 393 394 395 396 397 398 399 400 401 402 403 404 405 406 407 408 409 410 411 412 413 414 415 416 417 418 419 420 421 422 423 424 425 426 427 428 429 430 431 432 433 434 435 436 437 438 439 440 441 442 443 444 445 446 447 448 449 450 451 452 453 454 455 456 457 458 459 460 461 462 463 464 465 466 467 468 469 470 471 472 473 474 475 476 477 478 479 480 481 482 483 484 485 486 487 488 489 490 491 492 493 494 495 496 497 498 499 500 501 502 503 504 505 506 507 508 509 510 511 512 513 514 515 516 517 518 519 520 521 522 523 524 525 526 527 528 529 530 531 532 533 534 535 536 537 538 539 540 541 542 543 544 545 546 547 548 549 550 551 552 553 554 555 556 557 558 559 
        </DataArray>
        <DataArray type="Int32" Name="offsets" format="ascii">
10 20 30 40 50 60 70 80 90 100 110 120 130 140 150 160 170 180 190 200 210 220 230 240 250 260 270 280 290 300 310 320 330 340 350 360 370 380 390 400 410 420 430 440 450 460 470 480 490 500 510 520 530 540 550 560 
        </DataArray>
        <DataArray type="UInt8" Name="types" format="ascii">
24 24 24 24 24 24 24 24 24 24 24 24 24 24 24 24 24 24 24 24 24 24 24 24 24 24 24 24 24 24 24 24 24 24 24 24 24 24 24 24 24 24 24 24 24 24 24 24 24 24 24 24 24 24 24 24 
        </DataArray>
      </Cells>

  <PointData>
        <DataArray type="Float64" Name="displacement" NumberOfComponents="3" format="ascii">
0.000000000000000e+00 0.000000000000000e+00 0.000000000000000e+00
0.000000000000000e+00 0.000000000000000e+00 0.000000000000000e+00
0.000000000000000e+00 0.000000000000000e+00 0.000000000000000e+00
2.892790664939237e-02 -4.005722268587802e-04 -7.852596784737411e-04
0.000000000000000e+00 0.000000000000000e+00 0.000000000000000e+00
0.000000000000000e+00 0.000000000000000e+00 0.000000000000000e+00
0.000000000000000e+00 0.000000000000000e+00 0.000000000000000e+00
1.491122404740366e-02 -9.988717687408770e-05 -1.909005317598481e-04
1.403441056253839e-02 -9.812111668114469e-05 -1.909137469749343e-04
1.467327674236883e-02 -9.761617153726655e-05 -1.882219618832899e-04
0.000000000000000e+00 0.000000000000000e+00 0.000000000000000e+00
0.000000000000000e+00 0.000000000000000e+00 0.000000000000000e+00
0.000000000000000e+00 0.000000000000000e+00 0.000000000000000e+00
2.807585784147091e-02 -3.914529977184296e-04 -7.982748462282619e-04
0.000000000000000e+00 0.000000000000000e+00 0.000000000000000e+00
0.000000000000000e+00 0.000000000000000e+00 0.000000000000000e+00
0.000000000000000e+00 0.000000000000000e+00 0.000000000000000e+00
1.383619923856820e-02 -9.731431258639717e-05 -1.960527451210297e-04
1.427426651537593e-02 -9.263565255494436e-05 -1.977841827432589e-04
1.445594278942430e-02 -9.371815675025492e-05 -1.945244289961412e-04
0.000000000000000e+00 0.000000000000000e+00 0.000000000000000e+00
0.000000000000000e+00 0.000000000000000e+00 0.000000000000000e+00
0.000000000000000e+00 0.000000000000000e+00 0.000000000000000e+00
3.063397500740241e-02 -4.027556459929718e-04 -7.899577862764283e-04
0.000000000000000e+00 0.000000000000000e+00 0.000000000000000e+00
0.000000000000000e+00 0.000000000000000e+00 0.000000000000000e+00
0.000000000000000e+00 0.000000000000000e+00 0.000000000000000e+00
1.487013440512627e-02 -9.908702985957488e-05 -1.901363039854322e-04
1.574828789965809e-02 -1.007424136763236e-04 -1.954941499338728e-04
1.510818096097358e-02 -9.819240118850242e-05 -1.897917821785609e-04
0.000000000000000e+00 0.000000000000000e+00 0.000000000000000e+00
0.000000000000000e+00 0.000000000000000e+00 0.000000000000000e+00
0.000000000000000e+00 0.000000000000000e+00 0.000000000000000e+00
3.148800123929545e-02 -3.961511715180613e-04 -8.084084413364463e-04
0.000000000000000e+00 0.000000000000000e+00 0.000000000000000e+00
0.000000000000000e+00 0.000000000000000e+00 0.000000000000000e+00
0.000000000000000e+00 0.000000000000000e+00 0.000000000000000e+00
1.594773651555849e-02 -9.990029692057408e-05 -2.017720903835168e-04
1.550832924474478e-02 -9.386595403746700e-05 -2.000821374511885e-04
1.532575620731103e-02 -9.528800012541212e-05 -1.970990908104453e-04
0.000000000000000e+00 0.000000000000000e+00 0.000000000000000e+00
6.141185144933375e-02 -1.668086400961507e-03 -3.341439591068816e-03
2.892790664939237e-02 -4.005722268587802e-04 -7.852596784737411e-04
3.148800123929545e-02 -3.961511715180613e-04 -8.084084413364463e-04
3.063958613812216e-02 -4.003424373277979e-04 -7.971526979432139e-04
4.471220953903215e-02 -9.099248481671316e-04 -1.825679415414843e-03
1.491122404740366e-02 -9.988717687408770e-05 -1.909005317598481e-04
1.550832924474478e-02 -9.386595403746700e-05 -2.000821374511885e-04
4.663973934623183e-02 -9.184054709900892e-04 -1.835191978237692e-03
3.022423605323683e-02 -3.978513467373002e-04 -7.956406263334175e-04
0.000000000000000e+00 0.000000000000000e+00 0.000000000000000e+00
5.398883776318446e-02 -1.660213276287549e-03 -3.312006176065958e-03
2.807585784147091e-02 -3.914529977184296e-04 -7.982748462282619e-04
2.892790664939237e-02 -4.005722268587802e-04 -7.852596784737411e-04
2.720755849131111e-02 -3.908897145215668e-04 -7.850527736845237e-04
4.133071699554262e-02 -9.029229560883725e-04 -1.822176117032186e-03
1.383619923856820e-02 -9.731431258639717e-05 -1.960527451210297e-04
1.403441056253839e-02 -9.812111668114469e-05 -1.909137469749343e-04
4.197204661487292e-02 -9.174045151849045e-04 -1.811802146374824e-03
2.845110921904487e-02 -3.954766078817040e-04 -7.901960893199065e-04
0.000000000000000e+00 0.000000000000000e+00 0.000000000000000e+00
5.770106971879544e-02 -1.657145600081119e-03 -3.325298946779367e-03
3.063397500740241e-02 -4.027556459929718e-04 -7.899577862764283e-04
2.807585784147091e-02 -3.914529977184296e-04 -7.982748462282619e-04
2.892241945521685e-02 -3.971798605825111e-04 -7.927848061025166e-04
4.462622905277556e-02 -9.077464483831496e-04 -1.824907878411598e-03
1.487013440512627e-02 -9.908702985957488e-05 -1.901363039854322e-04
1.427426651537593e-02 -9.263565255494436e-05 -1.977841827432589e-04
4.270046157669012e-02 -9.104352974833454e-04 -1.821935622369625e-03
2.933750045926320e-02 -3.955491236124729e-04 -7.932604629696579e-04
0.000000000000000e+00 0.000000000000000e+00 0.000000000000000e+00
6.512086748741103e-02 -1.686762043448414e-03 -3.365634727370628e-03
3.148800123929545e-02 -3.961511715180613e-04 -8.084084413364463e-04
3.063397500740241e-02 -4.027556459929718e-04 -7.899577862764283e-04
3.235897658350440e-02 -3.998359066919952e-04 -8.015291225155128e-04
4.801070608527711e-02 -9.164770636969829e-04 -1.849500368489644e-03
1.594773651555849e-02 -9.990029692057408e-05 -2.017720903835168e-04
1.574828789965809e-02 -1.007424136763236e-04 -1.954941499338728e-04
4.736761424593786e-02 -9.292944514290816e-04 -1.834097459854120e-03
3.111128666909125e-02 -4.007179386666472e-04 -8.001197194123348e-04
6.141185144933375e-02 -1.668086400961507e-03 -3.341439591068816e-03
5.398883776318446e-02 -1.660213276287549e-03 -3.312006176065958e-03
2.892790664939237e-02 -4.005722268587802e-04 -7.852596784737411e-04
5.955332630158334e-02 -1.650347292300374e-03 -3.300740677917246e-03
5.772175292991857e-02 -1.653465268631574e-03 -3.291696185025330e-03
4.197204661487292e-02 -9.174045151849045e-04 -1.811802146374824e-03
4.471220953903215e-02 -9.099248481671316e-04 -1.825679415414843e-03
6.051139867957438e-02 -1.659966236756927e-03 -3.319563335849547e-03
5.668187871490932e-02 -1.649738458996871e-03 -3.299124302852850e-03
4.398362838378446e-02 -9.094400854394349e-04 -1.810469976736712e-03
5.398883776318446e-02 -1.660213276287549e-03 -3.312006176065958e-03
5.770106971879544e-02 -1.657145600081119e-03 -3.325298946779367e-03
2.807585784147091e-02 -3.914529977184296e-04 -7.982748462282619e-04
5.955332630158334e-02 -1.650347292300374e-03 -3.300740677917246e-03
5.589100588558898e-02 -1.641207058588568e-03 -3.298178296917599e-03
4.270046157669012e-02 -9.104352974833454e-04 -1.821935622369625e-03
4.133071699554262e-02 -9.029229560883725e-04 -1.822176117032186e-03
5.668187871490932e-02 -1.649738458996871e-03 -3.299124302852850e-03
5.859767626961070e-02 -1.653568087670211e-03 -3.310250047434280e-03
4.329915474775183e-02 -9.034299429196343e-04 -1.815952071457790e-03
5.770106971879544e-02 -1.657145600081119e-03 -3.325298946779367e-03
6.512086748741103e-02 -1.686762043448414e-03 -3.365634727370628e-03
3.063397500740241e-02 -4.027556459929718e-04 -7.899577862764283e-04
5.955332630158334e-02 -1.650347292300374e-03 -3.300740677917246e-03
6.138626289755911e-02 -1.663357385316802e-03 -3.310287531108216e-03
4.736761424593786e-02 -9.292944514290816e-04 -1.834097459854120e-03
4.462622905277556e-02 -9.077464483831496e-04 -1.824907878411598e-03
5.859767626961070e-02 -1.653568087670211e-03 -3.310250047434280e-03
6.242303973311519e-02 -1.667369529289658e-03 -3.332466852331832e-03
4.535333004036916e-02 -9.124905964525779e-04 -1.817667351229574e-03
6.512086748741103e-02 -1.686762043448414e-03 -3.365634727370628e-03
6.141185144933375e-02 -1.668086400961507e-03 -3.341439591068816e-03
3.148800123929545e-02 -3.961511715180613e-04 -8.084084413364463e-04
5.955332630158334e-02 -1.650347292300374e-03 -3.300740677917246e-03
6.321999598056370e-02 -1.659798124109134e-03 -3.335568642396390e-03
4.663973934623183e-02 -9.184054709900892e-04 -1.835191978237692e-03
4.801070608527711e-02 -9.164770636969829e-04 -1.849500368489644e-03
6.242303973311519e-02 -1.667369529289658e-03 -3.332466852331832e-03
6.051139867957438e-02 -1.659966236756927e-03 -3.319563335849547e-03
4.603856174188506e-02 -9.106272940874738e-04 -1.827961599655784e-03
0.000000000000000e+00 0.000000000000000e+00 0.000000000000000e+00
2.892790664939237e-02 -4.005722268587802e-04 -7.852596784737411e-04
3.148800123929545e-02 -3.961511715180613e-04 -8.084084413364463e-04
0.000000000000000e+00 0.000000000000000e+00 0.000000000000000e+00
1.467327674236883e-02 -9.761617153726655e-05 -1.882219618832899e-04
3.022423605323683e-02 -3.978513467373002e-04 -7.956406263334175e-04
1.532575620731103e-02 -9.528800012541212e-05 -1.970990908104453e-04
0.000000000000000e+00 0.000000000000000e+00 0.000000000000000e+00
1.491122404740366e-02 -9.988717687408770e-05 -1.909005317598481e-04
1.550832924474478e-02 -9.386595403746700e-05 -2.000821374511885e-04
0.000000000000000e+00 0.000000000000000e+00 0.000000000000000e+00
2.807585784147091e-02 -3.914529977184296e-04 -7.982748462282619e-04
2.892790664939237e-02 -4.005722268587802e-04 -7.852596784737411e-04
0.000000000000000e+00 0.000000000000000e+00 0.000000000000000e+00
1.445594278942430e-02 -9.371815675025492e-05 -1.945244289961412e-04
2.845110921904487e-02 -3.954766078817040e-04 -7.901960893199065e-04
1.467327674236883e-02 -9.761617153726655e-05 -1.882219618832899e-04
0.000000000000000e+00 0.000000000000000e+00 0.000000000000000e+00
1.383619923856820e-02 -9.731431258639717e-05 -1.960527451210297e-04
1.403441056253839e-02 -9.812111668114469e-05 -1.909137469749343e-04
0.000000000000000e+00 0.000000000000000e+00 0.000000000000000e+00
3.063397500740241e-02 -4.027556459929718e-04 -7.899577862764283e-04
2.807585784147091e-02 -3.914529977184296e-04 -7.982748462282619e-04
0.000000000000000e+00 0.000000000000000e+00 0.000000000000000e+00
1.510818096097358e-02 -9.819240118850242e-05 -1.897917821785609e-04
2.933750045926320e-02 -3.955491236124729e-04 -7.932604629696579e-04
1.445594278942430e-02 -9.371815675025492e-05 -1.945244289961412e-04
0.000000000000000e+00 0.000000000000000e+00 0.000000000000000e+00
1.487013440512627e-02 -9.908702985957488e-05 -1.901363039854322e-04
1.427426651537593e-02 -9.263565255494436e-05 -1.977841827432589e-04
0.000000000000000e+00 0.000000000000000e+00 0.000000000000000e+00
3.148800123929545e-02 -3.961511715180613e-04 -8.084084413364463e-04
3.063397500740241e-02 -4.027556459929718e-04 -7.899577862764283e-04
0.000000000000000e+00 0.000000000000000e+00 0.000000000000000e+00
1.532575620731103e-02 -9.528800012541212e-05 -1.970990908104453e-04
3.111128666909125e-02 -4.007179386666472e-04 -8.001197194123348e-04
1.510818096097358e-02 -9.819240118850242e-05 -1.897917821785609e-04
0.000000000000000e+00 0.000000000000000e+00 0.000000000000000e+00
1.594773651555849e-02 -9.990029692057408e-05 -2.017720903835168e-04
1.574828789965809e-02 -1.007424136763236e-04 -1.954941499338728e-04
5.955332630158334e-02 -1.650347292300374e-03 -3.300740677917246e-03
3.148800123929545e-02 -3.961511715180613e-04 -8.084084413364463e-04
2.892790664939237e-02 -4.005722268587802e-04 -7.852596784737411e-04
6.141185144933375e-02 -1.668086400961507e-03 -3.341439591068816e-03
4.603856174188506e-02 -9.106272940874738e-04 -1.827961599655784e-03
3.022423605323683e-02 -3.978513467373002e-04 -7.956406263334175e-04
4.398362838378446e-02 -9.094400854394349e-04 -1.810469976736712e-03
6.051139867957438e-02 -1.659966236756927e-03 -3.319563335849547e-03
4.663973934623183e-02 -9.184054709900892e-04 -1.835191978237692e-03
4.471220953903215e-02 -9.099248481671316e-04 -1.825679415414843e-03
5.955332630158334e-02 -1.650347292300374e-03 -3.300740677917246e-03
2.892790664939237e-02 -4.005722268587802e-04 -7.852596784737411e-04
2.807585784147091e-02 -3.914529977184296e-04 -7.982748462282619e-04
5.398883776318446e-02 -1.660213276287549e-03 -3.312006176065958e-03
4.398362838378446e-02 -9.094400854394349e-04 -1.810469976736712e-03
2.845110921904487e-02 -3.954766078817040e-04 -7.901960893199065e-04
4.329915474775183e-02 -9.034299429196343e-04 -1.815952071457790e-03
5.668187871490932e-02 -1.649738458996871e-03 -3.299124302852850e-03
4.197204661487292e-02 -9.174045151849045e-04 -1.811802146374824e-03
4.133071699554262e-02 -9.029229560883725e-04 -1.822176117032186e-03
5.955332630158334e-02 -1.650347292300374e-03 -3.300740677917246e-03
2.807585784147091e-02 -3.914529977184296e-04 -7.982748462282619e-04
3.063397500740241e-02 -4.027556459929718e-04 -7.899577862764283e-04
5.770106971879544e-02 -1.657145600081119e-03 -3.325298946779367e-03
4.329915474775183e-02 -9.034299429196343e-04 -1.815952071457790e-03
2.933750045926320e-02 -3.955491236124729e-04 -7.932604629696579e-04
4.535333004036916e-02 -9.124905964525779e-04 -1.817667351229574e-03
5.859767626961070e-02 -1.653568087670211e-03 -3.310250047434280e-03
4.270046157669012e-02 -9.104352974833454e-04 -1.821935622369625e-03
4.462622905277556e-02 -9.077464483831496e-04 -1.824907878411598e-03
5.955332630158334e-02 -1.650347292300374e-03 -3.300740677917246e-03
3.063397500740241e-02 -4.027556459929718e-04 -7.899577862764283e-04
3.148800123929545e-02 -3.961511715180613e-04 -8.084084413364463e-04
6.512086748741103e-02 -1.686762043448414e-03 -3.365634727370628e-03
4.535333004036916e-02 -9.124905964525779e-04 -1.817667351229574e-03
3.111128666909125e-02 -4.007179386666472e-04 -8.001197194123348e-04
4.603856174188506e-02 -9.106272940874738e-04 -1.827961599655784e-03
6.242303973311519e-02 -1.667369529289658e-03 -3.332466852331832e-03
4.736761424593786e-02 -9.292944514290816e-04 -1.834097459854120e-03
4.801070608527711e-02 -9.164770636969829e-04 -1.849500368489644e-03
0.000000000000000e+00 0.000000000000000e+00 0.000000000000000e+00
3.148800123929545e-02 -3.961511715180613e-04 -8.084084413364463e-04
2.892790664939237e-02 -4.005722268587802e-04 -7.852596784737411e-04
2.978052735907552e-02 -3.950791040625927e-04 -7.901652473219792e-04
1.532575620731103e-02 -9.528800012541212e-05 -1.970990908104453e-04
3.022423605323683e-02 -3.978513467373002e-04 -7.956406263334175e-04
1.467327674236883e-02 -9.761617153726655e-05 -1.882219618832899e-04
1.489073719862747e-02 -9.556714427111704e-05 -1.911355250660077e-04
3.066752577188690e-02 -3.967489997544019e-04 -7.962824907151309e-04
2.933728842902109e-02 -3.958947324462778e-04 -7.879845056433495e-04
0.000000000000000e+00 0.000000000000000e+00 0.000000000000000e+00
2.892790664939237e-02 -4.005722268587802e-04 -7.852596784737411e-04
2.807585784147091e-02 -3.914529977184296e-04 -7.982748462282619e-04
2.978052735907552e-02 -3.950791040625927e-04 -7.901652473219792e-04
1.467327674236883e-02 -9.761617153726655e-05 -1.882219618832899e-04
2.845110921904487e-02 -3.954766078817040e-04 -7.901960893199065e-04
1.445594278942430e-02 -9.371815675025492e-05 -1.945244289961412e-04
1.489073719862747e-02 -9.556714427111704e-05 -1.911355250660077e-04
2.933728842902109e-02 -3.958947324462778e-04 -7.879845056433495e-04
2.889420885553711e-02 -3.930696183339570e-04 -7.901732602825865e-04
0.000000000000000e+00 0.000000000000000e+00 0.000000000000000e+00
2.807585784147091e-02 -3.914529977184296e-04 -7.982748462282619e-04
3.063397500740241e-02 -4.027556459929718e-04 -7.899577862764283e-04
2.978052735907552e-02 -3.950791040625927e-04 -7.901652473219792e-04
1.445594278942430e-02 -9.371815675025492e-05 -1.945244289961412e-04
2.933750045926320e-02 -3.955491236124729e-04 -7.932604629696579e-04
1.510818096097358e-02 -9.819240118850242e-05 -1.897917821785609e-04
1.489073719862747e-02 -9.556714427111704e-05 -1.911355250660077e-04
2.889420885553711e-02 -3.930696183339570e-04 -7.901732602825865e-04
3.022394324300998e-02 -3.973242513077161e-04 -7.916638584967905e-04
0.000000000000000e+00 0.000000000000000e+00 0.000000000000000e+00
3.063397500740241e-02 -4.027556459929718e-04 -7.899577862764283e-04
3.148800123929545e-02 -3.961511715180613e-04 -8.084084413364463e-04
2.978052735907552e-02 -3.950791040625927e-04 -7.901652473219792e-04
1.510818096097358e-02 -9.819240118850242e-05 -1.897917821785609e-04
3.111128666909125e-02 -4.007179386666472e-04 -8.001197194123348e-04
1.532575620731103e-02 -9.528800012541212e-05 -1.970990908104453e-04
1.489073719862747e-02 -9.556714427111704e-05 -1.911355250660077e-04
3.022394324300998e-02 -3.973242513077161e-04 -7.916638584967905e-04
3.066752577188690e-02 -3.967489997544019e-04 -7.962824907151309e-04
5.955332630158334e-02 -1.650347292300374e-03 -3.300740677917246e-03
2.892790664939237e-02 -4.005722268587802e-04 -7.852596784737411e-04
3.148800123929545e-02 -3.961511715180613e-04 -8.084084413364463e-04
2.978052735907552e-02 -3.950791040625927e-04 -7.901652473219792e-04
4.398362838378446e-02 -9.094400854394349e-04 -1.810469976736712e-03
3.022423605323683e-02 -3.978513467373002e-04 -7.956406263334175e-04
4.603856174188506e-02 -9.106272940874738e-04 -1.827961599655784e-03
4.466840471456133e-02 -9.097853057105297e-04 -1.819592153615228e-03
2.933728842902109e-02 -3.958947324462778e-04 -7.879845056433495e-04
3.066752577188690e-02 -3.967489997544019e-04 -7.962824907151309e-04
5.955332630158334e-02 -1.650347292300374e-03 -3.300740677917246e-03
2.807585784147091e-02 -3.914529977184296e-04 -7.982748462282619e-04
2.892790664939237e-02 -4.005722268587802e-04 -7.852596784737411e-04
2.978052735907552e-02 -3.950791040625927e-04 -7.901652473219792e-04
4.329915474775183e-02 -9.034299429196343e-04 -1.815952071457790e-03
2.845110921904487e-02 -3.954766078817040e-04 -7.901960893199065e-04
4.398362838378446e-02 -9.094400854394349e-04 -1.810469976736712e-03
4.466840471456133e-02 -9.097853057105297e-04 -1.819592153615228e-03
2.889420885553711e-02 -3.930696183339570e-04 -7.901732602825865e-04
2.933728842902109e-02 -3.958947324462778e-04 -7.879845056433495e-04
5.955332630158334e-02 -1.650347292300374e-03 -3.300740677917246e-03
3.063397500740241e-02 -4.027556459929718e-04 -7.899577862764283e-04
2.807585784147091e-02 -3.914529977184296e-04 -7.982748462282619e-04
2.978052735907552e-02 -3.950791040625927e-04 -7.901652473219792e-04
4.535333004036916e-02 -9.124905964525779e-04 -1.817667351229574e-03
2.933750045926320e-02 -3.955491236124729e-04 -7.932604629696579e-04
4.329915474775183e-02 -9.034299429196343e-04 -1.815952071457790e-03
4.466840471456133e-02 -9.097853057105297e-04 -1.819592153615228e-03
3.022394324300998e-02 -3.973242513077161e-04 -7.916638584967905e-04
2.889420885553711e-02 -3.930696183339570e-04 -7.901732602825865e-04
5.955332630158334e-02 -1.650347292300374e-03 -3.300740677917246e-03
3.148800123929545e-02 -3.961511715180613e-04 -8.084084413364463e-04
3.063397500740241e-02 -4.027556459929718e-04 -7.899577862764283e-04
2.978052735907552e-02 -3.950791040625927e-04 -7.901652473219792e-04
4.603856174188506e-02 -9.106272940874738e-04 -1.827961599655784e-03
3.111128666909125e-02 -4.007179386666472e-04 -8.001197194123348e-04
4.535333004036916e-02 -9.124905964525779e-04 -1.817667351229574e-03
4.466840471456133e-02 -9.097853057105297e-04 -1.819592153615228e-03
3.066752577188690e-02 -3.967489997544019e-04 -7.962824907151309e-04
3.022394324300998e-02 -3.973242513077161e-04 -7.916638584967905e-04
6.141185144933375e-02 -1.668086400961507e-03 -3.341439591068816e-03
5.398883776318446e-02 -1.660213276287549e-03 -3.312006176065958e-03
5.955332630158334e-02 -1.650347292300374e-03 -3.300740677917246e-03
8.620552850203909e-02 -3.959435794067080e-03 -7.896576598005529e-03
5.772175292991857e-02 -1.653465268631574e-03 -3.291696185025330e-03
5.668187871490932e-02 -1.649738458996871e-03 -3.299124302852850e-03
6.051139867957438e-02 -1.659966236756927e-03 -3.319563335849547e-03
7.453653231734345e-02 -2.666167524209890e-03 -5.318116416363807e-03
6.946459506690975e-02 -2.645608595724145e-03 -5.288643126425719e-03
7.317462457976860e-02 -2.654268426801258e-03 -5.295978687938127e-03
5.398883776318446e-02 -1.660213276287549e-03 -3.312006176065958e-03
5.770106971879544e-02 -1.657145600081119e-03 -3.325298946779367e-03
5.955332630158334e-02 -1.650347292300374e-03 -3.300740677917246e-03
8.308668096924976e-02 -3.936699432045587e-03 -7.896175956876954e-03
5.589100588558898e-02 -1.641207058588568e-03 -3.298178296917599e-03
5.859767626961070e-02 -1.653568087670211e-03 -3.310250047434280e-03
5.668187871490932e-02 -1.649738458996871e-03 -3.299124302852850e-03
6.829863384430446e-02 -2.649495620239445e-03 -5.285904051225843e-03
7.083914366868654e-02 -2.637648476432549e-03 -5.306482529593274e-03
7.191173968341241e-02 -2.642963923706270e-03 -5.299114605891240e-03
5.770106971879544e-02 -1.657145600081119e-03 -3.325298946779367e-03
6.512086748741103e-02 -1.686762043448414e-03 -3.365634727370628e-03
5.955332630158334e-02 -1.650347292300374e-03 -3.300740677917246e-03
9.241241657230889e-02 -3.983526997217325e-03 -7.942492557028120e-03
6.138626289755911e-02 -1.663357385316802e-03 -3.310287531108216e-03
6.242303973311519e-02 -1.667369529289658e-03 -3.332466852331832e-03
5.859767626961070e-02 -1.653568087670211e-03 -3.310250047434280e-03
7.433561117297861e-02 -2.663194354020963e-03 -5.311361426985792e-03
7.938920341104801e-02 -2.683181225357322e-03 -5.360464538723384e-03
7.569606785153198e-02 -2.663824306400121e-03 -5.315934203212024e-03
6.512086748741103e-02 -1.686762043448414e-03 -3.365634727370628e-03
6.141185144933375e-02 -1.668086400961507e-03 -3.341439591068816e-03
5.955332630158334e-02 -1.650347292300374e-03 -3.300740677917246e-03
9.550053582196480e-02 -3.982615784284405e-03 -7.989288512443739e-03
6.321999598056370e-02 -1.659798124109134e-03 -3.335568642396390e-03
6.051139867957438e-02 -1.659966236756927e-03 -3.319563335849547e-03
6.242303973311519e-02 -1.667369529289658e-03 -3.332466852331832e-03
8.055352418720561e-02 -2.690154810449689e-03 -5.372020829829234e-03
7.803135687754197e-02 -2.662050738793511e-03 -5.352055005933159e-03
7.695462731674753e-02 -2.662919260378459e-03 -5.337089158382984e-03
6.141185144933375e-02 -1.668086400961507e-03 -3.341439591068816e-03
1.239170867101064e-01 -7.663455512024406e-03 -1.529575775856782e-02
8.620552850203909e-02 -3.959435794067080e-03 -7.896576598005529e-03
9.550053582196480e-02 -3.982615784284405e-03 -7.989288512443739e-03
9.242824093999585e-02 -3.978620464945983e-03 -7.952486836026453e-03
1.043367225468140e-01 -5.614463955366005e-03 -1.122966729498507e-02
7.453653231734345e-02 -2.666167524209890e-03 -5.318116416363807e-03
7.803135687754197e-02 -2.662050738793511e-03 -5.352055005933159e-03
1.099647320598717e-01 -5.645133012574154e-03 -1.127082628152746e-02
9.092972602328554e-02 -3.970136270182285e-03 -7.942725711866761e-03
5.398883776318446e-02 -1.660213276287549e-03 -3.312006176065958e-03
1.041672723554069e-01 -7.611293522803569e-03 -1.525413670866594e-02
8.308668096924976e-02 -3.936699432045587e-03 -7.896175956876954e-03
8.620552850203909e-02 -3.959435794067080e-03 -7.896576598005529e-03
7.991204243557037e-02 -3.924535542344991e-03 -7.852611416902744e-03
9.422473199129171e-02 -5.565732909173111e-03 -1.117633429045083e-02
6.829863384430446e-02 -2.649495620239445e-03 -5.285904051225843e-03
6.946459506690975e-02 -2.645608595724145e-03 -5.288643126425719e-03
9.613488757075669e-02 -5.595961339230639e-03 -1.116691885566540e-02
8.444787635521243e-02 -3.945237873493481e-03 -7.890564960822166e-03
5.770106971879544e-02 -1.657145600081119e-03 -3.325298946779367e-03
1.141156728460718e-01 -7.663125426512327e-03 -1.528153966804660e-02
9.241241657230889e-02 -3.983526997217325e-03 -7.942492557028120e-03
8.308668096924976e-02 -3.936699432045587e-03 -7.896175956876954e-03
8.619336961653333e-02 -3.955543674374518e-03 -7.902799815748615e-03
1.040304909949698e-01 -5.620101585215849e-03 -1.122941349625261e-02
7.433561117297861e-02 -2.663194354020963e-03 -5.311361426985792e-03
7.083914366868654e-02 -2.637648476432549e-03 -5.306482529593274e-03
9.835173833931278e-02 -5.609912147838593e-03 -1.119423100901480e-02
8.769598418925656e-02 -3.958954529028513e-03 -7.915716606138757e-03
6.512086748741103e-02 -1.686762043448414e-03 -3.365634727370628e-03
1.335778262045001e-01 -7.613291891781120e-03 -1.527073386554396e-02
9.550053582196480e-02 -3.982615784284405e-03 -7.989288512443739e-03
9.241241657230889e-02 -3.983526997217325e-03 -7.942492557028120e-03
9.861767965082636e-02 -3.991203406664725e-03 -7.992059315809548e-03
1.139898864477139e-01 -5.619296426730707e-03 -1.128511232977366e-02
8.055352418720561e-02 -2.690154810449689e-03 -5.372020829829234e-03
7.938920341104801e-02 -2.683181225357322e-03 -5.360464538723384e-03
1.121304791449513e-01 -5.633755202915064e-03 -1.125595746940455e-02
9.414935267308429e-02 -3.983807106818289e-03 -7.967329143845986e-03
1.239170867101064e-01 -7.663455512024406e-03 -1.529575775856782e-02
1.041672723554069e-01 -7.611293522803569e-03 -1.525413670866594e-02
8.620552850203909e-02 -3.959435794067080e-03 -7.896576598005529e-03
1.190435835609262e-01 -7.731230978482771e-03 -1.546232744829160e-02
1.141689958317468e-01 -7.623833984858311e-03 -1.545960384486679e-02
9.613488757075669e-02 -5.595961339230639e-03 -1.116691885566540e-02
1.043367225468140e-01 -5.614463955366005e-03 -1.122966729498507e-02
1.215670464073379e-01 -7.685268169661534e-03 -1.537614670547204e-02
1.113961905228296e-01 -7.692757927892662e-03 -1.538555037435162e-02
1.021468028173743e-01 -5.610189648679517e-03 -1.123707228089043e-02
1.041672723554069e-01 -7.611293522803569e-03 -1.525413670866594e-02
1.141156728460718e-01 -7.663125426512327e-03 -1.528153966804660e-02
8.308668096924976e-02 -3.936699432045587e-03 -7.896175956876954e-03
1.190435835609262e-01 -7.731230978482771e-03 -1.546232744829160e-02
1.092647407614498e-01 -7.726824205986336e-03 -1.525200844877518e-02
9.835173833931278e-02 -5.609912147838593e-03 -1.119423100901480e-02
9.422473199129171e-02 -5.565732909173111e-03 -1.117633429045083e-02
1.113961905228296e-01 -7.692757927892662e-03 -1.538555037435162e-02
1.165035089563463e-01 -7.693169395582120e-03 -1.537687268862525e-02
1.000993558711750e-01 -5.613604194030290e-03 -1.120894519620626e-02
1.141156728460718e-01 -7.663125426512327e-03 -1.528153966804660e-02
1.335778262045001e-01 -7.613291891781120e-03 -1.527073386554396e-02
9.241241657230889e-02 -3.983526997217325e-03 -7.942492557028120e-03
1.190435835609262e-01 -7.731230978482771e-03 -1.546232744829160e-02
1.238627178482371e-01 -7.630985403287474e-03 -1.547010075510419e-02
1.121304791449513e-01 -5.633755202915064e-03 -1.125595746940455e-02
1.040304909949698e-01 -5.620101585215849e-03 -1.122941349625261e-02
1.165035089563463e-01 -7.693169395582120e-03 -1.537687268862525e-02
1.265881975408016e-01 -7.680711830677051e-03 -1.536488331185434e-02
1.062196284630199e-01 -5.622270892273359e-03 -1.125650218361605e-02
1.335778262045001e-01 -7.613291891781120e-03 -1.527073386554396e-02
1.239170867101064e-01 -7.663455512024406e-03 -1.529575775856782e-02
9.550053582196480e-02 -3.982615784284405e-03 -7.989288512443739e-03
1.190435835609262e-01 -7.731230978482771e-03 -1.546232744829160e-02
1.286536112072601e-01 -7.737342199374718e-03 -1.525630324097466e-02
1.099647320598717e-01 -5.645133012574154e-03 -1.127082628152746e-02
1.139898864477139e-01 -5.619296426730707e-03 -1.128511232977366e-02
1.265881975408016e-01 -7.680711830677051e-03 -1.536488331185434e-02
1.215670464073379e-01 -7.685268169661534e-03 -1.537614670547204e-02
1.082451356197993e-01 -5.633037550631600e-03 -1.125548659276359e-02
5.955332630158334e-02 -1.650347292300374e-03 -3.300740677917246e-03
8.620552850203909e-02 -3.959435794067080e-03 -7.896576598005529e-03
9.550053582196480e-02 -3.982615784284405e-03 -7.989288512443739e-03
6.141185144933375e-02 -1.668086400961507e-03 -3.341439591068816e-03
7.317462457976860e-02 -2.654268426801258e-03 -5.295978687938127e-03
9.092972602328554e-02 -3.970136270182285e-03 -7.942725711866761e-03
7.695462731674753e-02 -2.662919260378459e-03 -5.337089158382984e-03
6.051139867957438e-02 -1.659966236756927e-03 -3.319563335849547e-03
7.453653231734345e-02 -2.666167524209890e-03 -5.318116416363807e-03
7.803135687754197e-02 -2.662050738793511e-03 -5.352055005933159e-03
5.955332630158334e-02 -1.650347292300374e-03 -3.300740677917246e-03
8.308668096924976e-02 -3.936699432045587e-03 -7.896175956876954e-03
8.620552850203909e-02 -3.959435794067080e-03 -7.896576598005529e-03
5.398883776318446e-02 -1.660213276287549e-03 -3.312006176065958e-03
7.191173968341241e-02 -2.642963923706270e-03 -5.299114605891240e-03
8.444787635521243e-02 -3.945237873493481e-03 -7.890564960822166e-03
7.317462457976860e-02 -2.654268426801258e-03 -5.295978687938127e-03
5.668187871490932e-02 -1.649738458996871e-03 -3.299124302852850e-03
6.829863384430446e-02 -2.649495620239445e-03 -5.285904051225843e-03
6.946459506690975e-02 -2.645608595724145e-03 -5.288643126425719e-03
5.955332630158334e-02 -1.650347292300374e-03 -3.300740677917246e-03
9.241241657230889e-02 -3.983526997217325e-03 -7.942492557028120e-03
8.308668096924976e-02 -3.936699432045587e-03 -7.896175956876954e-03
5.770106971879544e-02 -1.657145600081119e-03 -3.325298946779367e-03
7.569606785153198e-02 -2.663824306400121e-03 -5.315934203212024e-03
8.769598418925656e-02 -3.958954529028513e-03 -7.915716606138757e-03
7.191173968341241e-02 -2.642963923706270e-03 -5.299114605891240e-03
5.859767626961070e-02 -1.653568087670211e-03 -3.310250047434280e-03
7.433561117297861e-02 -2.663194354020963e-03 -5.311361426985792e-03
7.083914366868654e-02 -2.637648476432549e-03 -5.306482529593274e-03
5.955332630158334e-02 -1.650347292300374e-03 -3.300740677917246e-03
9.550053582196480e-02 -3.982615784284405e-03 -7.989288512443739e-03
9.241241657230889e-02 -3.983526997217325e-03 -7.942492557028120e-03
6.512086748741103e-02 -1.686762043448414e-03 -3.365634727370628e-03
7.695462731674753e-02 -2.662919260378459e-03 -5.337089158382984e-03
9.414935267308429e-02 -3.983807106818289e-03 -7.967329143845986e-03
7.569606785153198e-02 -2.663824306400121e-03 -5.315934203212024e-03
6.242303973311519e-02 -1.667369529289658e-03 -3.332466852331832e-03
8.055352418720561e-02 -2.690154810449689e-03 -5.372020829829234e-03
7.938920341104801e-02 -2.683181225357322e-03 -5.360464538723384e-03
1.190435835609262e-01 -7.731230978482771e-03 -1.546232744829160e-02
9.550053582196480e-02 -3.982615784284405e-03 -7.989288512443739e-03
8.620552850203909e-02 -3.959435794067080e-03 -7.896576598005529e-03
1.239170867101064e-01 -7.663455512024406e-03 -1.529575775856782e-02
1.082451356197993e-01 -5.633037550631600e-03 -1.125548659276359e-02
9.092972602328554e-02 -3.970136270182285e-03 -7.942725711866761e-03
1.021468028173743e-01 -5.610189648679517e-03 -1.123707228089043e-02
1.215670464073379e-01 -7.685268169661534e-03 -1.537614670547204e-02
1.099647320598717e-01 -5.645133012574154e-03 -1.127082628152746e-02
1.043367225468140e-01 -5.614463955366005e-03 -1.122966729498507e-02
1.190435835609262e-01 -7.731230978482771e-03 -1.546232744829160e-02
8.620552850203909e-02 -3.959435794067080e-03 -7.896576598005529e-03
8.308668096924976e-02 -3.936699432045587e-03 -7.896175956876954e-03
1.041672723554069e-01 -7.611293522803569e-03 -1.525413670866594e-02
1.021468028173743e-01 -5.610189648679517e-03 -1.123707228089043e-02
8.444787635521243e-02 -3.945237873493481e-03 -7.890564960822166e-03
1.000993558711750e-01 -5.613604194030290e-03 -1.120894519620626e-02
1.113961905228296e-01 -7.692757927892662e-03 -1.538555037435162e-02
9.613488757075669e-02 -5.595961339230639e-03 -1.116691885566540e-02
9.422473199129171e-02 -5.565732909173111e-03 -1.117633429045083e-02
1.190435835609262e-01 -7.731230978482771e-03 -1.546232744829160e-02
8.308668096924976e-02 -3.936699432045587e-03 -7.896175956876954e-03
9.241241657230889e-02 -3.983526997217325e-03 -7.942492557028120e-03
1.141156728460718e-01 -7.663125426512327e-03 -1.528153966804660e-02
1.000993558711750e-01 -5.613604194030290e-03 -1.120894519620626e-02
8.769598418925656e-02 -3.958954529028513e-03 -7.915716606138757e-03
1.062196284630199e-01 -5.622270892273359e-03 -1.125650218361605e-02
1.165035089563463e-01 -7.693169395582120e-03 -1.537687268862525e-02
9.835173833931278e-02 -5.609912147838593e-03 -1.119423100901480e-02
1.040304909949698e-01 -5.620101585215849e-03 -1.122941349625261e-02
1.190435835609262e-01 -7.731230978482771e-03 -1.546232744829160e-02
9.241241657230889e-02 -3.983526997217325e-03 -7.942492557028120e-03
9.550053582196480e-02 -3.982615784284405e-03 -7.989288512443739e-03
1.335778262045001e-01 -7.613291891781120e-03 -1.527073386554396e-02
1.062196284630199e-01 -5.622270892273359e-03 -1.125650218361605e-02
9.414935267308429e-02 -3.983807106818289e-03 -7.967329143845986e-03
1.082451356197993e-01 -5.633037550631600e-03 -1.125548659276359e-02
1.265881975408016e-01 -7.680711830677051e-03 -1.536488331185434e-02
1.121304791449513e-01 -5.633755202915064e-03 -1.125595746940455e-02
1.139898864477139e-01 -5.619296426730707e-03 -1.128511232977366e-02
5.955332630158334e-02 -1.650347292300374e-03 -3.300740677917246e-03
9.550053582196480e-02 -3.982615784284405e-03 -7.989288512443739e-03
8.620552850203909e-02 -3.959435794067080e-03 -7.896576598005529e-03
8.931354294985792e-02 -3.957145796242990e-03 -7.914308147824159e-03
7.695462731674753e-02 -2.662919260378459e-03 -5.337089158382984e-03
9.092972602328554e-02 -3.970136270182285e-03 -7.942725711866761e-03
7.317462457976860e-02 -2.654268426801258e-03 -5.295978687938127e-03
7.443597881526777e-02 -2.652035648653942e-03 -5.304126521905928e-03
9.254476090193040e-02 -3.969981511139919e-03 -7.946719773180715e-03
8.769413449133003e-02 -3.954581225951167e-03 -7.904700669779219e-03
5.955332630158334e-02 -1.650347292300374e-03 -3.300740677917246e-03
8.620552850203909e-02 -3.959435794067080e-03 -7.896576598005529e-03
8.308668096924976e-02 -3.936699432045587e-03 -7.896175956876954e-03
8.931354294985792e-02 -3.957145796242990e-03 -7.914308147824159e-03
7.317462457976860e-02 -2.654268426801258e-03 -5.295978687938127e-03
8.444787635521243e-02 -3.945237873493481e-03 -7.890564960822166e-03
7.191173968341241e-02 -2.642963923706270e-03 -5.299114605891240e-03
7.443597881526777e-02 -2.652035648653942e-03 -5.304126521905928e-03
8.769413449133003e-02 -3.954581225951167e-03 -7.904700669779219e-03
8.607146727979173e-02 -3.946418151553677e-03 -7.897165500843930e-03
5.955332630158334e-02 -1.650347292300374e-03 -3.300740677917246e-03
8.308668096924976e-02 -3.936699432045587e-03 -7.896175956876954e-03
9.241241657230889e-02 -3.983526997217325e-03 -7.942492557028120e-03
8.931354294985792e-02 -3.957145796242990e-03 -7.914308147824159e-03
7.191173968341241e-02 -2.642963923706270e-03 -5.299114605891240e-03
8.769598418925656e-02 -3.958954529028513e-03 -7.915716606138757e-03
7.569606785153198e-02 -2.663824306400121e-03 -5.315934203212024e-03
7.443597881526777e-02 -2.652035648653942e-03 -5.304126521905928e-03
8.607146727979173e-02 -3.946418151553677e-03 -7.897165500843930e-03
9.093078105247950e-02 -3.967416677865790e-03 -7.928264079078477e-03
5.955332630158334e-02 -1.650347292300374e-03 -3.300740677917246e-03
9.241241657230889e-02 -3.983526997217325e-03 -7.942492557028120e-03
9.550053582196480e-02 -3.982615784284405e-03 -7.989288512443739e-03
8.931354294985792e-02 -3.957145796242990e-03 -7.914308147824159e-03
7.569606785153198e-02 -2.663824306400121e-03 -5.315934203212024e-03
9.414935267308429e-02 -3.983807106818289e-03 -7.967329143845986e-03
7.695462731674753e-02 -2.662919260378459e-03 -5.337089158382984e-03
7.443597881526777e-02 -2.652035648653942e-03 -5.304126521905928e-03
9.093078105247950e-02 -3.967416677865790e-03 -7.928264079078477e-03
9.254476090193040e-02 -3.969981511139919e-03 -7.946719773180715e-03
1.190435835609262e-01 -7.731230978482771e-03 -1.546232744829160e-02
8.620552850203909e-02 -3.959435794067080e-03 -7.896576598005529e-03
9.550053582196480e-02 -3.982615784284405e-03 -7.989288512443739e-03
8.931354294985792e-02 -3.957145796242990e-03 -7.914308147824159e-03
1.021468028173743e-01 -5.610189648679517e-03 -1.123707228089043e-02
9.092972602328554e-02 -3.970136270182285e-03 -7.942725711866761e-03
1.082451356197993e-01 -5.633037550631600e-03 -1.125548659276359e-02
1.041839569647249e-01 -5.627355624806949e-03 -1.125465863800637e-02
8.769413449133003e-02 -3.954581225951167e-03 -7.904700669779219e-03
9.254476090193040e-02 -3.969981511139919e-03 -7.946719773180715e-03
1.190435835609262e-01 -7.731230978482771e-03 -1.546232744829160e-02
8.308668096924976e-02 -3.936699432045587e-03 -7.896175956876954e-03
8.620552850203909e-02 -3.959435794067080e-03 -7.896576598005529e-03
8.931354294985792e-02 -3.957145796242990e-03 -7.914308147824159e-03
1.000993558711750e-01 -5.613604194030290e-03 -1.120894519620626e-02
8.444787635521243e-02 -3.945237873493481e-03 -7.890564960822166e-03
1.021468028173743e-01 -5.610189648679517e-03 -1.123707228089043e-02
1.041839569647249e-01 -5.627355624806949e-03 -1.125465863800637e-02
8.607146727979173e-02 -3.946418151553677e-03 -7.897165500843930e-03
8.769413449133003e-02 -3.954581225951167e-03 -7.904700669779219e-03
1.190435835609262e-01 -7.731230978482771e-03 -1.546232744829160e-02
9.241241657230889e-02 -3.983526997217325e-03 -7.942492557028120e-03
8.308668096924976e-02 -3.936699432045587e-03 -7.896175956876954e-03
8.931354294985792e-02 -3.957145796242990e-03 -7.914308147824159e-03
1.062196284630199e-01 -5.622270892273359e-03 -1.125650218361605e-02
8.769598418925656e-02 -3.958954529028513e-03 -7.915716606138757e-03
1.000993558711750e-01 -5.613604194030290e-03 -1.120894519620626e-02
1.041839569647249e-01 -5.627355624806949e-03 -1.125465863800637e-02
9.093078105247950e-02 -3.967416677865790e-03 -7.928264079078477e-03
8.607146727979173e-02 -3.946418151553677e-03 -7.897165500843930e-03
1.190435835609262e-01 -7.731230978482771e-03 -1.546232744829160e-02
9.550053582196480e-02 -3.982615784284405e-03 -7.989288512443739e-03
9.241241657230889e-02 -3.983526997217325e-03 -7.942492557028120e-03
8.931354294985792e-02 -3.957145796242990e-03 -7.914308147824159e-03
1.082451356197993e-01 -5.633037550631600e-03 -1.125548659276359e-02
9.414935267308429e-02 -3.983807106818289e-03 -7.967329143845986e-03
1.062196284630199e-01 -5.622270892273359e-03 -1.125650218361605e-02
1.041839569647249e-01 -5.627355624806949e-03 -1.125465863800637e-02
9.254476090193040e-02 -3.969981511139919e-03 -7.946719773180715e-03
9.093078105247950e-02 -3.967416677865790e-03 -7.928264079078477e-03
        </DataArray>
        <DataArray type="Float64" Name="nodal_GL_strains_xyz" NumberOfComponents="6" format="ascii">
6.310493048452756e-02 -1.821949470791405e-06 2.232156423424082e-05 -1.354137252950893e-05 -9.058616778855225e-06 -3.042445934051895e-05
5.605403576600441e-02 -2.497142794192350e-05 -3.195480489750810e-05 -1.656851313625948e-05 -2.907876135750484e-05 -2.927062730403884e-05
6.133513666846152e-02 -3.673976278188069e-07 -1.308425337218120e-06 2.176774845716504e-05 -1.400859202439766e-06 4.353966189872720e-05
5.940247637469174e-02 1.567184634708224e-05 -7.052386959382681e-06 2.341466628504360e-05 1.651270959973175e-06 3.115236133434897e-04
5.960584271961444e-02 -1.040541416220699e-07 -4.975810524138138e-07 4.543808435328356e-06 -2.275125639969068e-07 2.159707713086537e-05
5.862005473890838e-02 -6.980401638014893e-08 2.600668201915420e-06 1.292344685857295e-05 -2.029768378639561e-06 1.833129626958948e-05
6.224468611477048e-02 3.911909187478415e-06 -5.027275128485776e-06 9.265342605844889e-07 -4.711879165862791e-07 9.788801680999625e-06
6.131953613245629e-02 5.662971683848612e-07 1.027920413434882e-05 3.040784800834109e-05 -3.780341135229722e-06 1.134129018028885e-04
5.773906868499473e-02 -8.650207865269505e-06 -1.802361484912230e-05 -1.565342641302277e-05 -1.988110990467681e-05 1.203654500709374e-04
6.037907186837688e-02 1.184076774477088e-05 -1.576989051553907e-06 2.945446406005038e-05 -3.718400131283025e-06 1.778815776499760e-04
5.605403576600441e-02 -2.497142794192350e-05 -3.195480489750810e-05 -1.656851313625948e-05 -2.907876135750484e-05 -2.927062730403884e-05
5.957089348041783e-02 2.624159907164105e-06 -1.992860151018097e-05 -1.157739565228940e-05 1.068673751996110e-05 -2.943100488940431e-05
6.133513666846152e-02 -3.673976278188069e-07 -1.308425337218120e-06 2.176774845716504e-05 -1.400859202439766e-06 4.353966189872720e-05
5.747414856173112e-02 -1.337731820310770e-06 3.004982045575668e-05 1.559644724315408e-04 -1.903475582785208e-07 4.685710550420197e-05
5.787400610116721e-02 -1.242182986256750e-07 -4.157072206662558e-07 1.151936548654939e-05 -2.272232768096251e-07 1.054191914638330e-05
6.042854388935294e-02 -3.696829087481767e-06 4.778160078551300e-06 2.555641153149982e-06 6.268696120905490e-07 1.092619339656058e-05
5.862005473890838e-02 -6.980401638014893e-08 2.600668201915420e-06 1.292344685857295e-05 -2.029768378639561e-06 1.833129626958948e-05
5.682878456922724e-02 -1.067665998676559e-05 -1.030347461209769e-05 6.414667420902177e-05 -2.272885179128523e-05 3.898114776923890e-06
5.861432580379106e-02 4.280174238268687e-06 -6.003604768841824e-06 5.310613535168027e-05 1.030596177417861e-05 2.605327393014311e-05
5.942437283796713e-02 4.762615246859723e-06 2.248218993939546e-05 8.913551752483590e-05 -2.808973766891963e-06 5.932491259474125e-05
5.957089348041783e-02 2.624159907164105e-06 -1.992860151018097e-05 -1.157739565228940e-05 1.068673751996110e-05 -2.943100488940431e-05
6.665607383029062e-02 2.395650912521391e-05 3.253045382123062e-05 -2.136620083571759e-05 3.016493907191731e-05 -3.702559065004379e-05
6.133513666846152e-02 -3.673976278188069e-07 -1.308425337218120e-06 2.176774845716504e-05 -1.400859202439766e-06 4.353966189872720e-05
6.327108401367364e-02 -1.550451971217369e-05 -7.820946359354806e-06 2.407468716364962e-05 -5.757736276542836e-06 3.106822981385122e-04
6.308017829181074e-02 -1.046550746633504e-07 -4.991214207367224e-07 3.109300827822566e-06 -2.285368360801435e-07 1.872991084705395e-05
6.406840448823820e-02 -4.639319575975837e-07 -3.598616497724436e-06 8.878381922713036e-06 1.262665573239486e-06 1.151986373785333e-05
6.042854388935294e-02 -3.696829087481767e-06 4.778160078551300e-06 2.555641153149982e-06 6.268696120905490e-07 1.092619339656058e-05
6.135334237847806e-02 -1.616053657593023e-06 -1.416078108350918e-05 3.221761568777922e-05 2.226841754906556e-06 1.143885221983365e-04
6.495254837255190e-02 8.832965137586637e-06 1.093214527049247e-05 -1.737698109393086e-05 1.903662455503777e-05 1.179468446417624e-04
6.229342566206452e-02 -1.222806218303757e-05 -7.567069978472900e-06 2.976821285450583e-05 -1.020246378938618e-07 1.770920877303218e-04
6.665607383029062e-02 2.395650912521391e-05 3.253045382123062e-05 -2.136620083571759e-05 3.016493907191731e-05 -3.702559065004379e-05
6.310493048452756e-02 -1.821949470791405e-06 2.232156423424082e-05 -1.354137252950893e-05 -9.058616778855225e-06 -3.042445934051895e-05
6.133513666846152e-02 -3.673976278188069e-07 -1.308425337218120e-06 2.176774845716504e-05 -1.400859202439766e-06 4.353966189872720e-05
6.521133406869788e-02 -2.752968257073254e-06 -3.233381883564078e-05 1.551230641366985e-04 -3.916172710287808e-06 4.809707320480205e-05
6.482277506620975e-02 -1.249886072505840e-07 -4.189898237496629e-07 8.652054113898517e-06 -2.288280489520946e-07 4.760772208645537e-06
6.224468611477048e-02 3.911909187478415e-06 -5.027275128485776e-06 9.265342605844889e-07 -4.711879165862791e-07 9.788801680999625e-06
6.406840448823820e-02 -4.639319575975837e-07 -3.598616497724436e-06 8.878381922713036e-06 1.262665573239486e-06 1.151986373785333e-05
6.587098892999746e-02 7.250106271565206e-06 9.896002506915827e-06 6.291711927536574e-05 2.140240523882220e-05 1.751773733040538e-06
6.406670927534869e-02 -4.496936111755710e-06 4.363755367402805e-06 5.289251663664497e-05 -1.137751078682698e-05 2.744028346147077e-05
6.325308670268860e-02 -7.158448049163729e-06 -2.566855340502134e-05 8.834599440067081e-05 -1.011450792452030e-06 5.911917019986665e-05
6.310493048452756e-02 -1.821949470791405e-06 2.232156423424082e-05 -1.354137252950893e-05 -9.058616778855225e-06 -3.042445934051895e-05
6.367439983710557e-02 1.361972962155071e-05 -4.769255027843241e-05 1.348427192245461e-04 -3.857026679588505e-06 2.477849366182390e-04
5.940247637469174e-02 1.567184634708224e-05 -7.052386959382681e-06 2.341466628504360e-05 1.651270959973175e-06 3.115236133434897e-04
6.521133406869788e-02 -2.752968257073254e-06 -3.233381883564078e-05 1.551230641366985e-04 -3.916172710287808e-06 4.809707320480205e-05
6.330647494106276e-02 1.449870462574217e-05 -2.657361708040970e-05 3.950968068753862e-05 -9.055829413034188e-06 9.811138125661582e-05
6.144298358785335e-02 5.152688376306324e-07 -6.736249205692146e-05 9.883031205899292e-05 3.229024233413628e-06 3.040595598716060e-04
6.131953613245629e-02 5.662971683848612e-07 1.027920413434882e-05 3.040784800834109e-05 -3.780341135229722e-06 1.134129018028885e-04
6.406670927534869e-02 -4.496936111755710e-06 4.363755367402805e-06 5.289251663664497e-05 -1.137751078682698e-05 2.744028346147077e-05
6.443887401595078e-02 2.421922032357263e-05 -4.035357566765876e-05 1.326062072134800e-04 1.064516595984421e-06 1.321071182992076e-04
6.231221296718639e-02 6.464230212496604e-06 -2.642381719345475e-05 1.139442291137409e-04 -3.227248257771115e-06 1.982468835584916e-04
5.605403576600441e-02 -2.497142794192350e-05 -3.195480489750810e-05 -1.656851313625948e-05 -2.907876135750484e-05 -2.927062730403884e-05
5.433417452386601e-02 2.095879361741419e-05 2.926260245297389e-05 1.103196241549758e-04 -4.679539695318877e-06 2.459781546853361e-04
5.747414856173112e-02 -1.337731820310770e-06 3.004982045575668e-05 1.559644724315408e-04 -1.903475582785208e-07 4.685710550420197e-05
5.940247637469174e-02 1.567184634708224e-05 -7.052386959382681e-06 2.341466628504360e-05 1.651270959973175e-06 3.115236133434897e-04
5.545479467820773e-02 7.817447445975413e-06 1.979137132586331e-05 6.384069228829677e-05 -2.659780511135308e-05 1.093263529411698e-04
5.604325431500920e-02 3.886085665595115e-05 5.993666796820073e-05 1.801524905106742e-04 1.524192889231863e-05 8.620022739571147e-05
5.682878456922724e-02 -1.067665998676559e-05 -1.030347461209769e-05 6.414667420902177e-05 -2.272885179128523e-05 3.898114776923890e-06
5.773906868499473e-02 -8.650207865269505e-06 -1.802361484912230e-05 -1.565342641302277e-05 -1.988110990467681e-05 1.203654500709374e-04
5.703611270396493e-02 4.847160894126699e-05 6.300720923633457e-05 9.551481599158682e-06 1.652668487297859e-05 3.250364332047220e-04
5.842046365485754e-02 1.563309211467586e-05 2.203023794652952e-05 7.258823156996667e-05 -3.927376386244281e-06 1.764302602372227e-04
5.957089348041783e-02 2.624159907164105e-06 -1.992860151018097e-05 -1.157739565228940e-05 1.068673751996110e-05 -2.943100488940431e-05
5.901428175103331e-02 -1.536321772043650e-05 2.778182392901216e-05 1.415498500654614e-04 -3.847708746286851e-06 2.530885874322200e-04
6.327108401367364e-02 -1.550451971217369e-05 -7.820946359354806e-06 2.407468716364962e-05 -5.757736276542836e-06 3.106822981385122e-04
5.747414856173112e-02 -1.337731820310770e-06 3.004982045575668e-05 1.559644724315408e-04 -1.903475582785208e-07 4.685710550420197e-05
5.937460032517689e-02 -1.466719783835905e-05 2.383524660929588e-05 4.066747892265528e-05 8.691650281266115e-06 9.637939787136614e-05
6.123314866159343e-02 -3.519009045173373e-06 5.572475784543885e-05 9.933594890031430e-05 -9.364074471232289e-06 3.006175994617772e-04
6.135334237847806e-02 -1.616053657593023e-06 -1.416078108350918e-05 3.221761568777922e-05 2.226841754906556e-06 1.143885221983365e-04
5.861432580379106e-02 4.280174238268687e-06 -6.003604768841824e-06 5.310613535168027e-05 1.030596177417861e-05 2.605327393014311e-05
5.824586730560173e-02 -2.625967714038999e-05 3.410373251675919e-05 1.350409726926331e-04 -6.347146504748187e-06 1.311316306602812e-04
6.036521810693216e-02 -8.748774357582754e-06 1.724970154245720e-05 1.150619589093198e-04 -1.725006859494875e-06 1.968036303493994e-04
6.665607383029062e-02 2.395650912521391e-05 3.253045382123062e-05 -2.136620083571759e-05 3.016493907191731e-05 -3.702559065004379e-05
6.831437186517718e-02 -3.103898558859510e-05 -5.750769219243696e-05 9.679846176371090e-05 -4.814618782898732e-06 2.204425052663048e-04
6.521133406869788e-02 -2.752968257073254e-06 -3.233381883564078e-05 1.551230641366985e-04 -3.916172710287808e-06 4.809707320480205e-05
6.327108401367364e-02 -1.550451971217369e-05 -7.820946359354806e-06 2.407468716364962e-05 -5.757736276542836e-06 3.106822981385122e-04
6.725006285625457e-02 -1.081215743035369e-05 -2.535575035608296e-05 6.175920064323171e-05 2.660002260422150e-05 1.078191948627219e-04
6.664448908295276e-02 -4.124435581544017e-05 -5.884155482091846e-05 1.797503455487400e-04 -1.407697697689465e-05 8.811288107407465e-05
6.587098892999746e-02 7.250106271565206e-06 9.896002506915827e-06 6.291711927536574e-05 2.140240523882220e-05 1.751773733040538e-06
6.495254837255190e-02 8.832965137586637e-06 1.093214527049247e-05 -1.737698109393086e-05 1.903662455503777e-05 1.179468446417624e-04
6.564302192002934e-02 -4.413127766731504e-05 -7.498680702870396e-05 1.099441109417911e-05 -1.450927694466379e-05 3.256416102955696e-04
6.426146173644061e-02 -1.725836030999524e-05 -3.054502634152083e-05 7.245768833324895e-05 5.257667487994369e-07 1.766252114820995e-04
6.367439983710557e-02 1.361972962155071e-05 -4.769255027843241e-05 1.348427192245461e-04 -3.857026679588505e-06 2.477849366182390e-04
5.433417452386601e-02 2.095879361741419e-05 2.926260245297389e-05 1.103196241549758e-04 -4.679539695318877e-06 2.459781546853361e-04
5.940247637469174e-02 1.567184634708224e-05 -7.052386959382681e-06 2.341466628504360e-05 1.651270959973175e-06 3.115236133434897e-04
6.133775084108958e-02 -6.374950567208579e-06 -2.140176149336678e-05 3.504289313998011e-04 -1.513058339094892e-05 7.007259270258016e-04
5.903261194099880e-02 9.581898971795793e-06 -2.798270094077708e-06 8.178070599175340e-05 -1.834390888187812e-05 5.108433743145263e-04
5.703611270396493e-02 4.847160894126699e-05 6.300720923633457e-05 9.551481599158682e-06 1.652668487297859e-05 3.250364332047220e-04
6.144298358785335e-02 5.152688376306324e-07 -6.736249205692146e-05 9.883031205899292e-05 3.229024233413628e-06 3.040595598716060e-04
6.254476351307457e-02 1.553179694501211e-05 -6.271160969986415e-05 2.499942834308330e-04 -3.904617022206965e-06 5.052002661139825e-04
5.772327357334191e-02 2.928978044824407e-05 4.438396688451763e-05 2.585533866919988e-04 1.394256381951289e-05 5.128853969556437e-04
6.030360144995065e-02 1.155982724897619e-05 -1.425698456065521e-05 1.638015639081919e-04 -4.492102539437038e-06 4.862730318236806e-04
5.433417452386601e-02 2.095879361741419e-05 2.926260245297389e-05 1.103196241549758e-04 -4.679539695318877e-06 2.459781546853361e-04
5.901428175103331e-02 -1.536321772043650e-05 2.778182392901216e-05 1.415498500654614e-04 -3.847708746286851e-06 2.530885874322200e-04
5.747414856173112e-02 -1.337731820310770e-06 3.004982045575668e-05 1.559644724315408e-04 -1.903475582785208e-07 4.685710550420197e-05
6.133775084108958e-02 -6.374950567208579e-06 -2.140176149336678e-05 3.504289313998011e-04 -1.513058339094892e-05 7.007259270258016e-04
5.675414963080619e-02 9.733055608903953e-06 1.605491337972874e-05 2.574263162874910e-04 -9.704979304508397e-06 1.661414530891095e-04
5.824586730560173e-02 -2.625967714038999e-05 3.410373251675919e-05 1.350409726926331e-04 -6.347146504748187e-06 1.311316306602812e-04
5.604325431500920e-02 3.886085665595115e-05 5.993666796820073e-05 1.801524905106742e-04 1.524192889231863e-05 8.620022739571147e-05
5.772327357334191e-02 2.928978044824407e-05 4.438396688451763e-05 2.585533866919988e-04 1.394256381951289e-05 5.128853969556437e-04
6.014020434436018e-02 -2.584896078701428e-05 3.586989907174729e-05 2.537610872763346e-04 -1.599907982526932e-05 5.053436686128818e-04
5.927650462340135e-02 -8.664728899049988e-06 1.987283809126314e-05 2.438726086122890e-04 -5.839849556526073e-06 3.268837640848312e-04
5.901428175103331e-02 -1.536321772043650e-05 2.778182392901216e-05 1.415498500654614e-04 -3.847708746286851e-06 2.530885874322200e-04
6.831437186517718e-02 -3.103898558859510e-05 -5.750769219243696e-05 9.679846176371090e-05 -4.814618782898732e-06 2.204425052663048e-04
6.327108401367364e-02 -1.550451971217369e-05 -7.820946359354806e-06 2.407468716364962e-05 -5.757736276542836e-06 3.106822981385122e-04
6.133775084108958e-02 -6.374950567208579e-06 -2.140176149336678e-05 3.504289313998011e-04 -1.513058339094892e-05 7.007259270258016e-04
6.361790967065414e-02 -8.689502507578286e-06 -1.370626670205610e-05 8.056650062970318e-05 1.600404024419923e-05 5.023958818385877e-04
6.564302192002934e-02 -4.413127766731504e-05 -7.498680702870396e-05 1.099441109417911e-05 -1.450927694466379e-05 3.256416102955696e-04
6.123314866159343e-02 -3.519009045173373e-06 5.572475784543885e-05 9.933594890031430e-05 -9.364074471232289e-06 3.006175994617772e-04
6.014020434436018e-02 -2.584896078701428e-05 3.586989907174729e-05 2.537610872763346e-04 -1.599907982526932e-05 5.053436686128818e-04
6.493711004696996e-02 -3.315131394924233e-05 -6.476748377977472e-05 2.494190231585889e-04 -2.263403739020945e-05 4.998394301740532e-04
6.236345463136113e-02 -1.617041703755505e-05 -9.270680152279996e-06 1.625840461784652e-04 -9.928336116731182e-06 4.834197015048118e-04
6.831437186517718e-02 -3.103898558859510e-05 -5.750769219243696e-05 9.679846176371090e-05 -4.814618782898732e-06 2.204425052663048e-04
6.367439983710557e-02 1.361972962155071e-05 -4.769255027843241e-05 1.348427192245461e-04 -3.857026679588505e-06 2.477849366182390e-04
6.521133406869788e-02 -2.752968257073254e-06 -3.233381883564078e-05 1.551230641366985e-04 -3.916172710287808e-06 4.809707320480205e-05
6.133775084108958e-02 -6.374950567208579e-06 -2.140176149336678e-05 3.504289313998011e-04 -1.513058339094892e-05 7.007259270258016e-04
6.592409548349588e-02 -1.201338572087382e-05 -2.047937603934504e-05 2.489826963806612e-04 7.365563258560852e-06 1.584491804275056e-04
6.443887401595078e-02 2.421922032357263e-05 -4.035357566765876e-05 1.326062072134800e-04 1.064516595984421e-06 1.321071182992076e-04
6.664448908295276e-02 -4.124435581544017e-05 -5.884155482091846e-05 1.797503455487400e-04 -1.407697697689465e-05 8.811288107407465e-05
6.493711004696996e-02 -3.315131394924233e-05 -6.476748377977472e-05 2.494190231585889e-04 -2.263403739020945e-05 4.998394301740532e-04
6.254476351307457e-02 1.553179694501211e-05 -6.271160969986415e-05 2.499942834308330e-04 -3.904617022206965e-06 5.052002661139825e-04
6.339611297141731e-02 1.370911626922651e-06 -3.561535194224273e-05 2.410193145804709e-04 -8.580651516196849e-06 3.257636162239967e-04
6.133513666846152e-02 -3.673976278188069e-07 -1.308425337218120e-06 2.176774845716504e-05 -1.400859202439766e-06 4.353966189872720e-05
5.940247637469174e-02 1.567184634708224e-05 -7.052386959382681e-06 2.341466628504360e-05 1.651270959973175e-06 3.115236133434897e-04
6.521133406869788e-02 -2.752968257073254e-06 -3.233381883564078e-05 1.551230641366985e-04 -3.916172710287808e-06 4.809707320480205e-05
6.310493048452756e-02 -1.821949470791405e-06 2.232156423424082e-05 -1.354137252950893e-05 -9.058616778855225e-06 -3.042445934051895e-05
6.037907186837688e-02 1.184076774477088e-05 -1.576989051553907e-06 2.945446406005038e-05 -3.718400131283025e-06 1.778815776499760e-04
6.231221296718639e-02 6.464230212496604e-06 -2.642381719345475e-05 1.139442291137409e-04 -3.227248257771115e-06 1.982468835584916e-04
6.325308670268860e-02 -7.158448049163729e-06 -2.566855340502134e-05 8.834599440067081e-05 -1.011450792452030e-06 5.911917019986665e-05
6.224468611477048e-02 3.911909187478415e-06 -5.027275128485776e-06 9.265342605844889e-07 -4.711879165862791e-07 9.788801680999625e-06
6.131953613245629e-02 5.662971683848612e-07 1.027920413434882e-05 3.040784800834109e-05 -3.780341135229722e-06 1.134129018028885e-04
6.406670927534869e-02 -4.496936111755710e-06 4.363755367402805e-06 5.289251663664497e-05 -1.137751078682698e-05 2.744028346147077e-05
6.133513666846152e-02 -3.673976278188069e-07 -1.308425337218120e-06 2.176774845716504e-05 -1.400859202439766e-06 4.353966189872720e-05
5.747414856173112e-02 -1.337731820310770e-06 3.004982045575668e-05 1.559644724315408e-04 -1.903475582785208e-07 4.685710550420197e-05
5.940247637469174e-02 1.567184634708224e-05 -7.052386959382681e-06 2.341466628504360e-05 1.651270959973175e-06 3.115236133434897e-04
5.605403576600441e-02 -2.497142794192350e-05 -3.195480489750810e-05 -1.656851313625948e-05 -2.907876135750484e-05 -2.927062730403884e-05
5.942437283796713e-02 4.762615246859723e-06 2.248218993939546e-05 8.913551752483590e-05 -2.808973766891963e-06 5.932491259474125e-05
5.842046365485754e-02 1.563309211467586e-05 2.203023794652952e-05 7.258823156996667e-05 -3.927376386244281e-06 1.764302602372227e-04
6.037907186837688e-02 1.184076774477088e-05 -1.576989051553907e-06 2.945446406005038e-05 -3.718400131283025e-06 1.778815776499760e-04
5.862005473890838e-02 -6.980401638014893e-08 2.600668201915420e-06 1.292344685857295e-05 -2.029768378639561e-06 1.833129626958948e-05
5.682878456922724e-02 -1.067665998676559e-05 -1.030347461209769e-05 6.414667420902177e-05 -2.272885179128523e-05 3.898114776923890e-06
5.773906868499473e-02 -8.650207865269505e-06 -1.802361484912230e-05 -1.565342641302277e-05 -1.988110990467681e-05 1.203654500709374e-04
6.133513666846152e-02 -3.673976278188069e-07 -1.308425337218120e-06 2.176774845716504e-05 -1.400859202439766e-06 4.353966189872720e-05
6.327108401367364e-02 -1.550451971217369e-05 -7.820946359354806e-06 2.407468716364962e-05 -5.757736276542836e-06 3.106822981385122e-04
5.747414856173112e-02 -1.337731820310770e-06 3.004982045575668e-05 1.559644724315408e-04 -1.903475582785208e-07 4.685710550420197e-05
5.957089348041783e-02 2.624159907164105e-06 -1.992860151018097e-05 -1.157739565228940e-05 1.068673751996110e-05 -2.943100488940431e-05
6.229342566206452e-02 -1.222806218303757e-05 -7.567069978472900e-06 2.976821285450583e-05 -1.020246378938618e-07 1.770920877303218e-04
6.036521810693216e-02 -8.748774357582754e-06 1.724970154245720e-05 1.150619589093198e-04 -1.725006859494875e-06 1.968036303493994e-04
5.942437283796713e-02 4.762615246859723e-06 2.248218993939546e-05 8.913551752483590e-05 -2.808973766891963e-06 5.932491259474125e-05
6.042854388935294e-02 -3.696829087481767e-06 4.778160078551300e-06 2.555641153149982e-06 6.268696120905490e-07 1.092619339656058e-05
6.135334237847806e-02 -1.616053657593023e-06 -1.416078108350918e-05 3.221761568777922e-05 2.226841754906556e-06 1.143885221983365e-04
5.861432580379106e-02 4.280174238268687e-06 -6.003604768841824e-06 5.310613535168027e-05 1.030596177417861e-05 2.605327393014311e-05
6.133513666846152e-02 -3.673976278188069e-07 -1.308425337218120e-06 2.176774845716504e-05 -1.400859202439766e-06 4.353966189872720e-05
6.521133406869788e-02 -2.752968257073254e-06 -3.233381883564078e-05 1.551230641366985e-04 -3.916172710287808e-06 4.809707320480205e-05
6.327108401367364e-02 -1.550451971217369e-05 -7.820946359354806e-06 2.407468716364962e-05 -5.757736276542836e-06 3.106822981385122e-04
6.665607383029062e-02 2.395650912521391e-05 3.253045382123062e-05 -2.136620083571759e-05 3.016493907191731e-05 -3.702559065004379e-05
6.325308670268860e-02 -7.158448049163729e-06 -2.566855340502134e-05 8.834599440067081e-05 -1.011450792452030e-06 5.911917019986665e-05
6.426146173644061e-02 -1.725836030999524e-05 -3.054502634152083e-05 7.245768833324895e-05 5.257667487994369e-07 1.766252114820995e-04
6.229342566206452e-02 -1.222806218303757e-05 -7.567069978472900e-06 2.976821285450583e-05 -1.020246378938618e-07 1.770920877303218e-04
6.406840448823820e-02 -4.639319575975837e-07 -3.598616497724436e-06 8.878381922713036e-06 1.262665573239486e-06 1.151986373785333e-05
6.587098892999746e-02 7.250106271565206e-06 9.896002506915827e-06 6.291711927536574e-05 2.140240523882220e-05 1.751773733040538e-06
6.495254837255190e-02 8.832965137586637e-06 1.093214527049247e-05 -1.737698109393086e-05 1.903662455503777e-05 1.179468446417624e-04
6.133775084108958e-02 -6.374950567208579e-06 -2.140176149336678e-05 3.504289313998011e-04 -1.513058339094892e-05 7.007259270258016e-04
6.521133406869788e-02 -2.752968257073254e-06 -3.233381883564078e-05 1.551230641366985e-04 -3.916172710287808e-06 4.809707320480205e-05
5.940247637469174e-02 1.567184634708224e-05 -7.052386959382681e-06 2.341466628504360e-05 1.651270959973175e-06 3.115236133434897e-04
6.367439983710557e-02 1.361972962155071e-05 -4.769255027843241e-05 1.348427192245461e-04 -3.857026679588505e-06 2.477849366182390e-04
6.339611297141731e-02 1.370911626922651e-06 -3.561535194224273e-05 2.410193145804709e-04 -8.580651516196849e-06 3.257636162239967e-04
6.231221296718639e-02 6.464230212496604e-06 -2.642381719345475e-05 1.139442291137409e-04 -3.227248257771115e-06 1.982468835584916e-04
6.030360144995065e-02 1.155982724897619e-05 -1.425698456065521e-05 1.638015639081919e-04 -4.492102539437038e-06 4.862730318236806e-04
6.254476351307457e-02 1.553179694501211e-05 -6.271160969986415e-05 2.499942834308330e-04 -3.904617022206965e-06 5.052002661139825e-04
6.443887401595078e-02 2.421922032357263e-05 -4.035357566765876e-05 1.326062072134800e-04 1.064516595984421e-06 1.321071182992076e-04
6.144298358785335e-02 5.152688376306324e-07 -6.736249205692146e-05 9.883031205899292e-05 3.229024233413628e-06 3.040595598716060e-04
6.133775084108958e-02 -6.374950567208579e-06 -2.140176149336678e-05 3.504289313998011e-04 -1.513058339094892e-05 7.007259270258016e-04
5.940247637469174e-02 1.567184634708224e-05 -7.052386959382681e-06 2.341466628504360e-05 1.651270959973175e-06 3.115236133434897e-04
5.747414856173112e-02 -1.337731820310770e-06 3.004982045575668e-05 1.559644724315408e-04 -1.903475582785208e-07 4.685710550420197e-05
5.433417452386601e-02 2.095879361741419e-05 2.926260245297389e-05 1.103196241549758e-04 -4.679539695318877e-06 2.459781546853361e-04
6.030360144995065e-02 1.155982724897619e-05 -1.425698456065521e-05 1.638015639081919e-04 -4.492102539437038e-06 4.862730318236806e-04
5.842046365485754e-02 1.563309211467586e-05 2.203023794652952e-05 7.258823156996667e-05 -3.927376386244281e-06 1.764302602372227e-04
5.927650462340135e-02 -8.664728899049988e-06 1.987283809126314e-05 2.438726086122890e-04 -5.839849556526073e-06 3.268837640848312e-04
5.772327357334191e-02 2.928978044824407e-05 4.438396688451763e-05 2.585533866919988e-04 1.394256381951289e-05 5.128853969556437e-04
5.703611270396493e-02 4.847160894126699e-05 6.300720923633457e-05 9.551481599158682e-06 1.652668487297859e-05 3.250364332047220e-04
5.604325431500920e-02 3.886085665595115e-05 5.993666796820073e-05 1.801524905106742e-04 1.524192889231863e-05 8.620022739571147e-05
6.133775084108958e-02 -6.374950567208579e-06 -2.140176149336678e-05 3.504289313998011e-04 -1.513058339094892e-05 7.007259270258016e-04
5.747414856173112e-02 -1.337731820310770e-06 3.004982045575668e-05 1.559644724315408e-04 -1.903475582785208e-07 4.685710550420197e-05
6.327108401367364e-02 -1.550451971217369e-05 -7.820946359354806e-06 2.407468716364962e-05 -5.757736276542836e-06 3.106822981385122e-04
5.901428175103331e-02 -1.536321772043650e-05 2.778182392901216e-05 1.415498500654614e-04 -3.847708746286851e-06 2.530885874322200e-04
5.927650462340135e-02 -8.664728899049988e-06 1.987283809126314e-05 2.438726086122890e-04 -5.839849556526073e-06 3.268837640848312e-04
6.036521810693216e-02 -8.748774357582754e-06 1.724970154245720e-05 1.150619589093198e-04 -1.725006859494875e-06 1.968036303493994e-04
6.236345463136113e-02 -1.617041703755505e-05 -9.270680152279996e-06 1.625840461784652e-04 -9.928336116731182e-06 4.834197015048118e-04
6.014020434436018e-02 -2.584896078701428e-05 3.586989907174729e-05 2.537610872763346e-04 -1.599907982526932e-05 5.053436686128818e-04
5.824586730560173e-02 -2.625967714038999e-05 3.410373251675919e-05 1.350409726926331e-04 -6.347146504748187e-06 1.311316306602812e-04
6.123314866159343e-02 -3.519009045173373e-06 5.572475784543885e-05 9.933594890031430e-05 -9.364074471232289e-06 3.006175994617772e-04
6.133775084108958e-02 -6.374950567208579e-06 -2.140176149336678e-05 3.504289313998011e-04 -1.513058339094892e-05 7.007259270258016e-04
6.327108401367364e-02 -1.550451971217369e-05 -7.820946359354806e-06 2.407468716364962e-05 -5.757736276542836e-06 3.106822981385122e-04
6.521133406869788e-02 -2.752968257073254e-06 -3.233381883564078e-05 1.551230641366985e-04 -3.916172710287808e-06 4.809707320480205e-05
6.831437186517718e-02 -3.103898558859510e-05 -5.750769219243696e-05 9.679846176371090e-05 -4.814618782898732e-06 2.204425052663048e-04
6.236345463136113e-02 -1.617041703755505e-05 -9.270680152279996e-06 1.625840461784652e-04 -9.928336116731182e-06 4.834197015048118e-04
6.426146173644061e-02 -1.725836030999524e-05 -3.054502634152083e-05 7.245768833324895e-05 5.257667487994369e-07 1.766252114820995e-04
6.339611297141731e-02 1.370911626922651e-06 -3.561535194224273e-05 2.410193145804709e-04 -8.580651516196849e-06 3.257636162239967e-04
6.493711004696996e-02 -3.315131394924233e-05 -6.476748377977472e-05 2.494190231585889e-04 -2.263403739020945e-05 4.998394301740532e-04
6.564302192002934e-02 -4.413127766731504e-05 -7.498680702870396e-05 1.099441109417911e-05 -1.450927694466379e-05 3.256416102955696e-04
6.664448908295276e-02 -4.124435581544017e-05 -5.884155482091846e-05 1.797503455487400e-04 -1.407697697689465e-05 8.811288107407465e-05
6.133513666846152e-02 -3.673976278188069e-07 -1.308425337218120e-06 2.176774845716504e-05 -1.400859202439766e-06 4.353966189872720e-05
6.521133406869788e-02 -2.752968257073254e-06 -3.233381883564078e-05 1.551230641366985e-04 -3.916172710287808e-06 4.809707320480205e-05
5.940247637469174e-02 1.567184634708224e-05 -7.052386959382681e-06 2.341466628504360e-05 1.651270959973175e-06 3.115236133434897e-04
6.133602965993179e-02 -1.985042709781655e-06 -8.104654979974458e-06 1.718398046655536e-04 -6.915438546793108e-06 3.436672023757532e-04
6.325308670268860e-02 -7.158448049163729e-06 -2.566855340502134e-05 8.834599440067081e-05 -1.011450792452030e-06 5.911917019986665e-05
6.231221296718639e-02 6.464230212496604e-06 -2.642381719345475e-05 1.139442291137409e-04 -3.227248257771115e-06 1.982468835584916e-04
6.037907186837688e-02 1.184076774477088e-05 -1.576989051553907e-06 2.945446406005038e-05 -3.718400131283025e-06 1.778815776499760e-04
6.133592016202801e-02 -1.317249453230572e-06 -5.190866698803608e-06 1.013575970400258e-04 -4.774077052939134e-06 2.027137320856783e-04
6.332024582285435e-02 -4.857676145792093e-06 -3.122029571097380e-05 1.728517839997796e-04 -4.017333856841215e-06 2.034651226700689e-04
6.034631260481312e-02 1.229902108793942e-05 -6.776598920880671e-06 1.017408247435864e-04 -5.752266664760997e-06 3.479635520379080e-04
6.133513666846152e-02 -3.673976278188069e-07 -1.308425337218120e-06 2.176774845716504e-05 -1.400859202439766e-06 4.353966189872720e-05
5.940247637469174e-02 1.567184634708224e-05 -7.052386959382681e-06 2.341466628504360e-05 1.651270959973175e-06 3.115236133434897e-04
5.747414856173112e-02 -1.337731820310770e-06 3.004982045575668e-05 1.559644724315408e-04 -1.903475582785208e-07 4.685710550420197e-05
6.133602965993179e-02 -1.985042709781655e-06 -8.104654979974458e-06 1.718398046655536e-04 -6.915438546793108e-06 3.436672023757532e-04
6.037907186837688e-02 1.184076774477088e-05 -1.576989051553907e-06 2.945446406005038e-05 -3.718400131283025e-06 1.778815776499760e-04
5.842046365485754e-02 1.563309211467586e-05 2.203023794652952e-05 7.258823156996667e-05 -3.927376386244281e-06 1.764302602372227e-04
5.942437283796713e-02 4.762615246859723e-06 2.248218993939546e-05 8.913551752483590e-05 -2.808973766891963e-06 5.932491259474125e-05
6.133592016202801e-02 -1.317249453230572e-06 -5.190866698803608e-06 1.013575970400258e-04 -4.774077052939134e-06 2.027137320856783e-04
6.034631260481312e-02 1.229902108793942e-05 -6.776598920880671e-06 1.017408247435864e-04 -5.752266664760997e-06 3.479635520379080e-04
5.935828178958924e-02 7.280260029695706e-07 2.146655864630086e-05 1.743569406593899e-04 -5.164090239825879e-06 2.034800732802287e-04
6.133513666846152e-02 -3.673976278188069e-07 -1.308425337218120e-06 2.176774845716504e-05 -1.400859202439766e-06 4.353966189872720e-05
5.747414856173112e-02 -1.337731820310770e-06 3.004982045575668e-05 1.559644724315408e-04 -1.903475582785208e-07 4.685710550420197e-05
6.327108401367364e-02 -1.550451971217369e-05 -7.820946359354806e-06 2.407468716364962e-05 -5.757736276542836e-06 3.106822981385122e-04
6.133602965993179e-02 -1.985042709781655e-06 -8.104654979974458e-06 1.718398046655536e-04 -6.915438546793108e-06 3.436672023757532e-04
5.942437283796713e-02 4.762615246859723e-06 2.248218993939546e-05 8.913551752483590e-05 -2.808973766891963e-06 5.932491259474125e-05
6.036521810693216e-02 -8.748774357582754e-06 1.724970154245720e-05 1.150619589093198e-04 -1.725006859494875e-06 1.968036303493994e-04
6.229342566206452e-02 -1.222806218303757e-05 -7.567069978472900e-06 2.976821285450583e-05 -1.020246378938618e-07 1.770920877303218e-04
6.133592016202801e-02 -1.317249453230572e-06 -5.190866698803608e-06 1.013575970400258e-04 -4.774077052939134e-06 2.027137320856783e-04
5.935828178958924e-02 7.280260029695706e-07 2.146655864630086e-05 1.743569406593899e-04 -5.164090239825879e-06 2.034800732802287e-04
6.232730001017323e-02 -1.403754554076381e-05 -9.601139348304124e-06 1.017431103980361e-04 -3.429153393867010e-06 3.464583756790289e-04
6.133513666846152e-02 -3.673976278188069e-07 -1.308425337218120e-06 2.176774845716504e-05 -1.400859202439766e-06 4.353966189872720e-05
6.327108401367364e-02 -1.550451971217369e-05 -7.820946359354806e-06 2.407468716364962e-05 -5.757736276542836e-06 3.106822981385122e-04
6.521133406869788e-02 -2.752968257073254e-06 -3.233381883564078e-05 1.551230641366985e-04 -3.916172710287808e-06 4.809707320480205e-05
6.133602965993179e-02 -1.985042709781655e-06 -8.104654979974458e-06 1.718398046655536e-04 -6.915438546793108e-06 3.436672023757532e-04
6.229342566206452e-02 -1.222806218303757e-05 -7.567069978472900e-06 2.976821285450583e-05 -1.020246378938618e-07 1.770920877303218e-04
6.426146173644061e-02 -1.725836030999524e-05 -3.054502634152083e-05 7.245768833324895e-05 5.257667487994369e-07 1.766252114820995e-04
6.325308670268860e-02 -7.158448049163729e-06 -2.566855340502134e-05 8.834599440067081e-05 -1.011450792452030e-06 5.911917019986665e-05
6.133592016202801e-02 -1.317249453230572e-06 -5.190866698803608e-06 1.013575970400258e-04 -4.774077052939134e-06 2.027137320856783e-04
6.232730001017323e-02 -1.403754554076381e-05 -9.601139348304124e-06 1.017431103980361e-04 -3.429153393867010e-06 3.464583756790289e-04
6.332024582285435e-02 -4.857676145792093e-06 -3.122029571097380e-05 1.728517839997796e-04 -4.017333856841215e-06 2.034651226700689e-04
6.133775084108958e-02 -6.374950567208579e-06 -2.140176149336678e-05 3.504289313998011e-04 -1.513058339094892e-05 7.007259270258016e-04
5.940247637469174e-02 1.567184634708224e-05 -7.052386959382681e-06 2.341466628504360e-05 1.651270959973175e-06 3.115236133434897e-04
6.521133406869788e-02 -2.752968257073254e-06 -3.233381883564078e-05 1.551230641366985e-04 -3.916172710287808e-06 4.809707320480205e-05
6.133602965993179e-02 -1.985042709781655e-06 -8.104654979974458e-06 1.718398046655536e-04 -6.915438546793108e-06 3.436672023757532e-04
6.030360144995065e-02 1.155982724897619e-05 -1.425698456065521e-05 1.638015639081919e-04 -4.492102539437038e-06 4.862730318236806e-04
6.231221296718639e-02 6.464230212496604e-06 -2.642381719345475e-05 1.139442291137409e-04 -3.227248257771115e-06 1.982468835584916e-04
6.339611297141731e-02 1.370911626922651e-06 -3.561535194224273e-05 2.410193145804709e-04 -8.580651516196849e-06 3.257636162239967e-04
6.133368076308009e-02 -2.808917811443652e-06 -1.023378171996913e-05 2.316660773524458e-04 -9.115708854188400e-06 4.632859613499947e-04
6.034631260481312e-02 1.229902108793942e-05 -6.776598920880671e-06 1.017408247435864e-04 -5.752266664760997e-06 3.479635520379080e-04
6.332024582285435e-02 -4.857676145792093e-06 -3.122029571097380e-05 1.728517839997796e-04 -4.017333856841215e-06 2.034651226700689e-04
6.133775084108958e-02 -6.374950567208579e-06 -2.140176149336678e-05 3.504289313998011e-04 -1.513058339094892e-05 7.007259270258016e-04
5.747414856173112e-02 -1.337731820310770e-06 3.004982045575668e-05 1.559644724315408e-04 -1.903475582785208e-07 4.685710550420197e-05
5.940247637469174e-02 1.567184634708224e-05 -7.052386959382681e-06 2.341466628504360e-05 1.651270959973175e-06 3.115236133434897e-04
6.133602965993179e-02 -1.985042709781655e-06 -8.104654979974458e-06 1.718398046655536e-04 -6.915438546793108e-06 3.436672023757532e-04
5.927650462340135e-02 -8.664728899049988e-06 1.987283809126314e-05 2.438726086122890e-04 -5.839849556526073e-06 3.268837640848312e-04
5.842046365485754e-02 1.563309211467586e-05 2.203023794652952e-05 7.258823156996667e-05 -3.927376386244281e-06 1.764302602372227e-04
6.030360144995065e-02 1.155982724897619e-05 -1.425698456065521e-05 1.638015639081919e-04 -4.492102539437038e-06 4.862730318236806e-04
6.133368076308009e-02 -2.808917811443652e-06 -1.023378171996913e-05 2.316660773524458e-04 -9.115708854188400e-06 4.632859613499947e-04
5.935828178958924e-02 7.280260029695706e-07 2.146655864630086e-05 1.743569406593899e-04 -5.164090239825879e-06 2.034800732802287e-04
6.034631260481312e-02 1.229902108793942e-05 -6.776598920880671e-06 1.017408247435864e-04 -5.752266664760997e-06 3.479635520379080e-04
6.133775084108958e-02 -6.374950567208579e-06 -2.140176149336678e-05 3.504289313998011e-04 -1.513058339094892e-05 7.007259270258016e-04
6.327108401367364e-02 -1.550451971217369e-05 -7.820946359354806e-06 2.407468716364962e-05 -5.757736276542836e-06 3.106822981385122e-04
5.747414856173112e-02 -1.337731820310770e-06 3.004982045575668e-05 1.559644724315408e-04 -1.903475582785208e-07 4.685710550420197e-05
6.133602965993179e-02 -1.985042709781655e-06 -8.104654979974458e-06 1.718398046655536e-04 -6.915438546793108e-06 3.436672023757532e-04
6.236345463136113e-02 -1.617041703755505e-05 -9.270680152279996e-06 1.625840461784652e-04 -9.928336116731182e-06 4.834197015048118e-04
6.036521810693216e-02 -8.748774357582754e-06 1.724970154245720e-05 1.150619589093198e-04 -1.725006859494875e-06 1.968036303493994e-04
5.927650462340135e-02 -8.664728899049988e-06 1.987283809126314e-05 2.438726086122890e-04 -5.839849556526073e-06 3.268837640848312e-04
6.133368076308009e-02 -2.808917811443652e-06 -1.023378171996913e-05 2.316660773524458e-04 -9.115708854188400e-06 4.632859613499947e-04
6.232730001017323e-02 -1.403754554076381e-05 -9.601139348304124e-06 1.017431103980361e-04 -3.429153393867010e-06 3.464583756790289e-04
5.935828178958924e-02 7.280260029695706e-07 2.146655864630086e-05 1.743569406593899e-04 -5.164090239825879e-06 2.034800732802287e-04
6.133775084108958e-02 -6.374950567208579e-06 -2.140176149336678e-05 3.504289313998011e-04 -1.513058339094892e-05 7.007259270258016e-04
6.521133406869788e-02 -2.752968257073254e-06 -3.233381883564078e-05 1.551230641366985e-04 -3.916172710287808e-06 4.809707320480205e-05
6.327108401367364e-02 -1.550451971217369e-05 -7.820946359354806e-06 2.407468716364962e-05 -5.757736276542836e-06 3.106822981385122e-04
6.133602965993179e-02 -1.985042709781655e-06 -8.104654979974458e-06 1.718398046655536e-04 -6.915438546793108e-06 3.436672023757532e-04
6.339611297141731e-02 1.370911626922651e-06 -3.561535194224273e-05 2.410193145804709e-04 -8.580651516196849e-06 3.257636162239967e-04
6.426146173644061e-02 -1.725836030999524e-05 -3.054502634152083e-05 7.245768833324895e-05 5.257667487994369e-07 1.766252114820995e-04
6.236345463136113e-02 -1.617041703755505e-05 -9.270680152279996e-06 1.625840461784652e-04 -9.928336116731182e-06 4.834197015048118e-04
6.133368076308009e-02 -2.808917811443652e-06 -1.023378171996913e-05 2.316660773524458e-04 -9.115708854188400e-06 4.632859613499947e-04
6.332024582285435e-02 -4.857676145792093e-06 -3.122029571097380e-05 1.728517839997796e-04 -4.017333856841215e-06 2.034651226700689e-04
6.232730001017323e-02 -1.403754554076381e-05 -9.601139348304124e-06 1.017431103980361e-04 -3.429153393867010e-06 3.464583756790289e-04
6.367439983710557e-02 1.361972962155071e-05 -4.769255027843241e-05 1.348427192245461e-04 -3.857026679588505e-06 2.477849366182390e-04
5.433417452386601e-02 2.095879361741419e-05 2.926260245297389e-05 1.103196241549758e-04 -4.679539695318877e-06 2.459781546853361e-04
6.133775084108958e-02 -6.374950567208579e-06 -2.140176149336678e-05 3.504289313998011e-04 -1.513058339094892e-05 7.007259270258016e-04
5.817097274613932e-02 5.094767376535824e-05 -4.801582698480658e-05 8.112475771666597e-05 2.010076157117908e-06 1.185522157394987e-03
5.903261194099880e-02 9.581898971795793e-06 -2.798270094077708e-06 8.178070599175340e-05 -1.834390888187812e-05 5.108433743145263e-04
5.772327357334191e-02 2.928978044824407e-05 4.438396688451763e-05 2.585533866919988e-04 1.394256381951289e-05 5.128853969556437e-04
6.254476351307457e-02 1.553179694501211e-05 -6.271160969986415e-05 2.499942834308330e-04 -3.904617022206965e-06 5.052002661139825e-04
6.121977945186068e-02 2.131917177531881e-06 -2.627666970781244e-05 1.755953658441659e-04 -1.430747551676554e-05 6.052565265394220e-04
5.611050201431463e-02 -3.315024128561416e-05 -4.446505850626396e-05 -2.762570167407193e-05 -4.227577970401686e-05 6.647593715394880e-04
5.984288859418534e-02 2.219461099636545e-05 -2.433001160938739e-05 2.347362746915890e-04 -9.684263965711909e-06 9.653334643175957e-04
5.433417452386601e-02 2.095879361741419e-05 2.926260245297389e-05 1.103196241549758e-04 -4.679539695318877e-06 2.459781546853361e-04
5.901428175103331e-02 -1.536321772043650e-05 2.778182392901216e-05 1.415498500654614e-04 -3.847708746286851e-06 2.530885874322200e-04
6.133775084108958e-02 -6.374950567208579e-06 -2.140176149336678e-05 3.504289313998011e-04 -1.513058339094892e-05 7.007259270258016e-04
5.492220676833388e-02 -1.431516376056576e-05 8.331407393276667e-05 6.009248813076513e-04 -8.671109998843673e-06 1.805575263078469e-04
5.675414963080619e-02 9.733055608903953e-06 1.605491337972874e-05 2.574263162874910e-04 -9.704979304508397e-06 1.661414530891095e-04
6.014020434436018e-02 -2.584896078701428e-05 3.586989907174729e-05 2.537610872763346e-04 -1.599907982526932e-05 5.053436686128818e-04
5.772327357334191e-02 2.928978044824407e-05 4.438396688451763e-05 2.585533866919988e-04 1.394256381951289e-05 5.128853969556437e-04
5.467255287888048e-02 -1.207307118974596e-05 -5.082648677630438e-05 3.632948786546332e-04 -3.746221565527244e-05 1.050365775189902e-04
5.724020621916652e-02 3.314056953390923e-06 -2.553410883535606e-05 2.861714706762677e-04 -3.044750037109699e-06 2.030169756739761e-04
5.832048305747501e-02 5.814709640911526e-06 3.602136634429159e-05 4.880646450796979e-04 -1.218608871375062e-05 4.675207464250232e-04
5.901428175103331e-02 -1.536321772043650e-05 2.778182392901216e-05 1.415498500654614e-04 -3.847708746286851e-06 2.530885874322200e-04
6.831437186517718e-02 -3.103898558859510e-05 -5.750769219243696e-05 9.679846176371090e-05 -4.814618782898732e-06 2.204425052663048e-04
6.133775084108958e-02 -6.374950567208579e-06 -2.140176149336678e-05 3.504289313998011e-04 -1.513058339094892e-05 7.007259270258016e-04
6.455139418077864e-02 -6.785205116223832e-05 -4.201981064060034e-05 7.625371378521150e-05 -3.929158496971600e-05 1.153365943443273e-03
6.361790967065414e-02 -8.689502507578286e-06 -1.370626670205610e-05 8.056650062970318e-05 1.600404024419923e-05 5.023958818385877e-04
6.493711004696996e-02 -3.315131394924233e-05 -6.476748377977472e-05 2.494190231585889e-04 -2.263403739020945e-05 4.998394301740532e-04
6.014020434436018e-02 -2.584896078701428e-05 3.586989907174729e-05 2.537610872763346e-04 -1.599907982526932e-05 5.053436686128818e-04
6.149220560938588e-02 -1.002404609333178e-07 -3.479723491852657e-05 1.688930130219067e-04 6.936495288389652e-06 5.990526350700751e-04
6.654953980602742e-02 5.461621168925901e-06 -4.136638548233608e-05 -4.796044812735175e-05 1.799314019393351e-06 6.132879196169696e-04
6.285400258064033e-02 -3.504381518494159e-05 -3.700952759534070e-05 2.228799916267766e-04 -1.932570299795168e-05 9.439585543775411e-04
6.831437186517718e-02 -3.103898558859510e-05 -5.750769219243696e-05 9.679846176371090e-05 -4.814618782898732e-06 2.204425052663048e-04
6.367439983710557e-02 1.361972962155071e-05 -4.769255027843241e-05 1.348427192245461e-04 -3.857026679588505e-06 2.477849366182390e-04
6.133775084108958e-02 -6.374950567208579e-06 -2.140176149336678e-05 3.504289313998011e-04 -1.513058339094892e-05 7.007259270258016e-04
6.768425556742486e-02 -4.865730899421727e-06 -1.534337828526625e-04 5.687668064056269e-04 -2.861519484665096e-05 1.349906116764547e-04
6.592409548349588e-02 -1.201338572087382e-05 -2.047937603934504e-05 2.489826963806612e-04 7.365563258560852e-06 1.584491804275056e-04
6.254476351307457e-02 1.553179694501211e-05 -6.271160969986415e-05 2.499942834308330e-04 -3.904617022206965e-06 5.052002661139825e-04
6.493711004696996e-02 -3.315131394924233e-05 -6.476748377977472e-05 2.494190231585889e-04 -2.263403739020945e-05 4.998394301740532e-04
6.792611444403773e-02 -1.594436088846666e-05 -4.062126993829806e-06 3.306270192857252e-04 1.831961807299044e-06 5.940761546865981e-05
6.541040236912876e-02 -6.575359612344645e-06 3.664125614005929e-07 2.611689205279590e-04 -9.174111398394033e-06 1.710260138157862e-04
6.434292390020005e-02 -2.053898592198796e-05 -7.835314847161429e-05 4.666904292834070e-04 -1.682403421530973e-05 4.477047443592497e-04
6.367439983710557e-02 1.361972962155071e-05 -4.769255027843241e-05 1.348427192245461e-04 -3.857026679588505e-06 2.477849366182390e-04
6.543168231690408e-02 -1.007752755415184e-04 3.905402281013395e-04 4.360385095311298e-04 4.830161305437620e-05 8.231763480285508e-04
5.817097274613932e-02 5.094767376535824e-05 -4.801582698480658e-05 8.112475771666597e-05 2.010076157117908e-06 1.185522157394987e-03
6.768425556742486e-02 -4.865730899421727e-06 -1.534337828526625e-04 5.687668064056269e-04 -2.861519484665096e-05 1.349906116764547e-04
6.455293967689793e-02 1.367957971734881e-06 2.780056250462607e-05 1.593661397797678e-04 -1.601723267366103e-05 3.784423888553213e-04
6.163574503007228e-02 2.545131275497887e-05 9.778666412500880e-05 3.033581211440582e-04 4.516601505355979e-05 9.377134054932813e-04
6.121977945186068e-02 2.131917177531881e-06 -2.627666970781244e-05 1.755953658441659e-04 -1.430747551676554e-05 6.052565265394220e-04
6.541040236912876e-02 -6.575359612344645e-06 3.664125614005929e-07 2.611689205279590e-04 -9.174111398394033e-06 1.710260138157862e-04
6.678350358361446e-02 -1.703455549835923e-05 -2.053772743430077e-05 4.127088166815791e-04 -2.434511458656860e-05 4.093584281908357e-04
6.295119918096807e-02 3.659492976282547e-05 -1.037324615397690e-04 4.198555949281473e-04 1.253609841646259e-06 7.296269816701124e-04
5.433417452386601e-02 2.095879361741419e-05 2.926260245297389e-05 1.103196241549758e-04 -4.679539695318877e-06 2.459781546853361e-04
4.885303740090917e-02 -1.359850906840957e-04 -1.822702587111587e-04 3.596009720030813e-04 5.752457793933953e-05 7.548991880909349e-04
5.492220676833388e-02 -1.431516376056576e-05 8.331407393276667e-05 6.009248813076513e-04 -8.671109998843673e-06 1.805575263078469e-04
5.817097274613932e-02 5.094767376535824e-05 -4.801582698480658e-05 8.112475771666597e-05 2.010076157117908e-06 1.185522157394987e-03
5.153230394835490e-02 2.641054225741630e-06 2.815315530141903e-05 2.343096077928034e-04 -3.814449893678476e-05 4.225782838817562e-04
5.170355173169527e-02 -5.289560755989044e-05 4.261079406297576e-05 5.591958724317178e-04 9.202443980907517e-06 2.914665759569823e-04
5.467255287888048e-02 -1.207307118974596e-05 -5.082648677630438e-05 3.632948786546332e-04 -3.746221565527244e-05 1.050365775189902e-04
5.611050201431463e-02 -3.315024128561416e-05 -4.446505850626396e-05 -2.762570167407193e-05 -4.227577970401686e-05 6.647593715394880e-04
5.349021337248205e-02 1.634713223460403e-05 -6.690250099337851e-05 4.508113433200683e-05 2.620653787355383e-05 1.000081663191714e-03
5.648921897575454e-02 2.440406856548302e-05 3.541343289326321e-05 2.854610084637147e-04 -2.022972941430726e-06 6.831184800207368e-04
5.901428175103331e-02 -1.536321772043650e-05 2.778182392901216e-05 1.415498500654614e-04 -3.847708746286851e-06 2.530885874322200e-04
5.722210841216506e-02 1.422201896389000e-04 -1.751465037767028e-04 4.160099178841640e-04 4.433241131406496e-05 8.076047053781291e-04
6.455139418077864e-02 -6.785205116223832e-05 -4.201981064060034e-05 7.625371378521150e-05 -3.929158496971600e-05 1.153365943443273e-03
5.492220676833388e-02 -1.431516376056576e-05 8.331407393276667e-05 6.009248813076513e-04 -8.671109998843673e-06 1.805575263078469e-04
5.810055227418022e-02 -6.340449196029239e-06 1.823901226650140e-05 1.662459892829750e-04 2.319060658976718e-05 3.852878083430760e-04
6.107345615984274e-02 -1.440680251837446e-05 -5.736636589005820e-05 2.994118630246786e-04 -2.721798643854850e-05 9.255323040277530e-04
6.149220560938588e-02 -1.002404609333178e-07 -3.479723491852657e-05 1.688930130219067e-04 6.936495288389652e-06 5.990526350700751e-04
5.724020621916652e-02 3.314056953390923e-06 -2.553410883535606e-05 2.861714706762677e-04 -3.044750037109699e-06 2.030169756739761e-04
5.582039305094043e-02 2.137276040081195e-05 4.783042900788694e-05 4.115644976886122e-04 3.265592875030005e-05 4.267853063249935e-04
5.972316640287740e-02 -3.819797373520752e-05 4.939245404062774e-05 4.276698153287543e-04 -1.468711122815713e-05 7.432896735547426e-04
6.831437186517718e-02 -3.103898558859510e-05 -5.750769219243696e-05 9.679846176371090e-05 -4.814618782898732e-06 2.204425052663048e-04
7.348682435630513e-02 2.125138634603554e-04 4.327751923541520e-04 3.953995540822771e-04 4.178317095880313e-05 8.263518795745195e-04
6.768425556742486e-02 -4.865730899421727e-06 -1.534337828526625e-04 5.687668064056269e-04 -2.861519484665096e-05 1.349906116764547e-04
6.455139418077864e-02 -6.785205116223832e-05 -4.201981064060034e-05 7.625371378521150e-05 -3.929158496971600e-05 1.153365943443273e-03
7.089342390840304e-02 2.728946359224563e-05 5.276911375118180e-05 2.416907423150399e-04 7.940630174360492e-05 4.162503120169260e-04
7.072809323944312e-02 9.016284725033090e-05 -1.977931731093752e-05 5.525466434675212e-04 7.733734486352891e-06 2.974883043778437e-04
6.792611444403773e-02 -1.594436088846666e-05 -4.062126993829806e-06 3.306270192857252e-04 1.831961807299044e-06 5.940761546865981e-05
6.654953980602742e-02 5.461621168925901e-06 -4.136638548233608e-05 -4.796044812735175e-05 1.799314019393351e-06 6.132879196169696e-04
6.904672192874281e-02 -9.759705938575594e-06 1.402606699857677e-04 6.455442713144768e-05 -1.890321565981120e-05 1.006778438738115e-03
6.617259626065922e-02 -5.463790640627316e-05 -1.183946994089458e-04 2.659275943645962e-04 -4.823010856200879e-05 6.421073195313287e-04
6.543168231690408e-02 -1.007752755415184e-04 3.905402281013395e-04 4.360385095311298e-04 4.830161305437620e-05 8.231763480285508e-04
4.885303740090917e-02 -1.359850906840957e-04 -1.822702587111587e-04 3.596009720030813e-04 5.752457793933953e-05 7.548991880909349e-04
5.817097274613932e-02 5.094767376535824e-05 -4.801582698480658e-05 8.112475771666597e-05 2.010076157117908e-06 1.185522157394987e-03
6.138119551959208e-02 4.325151713507139e-05 1.858618446905389e-04 8.118934746611656e-04 1.063850760810597e-04 1.624285328856320e-03
5.702940078511917e-02 -2.392704427994169e-04 1.518199129719443e-04 3.281988159160065e-04 1.949105529117218e-04 1.123796443556882e-03
5.349021337248205e-02 1.634713223460403e-05 -6.690250099337851e-05 4.508113433200683e-05 2.620653787355383e-05 1.000081663191714e-03
6.163574503007228e-02 2.545131275497887e-05 9.778666412500880e-05 3.033581211440582e-04 4.516601505355979e-05 9.377134054932813e-04
6.346956527818645e-02 -1.152358380449912e-04 5.008680606116459e-04 6.717878272587527e-04 7.091267528860443e-05 1.307442867701245e-03
5.494431333282243e-02 -1.354504297496422e-04 -1.600714359136324e-04 6.135232091714730e-04 3.678747048436167e-05 1.244042802592458e-03
5.960359079063464e-02 8.608283983507328e-07 5.482265045694110e-05 4.138448330742712e-04 2.923597178720869e-05 1.408018127193175e-03
4.885303740090917e-02 -1.359850906840957e-04 -1.822702587111587e-04 3.596009720030813e-04 5.752457793933953e-05 7.548991880909349e-04
5.722210841216506e-02 1.422201896389000e-04 -1.751465037767028e-04 4.160099178841640e-04 4.433241131406496e-05 8.076047053781291e-04
5.492220676833388e-02 -1.431516376056576e-05 8.331407393276667e-05 6.009248813076513e-04 -8.671109998843673e-06 1.805575263078469e-04
6.138119551959208e-02 4.325151713507139e-05 1.858618446905389e-04 8.118934746611656e-04 1.063850760810597e-04 1.624285328856320e-03
5.272071056739722e-02 -2.726409990613995e-06 -4.182526839903081e-04 5.532714338760758e-04 1.259217860875930e-04 6.283559415567418e-04
5.582039305094043e-02 2.137276040081195e-05 4.783042900788694e-05 4.115644976886122e-04 3.265592875030005e-05 4.267853063249935e-04
5.170355173169527e-02 -5.289560755989044e-05 4.261079406297576e-05 5.591958724317178e-04 9.202443980907517e-06 2.914665759569823e-04
5.494431333282243e-02 -1.354504297496422e-04 -1.600714359136324e-04 6.135232091714730e-04 3.678747048436167e-05 1.244042802592458e-03
5.924553120291005e-02 1.917187137462903e-04 -1.551268766238663e-04 6.489486712754035e-04 1.073183438371356e-04 1.286803515757642e-03
5.780704101631081e-02 4.551796875552097e-06 2.947723255257566e-05 7.037805896504987e-04 3.229955225918686e-05 8.420551097066650e-04
5.722210841216506e-02 1.422201896389000e-04 -1.751465037767028e-04 4.160099178841640e-04 4.433241131406496e-05 8.076047053781291e-04
7.348682435630513e-02 2.125138634603554e-04 4.327751923541520e-04 3.953995540822771e-04 4.178317095880313e-05 8.263518795745195e-04
6.455139418077864e-02 -6.785205116223832e-05 -4.201981064060034e-05 7.625371378521150e-05 -3.929158496971600e-05 1.153365943443273e-03
6.138119551959208e-02 4.325151713507139e-05 1.858618446905389e-04 8.118934746611656e-04 1.063850760810597e-04 1.624285328856320e-03
6.554167090198086e-02 2.718781071457743e-04 1.986646061028501e-04 3.380759487891478e-04 -8.485118565828859e-05 1.158661612543800e-03
6.904672192874281e-02 -9.759705938575594e-06 1.402606699857677e-04 6.455442713144768e-05 -1.890321565981120e-05 1.006778438738115e-03
6.107345615984274e-02 -1.440680251837446e-05 -5.736636589005820e-05 2.994118630246786e-04 -2.721798643854850e-05 9.255323040277530e-04
5.924553120291005e-02 1.917187137462903e-04 -1.551268766238663e-04 6.489486712754035e-04 1.073183438371356e-04 1.286803515757642e-03
6.761825441983824e-02 2.274111021480695e-04 5.213141477621739e-04 6.439218922270652e-04 1.427521339839509e-04 1.317947991315665e-03
6.313942795540499e-02 2.486607282033977e-05 6.447893729432970e-05 4.233805797950277e-04 4.201910232710355e-05 1.408784155207237e-03
7.348682435630513e-02 2.125138634603554e-04 4.327751923541520e-04 3.953995540822771e-04 4.178317095880313e-05 8.263518795745195e-04
6.543168231690408e-02 -1.007752755415184e-04 3.905402281013395e-04 4.360385095311298e-04 4.830161305437620e-05 8.231763480285508e-04
6.768425556742486e-02 -4.865730899421727e-06 -1.534337828526625e-04 5.687668064056269e-04 -2.861519484665096e-05 1.349906116764547e-04
6.138119551959208e-02 4.325151713507139e-05 1.858618446905389e-04 8.118934746611656e-04 1.063850760810597e-04 1.624285328856320e-03
6.974577935413212e-02 9.648317745437211e-05 6.003387294954339e-04 5.881312508956573e-04 -1.584177501035058e-05 7.027550755563032e-04
6.678350358361446e-02 -1.703455549835923e-05 -2.053772743430077e-05 4.127088166815791e-04 -2.434511458656860e-05 4.093584281908357e-04
7.072809323944312e-02 9.016284725033090e-05 -1.977931731093752e-05 5.525466434675212e-04 7.733734486352891e-06 2.974883043778437e-04
6.761825441983824e-02 2.274111021480695e-04 5.213141477621739e-04 6.439218922270652e-04 1.427521339839509e-04 1.317947991315665e-03
6.346956527818645e-02 -1.152358380449912e-04 5.008680606116459e-04 6.717878272587527e-04 7.091267528860443e-05 1.307442867701245e-03
6.487959959828064e-02 2.326816976241095e-05 7.794615684570983e-05 7.045440748924666e-04 3.895238833287477e-05 8.333918884779690e-04
6.133775084108958e-02 -6.374950567208579e-06 -2.140176149336678e-05 3.504289313998011e-04 -1.513058339094892e-05 7.007259270258016e-04
5.817097274613932e-02 5.094767376535824e-05 -4.801582698480658e-05 8.112475771666597e-05 2.010076157117908e-06 1.185522157394987e-03
6.768425556742486e-02 -4.865730899421727e-06 -1.534337828526625e-04 5.687668064056269e-04 -2.861519484665096e-05 1.349906116764547e-04
6.367439983710557e-02 1.361972962155071e-05 -4.769255027843241e-05 1.348427192245461e-04 -3.857026679588505e-06 2.477849366182390e-04
5.984288859418534e-02 2.219461099636545e-05 -2.433001160938739e-05 2.347362746915890e-04 -9.684263965711909e-06 9.653334643175957e-04
6.295119918096807e-02 3.659492976282547e-05 -1.037324615397690e-04 4.198555949281473e-04 1.253609841646259e-06 7.296269816701124e-04
6.434292390020005e-02 -2.053898592198796e-05 -7.835314847161429e-05 4.666904292834070e-04 -1.682403421530973e-05 4.477047443592497e-04
6.254476351307457e-02 1.553179694501211e-05 -6.271160969986415e-05 2.499942834308330e-04 -3.904617022206965e-06 5.052002661139825e-04
6.121977945186068e-02 2.131917177531881e-06 -2.627666970781244e-05 1.755953658441659e-04 -1.430747551676554e-05 6.052565265394220e-04
6.541040236912876e-02 -6.575359612344645e-06 3.664125614005929e-07 2.611689205279590e-04 -9.174111398394033e-06 1.710260138157862e-04
6.133775084108958e-02 -6.374950567208579e-06 -2.140176149336678e-05 3.504289313998011e-04 -1.513058339094892e-05 7.007259270258016e-04
5.492220676833388e-02 -1.431516376056576e-05 8.331407393276667e-05 6.009248813076513e-04 -8.671109998843673e-06 1.805575263078469e-04
5.817097274613932e-02 5.094767376535824e-05 -4.801582698480658e-05 8.112475771666597e-05 2.010076157117908e-06 1.185522157394987e-03
5.433417452386601e-02 2.095879361741419e-05 2.926260245297389e-05 1.103196241549758e-04 -4.679539695318877e-06 2.459781546853361e-04
5.832048305747501e-02 5.814709640911526e-06 3.602136634429159e-05 4.880646450796979e-04 -1.218608871375062e-05 4.675207464250232e-04
5.648921897575454e-02 2.440406856548302e-05 3.541343289326321e-05 2.854610084637147e-04 -2.022972941430726e-06 6.831184800207368e-04
5.984288859418534e-02 2.219461099636545e-05 -2.433001160938739e-05 2.347362746915890e-04 -9.684263965711909e-06 9.653334643175957e-04
5.772327357334191e-02 2.928978044824407e-05 4.438396688451763e-05 2.585533866919988e-04 1.394256381951289e-05 5.128853969556437e-04
5.467255287888048e-02 -1.207307118974596e-05 -5.082648677630438e-05 3.632948786546332e-04 -3.746221565527244e-05 1.050365775189902e-04
5.611050201431463e-02 -3.315024128561416e-05 -4.446505850626396e-05 -2.762570167407193e-05 -4.227577970401686e-05 6.647593715394880e-04
6.133775084108958e-02 -6.374950567208579e-06 -2.140176149336678e-05 3.504289313998011e-04 -1.513058339094892e-05 7.007259270258016e-04
6.455139418077864e-02 -6.785205116223832e-05 -4.201981064060034e-05 7.625371378521150e-05 -3.929158496971600e-05 1.153365943443273e-03
5.492220676833388e-02 -1.431516376056576e-05 8.331407393276667e-05 6.009248813076513e-04 -8.671109998843673e-06 1.805575263078469e-04
5.901428175103331e-02 -1.536321772043650e-05 2.778182392901216e-05 1.415498500654614e-04 -3.847708746286851e-06 2.530885874322200e-04
6.285400258064033e-02 -3.504381518494159e-05 -3.700952759534070e-05 2.228799916267766e-04 -1.932570299795168e-05 9.439585543775411e-04
5.972316640287740e-02 -3.819797373520752e-05 4.939245404062774e-05 4.276698153287543e-04 -1.468711122815713e-05 7.432896735547426e-04
5.832048305747501e-02 5.814709640911526e-06 3.602136634429159e-05 4.880646450796979e-04 -1.218608871375062e-05 4.675207464250232e-04
6.014020434436018e-02 -2.584896078701428e-05 3.586989907174729e-05 2.537610872763346e-04 -1.599907982526932e-05 5.053436686128818e-04
6.149220560938588e-02 -1.002404609333178e-07 -3.479723491852657e-05 1.688930130219067e-04 6.936495288389652e-06 5.990526350700751e-04
5.724020621916652e-02 3.314056953390923e-06 -2.553410883535606e-05 2.861714706762677e-04 -3.044750037109699e-06 2.030169756739761e-04
6.133775084108958e-02 -6.374950567208579e-06 -2.140176149336678e-05 3.504289313998011e-04 -1.513058339094892e-05 7.007259270258016e-04
6.768425556742486e-02 -4.865730899421727e-06 -1.534337828526625e-04 5.687668064056269e-04 -2.861519484665096e-05 1.349906116764547e-04
6.455139418077864e-02 -6.785205116223832e-05 -4.201981064060034e-05 7.625371378521150e-05 -3.929158496971600e-05 1.153365943443273e-03
6.831437186517718e-02 -3.103898558859510e-05 -5.750769219243696e-05 9.679846176371090e-05 -4.814618782898732e-06 2.204425052663048e-04
6.434292390020005e-02 -2.053898592198796e-05 -7.835314847161429e-05 4.666904292834070e-04 -1.682403421530973e-05 4.477047443592497e-04
6.617259626065922e-02 -5.463790640627316e-05 -1.183946994089458e-04 2.659275943645962e-04 -4.823010856200879e-05 6.421073195313287e-04
6.285400258064033e-02 -3.504381518494159e-05 -3.700952759534070e-05 2.228799916267766e-04 -1.932570299795168e-05 9.439585543775411e-04
6.493711004696996e-02 -3.315131394924233e-05 -6.476748377977472e-05 2.494190231585889e-04 -2.263403739020945e-05 4.998394301740532e-04
6.792611444403773e-02 -1.594436088846666e-05 -4.062126993829806e-06 3.306270192857252e-04 1.831961807299044e-06 5.940761546865981e-05
6.654953980602742e-02 5.461621168925901e-06 -4.136638548233608e-05 -4.796044812735175e-05 1.799314019393351e-06 6.132879196169696e-04
6.138119551959208e-02 4.325151713507139e-05 1.858618446905389e-04 8.118934746611656e-04 1.063850760810597e-04 1.624285328856320e-03
6.768425556742486e-02 -4.865730899421727e-06 -1.534337828526625e-04 5.687668064056269e-04 -2.861519484665096e-05 1.349906116764547e-04
5.817097274613932e-02 5.094767376535824e-05 -4.801582698480658e-05 8.112475771666597e-05 2.010076157117908e-06 1.185522157394987e-03
6.543168231690408e-02 -1.007752755415184e-04 3.905402281013395e-04 4.360385095311298e-04 4.830161305437620e-05 8.231763480285508e-04
6.487959959828064e-02 2.326816976241095e-05 7.794615684570983e-05 7.045440748924666e-04 3.895238833287477e-05 8.333918884779690e-04
6.295119918096807e-02 3.659492976282547e-05 -1.037324615397690e-04 4.198555949281473e-04 1.253609841646259e-06 7.296269816701124e-04
5.960359079063464e-02 8.608283983507328e-07 5.482265045694110e-05 4.138448330742712e-04 2.923597178720869e-05 1.408018127193175e-03
6.346956527818645e-02 -1.152358380449912e-04 5.008680606116459e-04 6.717878272587527e-04 7.091267528860443e-05 1.307442867701245e-03
6.678350358361446e-02 -1.703455549835923e-05 -2.053772743430077e-05 4.127088166815791e-04 -2.434511458656860e-05 4.093584281908357e-04
6.163574503007228e-02 2.545131275497887e-05 9.778666412500880e-05 3.033581211440582e-04 4.516601505355979e-05 9.377134054932813e-04
6.138119551959208e-02 4.325151713507139e-05 1.858618446905389e-04 8.118934746611656e-04 1.063850760810597e-04 1.624285328856320e-03
5.817097274613932e-02 5.094767376535824e-05 -4.801582698480658e-05 8.112475771666597e-05 2.010076157117908e-06 1.185522157394987e-03
5.492220676833388e-02 -1.431516376056576e-05 8.331407393276667e-05 6.009248813076513e-04 -8.671109998843673e-06 1.805575263078469e-04
4.885303740090917e-02 -1.359850906840957e-04 -1.822702587111587e-04 3.596009720030813e-04 5.752457793933953e-05 7.548991880909349e-04
5.960359079063464e-02 8.608283983507328e-07 5.482265045694110e-05 4.138448330742712e-04 2.923597178720869e-05 1.408018127193175e-03
5.648921897575454e-02 2.440406856548302e-05 3.541343289326321e-05 2.854610084637147e-04 -2.022972941430726e-06 6.831184800207368e-04
5.780704101631081e-02 4.551796875552097e-06 2.947723255257566e-05 7.037805896504987e-04 3.229955225918686e-05 8.420551097066650e-04
5.494431333282243e-02 -1.354504297496422e-04 -1.600714359136324e-04 6.135232091714730e-04 3.678747048436167e-05 1.244042802592458e-03
5.349021337248205e-02 1.634713223460403e-05 -6.690250099337851e-05 4.508113433200683e-05 2.620653787355383e-05 1.000081663191714e-03
5.170355173169527e-02 -5.289560755989044e-05 4.261079406297576e-05 5.591958724317178e-04 9.202443980907517e-06 2.914665759569823e-04
6.138119551959208e-02 4.325151713507139e-05 1.858618446905389e-04 8.118934746611656e-04 1.063850760810597e-04 1.624285328856320e-03
5.492220676833388e-02 -1.431516376056576e-05 8.331407393276667e-05 6.009248813076513e-04 -8.671109998843673e-06 1.805575263078469e-04
6.455139418077864e-02 -6.785205116223832e-05 -4.201981064060034e-05 7.625371378521150e-05 -3.929158496971600e-05 1.153365943443273e-03
5.722210841216506e-02 1.422201896389000e-04 -1.751465037767028e-04 4.160099178841640e-04 4.433241131406496e-05 8.076047053781291e-04
5.780704101631081e-02 4.551796875552097e-06 2.947723255257566e-05 7.037805896504987e-04 3.229955225918686e-05 8.420551097066650e-04
5.972316640287740e-02 -3.819797373520752e-05 4.939245404062774e-05 4.276698153287543e-04 -1.468711122815713e-05 7.432896735547426e-04
6.313942795540499e-02 2.486607282033977e-05 6.447893729432970e-05 4.233805797950277e-04 4.201910232710355e-05 1.408784155207237e-03
5.924553120291005e-02 1.917187137462903e-04 -1.551268766238663e-04 6.489486712754035e-04 1.073183438371356e-04 1.286803515757642e-03
5.582039305094043e-02 2.137276040081195e-05 4.783042900788694e-05 4.115644976886122e-04 3.265592875030005e-05 4.267853063249935e-04
6.107345615984274e-02 -1.440680251837446e-05 -5.736636589005820e-05 2.994118630246786e-04 -2.721798643854850e-05 9.255323040277530e-04
6.138119551959208e-02 4.325151713507139e-05 1.858618446905389e-04 8.118934746611656e-04 1.063850760810597e-04 1.624285328856320e-03
6.455139418077864e-02 -6.785205116223832e-05 -4.201981064060034e-05 7.625371378521150e-05 -3.929158496971600e-05 1.153365943443273e-03
6.768425556742486e-02 -4.865730899421727e-06 -1.534337828526625e-04 5.687668064056269e-04 -2.861519484665096e-05 1.349906116764547e-04
7.348682435630513e-02 2.125138634603554e-04 4.327751923541520e-04 3.953995540822771e-04 4.178317095880313e-05 8.263518795745195e-04
6.313942795540499e-02 2.486607282033977e-05 6.447893729432970e-05 4.233805797950277e-04 4.201910232710355e-05 1.408784155207237e-03
6.617259626065922e-02 -5.463790640627316e-05 -1.183946994089458e-04 2.659275943645962e-04 -4.823010856200879e-05 6.421073195313287e-04
6.487959959828064e-02 2.326816976241095e-05 7.794615684570983e-05 7.045440748924666e-04 3.895238833287477e-05 8.333918884779690e-04
6.761825441983824e-02 2.274111021480695e-04 5.213141477621739e-04 6.439218922270652e-04 1.427521339839509e-04 1.317947991315665e-03
6.904672192874281e-02 -9.759705938575594e-06 1.402606699857677e-04 6.455442713144768e-05 -1.890321565981120e-05 1.006778438738115e-03
7.072809323944312e-02 9.016284725033090e-05 -1.977931731093752e-05 5.525466434675212e-04 7.733734486352891e-06 2.974883043778437e-04
6.133775084108958e-02 -6.374950567208579e-06 -2.140176149336678e-05 3.504289313998011e-04 -1.513058339094892e-05 7.007259270258016e-04
6.768425556742486e-02 -4.865730899421727e-06 -1.534337828526625e-04 5.687668064056269e-04 -2.861519484665096e-05 1.349906116764547e-04
5.817097274613932e-02 5.094767376535824e-05 -4.801582698480658e-05 8.112475771666597e-05 2.010076157117908e-06 1.185522157394987e-03
6.135281805532489e-02 -4.971004362083217e-06 -1.598595638255799e-05 6.605485580055629e-04 -3.708449673226340e-06 1.321200459454093e-03
6.434292390020005e-02 -2.053898592198796e-05 -7.835314847161429e-05 4.666904292834070e-04 -1.682403421530973e-05 4.477047443592497e-04
6.295119918096807e-02 3.659492976282547e-05 -1.037324615397690e-04 4.198555949281473e-04 1.253609841646259e-06 7.296269816701124e-04
5.984288859418534e-02 2.219461099636545e-05 -2.433001160938739e-05 2.347362746915890e-04 -9.684263965711909e-06 9.653334643175957e-04
6.134380105570514e-02 -6.361984779163137e-06 -2.462737025582655e-05 5.061065462079388e-04 -1.239387794073379e-05 1.012196817897059e-03
6.462751680791240e-02 -6.866476045407419e-06 -7.491388099614480e-05 6.579623792583940e-04 -9.915209051257681e-06 7.870929145505140e-04
5.971018862183057e-02 2.351229108880490e-05 -2.096897095708460e-05 3.975285982579696e-04 -2.022380196463402e-06 1.329351754672750e-03
6.133775084108958e-02 -6.374950567208579e-06 -2.140176149336678e-05 3.504289313998011e-04 -1.513058339094892e-05 7.007259270258016e-04
5.817097274613932e-02 5.094767376535824e-05 -4.801582698480658e-05 8.112475771666597e-05 2.010076157117908e-06 1.185522157394987e-03
5.492220676833388e-02 -1.431516376056576e-05 8.331407393276667e-05 6.009248813076513e-04 -8.671109998843673e-06 1.805575263078469e-04
6.135281805532489e-02 -4.971004362083217e-06 -1.598595638255799e-05 6.605485580055629e-04 -3.708449673226340e-06 1.321200459454093e-03
5.984288859418534e-02 2.219461099636545e-05 -2.433001160938739e-05 2.347362746915890e-04 -9.684263965711909e-06 9.653334643175957e-04
5.648921897575454e-02 2.440406856548302e-05 3.541343289326321e-05 2.854610084637147e-04 -2.022972941430726e-06 6.831184800207368e-04
5.832048305747501e-02 5.814709640911526e-06 3.602136634429159e-05 4.880646450796979e-04 -1.218608871375062e-05 4.675207464250232e-04
6.134380105570514e-02 -6.361984779163137e-06 -2.462737025582655e-05 5.061065462079388e-04 -1.239387794073379e-05 1.012196817897059e-03
5.971018862183057e-02 2.351229108880490e-05 -2.096897095708460e-05 3.975285982579696e-04 -2.022380196463402e-06 1.329351754672750e-03
5.805244870489131e-02 -6.579667586877459e-06 3.971307453067612e-05 6.669126928865923e-04 -4.834149626836506e-06 7.987183962270931e-04
6.133775084108958e-02 -6.374950567208579e-06 -2.140176149336678e-05 3.504289313998011e-04 -1.513058339094892e-05 7.007259270258016e-04
5.492220676833388e-02 -1.431516376056576e-05 8.331407393276667e-05 6.009248813076513e-04 -8.671109998843673e-06 1.805575263078469e-04
6.455139418077864e-02 -6.785205116223832e-05 -4.201981064060034e-05 7.625371378521150e-05 -3.929158496971600e-05 1.153365943443273e-03
6.135281805532489e-02 -4.971004362083217e-06 -1.598595638255799e-05 6.605485580055629e-04 -3.708449673226340e-06 1.321200459454093e-03
5.832048305747501e-02 5.814709640911526e-06 3.602136634429159e-05 4.880646450796979e-04 -1.218608871375062e-05 4.675207464250232e-04
5.972316640287740e-02 -3.819797373520752e-05 4.939245404062774e-05 4.276698153287543e-04 -1.468711122815713e-05 7.432896735547426e-04
6.285400258064033e-02 -3.504381518494159e-05 -3.700952759534070e-05 2.228799916267766e-04 -1.932570299795168e-05 9.439585543775411e-04
6.134380105570514e-02 -6.361984779163137e-06 -2.462737025582655e-05 5.061065462079388e-04 -1.239387794073379e-05 1.012196817897059e-03
5.805244870489131e-02 -6.579667586877459e-06 3.971307453067612e-05 6.669126928865923e-04 -4.834149626836506e-06 7.987183962270931e-04
6.299755967307170e-02 -3.393983824508089e-05 -2.062997977805257e-05 3.952601877145580e-04 -1.272559532710545e-05 1.320402963125903e-03
6.133775084108958e-02 -6.374950567208579e-06 -2.140176149336678e-05 3.504289313998011e-04 -1.513058339094892e-05 7.007259270258016e-04
6.455139418077864e-02 -6.785205116223832e-05 -4.201981064060034e-05 7.625371378521150e-05 -3.929158496971600e-05 1.153365943443273e-03
6.768425556742486e-02 -4.865730899421727e-06 -1.534337828526625e-04 5.687668064056269e-04 -2.861519484665096e-05 1.349906116764547e-04
6.135281805532489e-02 -4.971004362083217e-06 -1.598595638255799e-05 6.605485580055629e-04 -3.708449673226340e-06 1.321200459454093e-03
6.285400258064033e-02 -3.504381518494159e-05 -3.700952759534070e-05 2.228799916267766e-04 -1.932570299795168e-05 9.439585543775411e-04
6.617259626065922e-02 -5.463790640627316e-05 -1.183946994089458e-04 2.659275943645962e-04 -4.823010856200879e-05 6.421073195313287e-04
6.434292390020005e-02 -2.053898592198796e-05 -7.835314847161429e-05 4.666904292834070e-04 -1.682403421530973e-05 4.477047443592497e-04
6.134380105570514e-02 -6.361984779163137e-06 -2.462737025582655e-05 5.061065462079388e-04 -1.239387794073379e-05 1.012196817897059e-03
6.299755967307170e-02 -3.393983824508089e-05 -2.062997977805257e-05 3.952601877145580e-04 -1.272559532710545e-05 1.320402963125903e-03
6.462751680791240e-02 -6.866476045407419e-06 -7.491388099614480e-05 6.579623792583940e-04 -9.915209051257681e-06 7.870929145505140e-04
6.138119551959208e-02 4.325151713507139e-05 1.858618446905389e-04 8.118934746611656e-04 1.063850760810597e-04 1.624285328856320e-03
5.817097274613932e-02 5.094767376535824e-05 -4.801582698480658e-05 8.112475771666597e-05 2.010076157117908e-06 1.185522157394987e-03
6.768425556742486e-02 -4.865730899421727e-06 -1.534337828526625e-04 5.687668064056269e-04 -2.861519484665096e-05 1.349906116764547e-04
6.135281805532489e-02 -4.971004362083217e-06 -1.598595638255799e-05 6.605485580055629e-04 -3.708449673226340e-06 1.321200459454093e-03
5.960359079063464e-02 8.608283983507328e-07 5.482265045694110e-05 4.138448330742712e-04 2.923597178720869e-05 1.408018127193175e-03
6.295119918096807e-02 3.659492976282547e-05 -1.037324615397690e-04 4.198555949281473e-04 1.253609841646259e-06 7.296269816701124e-04
6.487959959828064e-02 2.326816976241095e-05 7.794615684570983e-05 7.045440748924666e-04 3.895238833287477e-05 8.333918884779690e-04
6.136878865833890e-02 9.588424451048995e-06 4.224749311828463e-05 6.824435186516452e-04 3.065388380160975e-05 1.365211179171639e-03
5.971018862183057e-02 2.351229108880490e-05 -2.096897095708460e-05 3.975285982579696e-04 -2.022380196463402e-06 1.329351754672750e-03
6.462751680791240e-02 -6.866476045407419e-06 -7.491388099614480e-05 6.579623792583940e-04 -9.915209051257681e-06 7.870929145505140e-04
6.138119551959208e-02 4.325151713507139e-05 1.858618446905389e-04 8.118934746611656e-04 1.063850760810597e-04 1.624285328856320e-03
5.492220676833388e-02 -1.431516376056576e-05 8.331407393276667e-05 6.009248813076513e-04 -8.671109998843673e-06 1.805575263078469e-04
5.817097274613932e-02 5.094767376535824e-05 -4.801582698480658e-05 8.112475771666597e-05 2.010076157117908e-06 1.185522157394987e-03
6.135281805532489e-02 -4.971004362083217e-06 -1.598595638255799e-05 6.605485580055629e-04 -3.708449673226340e-06 1.321200459454093e-03
5.780704101631081e-02 4.551796875552097e-06 2.947723255257566e-05 7.037805896504987e-04 3.229955225918686e-05 8.420551097066650e-04
5.648921897575454e-02 2.440406856548302e-05 3.541343289326321e-05 2.854610084637147e-04 -2.022972941430726e-06 6.831184800207368e-04
5.960359079063464e-02 8.608283983507328e-07 5.482265045694110e-05 4.138448330742712e-04 2.923597178720869e-05 1.408018127193175e-03
6.136878865833890e-02 9.588424451048995e-06 4.224749311828463e-05 6.824435186516452e-04 3.065388380160975e-05 1.365211179171639e-03
5.805244870489131e-02 -6.579667586877459e-06 3.971307453067612e-05 6.669126928865923e-04 -4.834149626836506e-06 7.987183962270931e-04
5.971018862183057e-02 2.351229108880490e-05 -2.096897095708460e-05 3.975285982579696e-04 -2.022380196463402e-06 1.329351754672750e-03
6.138119551959208e-02 4.325151713507139e-05 1.858618446905389e-04 8.118934746611656e-04 1.063850760810597e-04 1.624285328856320e-03
6.455139418077864e-02 -6.785205116223832e-05 -4.201981064060034e-05 7.625371378521150e-05 -3.929158496971600e-05 1.153365943443273e-03
5.492220676833388e-02 -1.431516376056576e-05 8.331407393276667e-05 6.009248813076513e-04 -8.671109998843673e-06 1.805575263078469e-04
6.135281805532489e-02 -4.971004362083217e-06 -1.598595638255799e-05 6.605485580055629e-04 -3.708449673226340e-06 1.321200459454093e-03
6.313942795540499e-02 2.486607282033977e-05 6.447893729432970e-05 4.233805797950277e-04 4.201910232710355e-05 1.408784155207237e-03
5.972316640287740e-02 -3.819797373520752e-05 4.939245404062774e-05 4.276698153287543e-04 -1.468711122815713e-05 7.432896735547426e-04
5.780704101631081e-02 4.551796875552097e-06 2.947723255257566e-05 7.037805896504987e-04 3.229955225918686e-05 8.420551097066650e-04
6.136878865833890e-02 9.588424451048995e-06 4.224749311828463e-05 6.824435186516452e-04 3.065388380160975e-05 1.365211179171639e-03
6.299755967307170e-02 -3.393983824508089e-05 -2.062997977805257e-05 3.952601877145580e-04 -1.272559532710545e-05 1.320402963125903e-03
5.805244870489131e-02 -6.579667586877459e-06 3.971307453067612e-05 6.669126928865923e-04 -4.834149626836506e-06 7.987183962270931e-04
6.138119551959208e-02 4.325151713507139e-05 1.858618446905389e-04 8.118934746611656e-04 1.063850760810597e-04 1.624285328856320e-03
6.768425556742486e-02 -4.865730899421727e-06 -1.534337828526625e-04 5.687668064056269e-04 -2.861519484665096e-05 1.349906116764547e-04
6.455139418077864e-02 -6.785205116223832e-05 -4.201981064060034e-05 7.625371378521150e-05 -3.929158496971600e-05 1.153365943443273e-03
6.135281805532489e-02 -4.971004362083217e-06 -1.598595638255799e-05 6.605485580055629e-04 -3.708449673226340e-06 1.321200459454093e-03
6.487959959828064e-02 2.326816976241095e-05 7.794615684570983e-05 7.045440748924666e-04 3.895238833287477e-05 8.333918884779690e-04
6.617259626065922e-02 -5.463790640627316e-05 -1.183946994089458e-04 2.659275943645962e-04 -4.823010856200879e-05 6.421073195313287e-04
6.313942795540499e-02 2.486607282033977e-05 6.447893729432970e-05 4.233805797950277e-04 4.201910232710355e-05 1.408784155207237e-03
6.136878865833890e-02 9.588424451048995e-06 4.224749311828463e-05 6.824435186516452e-04 3.065388380160975e-05 1.365211179171639e-03
6.462751680791240e-02 -6.866476045407419e-06 -7.491388099614480e-05 6.579623792583940e-04 -9.915209051257681e-06 7.870929145505140e-04
6.299755967307170e-02 -3.393983824508089e-05 -2.062997977805257e-05 3.952601877145580e-04 -1.272559532710545e-05 1.320402963125903e-03
        </DataArray>
        <DataArray type="Float64" Name="nodal_cauchy_stresses_xyz" NumberOfComponents="6" format="ascii">
6.696445836550523e+00 -1.683503496264905e-04 2.121977721651843e-03 -1.171175913572345e-03 -8.458421741506987e-04 -2.701619243186543e-03
5.911077788909857e+00 -2.359301101458751e-03 -3.005561249952957e-03 -1.414166844761314e-03 -2.743760148786122e-03 -2.403053648008578e-03
6.498565215897858e+00 -3.291675290063984e-05 -1.157220412460567e-04 2.335548031977607e-03 -1.282293046119053e-04 4.671672760589359e-03
6.282967592097272e+00 1.493049590404115e-03 -7.858928070960358e-04 -7.134192009348140e-03 1.377496035902900e-04 1.221863713422342e-02
6.306253216433829e+00 -1.002539886813477e-05 -3.955446435457376e-05 5.106083625208183e-04 -1.984256510037695e-05 2.423657094309068e-03
6.196233096444328e+00 -5.987896390171775e-06 2.508871239346277e-04 1.404161924607541e-03 -1.898519577613536e-04 2.097897258078857e-03
6.600308846761727e+00 3.703567290627588e-04 -4.684279662079299e-04 2.383294762884800e-04 -4.123589876033850e-05 1.233553274541367e-03
6.496987800767672e+00 5.075065085304725e-05 9.375889528176745e-04 -1.659751649522549e-03 -3.671980952013808e-04 1.975893046641850e-03
6.098250266389583e+00 -8.089931880589777e-04 -1.739248278548516e-03 -6.210277596458654e-03 -1.879617061775172e-03 2.868020065253445e-03
6.391916819276327e+00 1.120426125752936e-03 -1.964457261069600e-04 -1.784302410936353e-03 -3.610058255395485e-04 8.344293917068781e-03
5.911077788909857e+00 -2.359301101458751e-03 -3.005561249952957e-03 -1.414166844761314e-03 -2.743760148786122e-03 -2.403053648008578e-03
6.301778447710357e+00 2.513763010635861e-04 -1.864670778712070e-03 -9.067246585576564e-04 1.018071525761054e-03 -2.505317762287085e-03
6.498565215897858e+00 -3.291675290063984e-05 -1.157220412460567e-04 2.335548031977607e-03 -1.282293046119053e-04 4.671672760589359e-03
6.068210750031993e+00 -1.570110810680935e-04 2.888101910860056e-03 6.463675303739072e-03 -3.741248666342503e-05 -1.360709535488723e-02
6.113193158899784e+00 -9.800673840364225e-06 -4.002128375153990e-05 1.292819349157408e-03 -1.982117846635005e-05 1.188707754554164e-03
6.397349313388482e+00 -3.476789777487639e-04 4.570094950867881e-04 4.197245409562572e-04 6.247731075393301e-05 1.360502153900642e-03
6.196233096444328e+00 -5.987896390171775e-06 2.508871239346277e-04 1.404161924607541e-03 -1.898519577613536e-04 2.097897258078857e-03
5.997071542067951e+00 -1.020470801351642e-03 -9.529392250190107e-04 1.970967737259049e-03 -2.156243650111003e-03 -8.601714452385018e-03
6.195353838645797e+00 3.975926236578405e-04 -5.575321617908458e-04 7.994280013614871e-04 9.694061595497082e-04 -6.464835644876241e-03
6.285500596995982e+00 4.385368911426049e-04 2.132782944533019e-03 4.316275031594331e-03 -2.756908355828512e-04 -3.276416870951584e-03
6.301778447710357e+00 2.513763010635861e-04 -1.864670778712070e-03 -9.067246585576564e-04 1.018071525761054e-03 -2.505317762287085e-03
7.095089887268742e+00 2.258579712549845e-03 3.079117446205624e-03 -2.072339916657143e-03 2.846632694490758e-03 -3.522029679483567e-03
6.498565215897858e+00 -3.291675290063984e-05 -1.157220412460567e-04 2.335548031977607e-03 -1.282293046119053e-04 4.671672760589359e-03
6.715471680747329e+00 -1.448517806401071e-03 -8.522845706178173e-04 -7.748581791249282e-03 -5.588750897848338e-04 1.078643870938179e-02
6.694498721166294e+00 -1.002930864321718e-05 -3.959566251528966e-05 3.464033548347809e-04 -1.986018720311389e-05 2.100243836865203e-03
6.805110299984401e+00 -4.299790756273708e-05 -3.339589670223971e-04 9.524458811245734e-04 1.210542021749234e-04 1.337832742034408e-03
6.397349313388482e+00 -3.476789777487639e-04 4.570094950867881e-04 4.197245409562572e-04 6.247731075393301e-05 1.360502153900642e-03
6.500937283128394e+00 -1.548758665823077e-04 -1.366644237789159e-03 -1.683102058782022e-03 2.007384367793492e-04 1.630430655510134e-03
6.904030961976670e+00 8.410470493136143e-04 9.948808380844667e-04 -6.803402461800436e-03 1.793437198685512e-03 1.808462458895015e-03
6.606030869160714e+00 -1.151034058796704e-03 -7.596217620861189e-04 -2.001083519219313e-03 -1.883493545869795e-05 7.762737615765011e-03
7.095089887268742e+00 2.258579712549845e-03 3.079117446205624e-03 -2.072339916657143e-03 2.846632694490758e-03 -3.522029679483567e-03
6.696445836550523e+00 -1.683503496264905e-04 2.121977721651843e-03 -1.171175913572345e-03 -8.458421741506987e-04 -2.701619243186543e-03
6.498565215897858e+00 -3.291675290063984e-05 -1.157220412460567e-04 2.335548031977607e-03 -1.282293046119053e-04 4.671672760589359e-03
6.933217214053882e+00 -2.874022999336462e-04 -2.991266652200718e-03 5.031490213044562e-03 -3.836904722382717e-04 -1.617230182847478e-02
6.889696479149690e+00 -9.818741963137122e-06 -4.018869242179007e-05 9.693990611932838e-04 -1.988285500946350e-05 5.242979609806837e-04
6.600308846761727e+00 3.703567290627588e-04 -4.684279662079299e-04 2.383294762884800e-04 -4.123589876033850e-05 1.233553274541367e-03
6.805110299984401e+00 -4.299790756273708e-05 -3.339589670223971e-04 9.524458811245734e-04 1.210542021749234e-04 1.337832742034408e-03
7.007260454277173e+00 6.727421495610396e-04 9.550032098369747e-04 1.175920443376356e-03 2.009789890754217e-03 -1.018446550473786e-02
6.804622039760575e+00 -4.300014146232359e-04 4.234186364904239e-04 1.894782407775414e-04 -1.075571698078311e-03 -7.477755650752970e-03
6.713730659262108e+00 -6.854792141713713e-04 -2.408758615588451e-03 3.734717264266956e-03 -1.041447550344684e-04 -4.298464836473553e-03
6.696445836550523e+00 -1.683503496264905e-04 2.121977721651843e-03 -1.171175913572345e-03 -8.458421741506987e-04 -2.701619243186543e-03
6.760482060964217e+00 1.270610299883583e-03 -4.499557101959622e-03 -8.154224979078539e-03 -3.762076487137380e-04 -1.863424698492110e-02
6.282967592097272e+00 1.493049590404115e-03 -7.858928070960358e-04 -7.134192009348140e-03 1.377496035902900e-04 1.221863713422342e-02
6.933217214053882e+00 -2.874022999336462e-04 -2.991266652200718e-03 5.031490213044562e-03 -3.836904722382717e-04 -1.617230182847478e-02
6.719463364931185e+00 1.372489044884001e-03 -2.510807357879762e-03 -6.619789211943877e-03 -8.494958520906132e-04 -1.139708090623316e-02
6.511433345266019e+00 3.580761413334547e-05 -6.474712869824225e-03 -5.666417296025421e-03 2.625313855402458e-04 -7.741310376034370e-04
6.496987800767672e+00 5.075065085304725e-05 9.375889528176745e-04 -1.659751649522549e-03 -3.671980952013808e-04 1.975893046641850e-03
6.804622039760575e+00 -4.300014146232359e-04 4.234186364904239e-04 1.894782407775414e-04 -1.075571698078311e-03 -7.477755650752970e-03
6.846447597900029e+00 2.260495254795510e-03 -3.769266955307901e-03 -2.929262930022079e-03 8.839279831613983e-05 -1.922053884631124e-02
6.608561120918634e+00 5.914844204516179e-04 -2.541825812527231e-03 1.408730733391261e-03 -3.350574146787301e-04 -1.343870751746118e-04
5.911077788909857e+00 -2.359301101458751e-03 -3.005561249952957e-03 -1.414166844761314e-03 -2.743760148786122e-03 -2.403053648008578e-03
5.719846826029290e+00 1.983592088479398e-03 2.729312607313977e-03 -7.305589401237840e-03 -4.558864082915785e-04 -1.196303832369935e-02
6.068210750031993e+00 -1.570110810680935e-04 2.888101910860056e-03 6.463675303739072e-03 -3.741248666342503e-05 -1.360709535488723e-02
6.282967592097272e+00 1.493049590404115e-03 -7.858928070960358e-04 -7.134192009348140e-03 1.377496035902900e-04 1.221863713422342e-02
5.844686087408025e+00 7.251102673868168e-04 1.837830084881394e-03 -2.767343768594066e-03 -2.550467227294368e-03 -7.315973473765747e-03
5.909303402335635e+00 3.637739110667319e-03 5.742244523519064e-03 4.064777962324924e-03 1.412283309521976e-03 -1.926833547073715e-02
5.997071542067951e+00 -1.020470801351642e-03 -9.529392250190107e-04 1.970967737259049e-03 -2.156243650111003e-03 -8.601714452385018e-03
6.098250266389583e+00 -8.089931880589777e-04 -1.739248278548516e-03 -6.210277596458654e-03 -1.879617061775172e-03 2.868020065253445e-03
6.019594919622913e+00 4.627004714608332e-03 5.816012066349221e-03 -1.321451288010284e-02 1.560762092643884e-03 4.221331696586291e-03
6.173615468392745e+00 1.475012496079114e-03 2.046609593261534e-03 -2.048622496177872e-03 -3.846663007338661e-04 -9.769124260795709e-04
6.301778447710357e+00 2.513763010635861e-04 -1.864670778712070e-03 -9.067246585576564e-04 1.018071525761054e-03 -2.505317762287085e-03
6.239458270362549e+00 -1.473836885134442e-03 2.589623108675027e-03 -5.772215120930990e-03 -3.931347161991829e-04 -1.459174152006962e-02
6.715471680747329e+00 -1.448517806401071e-03 -8.522845706178173e-04 -7.748581791249282e-03 -5.588750897848338e-04 1.078643870938179e-02
6.068210750031993e+00 -1.570110810680935e-04 2.888101910860056e-03 6.463675303739072e-03 -3.741248666342503e-05 -1.360709535488723e-02
6.279961747806811e+00 -1.382175609201540e-03 2.240441645301723e-03 -5.762508621811665e-03 8.220065707532119e-04 -1.005377846322656e-02
6.487213079731578e+00 -3.460132660843331e-04 5.140445865463265e-03 -5.326863682384260e-03 -9.275771348103258e-04 -4.733062838406467e-04
6.500937283128394e+00 -1.548758665823077e-04 -1.366644237789159e-03 -1.683102058782022e-03 2.007384367793492e-04 1.630430655510134e-03
6.195353838645797e+00 3.975926236578405e-04 -5.575321617908458e-04 7.994280013614871e-04 9.694061595497082e-04 -6.464835644876241e-03
6.154263854531138e+00 -2.508977065127515e-03 3.242522218027686e-03 -1.137586441530855e-03 -6.207494652403478e-04 -1.617990384079158e-02
6.390808531440999e+00 -8.452712747105284e-04 1.578593200343856e-03 1.861428492178512e-03 -1.946959230572428e-04 3.858758446499994e-04
7.095089887268742e+00 2.258579712549845e-03 3.079117446205624e-03 -2.072339916657143e-03 2.846632694490758e-03 -3.522029679483567e-03
7.282845175620030e+00 -2.890149783227206e-03 -5.341674222896976e-03 -1.382179609026677e-02 -4.093246845731578e-04 -2.490283936490578e-02
6.933217214053882e+00 -2.874022999336462e-04 -2.991266652200718e-03 5.031490213044562e-03 -3.836904722382717e-04 -1.617230182847478e-02
6.715471680747329e+00 -1.448517806401071e-03 -8.522845706178173e-04 -7.748581791249282e-03 -5.588750897848338e-04 1.078643870938179e-02
7.163160630502265e+00 -1.026120221055316e-03 -2.399320847786850e-03 -5.223846399495283e-03 2.481485385755012e-03 -1.197296072492790e-02
7.095203247182208e+00 -3.914059207969965e-03 -5.439259671620289e-03 9.997485960414275e-04 -1.340118364461212e-03 -2.511001563505628e-02
7.007260454277173e+00 6.727421495610396e-04 9.550032098369747e-04 1.175920443376356e-03 2.009789890754217e-03 -1.018446550473786e-02
6.904030961976670e+00 8.410470493136143e-04 9.948808380844667e-04 -6.803402461800436e-03 1.793437198685512e-03 1.808462458895015e-03
6.982846752729835e+00 -4.107794703152891e-03 -7.177742649764644e-03 -1.567611263929897e-02 -1.355987746343125e-03 -9.361153767081681e-04
6.826874083521016e+00 -1.627424054932500e-03 -2.908436826984771e-03 -3.070129807739981e-03 3.928337634921368e-05 -2.971416772949665e-03
6.760482060964217e+00 1.270610299883583e-03 -4.499557101959622e-03 -8.154224979078539e-03 -3.762076487137380e-04 -1.863424698492110e-02
5.719846826029290e+00 1.983592088479398e-03 2.729312607313977e-03 -7.305589401237840e-03 -4.558864082915785e-04 -1.196303832369935e-02
6.282967592097272e+00 1.493049590404115e-03 -7.858928070960358e-04 -7.134192009348140e-03 1.377496035902900e-04 1.221863713422342e-02
6.499811138077384e+00 -7.580842597572128e-04 -2.641622218260782e-03 1.407573858902085e-02 -1.738707847056037e-03 2.814375062484716e-02
6.243191759993879e+00 9.207466893452113e-04 -6.279141797306424e-04 -1.197853288721177e-02 -1.813490771584960e-03 1.074854782820657e-02
6.019594919622913e+00 4.627004714608332e-03 5.816012066349221e-03 -1.321451288010284e-02 1.560762092643884e-03 4.221331696586291e-03
6.511433345266019e+00 3.580761413334547e-05 -6.474712869824225e-03 -5.666417296025421e-03 2.625313855402458e-04 -7.741310376034370e-04
6.634602005446920e+00 1.371837337128410e-03 -6.283375633401641e-03 3.593556314601526e-03 -5.517411152449728e-04 7.590390735691050e-03
6.096867453559382e+00 2.671413895614888e-03 3.801467634395447e-03 6.188800679429762e-03 1.118697529117279e-03 1.200378846398592e-02
6.383936680404196e+00 1.040553623924521e-03 -1.670902961049044e-03 1.214442607598807e-03 -5.557882209135998e-04 1.828756156096006e-02
5.719846826029290e+00 1.983592088479398e-03 2.729312607313977e-03 -7.305589401237840e-03 -4.558864082915785e-04 -1.196303832369935e-02
6.239458270362549e+00 -1.473836885134442e-03 2.589623108675027e-03 -5.772215120930990e-03 -3.931347161991829e-04 -1.459174152006962e-02
6.068210750031993e+00 -1.570110810680935e-04 2.888101910860056e-03 6.463675303739072e-03 -3.741248666342503e-05 -1.360709535488723e-02
6.499811138077384e+00 -7.580842597572128e-04 -2.641622218260782e-03 1.407573858902085e-02 -1.738707847056037e-03 2.814375062484716e-02
5.988844090959009e+00 8.269015325656709e-04 1.555413030985556e-03 6.415573281028734e-03 -1.006480451295848e-03 -2.199880100546139e-02
6.154263854531138e+00 -2.508977065127515e-03 3.242522218027686e-03 -1.137586441530855e-03 -6.207494652403478e-04 -1.617990384079158e-02
5.909303402335635e+00 3.637739110667319e-03 5.742244523519064e-03 4.064777962324924e-03 1.412283309521976e-03 -1.926833547073715e-02
6.096867453559382e+00 2.671413895614888e-03 3.801467634395447e-03 6.188800679429762e-03 1.118697529117279e-03 1.200378846398592e-02
6.365538558593487e+00 -2.538663120861435e-03 3.006002427635918e-03 4.834322540505795e-03 -1.702268156704032e-03 9.485267121764489e-03
6.269447428619680e+00 -9.016295448840953e-04 1.674498426896810e-03 9.449060214887192e-03 -6.843961955691507e-04 2.814541188312478e-03
6.239458270362549e+00 -1.473836885134442e-03 2.589623108675027e-03 -5.772215120930990e-03 -3.931347161991829e-04 -1.459174152006962e-02
7.282845175620030e+00 -2.890149783227206e-03 -5.341674222896976e-03 -1.382179609026677e-02 -4.093246845731578e-04 -2.490283936490578e-02
6.715471680747329e+00 -1.448517806401071e-03 -8.522845706178173e-04 -7.748581791249282e-03 -5.588750897848338e-04 1.078643870938179e-02
6.499811138077384e+00 -7.580842597572128e-04 -2.641622218260782e-03 1.407573858902085e-02 -1.738707847056037e-03 2.814375062484716e-02
6.755706618366161e+00 -8.002779721754203e-04 -1.624222483334225e-03 -1.380055927009217e-02 1.440085542335531e-03 6.511751662151436e-03
6.982846752729835e+00 -4.107794703152891e-03 -7.177742649764644e-03 -1.567611263929897e-02 -1.355987746343125e-03 -9.361153767081681e-04
6.487213079731578e+00 -3.460132660843331e-04 5.140445865463265e-03 -5.326863682384260e-03 -9.275771348103258e-04 -4.733062838406467e-04
6.365538558593487e+00 -2.538663120861435e-03 3.006002427635918e-03 4.834322540505795e-03 -1.702268156704032e-03 9.485267121764489e-03
6.904013547043493e+00 -3.207432506855885e-03 -6.447662331421949e-03 2.538818809746665e-03 -2.306728935525731e-03 5.218411882036577e-03
6.614257001224668e+00 -1.574407855481503e-03 -1.192466290854091e-03 6.071503857735775e-04 -1.064365827668251e-03 1.706472666121726e-02
7.282845175620030e+00 -2.890149783227206e-03 -5.341674222896976e-03 -1.382179609026677e-02 -4.093246845731578e-04 -2.490283936490578e-02
6.760482060964217e+00 1.270610299883583e-03 -4.499557101959622e-03 -8.154224979078539e-03 -3.762076487137380e-04 -1.863424698492110e-02
6.933217214053882e+00 -2.874022999336462e-04 -2.991266652200718e-03 5.031490213044562e-03 -3.836904722382717e-04 -1.617230182847478e-02
6.499811138077384e+00 -7.580842597572128e-04 -2.641622218260782e-03 1.407573858902085e-02 -1.738707847056037e-03 2.814375062484716e-02
7.013845533431857e+00 -1.209418819021908e-03 -1.838442410628060e-03 2.179027979704773e-03 6.334659256267658e-04 -2.960974889593059e-02
6.846447597900029e+00 2.260495254795510e-03 -3.769266955307901e-03 -2.929262930022079e-03 8.839279831613983e-05 -1.922053884631124e-02
7.095203247182208e+00 -3.914059207969965e-03 -5.439259671620289e-03 9.997485960414275e-04 -1.340118364461212e-03 -2.511001563505628e-02
6.904013547043493e+00 -3.207432506855885e-03 -6.447662331421949e-03 2.538818809746665e-03 -2.306728935525731e-03 5.218411882036577e-03
6.634602005446920e+00 1.371837337128410e-03 -6.283375633401641e-03 3.593556314601526e-03 -5.517411152449728e-04 7.590390735691050e-03
6.730081471805760e+00 4.968668618950483e-05 -3.551692158219801e-03 8.226258518376127e-03 -9.357485054035680e-04 8.148487800374850e-04
6.498565215897858e+00 -3.291675290063984e-05 -1.157220412460567e-04 2.335548031977607e-03 -1.282293046119053e-04 4.671672760589359e-03
6.282967592097272e+00 1.493049590404115e-03 -7.858928070960358e-04 -7.134192009348140e-03 1.377496035902900e-04 1.221863713422342e-02
6.933217214053882e+00 -2.874022999336462e-04 -2.991266652200718e-03 5.031490213044562e-03 -3.836904722382717e-04 -1.617230182847478e-02
6.696445836550523e+00 -1.683503496264905e-04 2.121977721651843e-03 -1.171175913572345e-03 -8.458421741506987e-04 -2.701619243186543e-03
6.391916819276327e+00 1.120426125752936e-03 -1.964457261069600e-04 -1.784302410936353e-03 -3.610058255395485e-04 8.344293917068781e-03
6.608561120918634e+00 5.914844204516179e-04 -2.541825812527231e-03 1.408730733391261e-03 -3.350574146787301e-04 -1.343870751746118e-04
6.713730659262108e+00 -6.854792141713713e-04 -2.408758615588451e-03 3.734717264266956e-03 -1.041447550344684e-04 -4.298464836473553e-03
6.600308846761727e+00 3.703567290627588e-04 -4.684279662079299e-04 2.383294762884800e-04 -4.123589876033850e-05 1.233553274541367e-03
6.496987800767672e+00 5.075065085304725e-05 9.375889528176745e-04 -1.659751649522549e-03 -3.671980952013808e-04 1.975893046641850e-03
6.804622039760575e+00 -4.300014146232359e-04 4.234186364904239e-04 1.894782407775414e-04 -1.075571698078311e-03 -7.477755650752970e-03
6.498565215897858e+00 -3.291675290063984e-05 -1.157220412460567e-04 2.335548031977607e-03 -1.282293046119053e-04 4.671672760589359e-03
6.068210750031993e+00 -1.570110810680935e-04 2.888101910860056e-03 6.463675303739072e-03 -3.741248666342503e-05 -1.360709535488723e-02
6.282967592097272e+00 1.493049590404115e-03 -7.858928070960358e-04 -7.134192009348140e-03 1.377496035902900e-04 1.221863713422342e-02
5.911077788909857e+00 -2.359301101458751e-03 -3.005561249952957e-03 -1.414166844761314e-03 -2.743760148786122e-03 -2.403053648008578e-03
6.285500596995982e+00 4.385368911426049e-04 2.132782944533019e-03 4.316275031594331e-03 -2.756908355828512e-04 -3.276416870951584e-03
6.173615468392745e+00 1.475012496079114e-03 2.046609593261534e-03 -2.048622496177872e-03 -3.846663007338661e-04 -9.769124260795709e-04
6.391916819276327e+00 1.120426125752936e-03 -1.964457261069600e-04 -1.784302410936353e-03 -3.610058255395485e-04 8.344293917068781e-03
6.196233096444328e+00 -5.987896390171775e-06 2.508871239346277e-04 1.404161924607541e-03 -1.898519577613536e-04 2.097897258078857e-03
5.997071542067951e+00 -1.020470801351642e-03 -9.529392250190107e-04 1.970967737259049e-03 -2.156243650111003e-03 -8.601714452385018e-03
6.098250266389583e+00 -8.089931880589777e-04 -1.739248278548516e-03 -6.210277596458654e-03 -1.879617061775172e-03 2.868020065253445e-03
6.498565215897858e+00 -3.291675290063984e-05 -1.157220412460567e-04 2.335548031977607e-03 -1.282293046119053e-04 4.671672760589359e-03
6.715471680747329e+00 -1.448517806401071e-03 -8.522845706178173e-04 -7.748581791249282e-03 -5.588750897848338e-04 1.078643870938179e-02
6.068210750031993e+00 -1.570110810680935e-04 2.888101910860056e-03 6.463675303739072e-03 -3.741248666342503e-05 -1.360709535488723e-02
6.301778447710357e+00 2.513763010635861e-04 -1.864670778712070e-03 -9.067246585576564e-04 1.018071525761054e-03 -2.505317762287085e-03
6.606030869160714e+00 -1.151034058796704e-03 -7.596217620861189e-04 -2.001083519219313e-03 -1.883493545869795e-05 7.762737615765011e-03
6.390808531440999e+00 -8.452712747105284e-04 1.578593200343856e-03 1.861428492178512e-03 -1.946959230572428e-04 3.858758446499994e-04
6.285500596995982e+00 4.385368911426049e-04 2.132782944533019e-03 4.316275031594331e-03 -2.756908355828512e-04 -3.276416870951584e-03
6.397349313388482e+00 -3.476789777487639e-04 4.570094950867881e-04 4.197245409562572e-04 6.247731075393301e-05 1.360502153900642e-03
6.500937283128394e+00 -1.548758665823077e-04 -1.366644237789159e-03 -1.683102058782022e-03 2.007384367793492e-04 1.630430655510134e-03
6.195353838645797e+00 3.975926236578405e-04 -5.575321617908458e-04 7.994280013614871e-04 9.694061595497082e-04 -6.464835644876241e-03
6.498565215897858e+00 -3.291675290063984e-05 -1.157220412460567e-04 2.335548031977607e-03 -1.282293046119053e-04 4.671672760589359e-03
6.933217214053882e+00 -2.874022999336462e-04 -2.991266652200718e-03 5.031490213044562e-03 -3.836904722382717e-04 -1.617230182847478e-02
6.715471680747329e+00 -1.448517806401071e-03 -8.522845706178173e-04 -7.748581791249282e-03 -5.588750897848338e-04 1.078643870938179e-02
7.095089887268742e+00 2.258579712549845e-03 3.079117446205624e-03 -2.072339916657143e-03 2.846632694490758e-03 -3.522029679483567e-03
6.713730659262108e+00 -6.854792141713713e-04 -2.408758615588451e-03 3.734717264266956e-03 -1.041447550344684e-04 -4.298464836473553e-03
6.826874083521016e+00 -1.627424054932500e-03 -2.908436826984771e-03 -3.070129807739981e-03 3.928337634921368e-05 -2.971416772949665e-03
6.606030869160714e+00 -1.151034058796704e-03 -7.596217620861189e-04 -2.001083519219313e-03 -1.883493545869795e-05 7.762737615765011e-03
6.805110299984401e+00 -4.299790756273708e-05 -3.339589670223971e-04 9.524458811245734e-04 1.210542021749234e-04 1.337832742034408e-03
7.007260454277173e+00 6.727421495610396e-04 9.550032098369747e-04 1.175920443376356e-03 2.009789890754217e-03 -1.018446550473786e-02
6.904030961976670e+00 8.410470493136143e-04 9.948808380844667e-04 -6.803402461800436e-03 1.793437198685512e-03 1.808462458895015e-03
6.499811138077384e+00 -7.580842597572128e-04 -2.641622218260782e-03 1.407573858902085e-02 -1.738707847056037e-03 2.814375062484716e-02
6.933217214053882e+00 -2.874022999336462e-04 -2.991266652200718e-03 5.031490213044562e-03 -3.836904722382717e-04 -1.617230182847478e-02
6.282967592097272e+00 1.493049590404115e-03 -7.858928070960358e-04 -7.134192009348140e-03 1.377496035902900e-04 1.221863713422342e-02
6.760482060964217e+00 1.270610299883583e-03 -4.499557101959622e-03 -8.154224979078539e-03 -3.762076487137380e-04 -1.863424698492110e-02
6.730081471805760e+00 4.968668618950483e-05 -3.551692158219801e-03 8.226258518376127e-03 -9.357485054035680e-04 8.148487800374850e-04
6.608561120918634e+00 5.914844204516179e-04 -2.541825812527231e-03 1.408730733391261e-03 -3.350574146787301e-04 -1.343870751746118e-04
6.383936680404196e+00 1.040553623924521e-03 -1.670902961049044e-03 1.214442607598807e-03 -5.557882209135998e-04 1.828756156096006e-02
6.634602005446920e+00 1.371837337128410e-03 -6.283375633401641e-03 3.593556314601526e-03 -5.517411152449728e-04 7.590390735691050e-03
6.846447597900029e+00 2.260495254795510e-03 -3.769266955307901e-03 -2.929262930022079e-03 8.839279831613983e-05 -1.922053884631124e-02
6.511433345266019e+00 3.580761413334547e-05 -6.474712869824225e-03 -5.666417296025421e-03 2.625313855402458e-04 -7.741310376034370e-04
6.499811138077384e+00 -7.580842597572128e-04 -2.641622218260782e-03 1.407573858902085e-02 -1.738707847056037e-03 2.814375062484716e-02
6.282967592097272e+00 1.493049590404115e-03 -7.858928070960358e-04 -7.134192009348140e-03 1.377496035902900e-04 1.221863713422342e-02
6.068210750031993e+00 -1.570110810680935e-04 2.888101910860056e-03 6.463675303739072e-03 -3.741248666342503e-05 -1.360709535488723e-02
5.719846826029290e+00 1.983592088479398e-03 2.729312607313977e-03 -7.305589401237840e-03 -4.558864082915785e-04 -1.196303832369935e-02
6.383936680404196e+00 1.040553623924521e-03 -1.670902961049044e-03 1.214442607598807e-03 -5.557882209135998e-04 1.828756156096006e-02
6.173615468392745e+00 1.475012496079114e-03 2.046609593261534e-03 -2.048622496177872e-03 -3.846663007338661e-04 -9.769124260795709e-04
6.269447428619680e+00 -9.016295448840953e-04 1.674498426896810e-03 9.449060214887192e-03 -6.843961955691507e-04 2.814541188312478e-03
6.096867453559382e+00 2.671413895614888e-03 3.801467634395447e-03 6.188800679429762e-03 1.118697529117279e-03 1.200378846398592e-02
6.019594919622913e+00 4.627004714608332e-03 5.816012066349221e-03 -1.321451288010284e-02 1.560762092643884e-03 4.221331696586291e-03
5.909303402335635e+00 3.637739110667319e-03 5.742244523519064e-03 4.064777962324924e-03 1.412283309521976e-03 -1.926833547073715e-02
6.499811138077384e+00 -7.580842597572128e-04 -2.641622218260782e-03 1.407573858902085e-02 -1.738707847056037e-03 2.814375062484716e-02
6.068210750031993e+00 -1.570110810680935e-04 2.888101910860056e-03 6.463675303739072e-03 -3.741248666342503e-05 -1.360709535488723e-02
6.715471680747329e+00 -1.448517806401071e-03 -8.522845706178173e-04 -7.748581791249282e-03 -5.588750897848338e-04 1.078643870938179e-02
6.239458270362549e+00 -1.473836885134442e-03 2.589623108675027e-03 -5.772215120930990e-03 -3.931347161991829e-04 -1.459174152006962e-02
6.269447428619680e+00 -9.016295448840953e-04 1.674498426896810e-03 9.449060214887192e-03 -6.843961955691507e-04 2.814541188312478e-03
6.390808531440999e+00 -8.452712747105284e-04 1.578593200343856e-03 1.861428492178512e-03 -1.946959230572428e-04 3.858758446499994e-04
6.614257001224668e+00 -1.574407855481503e-03 -1.192466290854091e-03 6.071503857735775e-04 -1.064365827668251e-03 1.706472666121726e-02
6.365538558593487e+00 -2.538663120861435e-03 3.006002427635918e-03 4.834322540505795e-03 -1.702268156704032e-03 9.485267121764489e-03
6.154263854531138e+00 -2.508977065127515e-03 3.242522218027686e-03 -1.137586441530855e-03 -6.207494652403478e-04 -1.617990384079158e-02
6.487213079731578e+00 -3.460132660843331e-04 5.140445865463265e-03 -5.326863682384260e-03 -9.275771348103258e-04 -4.733062838406467e-04
6.499811138077384e+00 -7.580842597572128e-04 -2.641622218260782e-03 1.407573858902085e-02 -1.738707847056037e-03 2.814375062484716e-02
6.715471680747329e+00 -1.448517806401071e-03 -8.522845706178173e-04 -7.748581791249282e-03 -5.588750897848338e-04 1.078643870938179e-02
6.933217214053882e+00 -2.874022999336462e-04 -2.991266652200718e-03 5.031490213044562e-03 -3.836904722382717e-04 -1.617230182847478e-02
7.282845175620030e+00 -2.890149783227206e-03 -5.341674222896976e-03 -1.382179609026677e-02 -4.093246845731578e-04 -2.490283936490578e-02
6.614257001224668e+00 -1.574407855481503e-03 -1.192466290854091e-03 6.071503857735775e-04 -1.064365827668251e-03 1.706472666121726e-02
6.826874083521016e+00 -1.627424054932500e-03 -2.908436826984771e-03 -3.070129807739981e-03 3.928337634921368e-05 -2.971416772949665e-03
6.730081471805760e+00 4.968668618950483e-05 -3.551692158219801e-03 8.226258518376127e-03 -9.357485054035680e-04 8.148487800374850e-04
6.904013547043493e+00 -3.207432506855885e-03 -6.447662331421949e-03 2.538818809746665e-03 -2.306728935525731e-03 5.218411882036577e-03
6.982846752729835e+00 -4.107794703152891e-03 -7.177742649764644e-03 -1.567611263929897e-02 -1.355987746343125e-03 -9.361153767081681e-04
7.095203247182208e+00 -3.914059207969965e-03 -5.439259671620289e-03 9.997485960414275e-04 -1.340118364461212e-03 -2.511001563505628e-02
6.498565215897858e+00 -3.291675290063984e-05 -1.157220412460567e-04 2.335548031977607e-03 -1.282293046119053e-04 4.671672760589359e-03
6.933217214053882e+00 -2.874022999336462e-04 -2.991266652200718e-03 5.031490213044562e-03 -3.836904722382717e-04 -1.617230182847478e-02
6.282967592097272e+00 1.493049590404115e-03 -7.858928070960358e-04 -7.134192009348140e-03 1.377496035902900e-04 1.221863713422342e-02
6.499077695487900e+00 -2.230303862676699e-04 -9.071070408387541e-04 7.327525126862587e-03 -7.227295677470734e-04 1.465498134452677e-02
6.713730659262108e+00 -6.854792141713713e-04 -2.408758615588451e-03 3.734717264266956e-03 -1.041447550344684e-04 -4.298464836473553e-03
6.608561120918634e+00 5.914844204516179e-04 -2.541825812527231e-03 1.408730733391261e-03 -3.350574146787301e-04 -1.343870751746118e-04
6.391916819276327e+00 1.120426125752936e-03 -1.964457261069600e-04 -1.784302410936353e-03 -3.610058255395485e-04 8.344293917068781e-03
6.498920129869910e+00 -1.393629637172512e-04 -5.495496022976421e-04 5.288277815160067e-03 -4.797755799137345e-04 1.057707106836409e-02
6.721393266652870e+00 -4.930004221872659e-04 -2.993104083557217e-03 7.093492263721129e-03 -4.267012178882493e-04 -4.665106172190622e-05
6.388490335409923e+00 1.147915845477170e-03 -7.859201776004629e-04 5.099823232669764e-04 -5.933627164789650e-04 1.548073117947661e-02
6.498565215897858e+00 -3.291675290063984e-05 -1.157220412460567e-04 2.335548031977607e-03 -1.282293046119053e-04 4.671672760589359e-03
6.282967592097272e+00 1.493049590404115e-03 -7.858928070960358e-04 -7.134192009348140e-03 1.377496035902900e-04 1.221863713422342e-02
6.068210750031993e+00 -1.570110810680935e-04 2.888101910860056e-03 6.463675303739072e-03 -3.741248666342503e-05 -1.360709535488723e-02
6.499077695487900e+00 -2.230303862676699e-04 -9.071070408387541e-04 7.327525126862587e-03 -7.227295677470734e-04 1.465498134452677e-02
6.391916819276327e+00 1.120426125752936e-03 -1.964457261069600e-04 -1.784302410936353e-03 -3.610058255395485e-04 8.344293917068781e-03
6.173615468392745e+00 1.475012496079114e-03 2.046609593261534e-03 -2.048622496177872e-03 -3.846663007338661e-04 -9.769124260795709e-04
6.285500596995982e+00 4.385368911426049e-04 2.132782944533019e-03 4.316275031594331e-03 -2.756908355828512e-04 -3.276416870951584e-03
6.498920129869910e+00 -1.393629637172512e-04 -5.495496022976421e-04 5.288277815160067e-03 -4.797755799137345e-04 1.057707106836409e-02
6.388490335409923e+00 1.147915845477170e-03 -7.859201776004629e-04 5.099823232669764e-04 -5.933627164789650e-04 1.548073117947661e-02
6.278286382375295e+00 3.209008337481752e-05 1.973497566357851e-03 7.953981269005296e-03 -5.388169113805961e-04 1.370829580942831e-03
6.498565215897858e+00 -3.291675290063984e-05 -1.157220412460567e-04 2.335548031977607e-03 -1.282293046119053e-04 4.671672760589359e-03
6.068210750031993e+00 -1.570110810680935e-04 2.888101910860056e-03 6.463675303739072e-03 -3.741248666342503e-05 -1.360709535488723e-02
6.715471680747329e+00 -1.448517806401071e-03 -8.522845706178173e-04 -7.748581791249282e-03 -5.588750897848338e-04 1.078643870938179e-02
6.499077695487900e+00 -2.230303862676699e-04 -9.071070408387541e-04 7.327525126862587e-03 -7.227295677470734e-04 1.465498134452677e-02
6.285500596995982e+00 4.385368911426049e-04 2.132782944533019e-03 4.316275031594331e-03 -2.756908355828512e-04 -3.276416870951584e-03
6.390808531440999e+00 -8.452712747105284e-04 1.578593200343856e-03 1.861428492178512e-03 -1.946959230572428e-04 3.858758446499994e-04
6.606030869160714e+00 -1.151034058796704e-03 -7.596217620861189e-04 -2.001083519219313e-03 -1.883493545869795e-05 7.762737615765011e-03
6.498920129869910e+00 -1.393629637172512e-04 -5.495496022976421e-04 5.288277815160067e-03 -4.797755799137345e-04 1.057707106836409e-02
6.278286382375295e+00 3.209008337481752e-05 1.973497566357851e-03 7.953981269005296e-03 -5.388169113805961e-04 1.370829580942831e-03
6.610043582070805e+00 -1.337041535993241e-03 -1.048327456403206e-03 1.549585492374981e-04 -3.721655626311204e-04 1.462023102620512e-02
6.498565215897858e+00 -3.291675290063984e-05 -1.157220412460567e-04 2.335548031977607e-03 -1.282293046119053e-04 4.671672760589359e-03
6.715471680747329e+00 -1.448517806401071e-03 -8.522845706178173e-04 -7.748581791249282e-03 -5.588750897848338e-04 1.078643870938179e-02
6.933217214053882e+00 -2.874022999336462e-04 -2.991266652200718e-03 5.031490213044562e-03 -3.836904722382717e-04 -1.617230182847478e-02
6.499077695487900e+00 -2.230303862676699e-04 -9.071070408387541e-04 7.327525126862587e-03 -7.227295677470734e-04 1.465498134452677e-02
6.606030869160714e+00 -1.151034058796704e-03 -7.596217620861189e-04 -2.001083519219313e-03 -1.883493545869795e-05 7.762737615765011e-03
6.826874083521016e+00 -1.627424054932500e-03 -2.908436826984771e-03 -3.070129807739981e-03 3.928337634921368e-05 -2.971416772949665e-03
6.713730659262108e+00 -6.854792141713713e-04 -2.408758615588451e-03 3.734717264266956e-03 -1.041447550344684e-04 -4.298464836473553e-03
6.498920129869910e+00 -1.393629637172512e-04 -5.495496022976421e-04 5.288277815160067e-03 -4.797755799137345e-04 1.057707106836409e-02
6.610043582070805e+00 -1.337041535993241e-03 -1.048327456403206e-03 1.549585492374981e-04 -3.721655626311204e-04 1.462023102620512e-02
6.721393266652870e+00 -4.930004221872659e-04 -2.993104083557217e-03 7.093492263721129e-03 -4.267012178882493e-04 -4.665106172190622e-05
6.499811138077384e+00 -7.580842597572128e-04 -2.641622218260782e-03 1.407573858902085e-02 -1.738707847056037e-03 2.814375062484716e-02
6.282967592097272e+00 1.493049590404115e-03 -7.858928070960358e-04 -7.134192009348140e-03 1.377496035902900e-04 1.221863713422342e-02
6.933217214053882e+00 -2.874022999336462e-04 -2.991266652200718e-03 5.031490213044562e-03 -3.836904722382717e-04 -1.617230182847478e-02
6.499077695487900e+00 -2.230303862676699e-04 -9.071070408387541e-04 7.327525126862587e-03 -7.227295677470734e-04 1.465498134452677e-02
6.383936680404196e+00 1.040553623924521e-03 -1.670902961049044e-03 1.214442607598807e-03 -5.557882209135998e-04 1.828756156096006e-02
6.608561120918634e+00 5.914844204516179e-04 -2.541825812527231e-03 1.408730733391261e-03 -3.350574146787301e-04 -1.343870751746118e-04
6.730081471805760e+00 4.968668618950483e-05 -3.551692158219801e-03 8.226258518376127e-03 -9.357485054035680e-04 8.148487800374850e-04
6.499055059977728e+00 -3.374065734293585e-04 -1.254496884102820e-03 7.762033007621222e-03 -1.003971910044507e-03 1.552222650266432e-02
6.388490335409923e+00 1.147915845477170e-03 -7.859201776004629e-04 5.099823232669764e-04 -5.933627164789650e-04 1.548073117947661e-02
6.721393266652870e+00 -4.930004221872659e-04 -2.993104083557217e-03 7.093492263721129e-03 -4.267012178882493e-04 -4.665106172190622e-05
6.499811138077384e+00 -7.580842597572128e-04 -2.641622218260782e-03 1.407573858902085e-02 -1.738707847056037e-03 2.814375062484716e-02
6.068210750031993e+00 -1.570110810680935e-04 2.888101910860056e-03 6.463675303739072e-03 -3.741248666342503e-05 -1.360709535488723e-02
6.282967592097272e+00 1.493049590404115e-03 -7.858928070960358e-04 -7.134192009348140e-03 1.377496035902900e-04 1.221863713422342e-02
6.499077695487900e+00 -2.230303862676699e-04 -9.071070408387541e-04 7.327525126862587e-03 -7.227295677470734e-04 1.465498134452677e-02
6.269447428619680e+00 -9.016295448840953e-04 1.674498426896810e-03 9.449060214887192e-03 -6.843961955691507e-04 2.814541188312478e-03
6.173615468392745e+00 1.475012496079114e-03 2.046609593261534e-03 -2.048622496177872e-03 -3.846663007338661e-04 -9.769124260795709e-04
6.383936680404196e+00 1.040553623924521e-03 -1.670902961049044e-03 1.214442607598807e-03 -5.557882209135998e-04 1.828756156096006e-02
6.499055059977728e+00 -3.374065734293585e-04 -1.254496884102820e-03 7.762033007621222e-03 -1.003971910044507e-03 1.552222650266432e-02
6.278286382375295e+00 3.209008337481752e-05 1.973497566357851e-03 7.953981269005296e-03 -5.388169113805961e-04 1.370829580942831e-03
6.388490335409923e+00 1.147915845477170e-03 -7.859201776004629e-04 5.099823232669764e-04 -5.933627164789650e-04 1.548073117947661e-02
6.499811138077384e+00 -7.580842597572128e-04 -2.641622218260782e-03 1.407573858902085e-02 -1.738707847056037e-03 2.814375062484716e-02
6.715471680747329e+00 -1.448517806401071e-03 -8.522845706178173e-04 -7.748581791249282e-03 -5.588750897848338e-04 1.078643870938179e-02
6.068210750031993e+00 -1.570110810680935e-04 2.888101910860056e-03 6.463675303739072e-03 -3.741248666342503e-05 -1.360709535488723e-02
6.499077695487900e+00 -2.230303862676699e-04 -9.071070408387541e-04 7.327525126862587e-03 -7.227295677470734e-04 1.465498134452677e-02
6.614257001224668e+00 -1.574407855481503e-03 -1.192466290854091e-03 6.071503857735775e-04 -1.064365827668251e-03 1.706472666121726e-02
6.390808531440999e+00 -8.452712747105284e-04 1.578593200343856e-03 1.861428492178512e-03 -1.946959230572428e-04 3.858758446499994e-04
6.269447428619680e+00 -9.016295448840953e-04 1.674498426896810e-03 9.449060214887192e-03 -6.843961955691507e-04 2.814541188312478e-03
6.499055059977728e+00 -3.374065734293585e-04 -1.254496884102820e-03 7.762033007621222e-03 -1.003971910044507e-03 1.552222650266432e-02
6.610043582070805e+00 -1.337041535993241e-03 -1.048327456403206e-03 1.549585492374981e-04 -3.721655626311204e-04 1.462023102620512e-02
6.278286382375295e+00 3.209008337481752e-05 1.973497566357851e-03 7.953981269005296e-03 -5.388169113805961e-04 1.370829580942831e-03
6.499811138077384e+00 -7.580842597572128e-04 -2.641622218260782e-03 1.407573858902085e-02 -1.738707847056037e-03 2.814375062484716e-02
6.933217214053882e+00 -2.874022999336462e-04 -2.991266652200718e-03 5.031490213044562e-03 -3.836904722382717e-04 -1.617230182847478e-02
6.715471680747329e+00 -1.448517806401071e-03 -8.522845706178173e-04 -7.748581791249282e-03 -5.588750897848338e-04 1.078643870938179e-02
6.499077695487900e+00 -2.230303862676699e-04 -9.071070408387541e-04 7.327525126862587e-03 -7.227295677470734e-04 1.465498134452677e-02
6.730081471805760e+00 4.968668618950483e-05 -3.551692158219801e-03 8.226258518376127e-03 -9.357485054035680e-04 8.148487800374850e-04
6.826874083521016e+00 -1.627424054932500e-03 -2.908436826984771e-03 -3.070129807739981e-03 3.928337634921368e-05 -2.971416772949665e-03
6.614257001224668e+00 -1.574407855481503e-03 -1.192466290854091e-03 6.071503857735775e-04 -1.064365827668251e-03 1.706472666121726e-02
6.499055059977728e+00 -3.374065734293585e-04 -1.254496884102820e-03 7.762033007621222e-03 -1.003971910044507e-03 1.552222650266432e-02
6.721393266652870e+00 -4.930004221872659e-04 -2.993104083557217e-03 7.093492263721129e-03 -4.267012178882493e-04 -4.665106172190622e-05
6.610043582070805e+00 -1.337041535993241e-03 -1.048327456403206e-03 1.549585492374981e-04 -3.721655626311204e-04 1.462023102620512e-02
6.760482060964217e+00 1.270610299883583e-03 -4.499557101959622e-03 -8.154224979078539e-03 -3.762076487137380e-04 -1.863424698492110e-02
5.719846826029290e+00 1.983592088479398e-03 2.729312607313977e-03 -7.305589401237840e-03 -4.558864082915785e-04 -1.196303832369935e-02
6.499811138077384e+00 -7.580842597572128e-04 -2.641622218260782e-03 1.407573858902085e-02 -1.738707847056037e-03 2.814375062484716e-02
6.147474974386989e+00 4.934426530219234e-03 -6.383030010870063e-03 -2.550619157740331e-02 -1.547891604380175e-04 5.084661205894984e-02
6.243191759993879e+00 9.207466893452113e-04 -6.279141797306424e-04 -1.197853288721177e-02 -1.813490771584960e-03 1.074854782820657e-02
6.096867453559382e+00 2.671413895614888e-03 3.801467634395447e-03 6.188800679429762e-03 1.118697529117279e-03 1.200378846398592e-02
6.634602005446920e+00 1.371837337128410e-03 -6.283375633401641e-03 3.593556314601526e-03 -5.517411152449728e-04 7.590390735691050e-03
6.486730781290360e+00 1.656965162309643e-04 -3.130826944476502e-03 -1.027992763454079e-02 -1.546939150037133e-03 4.768688656813007e-03
5.918253366042545e+00 -2.993439688962420e-03 -4.997199605706016e-03 -2.863340934788438e-02 -4.049325590344600e-03 1.491724428821949e-02
6.333596772114611e+00 2.034855169688552e-03 -3.534370087684608e-03 -4.015954637976622e-03 -1.285822468753704e-03 4.152014856313072e-02
5.719846826029290e+00 1.983592088479398e-03 2.729312607313977e-03 -7.305589401237840e-03 -4.558864082915785e-04 -1.196303832369935e-02
6.239458270362549e+00 -1.473836885134442e-03 2.589623108675027e-03 -5.772215120930990e-03 -3.931347161991829e-04 -1.459174152006962e-02
6.499811138077384e+00 -7.580842597572128e-04 -2.641622218260782e-03 1.407573858902085e-02 -1.738707847056037e-03 2.814375062484716e-02
5.784751133212591e+00 -1.839604066043564e-03 8.265270627785785e-03 2.818815762090428e-02 -1.209302575589431e-03 -4.523950196791816e-02
5.988844090959009e+00 8.269015325656709e-04 1.555413030985556e-03 6.415573281028734e-03 -1.006480451295848e-03 -2.199880100546139e-02
6.365538558593487e+00 -2.538663120861435e-03 3.006002427635918e-03 4.834322540505795e-03 -1.702268156704032e-03 9.485267121764489e-03
6.096867453559382e+00 2.671413895614888e-03 3.801467634395447e-03 6.188800679429762e-03 1.118697529117279e-03 1.200378846398592e-02
5.758180143308286e+00 -1.374489899594838e-03 -4.531302700258832e-03 1.138128524973885e-02 -3.708740559330512e-03 -3.949332426324770e-02
6.042737634205677e+00 1.576036646344886e-04 -2.298509243564662e-03 2.600568008212556e-03 -4.157087065978432e-04 -3.167842764386789e-02
6.163350906358533e+00 2.336976553363913e-04 3.147143775066349e-03 2.212801737547462e-02 -1.536123912332881e-03 -6.535935553496156e-03
6.239458270362549e+00 -1.473836885134442e-03 2.589623108675027e-03 -5.772215120930990e-03 -3.931347161991829e-04 -1.459174152006962e-02
7.282845175620030e+00 -2.890149783227206e-03 -5.341674222896976e-03 -1.382179609026677e-02 -4.093246845731578e-04 -2.490283936490578e-02
6.499811138077384e+00 -7.580842597572128e-04 -2.641622218260782e-03 1.407573858902085e-02 -1.738707847056037e-03 2.814375062484716e-02
6.861047458067181e+00 -6.247499190998607e-03 -5.631505141562918e-03 -2.994226096981848e-02 -3.976733240208048e-03 4.003807656078900e-02
6.755706618366161e+00 -8.002779721754203e-04 -1.624222483334225e-03 -1.380055927009217e-02 1.440085542335531e-03 6.511751662151436e-03
6.904013547043493e+00 -3.207432506855885e-03 -6.447662331421949e-03 2.538818809746665e-03 -2.306728935525731e-03 5.218411882036577e-03
6.365538558593487e+00 -2.538663120861435e-03 3.006002427635918e-03 4.834322540505795e-03 -1.702268156704032e-03 9.485267121764489e-03
6.517184627789796e+00 -2.998959402971844e-05 -3.896704657620563e-03 -1.152473549972054e-02 4.824022417332151e-04 3.055226177409781e-03
7.084357624062029e+00 7.017714180298897e-04 -4.497131886414716e-03 -3.534251920969535e-02 2.092284236328030e-04 2.773322192150178e-04
6.670442572468351e+00 -3.346051400755753e-03 -4.650559576695755e-03 -6.880615533397237e-03 -2.154629712560909e-03 3.611432146799691e-02
7.282845175620030e+00 -2.890149783227206e-03 -5.341674222896976e-03 -1.382179609026677e-02 -4.093246845731578e-04 -2.490283936490578e-02
6.760482060964217e+00 1.270610299883583e-03 -4.499557101959622e-03 -8.154224979078539e-03 -3.762076487137380e-04 -1.863424698492110e-02
6.499811138077384e+00 -7.580842597572128e-04 -2.641622218260782e-03 1.407573858902085e-02 -1.738707847056037e-03 2.814375062484716e-02
7.211937292456044e+00 -8.563286666186419e-04 -1.377334045707524e-02 1.737763803016297e-02 -2.925276232402583e-03 -6.539899940842951e-02
7.013845533431857e+00 -1.209418819021908e-03 -1.838442410628060e-03 2.179027979704773e-03 6.334659256267658e-04 -2.960974889593059e-02
6.634602005446920e+00 1.371837337128410e-03 -6.283375633401641e-03 3.593556314601526e-03 -5.517411152449728e-04 7.590390735691050e-03
6.904013547043493e+00 -3.207432506855885e-03 -6.447662331421949e-03 2.538818809746665e-03 -2.306728935525731e-03 5.218411882036577e-03
7.238661134770080e+00 -1.664855668897064e-03 1.055597637396881e-04 1.808981525498054e-03 1.271578639906821e-04 -5.672849920836281e-02
6.955407086602392e+00 -7.301866446520193e-04 3.002650760300382e-04 -4.182437824192935e-03 -9.093302611639557e-04 -4.345040431165653e-02
6.837097007602273e+00 -2.213705026532306e-03 -7.533301677433168e-03 1.672167251836512e-02 -1.904841673886133e-03 -1.520521523187061e-02
6.760482060964217e+00 1.270610299883583e-03 -4.499557101959622e-03 -8.154224979078539e-03 -3.762076487137380e-04 -1.863424698492110e-02
6.956760590929687e+00 -9.717245631852457e-03 3.598640011679621e-02 -1.458701320825527e-02 4.073457651589990e-03 -3.289191611677653e-02
6.147474974386989e+00 4.934426530219234e-03 -6.383030010870063e-03 -2.550619157740331e-02 -1.547891604380175e-04 5.084661205894984e-02
7.211937292456044e+00 -8.563286666186419e-04 -1.377334045707524e-02 1.737763803016297e-02 -2.925276232402583e-03 -6.539899940842951e-02
6.858986728953252e+00 1.671628394015410e-04 2.585426142458320e-03 -2.286228142745266e-02 -1.479010689636644e-03 -3.952323862693776e-02
6.533232591319109e+00 2.303033928415285e-03 8.036930245481804e-03 -1.495562945362950e-02 3.841079879199905e-03 2.287180239344058e-03
6.486730781290360e+00 1.656965162309643e-04 -3.130826944476502e-03 -1.027992763454079e-02 -1.546939150037133e-03 4.768688656813007e-03
6.955407086602392e+00 -7.301866446520193e-04 3.002650760300382e-04 -4.182437824192935e-03 -9.093302611639557e-04 -4.345040431165653e-02
7.110121730162640e+00 -1.791627812742299e-03 -1.727425449097319e-03 -8.127373265798514e-03 -2.441632260718488e-03 -5.637289415357200e-02
6.682073380413116e+00 3.191234848176008e-03 -1.054933892480847e-02 5.437021442811179e-03 -3.337076757555021e-04 -2.942570358551496e-04
5.719846826029290e+00 1.983592088479398e-03 2.729312607313977e-03 -7.305589401237840e-03 -4.558864082915785e-04 -1.196303832369935e-02
5.118878666166999e+00 -1.313853041573002e-02 -1.832153111147862e-02 -8.867561544090156e-03 5.028886709571623e-03 -1.475999528112457e-02
5.784751133212591e+00 -1.839604066043564e-03 8.265270627785785e-03 2.818815762090428e-02 -1.209302575589431e-03 -4.523950196791816e-02
6.147474974386989e+00 4.934426530219234e-03 -6.383030010870063e-03 -2.550619157740331e-02 -1.547891604380175e-04 5.084661205894984e-02
5.412670822954941e+00 1.371114921533265e-04 2.343822664437760e-03 -6.912912888742039e-03 -3.838226654499663e-03 -1.856858985303877e-02
5.430957228843004e+00 -5.512079731921506e-03 4.293836428446982e-03 1.758115229509244e-02 4.593146985522869e-04 -4.670763418335859e-02
5.758180143308286e+00 -1.374489899594838e-03 -4.531302700258832e-03 1.138128524973885e-02 -3.708740559330512e-03 -3.949332426324770e-02
5.918253366042545e+00 -2.993439688962420e-03 -4.997199605706016e-03 -2.863340934788438e-02 -4.049325590344600e-03 1.491724428821949e-02
5.630008698695452e+00 1.762810242065255e-03 -7.908091042518699e-03 -3.450656021984208e-02 2.323689521583928e-03 2.072459515707165e-02
5.959870033069353e+00 2.189740025424355e-03 2.606911829933541e-03 -4.129257105300674e-03 -4.974325224079583e-04 2.921960856869967e-03
6.239458270362549e+00 -1.473836885134442e-03 2.589623108675027e-03 -5.772215120930990e-03 -3.931347161991829e-04 -1.459174152006962e-02
6.041777435165894e+00 1.319831897169462e-02 -1.751546491982344e-02 -9.946798384759956e-03 3.658415089156073e-03 -2.293116479026563e-02
6.861047458067181e+00 -6.247499190998607e-03 -5.631505141562918e-03 -2.994226096981848e-02 -3.976733240208048e-03 4.003807656078900e-02
5.784751133212591e+00 -1.839604066043564e-03 8.265270627785785e-03 2.818815762090428e-02 -1.209302575589431e-03 -4.523950196791816e-02
6.138236632537073e+00 -5.911709466458144e-04 1.585503275788499e-03 -1.817174300427946e-02 2.167054199778474e-03 -3.066029742973427e-02
6.471730691591699e+00 -1.461388221366152e-03 -6.599591903625839e-03 -1.475056563844511e-02 -2.990711573947500e-03 2.234119387786093e-03
6.517184627789796e+00 -2.998959402971844e-05 -3.896704657620563e-03 -1.152473549972054e-02 4.824022417332151e-04 3.055226177409781e-03
6.042737634205677e+00 1.576036646344886e-04 -2.298509243564662e-03 2.600568008212556e-03 -4.157087065978432e-04 -3.167842764386789e-02
5.884724276821037e+00 1.784948526100346e-03 4.488729120136341e-03 -4.845493564885634e-04 2.832769624785459e-03 -3.947432282617656e-02
6.320953661977803e+00 -3.887778144819667e-03 3.823204084089105e-03 8.014593097353358e-03 -1.878222481771468e-03 5.132072121438595e-03
7.282845175620030e+00 -2.890149783227206e-03 -5.341674222896976e-03 -1.382179609026677e-02 -4.093246845731578e-04 -2.490283936490578e-02
7.863771691291648e+00 1.979115624503775e-02 3.995551386858944e-02 -2.417505213545879e-02 3.668201704196099e-03 -4.467351676211520e-02
7.211937292456044e+00 -8.563286666186419e-04 -1.377334045707524e-02 1.737763803016297e-02 -2.925276232402583e-03 -6.539899940842951e-02
6.861047458067181e+00 -6.247499190998607e-03 -5.631505141562918e-03 -2.994226096981848e-02 -3.976733240208048e-03 4.003807656078900e-02
7.574865428324295e+00 2.490810319309698e-03 4.873923177274258e-03 -1.803191704634016e-02 7.344993894546679e-03 -4.324484516623430e-02
7.555292513104680e+00 8.068556023587851e-03 -1.284662948202284e-03 3.409410826494415e-03 4.949736631802166e-04 -7.317918992846788e-02
7.238661134770080e+00 -1.664855668897064e-03 1.055597637396881e-04 1.808981525498054e-03 1.271578639906821e-04 -5.672849920836281e-02
7.084357624062029e+00 7.017714180298897e-04 -4.497131886414716e-03 -3.534251920969535e-02 2.092284236328030e-04 2.773322192150178e-04
7.366358190518626e+00 -6.673043468154657e-04 1.190313066209108e-02 -4.387142577818336e-02 -1.822783184094277e-03 -1.038051768327326e-03
7.043214915090632e+00 -5.201699632052177e-03 -1.165078538527639e-02 -1.185187434625449e-02 -4.726461621363847e-03 -1.280256458762457e-02
6.956760590929687e+00 -9.717245631852457e-03 3.598640011679621e-02 -1.458701320825527e-02 4.073457651589990e-03 -3.289191611677653e-02
5.118878666166999e+00 -1.313853041573002e-02 -1.832153111147862e-02 -8.867561544090156e-03 5.028886709571623e-03 -1.475999528112457e-02
6.147474974386989e+00 4.934426530219234e-03 -6.383030010870063e-03 -2.550619157740331e-02 -1.547891604380175e-04 5.084661205894984e-02
6.507006569183759e+00 3.208899826949720e-03 1.401908424942842e-02 2.456565143247666e-02 8.275244056195655e-03 4.915267815538437e-02
6.023870403694392e+00 -2.279560680083904e-02 1.213323563702440e-02 -1.756044083016252e-02 1.782205984351405e-02 6.634077165310802e-03
5.630008698695452e+00 1.762810242065255e-03 -7.908091042518699e-03 -3.450656021984208e-02 2.323689521583928e-03 2.072459515707165e-02
6.533232591319109e+00 2.303033928415285e-03 8.036930245481804e-03 -1.495562945362950e-02 3.841079879199905e-03 2.287180239344058e-03
6.738436650635559e+00 -1.146883672073197e-02 4.478769364126420e-02 9.547792202168247e-03 5.415407582260243e-03 1.648762183364007e-02
5.794800413696194e+00 -1.347277453025219e-02 -1.770071380849389e-02 1.058837987252404e-02 2.270897066451818e-03 2.256262904420112e-02
6.308419818001429e+00 -2.184006163407587e-04 2.463207658211968e-03 -3.523191397295730e-03 1.776344784813399e-03 5.073377789022726e-02
5.118878666166999e+00 -1.313853041573002e-02 -1.832153111147862e-02 -8.867561544090156e-03 5.028886709571623e-03 -1.475999528112457e-02
6.041777435165894e+00 1.319831897169462e-02 -1.751546491982344e-02 -9.946798384759956e-03 3.658415089156073e-03 -2.293116479026563e-02
5.784751133212591e+00 -1.839604066043564e-03 8.265270627785785e-03 2.818815762090428e-02 -1.209302575589431e-03 -4.523950196791816e-02
6.507006569183759e+00 3.208899826949720e-03 1.401908424942842e-02 2.456565143247666e-02 8.275244056195655e-03 4.915267815538437e-02
5.546472258443750e+00 -8.429647919832067e-04 -4.021212252849857e-02 6.097818719215531e-03 1.130715714615131e-02 -3.209222830777631e-02
5.884724276821037e+00 1.784948526100346e-03 4.488729120136341e-03 -4.845493564885634e-04 2.832769624785459e-03 -3.947432282617656e-02
5.430957228843004e+00 -5.512079731921506e-03 4.293836428446982e-03 1.758115229509244e-02 4.593146985522869e-04 -4.670763418335859e-02
5.794800413696194e+00 -1.347277453025219e-02 -1.770071380849389e-02 1.058837987252404e-02 2.270897066451818e-03 2.256262904420112e-02
6.268781092356944e+00 1.750827641105621e-02 -1.713617570706493e-02 1.093224682071087e-02 8.862197510110862e-03 1.988201807917542e-02
6.107936274044288e+00 -2.604278004773920e-04 1.490153550449123e-03 2.651406896581936e-02 2.039557172192262e-03 -3.287601026375045e-03
6.041777435165894e+00 1.319831897169462e-02 -1.751546491982344e-02 -9.946798384759956e-03 3.658415089156073e-03 -2.293116479026563e-02
7.863771691291648e+00 1.979115624503775e-02 3.995551386858944e-02 -2.417505213545879e-02 3.668201704196099e-03 -4.467351676211520e-02
6.861047458067181e+00 -6.247499190998607e-03 -5.631505141562918e-03 -2.994226096981848e-02 -3.976733240208048e-03 4.003807656078900e-02
6.507006569183759e+00 3.208899826949720e-03 1.401908424942842e-02 2.456565143247666e-02 8.275244056195655e-03 4.915267815538437e-02
6.970961361919701e+00 2.548211839259012e-02 1.659790747318131e-02 -2.340837883167455e-02 -8.531316703461835e-03 -4.217424626564286e-03
7.366358190518626e+00 -6.673043468154657e-04 1.190313066209108e-02 -4.387142577818336e-02 -1.822783184094277e-03 -1.038051768327326e-03
6.471730691591699e+00 -1.461388221366152e-03 -6.599591903625839e-03 -1.475056563844511e-02 -2.990711573947500e-03 2.234119387786093e-03
6.268781092356944e+00 1.750827641105621e-02 -1.713617570706493e-02 1.093224682071087e-02 8.862197510110862e-03 1.988201807917542e-02
7.203684649914712e+00 2.078114867316193e-02 4.661809878375506e-02 3.991236005135510e-03 1.229211370341960e-02 1.118419885884872e-02
6.703275779799744e+00 2.044565989743919e-03 3.436867184498380e-03 -4.818384099475539e-03 2.994946314688865e-03 4.627229952268830e-02
7.863771691291648e+00 1.979115624503775e-02 3.995551386858944e-02 -2.417505213545879e-02 3.668201704196099e-03 -4.467351676211520e-02
6.956760590929687e+00 -9.717245631852457e-03 3.598640011679621e-02 -1.458701320825527e-02 4.073457651589990e-03 -3.289191611677653e-02
7.211937292456044e+00 -8.563286666186419e-04 -1.377334045707524e-02 1.737763803016297e-02 -2.925276232402583e-03 -6.539899940842951e-02
6.507006569183759e+00 3.208899826949720e-03 1.401908424942842e-02 2.456565143247666e-02 8.275244056195655e-03 4.915267815538437e-02
7.440824866026679e+00 8.538335147849250e-03 5.600921643164847e-02 -4.753641893661294e-03 -2.016767907991418e-03 -4.961004754503074e-02
7.110121730162640e+00 -1.791627812742299e-03 -1.727425449097319e-03 -8.127373265798514e-03 -2.441632260718488e-03 -5.637289415357200e-02
7.555292513104680e+00 8.068556023587851e-03 -1.284662948202284e-03 3.409410826494415e-03 4.949736631802166e-04 -7.317918992846788e-02
7.203684649914712e+00 2.078114867316193e-02 4.661809878375506e-02 3.991236005135510e-03 1.229211370341960e-02 1.118419885884872e-02
6.738436650635559e+00 -1.146883672073197e-02 4.478769364126420e-02 9.547792202168247e-03 5.415407582260243e-03 1.648762183364007e-02
6.897638583303930e+00 1.537927776649787e-03 6.205500756103144e-03 2.205163223556526e-02 2.729768094129378e-03 -1.322474956052479e-02
6.499811138077384e+00 -7.580842597572128e-04 -2.641622218260782e-03 1.407573858902085e-02 -1.738707847056037e-03 2.814375062484716e-02
6.147474974386989e+00 4.934426530219234e-03 -6.383030010870063e-03 -2.550619157740331e-02 -1.547891604380175e-04 5.084661205894984e-02
7.211937292456044e+00 -8.563286666186419e-04 -1.377334045707524e-02 1.737763803016297e-02 -2.925276232402583e-03 -6.539899940842951e-02
6.760482060964217e+00 1.270610299883583e-03 -4.499557101959622e-03 -8.154224979078539e-03 -3.762076487137380e-04 -1.863424698492110e-02
6.333596772114611e+00 2.034855169688552e-03 -3.534370087684608e-03 -4.015954637976622e-03 -1.285822468753704e-03 4.152014856313072e-02
6.682073380413116e+00 3.191234848176008e-03 -1.054933892480847e-02 5.437021442811179e-03 -3.337076757555021e-04 -2.942570358551496e-04
6.837097007602273e+00 -2.213705026532306e-03 -7.533301677433168e-03 1.672167251836512e-02 -1.904841673886133e-03 -1.520521523187061e-02
6.634602005446920e+00 1.371837337128410e-03 -6.283375633401641e-03 3.593556314601526e-03 -5.517411152449728e-04 7.590390735691050e-03
6.486730781290360e+00 1.656965162309643e-04 -3.130826944476502e-03 -1.027992763454079e-02 -1.546939150037133e-03 4.768688656813007e-03
6.955407086602392e+00 -7.301866446520193e-04 3.002650760300382e-04 -4.182437824192935e-03 -9.093302611639557e-04 -4.345040431165653e-02
6.499811138077384e+00 -7.580842597572128e-04 -2.641622218260782e-03 1.407573858902085e-02 -1.738707847056037e-03 2.814375062484716e-02
5.784751133212591e+00 -1.839604066043564e-03 8.265270627785785e-03 2.818815762090428e-02 -1.209302575589431e-03 -4.523950196791816e-02
6.147474974386989e+00 4.934426530219234e-03 -6.383030010870063e-03 -2.550619157740331e-02 -1.547891604380175e-04 5.084661205894984e-02
5.719846826029290e+00 1.983592088479398e-03 2.729312607313977e-03 -7.305589401237840e-03 -4.558864082915785e-04 -1.196303832369935e-02
6.163350906358533e+00 2.336976553363913e-04 3.147143775066349e-03 2.212801737547462e-02 -1.536123912332881e-03 -6.535935553496156e-03
5.959870033069353e+00 2.189740025424355e-03 2.606911829933541e-03 -4.129257105300674e-03 -4.974325224079583e-04 2.921960856869967e-03
6.333596772114611e+00 2.034855169688552e-03 -3.534370087684608e-03 -4.015954637976622e-03 -1.285822468753704e-03 4.152014856313072e-02
6.096867453559382e+00 2.671413895614888e-03 3.801467634395447e-03 6.188800679429762e-03 1.118697529117279e-03 1.200378846398592e-02
5.758180143308286e+00 -1.374489899594838e-03 -4.531302700258832e-03 1.138128524973885e-02 -3.708740559330512e-03 -3.949332426324770e-02
5.918253366042545e+00 -2.993439688962420e-03 -4.997199605706016e-03 -2.863340934788438e-02 -4.049325590344600e-03 1.491724428821949e-02
6.499811138077384e+00 -7.580842597572128e-04 -2.641622218260782e-03 1.407573858902085e-02 -1.738707847056037e-03 2.814375062484716e-02
6.861047458067181e+00 -6.247499190998607e-03 -5.631505141562918e-03 -2.994226096981848e-02 -3.976733240208048e-03 4.003807656078900e-02
5.784751133212591e+00 -1.839604066043564e-03 8.265270627785785e-03 2.818815762090428e-02 -1.209302575589431e-03 -4.523950196791816e-02
6.239458270362549e+00 -1.473836885134442e-03 2.589623108675027e-03 -5.772215120930990e-03 -3.931347161991829e-04 -1.459174152006962e-02
6.670442572468351e+00 -3.346051400755753e-03 -4.650559576695755e-03 -6.880615533397237e-03 -2.154629712560909e-03 3.611432146799691e-02
6.320953661977803e+00 -3.887778144819667e-03 3.823204084089105e-03 8.014593097353358e-03 -1.878222481771468e-03 5.132072121438595e-03
6.163350906358533e+00 2.336976553363913e-04 3.147143775066349e-03 2.212801737547462e-02 -1.536123912332881e-03 -6.535935553496156e-03
6.365538558593487e+00 -2.538663120861435e-03 3.006002427635918e-03 4.834322540505795e-03 -1.702268156704032e-03 9.485267121764489e-03
6.517184627789796e+00 -2.998959402971844e-05 -3.896704657620563e-03 -1.152473549972054e-02 4.824022417332151e-04 3.055226177409781e-03
6.042737634205677e+00 1.576036646344886e-04 -2.298509243564662e-03 2.600568008212556e-03 -4.157087065978432e-04 -3.167842764386789e-02
6.499811138077384e+00 -7.580842597572128e-04 -2.641622218260782e-03 1.407573858902085e-02 -1.738707847056037e-03 2.814375062484716e-02
7.211937292456044e+00 -8.563286666186419e-04 -1.377334045707524e-02 1.737763803016297e-02 -2.925276232402583e-03 -6.539899940842951e-02
6.861047458067181e+00 -6.247499190998607e-03 -5.631505141562918e-03 -2.994226096981848e-02 -3.976733240208048e-03 4.003807656078900e-02
7.282845175620030e+00 -2.890149783227206e-03 -5.341674222896976e-03 -1.382179609026677e-02 -4.093246845731578e-04 -2.490283936490578e-02
6.837097007602273e+00 -2.213705026532306e-03 -7.533301677433168e-03 1.672167251836512e-02 -1.904841673886133e-03 -1.520521523187061e-02
7.043214915090632e+00 -5.201699632052177e-03 -1.165078538527639e-02 -1.185187434625449e-02 -4.726461621363847e-03 -1.280256458762457e-02
6.670442572468351e+00 -3.346051400755753e-03 -4.650559576695755e-03 -6.880615533397237e-03 -2.154629712560909e-03 3.611432146799691e-02
6.904013547043493e+00 -3.207432506855885e-03 -6.447662331421949e-03 2.538818809746665e-03 -2.306728935525731e-03 5.218411882036577e-03
7.238661134770080e+00 -1.664855668897064e-03 1.055597637396881e-04 1.808981525498054e-03 1.271578639906821e-04 -5.672849920836281e-02
7.084357624062029e+00 7.017714180298897e-04 -4.497131886414716e-03 -3.534251920969535e-02 2.092284236328030e-04 2.773322192150178e-04
6.507006569183759e+00 3.208899826949720e-03 1.401908424942842e-02 2.456565143247666e-02 8.275244056195655e-03 4.915267815538437e-02
7.211937292456044e+00 -8.563286666186419e-04 -1.377334045707524e-02 1.737763803016297e-02 -2.925276232402583e-03 -6.539899940842951e-02
6.147474974386989e+00 4.934426530219234e-03 -6.383030010870063e-03 -2.550619157740331e-02 -1.547891604380175e-04 5.084661205894984e-02
6.956760590929687e+00 -9.717245631852457e-03 3.598640011679621e-02 -1.458701320825527e-02 4.073457651589990e-03 -3.289191611677653e-02
6.897638583303930e+00 1.537927776649787e-03 6.205500756103144e-03 2.205163223556526e-02 2.729768094129378e-03 -1.322474956052479e-02
6.682073380413116e+00 3.191234848176008e-03 -1.054933892480847e-02 5.437021442811179e-03 -3.337076757555021e-04 -2.942570358551496e-04
6.308419818001429e+00 -2.184006163407587e-04 2.463207658211968e-03 -3.523191397295730e-03 1.776344784813399e-03 5.073377789022726e-02
6.738436650635559e+00 -1.146883672073197e-02 4.478769364126420e-02 9.547792202168247e-03 5.415407582260243e-03 1.648762183364007e-02
7.110121730162640e+00 -1.791627812742299e-03 -1.727425449097319e-03 -8.127373265798514e-03 -2.441632260718488e-03 -5.637289415357200e-02
6.533232591319109e+00 2.303033928415285e-03 8.036930245481804e-03 -1.495562945362950e-02 3.841079879199905e-03 2.287180239344058e-03
6.507006569183759e+00 3.208899826949720e-03 1.401908424942842e-02 2.456565143247666e-02 8.275244056195655e-03 4.915267815538437e-02
6.147474974386989e+00 4.934426530219234e-03 -6.383030010870063e-03 -2.550619157740331e-02 -1.547891604380175e-04 5.084661205894984e-02
5.784751133212591e+00 -1.839604066043564e-03 8.265270627785785e-03 2.818815762090428e-02 -1.209302575589431e-03 -4.523950196791816e-02
5.118878666166999e+00 -1.313853041573002e-02 -1.832153111147862e-02 -8.867561544090156e-03 5.028886709571623e-03 -1.475999528112457e-02
6.308419818001429e+00 -2.184006163407587e-04 2.463207658211968e-03 -3.523191397295730e-03 1.776344784813399e-03 5.073377789022726e-02
5.959870033069353e+00 2.189740025424355e-03 2.606911829933541e-03 -4.129257105300674e-03 -4.974325224079583e-04 2.921960856869967e-03
6.107936274044288e+00 -2.604278004773920e-04 1.490153550449123e-03 2.651406896581936e-02 2.039557172192262e-03 -3.287601026375045e-03
5.794800413696194e+00 -1.347277453025219e-02 -1.770071380849389e-02 1.058837987252404e-02 2.270897066451818e-03 2.256262904420112e-02
5.630008698695452e+00 1.762810242065255e-03 -7.908091042518699e-03 -3.450656021984208e-02 2.323689521583928e-03 2.072459515707165e-02
5.430957228843004e+00 -5.512079731921506e-03 4.293836428446982e-03 1.758115229509244e-02 4.593146985522869e-04 -4.670763418335859e-02
6.507006569183759e+00 3.208899826949720e-03 1.401908424942842e-02 2.456565143247666e-02 8.275244056195655e-03 4.915267815538437e-02
5.784751133212591e+00 -1.839604066043564e-03 8.265270627785785e-03 2.818815762090428e-02 -1.209302575589431e-03 -4.523950196791816e-02
6.861047458067181e+00 -6.247499190998607e-03 -5.631505141562918e-03 -2.994226096981848e-02 -3.976733240208048e-03 4.003807656078900e-02
6.041777435165894e+00 1.319831897169462e-02 -1.751546491982344e-02 -9.946798384759956e-03 3.658415089156073e-03 -2.293116479026563e-02
6.107936274044288e+00 -2.604278004773920e-04 1.490153550449123e-03 2.651406896581936e-02 2.039557172192262e-03 -3.287601026375045e-03
6.320953661977803e+00 -3.887778144819667e-03 3.823204084089105e-03 8.014593097353358e-03 -1.878222481771468e-03 5.132072121438595e-03
6.703275779799744e+00 2.044565989743919e-03 3.436867184498380e-03 -4.818384099475539e-03 2.994946314688865e-03 4.627229952268830e-02
6.268781092356944e+00 1.750827641105621e-02 -1.713617570706493e-02 1.093224682071087e-02 8.862197510110862e-03 1.988201807917542e-02
5.884724276821037e+00 1.784948526100346e-03 4.488729120136341e-03 -4.845493564885634e-04 2.832769624785459e-03 -3.947432282617656e-02
6.471730691591699e+00 -1.461388221366152e-03 -6.599591903625839e-03 -1.475056563844511e-02 -2.990711573947500e-03 2.234119387786093e-03
6.507006569183759e+00 3.208899826949720e-03 1.401908424942842e-02 2.456565143247666e-02 8.275244056195655e-03 4.915267815538437e-02
6.861047458067181e+00 -6.247499190998607e-03 -5.631505141562918e-03 -2.994226096981848e-02 -3.976733240208048e-03 4.003807656078900e-02
7.211937292456044e+00 -8.563286666186419e-04 -1.377334045707524e-02 1.737763803016297e-02 -2.925276232402583e-03 -6.539899940842951e-02
7.863771691291648e+00 1.979115624503775e-02 3.995551386858944e-02 -2.417505213545879e-02 3.668201704196099e-03 -4.467351676211520e-02
6.703275779799744e+00 2.044565989743919e-03 3.436867184498380e-03 -4.818384099475539e-03 2.994946314688865e-03 4.627229952268830e-02
7.043214915090632e+00 -5.201699632052177e-03 -1.165078538527639e-02 -1.185187434625449e-02 -4.726461621363847e-03 -1.280256458762457e-02
6.897638583303930e+00 1.537927776649787e-03 6.205500756103144e-03 2.205163223556526e-02 2.729768094129378e-03 -1.322474956052479e-02
7.203684649914712e+00 2.078114867316193e-02 4.661809878375506e-02 3.991236005135510e-03 1.229211370341960e-02 1.118419885884872e-02
7.366358190518626e+00 -6.673043468154657e-04 1.190313066209108e-02 -4.387142577818336e-02 -1.822783184094277e-03 -1.038051768327326e-03
7.555292513104680e+00 8.068556023587851e-03 -1.284662948202284e-03 3.409410826494415e-03 4.949736631802166e-04 -7.317918992846788e-02
6.499811138077384e+00 -7.580842597572128e-04 -2.641622218260782e-03 1.407573858902085e-02 -1.738707847056037e-03 2.814375062484716e-02
7.211937292456044e+00 -8.563286666186419e-04 -1.377334045707524e-02 1.737763803016297e-02 -2.925276232402583e-03 -6.539899940842951e-02
6.147474974386989e+00 4.934426530219234e-03 -6.383030010870063e-03 -2.550619157740331e-02 -1.547891604380175e-04 5.084661205894984e-02
6.503962656876578e+00 -9.972403978480066e-04 -3.621050373841994e-03 3.031379575340519e-02 -1.404816490708746e-03 6.063342504905014e-02
6.837097007602273e+00 -2.213705026532306e-03 -7.533301677433168e-03 1.672167251836512e-02 -1.904841673886133e-03 -1.520521523187061e-02
6.682073380413116e+00 3.191234848176008e-03 -1.054933892480847e-02 5.437021442811179e-03 -3.337076757555021e-04 -2.942570358551496e-04
6.333596772114611e+00 2.034855169688552e-03 -3.534370087684608e-03 -4.015954637976622e-03 -1.285822468753704e-03 4.152014856313072e-02
6.501811175580118e+00 -9.345097102098635e-04 -3.660538591412174e-03 2.228285490789009e-02 -1.836836570562510e-03 4.456472940077291e-02
6.870155636719038e+00 -1.159455636708709e-03 -7.934630943094408e-03 2.819509936226876e-02 -1.666190955722218e-03 3.717177546629816e-03
6.320287822715287e+00 1.980996589142601e-03 -4.133781859783984e-03 5.236390621935359e-03 -9.688519314217178e-04 6.349168136209921e-02
6.499811138077384e+00 -7.580842597572128e-04 -2.641622218260782e-03 1.407573858902085e-02 -1.738707847056037e-03 2.814375062484716e-02
6.147474974386989e+00 4.934426530219234e-03 -6.383030010870063e-03 -2.550619157740331e-02 -1.547891604380175e-04 5.084661205894984e-02
5.784751133212591e+00 -1.839604066043564e-03 8.265270627785785e-03 2.818815762090428e-02 -1.209302575589431e-03 -4.523950196791816e-02
6.503962656876578e+00 -9.972403978480066e-04 -3.621050373841994e-03 3.031379575340519e-02 -1.404816490708746e-03 6.063342504905014e-02
6.333596772114611e+00 2.034855169688552e-03 -3.534370087684608e-03 -4.015954637976622e-03 -1.285822468753704e-03 4.152014856313072e-02
5.959870033069353e+00 2.189740025424355e-03 2.606911829933541e-03 -4.129257105300674e-03 -4.974325224079583e-04 2.921960856869967e-03
6.163350906358533e+00 2.336976553363913e-04 3.147143775066349e-03 2.212801737547462e-02 -1.536123912332881e-03 -6.535935553496156e-03
6.501811175580118e+00 -9.345097102098635e-04 -3.660538591412174e-03 2.228285490789009e-02 -1.836836570562510e-03 4.456472940077291e-02
6.320287822715287e+00 1.980996589142601e-03 -4.133781859783984e-03 5.236390621935359e-03 -9.688519314217178e-04 6.349168136209921e-02
6.134818071167418e+00 -1.169198863762444e-03 2.764944789968356e-03 3.295130323098953e-02 -1.250910413117772e-03 1.283785699272658e-02
6.499811138077384e+00 -7.580842597572128e-04 -2.641622218260782e-03 1.407573858902085e-02 -1.738707847056037e-03 2.814375062484716e-02
5.784751133212591e+00 -1.839604066043564e-03 8.265270627785785e-03 2.818815762090428e-02 -1.209302575589431e-03 -4.523950196791816e-02
6.861047458067181e+00 -6.247499190998607e-03 -5.631505141562918e-03 -2.994226096981848e-02 -3.976733240208048e-03 4.003807656078900e-02
6.503962656876578e+00 -9.972403978480066e-04 -3.621050373841994e-03 3.031379575340519e-02 -1.404816490708746e-03 6.063342504905014e-02
6.163350906358533e+00 2.336976553363913e-04 3.147143775066349e-03 2.212801737547462e-02 -1.536123912332881e-03 -6.535935553496156e-03
6.320953661977803e+00 -3.887778144819667e-03 3.823204084089105e-03 8.014593097353358e-03 -1.878222481771468e-03 5.132072121438595e-03
6.670442572468351e+00 -3.346051400755753e-03 -4.650559576695755e-03 -6.880615533397237e-03 -2.154629712560909e-03 3.611432146799691e-02
6.501811175580118e+00 -9.345097102098635e-04 -3.660538591412174e-03 2.228285490789009e-02 -1.836836570562510e-03 4.456472940077291e-02
6.134818071167418e+00 -1.169198863762444e-03 2.764944789968356e-03 3.295130323098953e-02 -1.250910413117772e-03 1.283785699272658e-02
6.687933103682996e+00 -3.426694506009288e-03 -4.029791161594480e-03 3.000252123647122e-03 -1.947395508922686e-03 5.873635432886316e-02
6.499811138077384e+00 -7.580842597572128e-04 -2.641622218260782e-03 1.407573858902085e-02 -1.738707847056037e-03 2.814375062484716e-02
6.861047458067181e+00 -6.247499190998607e-03 -5.631505141562918e-03 -2.994226096981848e-02 -3.976733240208048e-03 4.003807656078900e-02
7.211937292456044e+00 -8.563286666186419e-04 -1.377334045707524e-02 1.737763803016297e-02 -2.925276232402583e-03 -6.539899940842951e-02
6.503962656876578e+00 -9.972403978480066e-04 -3.621050373841994e-03 3.031379575340519e-02 -1.404816490708746e-03 6.063342504905014e-02
6.670442572468351e+00 -3.346051400755753e-03 -4.650559576695755e-03 -6.880615533397237e-03 -2.154629712560909e-03 3.611432146799691e-02
7.043214915090632e+00 -5.201699632052177e-03 -1.165078538527639e-02 -1.185187434625449e-02 -4.726461621363847e-03 -1.280256458762457e-02
6.837097007602273e+00 -2.213705026532306e-03 -7.533301677433168e-03 1.672167251836512e-02 -1.904841673886133e-03 -1.520521523187061e-02
6.501811175580118e+00 -9.345097102098635e-04 -3.660538591412174e-03 2.228285490789009e-02 -1.836836570562510e-03 4.456472940077291e-02
6.687933103682996e+00 -3.426694506009288e-03 -4.029791161594480e-03 3.000252123647122e-03 -1.947395508922686e-03 5.873635432886316e-02
6.870155636719038e+00 -1.159455636708709e-03 -7.934630943094408e-03 2.819509936226876e-02 -1.666190955722218e-03 3.717177546629816e-03
6.507006569183759e+00 3.208899826949720e-03 1.401908424942842e-02 2.456565143247666e-02 8.275244056195655e-03 4.915267815538437e-02
6.147474974386989e+00 4.934426530219234e-03 -6.383030010870063e-03 -2.550619157740331e-02 -1.547891604380175e-04 5.084661205894984e-02
7.211937292456044e+00 -8.563286666186419e-04 -1.377334045707524e-02 1.737763803016297e-02 -2.925276232402583e-03 -6.539899940842951e-02
6.503962656876578e+00 -9.972403978480066e-04 -3.621050373841994e-03 3.031379575340519e-02 -1.404816490708746e-03 6.063342504905014e-02
6.308419818001429e+00 -2.184006163407587e-04 2.463207658211968e-03 -3.523191397295730e-03 1.776344784813399e-03 5.073377789022726e-02
6.682073380413116e+00 3.191234848176008e-03 -1.054933892480847e-02 5.437021442811179e-03 -3.337076757555021e-04 -2.942570358551496e-04
6.897638583303930e+00 1.537927776649787e-03 6.205500756103144e-03 2.205163223556526e-02 2.729768094129378e-03 -1.322474956052479e-02
6.505756537915216e+00 2.776817973488229e-04 1.477440118059469e-03 2.194762329378198e-02 1.641826893245192e-03 4.390766257509132e-02
6.320287822715287e+00 1.980996589142601e-03 -4.133781859783984e-03 5.236390621935359e-03 -9.688519314217178e-04 6.349168136209921e-02
6.870155636719038e+00 -1.159455636708709e-03 -7.934630943094408e-03 2.819509936226876e-02 -1.666190955722218e-03 3.717177546629816e-03
6.507006569183759e+00 3.208899826949720e-03 1.401908424942842e-02 2.456565143247666e-02 8.275244056195655e-03 4.915267815538437e-02
5.784751133212591e+00 -1.839604066043564e-03 8.265270627785785e-03 2.818815762090428e-02 -1.209302575589431e-03 -4.523950196791816e-02
6.147474974386989e+00 4.934426530219234e-03 -6.383030010870063e-03 -2.550619157740331e-02 -1.547891604380175e-04 5.084661205894984e-02
6.503962656876578e+00 -9.972403978480066e-04 -3.621050373841994e-03 3.031379575340519e-02 -1.404816490708746e-03 6.063342504905014e-02
6.107936274044288e+00 -2.604278004773920e-04 1.490153550449123e-03 2.651406896581936e-02 2.039557172192262e-03 -3.287601026375045e-03
5.959870033069353e+00 2.189740025424355e-03 2.606911829933541e-03 -4.129257105300674e-03 -4.974325224079583e-04 2.921960856869967e-03
6.308419818001429e+00 -2.184006163407587e-04 2.463207658211968e-03 -3.523191397295730e-03 1.776344784813399e-03 5.073377789022726e-02
6.505756537915216e+00 2.776817973488229e-04 1.477440118059469e-03 2.194762329378198e-02 1.641826893245192e-03 4.390766257509132e-02
6.134818071167418e+00 -1.169198863762444e-03 2.764944789968356e-03 3.295130323098953e-02 -1.250910413117772e-03 1.283785699272658e-02
6.320287822715287e+00 1.980996589142601e-03 -4.133781859783984e-03 5.236390621935359e-03 -9.688519314217178e-04 6.349168136209921e-02
6.507006569183759e+00 3.208899826949720e-03 1.401908424942842e-02 2.456565143247666e-02 8.275244056195655e-03 4.915267815538437e-02
6.861047458067181e+00 -6.247499190998607e-03 -5.631505141562918e-03 -2.994226096981848e-02 -3.976733240208048e-03 4.003807656078900e-02
5.784751133212591e+00 -1.839604066043564e-03 8.265270627785785e-03 2.818815762090428e-02 -1.209302575589431e-03 -4.523950196791816e-02
6.503962656876578e+00 -9.972403978480066e-04 -3.621050373841994e-03 3.031379575340519e-02 -1.404816490708746e-03 6.063342504905014e-02
6.703275779799744e+00 2.044565989743919e-03 3.436867184498380e-03 -4.818384099475539e-03 2.994946314688865e-03 4.627229952268830e-02
6.320953661977803e+00 -3.887778144819667e-03 3.823204084089105e-03 8.014593097353358e-03 -1.878222481771468e-03 5.132072121438595e-03
6.107936274044288e+00 -2.604278004773920e-04 1.490153550449123e-03 2.651406896581936e-02 2.039557172192262e-03 -3.287601026375045e-03
6.505756537915216e+00 2.776817973488229e-04 1.477440118059469e-03 2.194762329378198e-02 1.641826893245192e-03 4.390766257509132e-02
6.687933103682996e+00 -3.426694506009288e-03 -4.029791161594480e-03 3.000252123647122e-03 -1.947395508922686e-03 5.873635432886316e-02
6.134818071167418e+00 -1.169198863762444e-03 2.764944789968356e-03 3.295130323098953e-02 -1.250910413117772e-03 1.283785699272658e-02
6.507006569183759e+00 3.208899826949720e-03 1.401908424942842e-02 2.456565143247666e-02 8.275244056195655e-03 4.915267815538437e-02
7.211937292456044e+00 -8.563286666186419e-04 -1.377334045707524e-02 1.737763803016297e-02 -2.925276232402583e-03 -6.539899940842951e-02
6.861047458067181e+00 -6.247499190998607e-03 -5.631505141562918e-03 -2.994226096981848e-02 -3.976733240208048e-03 4.003807656078900e-02
6.503962656876578e+00 -9.972403978480066e-04 -3.621050373841994e-03 3.031379575340519e-02 -1.404816490708746e-03 6.063342504905014e-02
6.897638583303930e+00 1.537927776649787e-03 6.205500756103144e-03 2.205163223556526e-02 2.729768094129378e-03 -1.322474956052479e-02
7.043214915090632e+00 -5.201699632052177e-03 -1.165078538527639e-02 -1.185187434625449e-02 -4.726461621363847e-03 -1.280256458762457e-02
6.703275779799744e+00 2.044565989743919e-03 3.436867184498380e-03 -4.818384099475539e-03 2.994946314688865e-03 4.627229952268830e-02
6.505756537915216e+00 2.776817973488229e-04 1.477440118059469e-03 2.194762329378198e-02 1.641826893245192e-03 4.390766257509132e-02
6.870155636719038e+00 -1.159455636708709e-03 -7.934630943094408e-03 2.819509936226876e-02 -1.666190955722218e-03 3.717177546629816e-03
6.687933103682996e+00 -3.426694506009288e-03 -4.029791161594480e-03 3.000252123647122e-03 -1.947395508922686e-03 5.873635432886316e-02
        </DataArray>
  </PointData>
  <CellData>
        <DataArray type="Float64" Name="element_GL_strains_xyz" NumberOfComponents="6" format="ascii">
5.999245463582722e-02 2.904568473349745e-06 6.282592202033754e-07 1.549977734203833e-05 2.083368383180284e-06 8.478940405869502e-05
5.864910802381934e-02 4.832202292914811e-06 5.301912255950558e-06 4.278575730696863e-05 6.719704256475581e-07 3.203175500007795e-05
6.268650608074794e-02 -3.315280373658580e-06 -4.740897942931421e-06 1.517750110239282e-05 -3.568649624884734e-06 8.322826202510698e-05
6.403725372423605e-02 -5.879848467824078e-06 -7.138146311091997e-06 4.122452326321682e-05 -2.157254796514469e-06 2.932096711983785e-05
6.279659817035663e-02 4.103834265051232e-06 -1.543121842169370e-05 8.130280420938316e-05 -8.406951193071454e-06 1.450515801041538e-04
5.697615301958611e-02 7.675268896695231e-06 1.147542514526312e-05 5.690532993873020e-05 -2.201408484499754e-05 1.318456627313295e-04
5.988264790430184e-02 -5.447802884556152e-06 9.999737672239384e-06 8.171873929960886e-05 5.704110304447323e-06 1.438807841949937e-04
6.571782488383066e-02 -1.032790539461093e-05 -1.821548401108319e-05 5.659139404809212e-05 2.027521911950348e-05 1.322866726084496e-04
5.968962982737708e-02 1.037684180170417e-05 -1.242366991949240e-05 1.192734273398602e-04 -6.233572504755188e-07 5.036140639928901e-04
5.804711773378027e-02 -5.864285632525834e-06 1.794852647507561e-05 2.527957443091215e-04 -2.511594111551671e-06 2.387722016123229e-04
6.298230730352911e-02 -1.311709312551423e-05 -9.534808663974603e-06 1.194219012922412e-04 -8.297049120828997e-06 4.996159120108864e-04
6.463232000141686e-02 -7.832263657081562e-09 -2.903181035222857e-05 2.487978102023192e-04 -6.408712789970739e-06 2.385818851215435e-04
6.227777614783164e-02 9.622080975602021e-06 -2.202359037428714e-05 4.174876022111815e-05 -1.601573606839985e-06 8.988456311445305e-05
5.852339652794872e-02 9.230395921128176e-06 1.735342281103391e-05 5.002313677172703e-05 -3.069596836802826e-06 9.449939910336066e-05
6.039866149680573e-02 -1.031453721506148e-05 1.767732135835032e-05 4.293995450303635e-05 -3.234513491806127e-07 8.959880677859203e-05
6.416068844392298e-02 -1.048217539313667e-05 -2.225901325811352e-05 4.812704120643174e-05 7.446790683049053e-07 9.169794167488827e-05
6.242577373483338e-02 2.196257279860059e-06 -3.493997550167716e-05 1.446201030001737e-04 -4.027687124405570e-06 2.931893825237867e-04
5.807221704097223e-02 3.159984441580832e-05 3.792626238252605e-05 1.477585748917851e-04 -3.392967218573190e-06 2.937378106420162e-04
6.024939735370696e-02 -5.027568593427012e-06 2.300403542843110e-05 1.467462643403124e-04 -3.796068726931894e-06 2.911507970011299e-04
6.460138551866088e-02 -3.367407852666870e-05 -4.910479223521613e-05 1.457153924412828e-04 -2.826743267947842e-06 2.916068624357353e-04
6.181648839864462e-02 7.232437016918558e-06 -2.351737855051106e-05 1.007029723791272e-04 -3.376420788249488e-06 2.023886008763828e-04
5.990248625683367e-02 9.841192936843601e-06 1.491663263256116e-05 1.013202145729175e-04 -3.303571964908510e-06 2.023460138395724e-04
6.085915941175335e-02 -9.279734910869197e-06 1.368818003752437e-05 1.012827769590465e-04 -3.512248138411664e-06 2.018063448709836e-04
6.277446768956341e-02 -1.225721630815357e-05 -2.511453451073398e-05 1.009627661017283e-04 -3.749504648726042e-06 2.019910373818114e-04
6.184814023679816e-02 4.137518784155803e-06 -2.155035288760321e-05 1.684009122999219e-04 -7.317922637406823e-06 3.384227520842087e-04
5.980157947929887e-02 6.745967251586826e-06 7.628884927335378e-06 1.696131833202082e-04 -1.063282519392052e-05 3.384070915426869e-04
6.082449400832390e-02 -7.745948637880029e-06 6.401253886914593e-06 1.693525712031150e-04 -4.050945341994323e-06 3.372721345282557e-04
6.287254818413293e-02 -1.072272901411764e-05 -2.314631312085036e-05 1.684380528882483e-04 -9.000672240554772e-07 3.374308495789009e-04
5.942116591373661e-02 8.962514029445257e-06 -9.763761870090759e-06 1.655315730113270e-04 -7.188290270132373e-06 7.093983491128560e-04
5.750335140351454e-02 1.808318508370044e-05 1.497636483846487e-05 3.589882697421680e-04 -7.245101514966376e-06 3.279037994842800e-04
6.324655156115835e-02 -1.606798128239717e-05 -3.138246454560678e-05 1.543341728336420e-04 -7.466083066558485e-06 6.920382460770736e-04
6.515387850115201e-02 -2.554742642096874e-05 -3.519376515810635e-05 3.416318009777062e-04 -7.407129214141742e-06 3.116656569823477e-04
6.372953808416476e-02 9.557643261728921e-06 -1.945179239534744e-05 2.867045839369933e-04 -1.163422554177703e-05 5.197823804296866e-04
5.406933793029234e-02 3.508387208389641e-06 6.604340370947037e-06 2.219166312697261e-04 -3.771000492694856e-05 5.084915678115428e-04
5.893413800776720e-02 -9.482023340334766e-06 1.007978666386911e-05 2.970191927954897e-04 1.000655186067579e-05 5.359360904876927e-04
6.845718459862693e-02 -4.270272783782336e-06 -1.682849969206202e-05 2.129606756641515e-04 2.824837406704955e-05 4.730716875365820e-04
5.831259223225951e-02 -1.041713116126802e-04 1.164413037448020e-04 3.653684246079766e-04 1.126304069284739e-04 1.300987134921942e-03
5.526727867905484e-02 -1.690756031125229e-06 -1.598317133945232e-04 6.467784190364559e-04 8.250239407275617e-05 7.160888169129272e-04
6.432801067378852e-02 1.379904812873617e-04 1.517688474284573e-04 3.693087782399312e-04 -9.452887728538076e-06 1.316200534337677e-03
6.729899912475040e-02 7.156316881845592e-05 3.230297760927481e-04 6.619884003848360e-04 2.068172733644739e-05 7.532497235019202e-04
6.274226082842949e-02 1.841305503491597e-05 -6.423229509502915e-05 2.552523917895165e-04 -2.886336759599592e-06 5.294210211887608e-04
5.712809350864273e-02 1.740034617120356e-05 2.806540790120660e-05 2.875540089087609e-04 8.857137776015931e-06 5.554661770418154e-04
5.994475205594935e-02 -2.847801665976923e-05 2.902271965873893e-05 2.596712359112668e-04 -1.449019432678957e-05 5.344780245754687e-04
6.552088672787612e-02 -2.853720464669751e-05 -6.434433044383292e-05 2.730012351529273e-04 -2.582121423176443e-05 5.314362020731509e-04
6.329278667090157e-02 -6.337224253680218e-06 5.605535479465129e-05 4.334918229302354e-04 8.450014153518305e-07 8.638970711516460e-04
5.549304166251023e-02 -3.352395090930327e-06 5.642064576566463e-06 4.313248337749181e-04 -2.283335341346101e-05 8.553860012811400e-04
5.941689330737832e-02 1.817455022895542e-05 6.073337860679207e-07 4.235580081169360e-04 2.954415189984265e-05 8.613995178928366e-04
6.712219835451819e-02 2.923563504318716e-05 6.505896679279144e-05 4.404264527855008e-04 6.368709416065658e-05 8.769298971807327e-04
6.210204401619235e-02 2.145790440202799e-05 -7.519438567364645e-05 4.424803068548454e-04 -5.260980299674211e-06 8.831059758925574e-04
5.907236784362385e-02 1.888987950091070e-05 2.885703216465307e-05 4.466626162234490e-04 3.526644757964371e-07 8.948826457096577e-04
6.058636233633147e-02 -3.186575220059940e-05 3.176012016034568e-05 4.474305802167621e-04 -1.444768548279580e-05 8.876468521138985e-04
6.361931237987559e-02 -3.468060598070533e-05 -7.767848069756278e-05 4.312314677476785e-04 -2.660110528434069e-05 8.699600842197661e-04
6.223721635887502e-02 -7.068680513921954e-06 2.988404709799997e-05 5.542230560563595e-04 1.097526843461617e-05 1.095812220070148e-03
5.869569937414762e-02 -9.615302922136304e-06 -1.110261774309174e-05 5.471560582153794e-04 6.887303209481926e-06 1.105899103513733e-03
6.046517014263530e-02 1.216825671507271e-05 -8.256977752793548e-06 5.529964691994751e-04 1.147005610764052e-05 1.109931215262444e-03
6.401116237051929e-02 9.303816214334404e-06 2.731581929803217e-05 5.480530594179946e-04 8.983620850606804e-06 1.093908116691339e-03
        </DataArray>
        <DataArray type="Float64" Name="element_cauchy_stresses_xyz" NumberOfComponents="6" format="ascii">
6.349092720166254e+00 2.743501052010733e-04 4.723908958512407e-05 -8.045751360206319e-04 1.936370323619112e-04 3.938952224899726e-03
6.199363821005405e+00 4.541625184393075e-04 5.008364469772555e-04 2.074714306220193e-03 6.021587307689932e-05 -1.370300756519622e-03
6.650217235034375e+00 -3.125521334291132e-04 -4.586038780957103e-04 -9.713067443947039e-04 -3.394413203089889e-04 3.515599830452787e-03
6.801618630167354e+00 -5.563812316900227e-04 -6.718923208189282e-04 1.651355513229116e-03 -2.060180405238996e-04 -2.184470696505171e-03
6.662545850063093e+00 3.778484140183602e-04 -1.483905353328149e-03 -2.141357072812037e-03 -8.079822366211145e-04 -6.050922306428522e-03
6.013487679550463e+00 7.205062636986963e-04 1.054945120657522e-03 -3.552049250451192e-03 -2.101243798298019e-03 -5.275264804591551e-03
6.336824407891177e+00 -5.247537437765666e-04 9.123706246758337e-04 -1.562768365389358e-03 5.216670838408957e-04 -5.109162553567943e-03
6.990637328201995e+00 -9.746309956676709e-04 -1.733590004422330e-03 -5.169619832514497e-03 1.896453844131277e-03 -8.413160045297000e-03
6.315896285913432e+00 9.623063171987135e-04 -1.540517649986169e-03 -5.805969000428804e-03 -1.698476740200107e-04 1.486630584452561e-02
6.132662738590755e+00 -6.485393446851097e-04 1.616429381301101e-03 8.056385037566831e-03 -3.523233047706037e-04 -1.054486349121618e-02
6.683952019986936e+00 -1.252395108253852e-03 -1.248910474166754e-03 -6.870675640072730e-03 -8.866174789077399e-04 1.235847268434835e-02
6.868766704160524e+00 -8.629714384864247e-05 -2.790875329436981e-03 5.548575763938792e-03 -7.040726806584049e-04 -1.482201782344082e-02
6.604435687694568e+00 9.038648116887903e-04 -2.091802681419543e-03 -7.808782700514359e-04 -1.585715810757723e-04 -9.273476554192840e-04
6.185298790181772e+00 8.690475842163960e-04 1.625278441624307e-03 3.755638394282445e-04 -2.987232994703877e-04 2.072206261982718e-04
6.394325107328787e+00 -9.780553702132071e-04 1.654400356644383e-03 -4.847571129269715e-04 -3.848922496455574e-05 -6.187686848928509e-04
6.815627521825288e+00 -9.903922631758445e-04 -2.109813669087680e-03 -3.323253006884986e-04 6.303323691329107e-05 -1.105374648937138e-03
6.621335949283083e+00 1.764053641014576e-04 -3.426412977610619e-03 -1.301489625513608e-03 -4.427288080007955e-04 -2.219484170653441e-03
6.135126592780145e+00 2.953151841958130e-03 3.443044933224743e-03 2.210203366366341e-04 -3.969550971126952e-04 2.660650757996081e-04
6.377811147842589e+00 -5.081731057248282e-04 2.037483600017920e-03 -4.858311025574137e-04 -4.250389844049947e-04 -1.200478815366531e-03
6.865694193655669e+00 -3.201732415749231e-03 -4.748635303010061e-03 -1.813432556614687e-03 -3.319798754024856e-04 -3.603058314348041e-03
6.552928503095041e+00 6.677167646499164e-04 -2.278015911854548e-03 2.651221229328958e-03 -3.486499541041420e-04 5.401042224696400e-03
6.338919858057317e+00 9.147849373661671e-04 1.348944866902191e-03 2.984141317320805e-03 -3.426693545125022e-04 5.939273087006052e-03
6.445816864920006e+00 -8.911035755253838e-04 1.232800823010934e-03 2.845090234239343e-03 -3.621075299647697e-04 5.614512810398436e-03
6.660253921482729e+00 -1.170005276698451e-03 -2.425981890021373e-03 2.541032211499397e-03 -3.829165640112894e-04 5.088819918168961e-03
6.556660993360627e+00 3.485486910066183e-04 -2.201599716474760e-03 4.132679225123654e-03 -7.750900052030960e-04 8.428639844327965e-03
6.327920928639449e+00 5.945494062494285e-04 5.493658661921719e-04 4.695991061587607e-03 -1.090975201296041e-03 9.313220161505740e-03
6.442169347765050e+00 -7.738835380080907e-04 4.351366510203908e-04 4.450144409228756e-03 -4.680946716811449e-04 8.758313863098929e-03
6.671396313441242e+00 -1.052096996919783e-03 -2.348023800626985e-03 3.915050260245507e-03 -1.681662449130660e-04 7.885129304552570e-03
6.286607899017282e+00 8.159558718003413e-04 -1.637551147827542e-03 -7.234447922369578e-03 -8.910301763472913e-04 2.342548608333226e-02
6.072409095812286e+00 1.528243331174100e-03 1.281970499189464e-03 1.299944759212727e-02 -9.060778921504125e-04 -1.306645672495837e-02
6.714300108802622e+00 -1.530377421640475e-03 -3.619064127699551e-03 -1.006659050891457e-02 -8.869190357854626e-04 1.827407371542256e-02
6.927802172864930e+00 -2.561430036262355e-03 -3.369622429522670e-03 7.848042084619498e-03 -8.716541787688598e-04 -2.154010463437932e-02
6.767790789520241e+00 7.918238425505284e-04 -2.165724932810846e-03 -9.174062113207062e-03 -1.285832763463460e-03 -2.353153816993808e-02
5.692696022889823e+00 2.561754213208769e-04 1.832073568881059e-04 -9.454331274210010e-03 -3.774666246230486e-03 -1.256993243870855e-02
6.232016044785093e+00 -1.034048743682183e-03 5.197368486861441e-04 -5.213783040040916e-03 7.022505675223050e-04 -1.589899326995045e-02
7.300053281564495e+00 -4.246734239476406e-04 -1.759659836646895e-03 -1.902353380300412e-02 2.576608473371163e-03 -3.373281088301963e-02
6.165828111931160e+00 -1.007517635046223e-02 8.394951162991764e-03 -1.117906850430907e-02 9.811585654925278e-03 3.233162243069475e-02
5.827324377430799e+00 -8.354773363041325e-04 -1.603339152530733e-02 1.816904507519144e-02 6.958902979621269e-03 -1.974119115602726e-02
6.835942533570055e+00 1.280445908554177e-02 1.178785416925530e-02 -1.529770336811835e-02 -1.669083003644879e-03 2.451423884723728e-02
7.167709947977167e+00 6.106098451742144e-03 2.963605614467193e-02 1.035124271913744e-02 1.182060264774861e-03 -3.301535708977811e-02
6.657422678617463e+00 1.635331105520272e-03 -6.478148410280766e-03 -3.469332008485577e-03 -4.795401908389050e-04 -5.155503818706940e-03
6.031040795105238e+00 1.516054087219870e-03 2.148580632252862e-03 2.552827665633239e-03 5.799331244059722e-04 3.135018678146658e-03
6.344555724503206e+00 -2.801711793901673e-03 2.285292777858520e-03 -1.699394092721420e-03 -1.595520681726783e-03 -1.748528775565373e-03
6.969622448740717e+00 -2.784920827344146e-03 -6.444157993081240e-03 -3.113390321617994e-03 -2.627495762922183e-03 -7.707648774281890e-03
6.719677426225181e+00 -8.694549945081339e-04 4.171654153593348e-03 -3.715083536638666e-03 -4.693050353611751e-04 -7.647637561636127e-03
5.851550409812737e+00 -6.522569835915895e-04 -7.416895189818987e-04 1.506168213325043e-03 -2.827248709994411e-03 2.355506255409336e-03
6.286851391487050e+00 1.440175451721450e-03 -1.128183278583229e-03 -1.959415717215710e-03 2.218929940846364e-03 -2.533978061588277e-03
7.150079712747349e+00 2.461035851364209e-03 5.020095073058589e-03 -5.483038582765524e-03 5.418921772411678e-03 -1.150476027604353e-02
6.586921684579565e+00 1.747756458922135e-03 -8.191648274059200e-03 1.184793640299076e-02 -1.048544066896111e-03 2.336781916699431e-02
6.248133523630602e+00 1.496803598256084e-03 1.568263953470234e-03 1.393081334378712e-02 -5.462410264288411e-04 2.803655428898362e-02
6.417238984431746e+00 -3.294589549820810e-03 1.871420337478091e-03 1.311657547258468e-02 -1.932897172845094e-03 2.565038087848528e-02
6.757139778086961e+00 -3.526815157648831e-03 -8.372255413432747e-03 9.817550541603645e-03 -3.029659037659393e-03 2.037263826325653e-02
6.602600862192149e+00 -1.103895614537585e-03 1.101324391707780e-03 1.411589635503266e-02 1.675592181420910e-04 2.697297859690066e-02
6.207693760604664e+00 -1.352957381526748e-03 -2.855357852989488e-03 1.564086985849195e-02 -2.444263967842511e-04 3.243395505713177e-02
6.404795325957983e+00 7.048697453582072e-04 -2.563920910754425e-03 1.512107776780027e-02 1.919543663793837e-04 3.060606868272101e-02
6.801150148570161e+00 4.554288319918126e-04 8.936599682332904e-04 1.238114432511383e-02 4.803105923771464e-06 2.453682928169221e-02
        </DataArray>
      </CellData>

    </Piece>
  </UnstructuredGrid>
</VTKFile>
