<?xml version="1.0" ?> 
<!-- 
# vtk DataFile Version 3.0
-->
<VTKFile type="UnstructuredGrid" version="0.1" compressor="vtkZLibDataCompressor" byte_order="LittleEndian">
  <UnstructuredGrid>
    <FieldData>
      <DataArray type="Float64" Name="TIME" NumberOfTuples="1" format="ascii">
0.000000000000000e+00 
      </DataArray>
    </FieldData>

    <Piece NumberOfPoints="560" NumberOfCells="56" >
      <Points>
        <DataArray type="Float64" NumberOfComponents="3" format="ascii">
0.000000000000000e+00 0.000000000000000e+00 1.000000000000000e+00
0.000000000000000e+00 0.000000000000000e+00 0.000000000000000e+00
0.000000000000000e+00 5.000000000000000e-01 5.000000000000000e-01
5.000000000000000e-01 0.000000000000000e+00 5.000000000000000e-01
0.000000000000000e+00 0.000000000000000e+00 5.000000000000000e-01
0.000000000000000e+00 2.500000000000000e-01 2.500000000000000e-01
0.000000000000000e+00 2.500000000000000e-01 7.500000000000000e-01
2.500000000000000e-01 0.000000000000000e+00 7.500000000000000e-01
2.500000000000000e-01 0.000000000000000e+00 2.500000000000000e-01
2.500000000000000e-01 2.500000000000000e-01 5.000000000000000e-01
0.000000000000000e+00 0.000000000000000e+00 0.000000000000000e+00
0.000000000000000e+00 1.000000000000000e+00 0.000000000000000e+00
0.000000000000000e+00 5.000000000000000e-01 5.000000000000000e-01
5.000000000000000e-01 5.000000000000000e-01 0.000000000000000e+00
0.000000000000000e+00 5.000000000000000e-01 0.000000000000000e+00
0.000000000000000e+00 7.500000000000000e-01 2.500000000000000e-01
0.000000000000000e+00 2.500000000000000e-01 2.500000000000000e-01
2.500000000000000e-01 2.500000000000000e-01 0.000000000000000e+00
2.500000000000000e-01 7.500000000000000e-01 0.000000000000000e+00
2.500000000000000e-01 5.000000000000000e-01 2.500000000000000e-01
0.000000000000000e+00 1.000000000000000e+00 0.000000000000000e+00
0.000000000000000e+00 1.000000000000000e+00 1.000000000000000e+00
0.000000000000000e+00 5.000000000000000e-01 5.000000000000000e-01
5.000000000000000e-01 1.000000000000000e+00 5.000000000000000e-01
0.000000000000000e+00 1.000000000000000e+00 5.000000000000000e-01
0.000000000000000e+00 7.500000000000000e-01 7.500000000000000e-01
0.000000000000000e+00 7.500000000000000e-01 2.500000000000000e-01
2.500000000000000e-01 1.000000000000000e+00 2.500000000000000e-01
2.500000000000000e-01 1.000000000000000e+00 7.500000000000000e-01
2.500000000000000e-01 7.500000000000000e-01 5.000000000000000e-01
0.000000000000000e+00 1.000000000000000e+00 1.000000000000000e+00
0.000000000000000e+00 0.000000000000000e+00 1.000000000000000e+00
0.000000000000000e+00 5.000000000000000e-01 5.000000000000000e-01
5.000000000000000e-01 5.000000000000000e-01 1.000000000000000e+00
0.000000000000000e+00 5.000000000000000e-01 1.000000000000000e+00
0.000000000000000e+00 2.500000000000000e-01 7.500000000000000e-01
0.000000000000000e+00 7.500000000000000e-01 7.500000000000000e-01
2.500000000000000e-01 7.500000000000000e-01 1.000000000000000e+00
2.500000000000000e-01 2.500000000000000e-01 1.000000000000000e+00
2.500000000000000e-01 5.000000000000000e-01 7.500000000000000e-01
0.000000000000000e+00 0.000000000000000e+00 1.000000000000000e+00
1.000000000000000e+00 0.000000000000000e+00 1.000000000000000e+00
5.000000000000000e-01 0.000000000000000e+00 5.000000000000000e-01
5.000000000000000e-01 5.000000000000000e-01 1.000000000000000e+00
5.000000000000000e-01 0.000000000000000e+00 1.000000000000000e+00
7.500000000000000e-01 0.000000000000000e+00 7.500000000000000e-01
2.500000000000000e-01 0.000000000000000e+00 7.500000000000000e-01
2.500000000000000e-01 2.500000000000000e-01 1.000000000000000e+00
7.500000000000000e-01 2.500000000000000e-01 1.000000000000000e+00
5.000000000000000e-01 2.500000000000000e-01 7.500000000000000e-01
0.000000000000000e+00 0.000000000000000e+00 0.000000000000000e+00
1.000000000000000e+00 0.000000000000000e+00 0.000000000000000e+00
5.000000000000000e-01 5.000000000000000e-01 0.000000000000000e+00
5.000000000000000e-01 0.000000000000000e+00 5.000000000000000e-01
5.000000000000000e-01 0.000000000000000e+00 0.000000000000000e+00
7.500000000000000e-01 2.500000000000000e-01 0.000000000000000e+00
2.500000000000000e-01 2.500000000000000e-01 0.000000000000000e+00
2.500000000000000e-01 0.000000000000000e+00 2.500000000000000e-01
7.500000000000000e-01 0.000000000000000e+00 2.500000000000000e-01
5.000000000000000e-01 2.500000000000000e-01 2.500000000000000e-01
0.000000000000000e+00 1.000000000000000e+00 0.000000000000000e+00
1.000000000000000e+00 1.000000000000000e+00 0.000000000000000e+00
5.000000000000000e-01 1.000000000000000e+00 5.000000000000000e-01
5.000000000000000e-01 5.000000000000000e-01 0.000000000000000e+00
5.000000000000000e-01 1.000000000000000e+00 0.000000000000000e+00
7.500000000000000e-01 1.000000000000000e+00 2.500000000000000e-01
2.500000000000000e-01 1.000000000000000e+00 2.500000000000000e-01
2.500000000000000e-01 7.500000000000000e-01 0.000000000000000e+00
7.500000000000000e-01 7.500000000000000e-01 0.000000000000000e+00
5.000000000000000e-01 7.500000000000000e-01 2.500000000000000e-01
0.000000000000000e+00 1.000000000000000e+00 1.000000000000000e+00
1.000000000000000e+00 1.000000000000000e+00 1.000000000000000e+00
5.000000000000000e-01 5.000000000000000e-01 1.000000000000000e+00
5.000000000000000e-01 1.000000000000000e+00 5.000000000000000e-01
5.000000000000000e-01 1.000000000000000e+00 1.000000000000000e+00
7.500000000000000e-01 7.500000000000000e-01 1.000000000000000e+00
2.500000000000000e-01 7.500000000000000e-01 1.000000000000000e+00
2.500000000000000e-01 1.000000000000000e+00 7.500000000000000e-01
7.500000000000000e-01 1.000000000000000e+00 7.500000000000000e-01
5.000000000000000e-01 7.500000000000000e-01 7.500000000000000e-01
1.000000000000000e+00 0.000000000000000e+00 1.000000000000000e+00
1.000000000000000e+00 0.000000000000000e+00 0.000000000000000e+00
5.000000000000000e-01 0.000000000000000e+00 5.000000000000000e-01
1.000000000000000e+00 5.000000000000000e-01 5.000000000000000e-01
1.000000000000000e+00 0.000000000000000e+00 5.000000000000000e-01
7.500000000000000e-01 0.000000000000000e+00 2.500000000000000e-01
7.500000000000000e-01 0.000000000000000e+00 7.500000000000000e-01
1.000000000000000e+00 2.500000000000000e-01 7.500000000000000e-01
1.000000000000000e+00 2.500000000000000e-01 2.500000000000000e-01
7.500000000000000e-01 2.500000000000000e-01 5.000000000000000e-01
1.000000000000000e+00 0.000000000000000e+00 0.000000000000000e+00
1.000000000000000e+00 1.000000000000000e+00 0.000000000000000e+00
5.000000000000000e-01 5.000000000000000e-01 0.000000000000000e+00
1.000000000000000e+00 5.000000000000000e-01 5.000000000000000e-01
1.000000000000000e+00 5.000000000000000e-01 0.000000000000000e+00
7.500000000000000e-01 7.500000000000000e-01 0.000000000000000e+00
7.500000000000000e-01 2.500000000000000e-01 0.000000000000000e+00
1.000000000000000e+00 2.500000000000000e-01 2.500000000000000e-01
1.000000000000000e+00 7.500000000000000e-01 2.500000000000000e-01
7.500000000000000e-01 5.000000000000000e-01 2.500000000000000e-01
1.000000000000000e+00 1.000000000000000e+00 0.000000000000000e+00
1.000000000000000e+00 1.000000000000000e+00 1.000000000000000e+00
5.000000000000000e-01 1.000000000000000e+00 5.000000000000000e-01
1.000000000000000e+00 5.000000000000000e-01 5.000000000000000e-01
1.000000000000000e+00 1.000000000000000e+00 5.000000000000000e-01
7.500000000000000e-01 1.000000000000000e+00 7.500000000000000e-01
7.500000000000000e-01 1.000000000000000e+00 2.500000000000000e-01
1.000000000000000e+00 7.500000000000000e-01 2.500000000000000e-01
1.000000000000000e+00 7.500000000000000e-01 7.500000000000000e-01
7.500000000000000e-01 7.500000000000000e-01 5.000000000000000e-01
1.000000000000000e+00 1.000000000000000e+00 1.000000000000000e+00
1.000000000000000e+00 0.000000000000000e+00 1.000000000000000e+00
5.000000000000000e-01 5.000000000000000e-01 1.000000000000000e+00
1.000000000000000e+00 5.000000000000000e-01 5.000000000000000e-01
1.000000000000000e+00 5.000000000000000e-01 1.000000000000000e+00
7.500000000000000e-01 2.500000000000000e-01 1.000000000000000e+00
7.500000000000000e-01 7.500000000000000e-01 1.000000000000000e+00
1.000000000000000e+00 7.500000000000000e-01 7.500000000000000e-01
1.000000000000000e+00 2.500000000000000e-01 7.500000000000000e-01
7.500000000000000e-01 5.000000000000000e-01 7.500000000000000e-01
0.000000000000000e+00 5.000000000000000e-01 5.000000000000000e-01
5.000000000000000e-01 0.000000000000000e+00 5.000000000000000e-01
5.000000000000000e-01 5.000000000000000e-01 1.000000000000000e+00
0.000000000000000e+00 0.000000000000000e+00 1.000000000000000e+00
2.500000000000000e-01 2.500000000000000e-01 5.000000000000000e-01
5.000000000000000e-01 2.500000000000000e-01 7.500000000000000e-01
2.500000000000000e-01 5.000000000000000e-01 7.500000000000000e-01
0.000000000000000e+00 2.500000000000000e-01 7.500000000000000e-01
2.500000000000000e-01 0.000000000000000e+00 7.500000000000000e-01
2.500000000000000e-01 2.500000000000000e-01 1.000000000000000e+00
0.000000000000000e+00 5.000000000000000e-01 5.000000000000000e-01
5.000000000000000e-01 5.000000000000000e-01 0.000000000000000e+00
5.000000000000000e-01 0.000000000000000e+00 5.000000000000000e-01
0.000000000000000e+00 0.000000000000000e+00 0.000000000000000e+00
2.500000000000000e-01 5.000000000000000e-01 2.500000000000000e-01
5.000000000000000e-01 2.500000000000000e-01 2.500000000000000e-01
2.500000000000000e-01 2.500000000000000e-01 5.000000000000000e-01
0.000000000000000e+00 2.500000000000000e-01 2.500000000000000e-01
2.500000000000000e-01 2.500000000000000e-01 0.000000000000000e+00
2.500000000000000e-01 0.000000000000000e+00 2.500000000000000e-01
0.000000000000000e+00 5.000000000000000e-01 5.000000000000000e-01
5.000000000000000e-01 1.000000000000000e+00 5.000000000000000e-01
5.000000000000000e-01 5.000000000000000e-01 0.000000000000000e+00
0.000000000000000e+00 1.000000000000000e+00 0.000000000000000e+00
2.500000000000000e-01 7.500000000000000e-01 5.000000000000000e-01
5.000000000000000e-01 7.500000000000000e-01 2.500000000000000e-01
2.500000000000000e-01 5.000000000000000e-01 2.500000000000000e-01
0.000000000000000e+00 7.500000000000000e-01 2.500000000000000e-01
2.500000000000000e-01 1.000000000000000e+00 2.500000000000000e-01
2.500000000000000e-01 7.500000000000000e-01 0.000000000000000e+00
0.000000000000000e+00 5.000000000000000e-01 5.000000000000000e-01
5.000000000000000e-01 5.000000000000000e-01 1.000000000000000e+00
5.000000000000000e-01 1.000000000000000e+00 5.000000000000000e-01
0.000000000000000e+00 1.000000000000000e+00 1.000000000000000e+00
2.500000000000000e-01 5.000000000000000e-01 7.500000000000000e-01
5.000000000000000e-01 7.500000000000000e-01 7.500000000000000e-01
2.500000000000000e-01 7.500000000000000e-01 5.000000000000000e-01
0.000000000000000e+00 7.500000000000000e-01 7.500000000000000e-01
2.500000000000000e-01 7.500000000000000e-01 1.000000000000000e+00
2.500000000000000e-01 1.000000000000000e+00 7.500000000000000e-01
1.000000000000000e+00 5.000000000000000e-01 5.000000000000000e-01
5.000000000000000e-01 5.000000000000000e-01 1.000000000000000e+00
5.000000000000000e-01 0.000000000000000e+00 5.000000000000000e-01
1.000000000000000e+00 0.000000000000000e+00 1.000000000000000e+00
7.500000000000000e-01 5.000000000000000e-01 7.500000000000000e-01
5.000000000000000e-01 2.500000000000000e-01 7.500000000000000e-01
7.500000000000000e-01 2.500000000000000e-01 5.000000000000000e-01
1.000000000000000e+00 2.500000000000000e-01 7.500000000000000e-01
7.500000000000000e-01 2.500000000000000e-01 1.000000000000000e+00
7.500000000000000e-01 0.000000000000000e+00 7.500000000000000e-01
1.000000000000000e+00 5.000000000000000e-01 5.000000000000000e-01
5.000000000000000e-01 0.000000000000000e+00 5.000000000000000e-01
5.000000000000000e-01 5.000000000000000e-01 0.000000000000000e+00
1.000000000000000e+00 0.000000000000000e+00 0.000000000000000e+00
7.500000000000000e-01 2.500000000000000e-01 5.000000000000000e-01
5.000000000000000e-01 2.500000000000000e-01 2.500000000000000e-01
7.500000000000000e-01 5.000000000000000e-01 2.500000000000000e-01
1.000000000000000e+00 2.500000000000000e-01 2.500000000000000e-01
7.500000000000000e-01 0.000000000000000e+00 2.500000000000000e-01
7.500000000000000e-01 2.500000000000000e-01 0.000000000000000e+00
1.000000000000000e+00 5.000000000000000e-01 5.000000000000000e-01
5.000000000000000e-01 5.000000000000000e-01 0.000000000000000e+00
5.000000000000000e-01 1.000000000000000e+00 5.000000000000000e-01
1.000000000000000e+00 1.000000000000000e+00 0.000000000000000e+00
7.500000000000000e-01 5.000000000000000e-01 2.500000000000000e-01
5.000000000000000e-01 7.500000000000000e-01 2.500000000000000e-01
7.500000000000000e-01 7.500000000000000e-01 5.000000000000000e-01
1.000000000000000e+00 7.500000000000000e-01 2.500000000000000e-01
7.500000000000000e-01 7.500000000000000e-01 0.000000000000000e+00
7.500000000000000e-01 1.000000000000000e+00 2.500000000000000e-01
1.000000000000000e+00 5.000000000000000e-01 5.000000000000000e-01
5.000000000000000e-01 1.000000000000000e+00 5.000000000000000e-01
5.000000000000000e-01 5.000000000000000e-01 1.000000000000000e+00
1.000000000000000e+00 1.000000000000000e+00 1.000000000000000e+00
7.500000000000000e-01 7.500000000000000e-01 5.000000000000000e-01
5.000000000000000e-01 7.500000000000000e-01 7.500000000000000e-01
7.500000000000000e-01 5.000000000000000e-01 7.500000000000000e-01
1.000000000000000e+00 7.500000000000000e-01 7.500000000000000e-01
7.500000000000000e-01 1.000000000000000e+00 7.500000000000000e-01
7.500000000000000e-01 7.500000000000000e-01 1.000000000000000e+00
0.000000000000000e+00 5.000000000000000e-01 5.000000000000000e-01
5.000000000000000e-01 5.000000000000000e-01 1.000000000000000e+00
5.000000000000000e-01 0.000000000000000e+00 5.000000000000000e-01
5.000000000000000e-01 5.000000000000000e-01 5.000000000000000e-01
2.500000000000000e-01 5.000000000000000e-01 7.500000000000000e-01
5.000000000000000e-01 2.500000000000000e-01 7.500000000000000e-01
2.500000000000000e-01 2.500000000000000e-01 5.000000000000000e-01
2.500000000000000e-01 5.000000000000000e-01 5.000000000000000e-01
5.000000000000000e-01 5.000000000000000e-01 7.500000000000000e-01
5.000000000000000e-01 2.500000000000000e-01 5.000000000000000e-01
0.000000000000000e+00 5.000000000000000e-01 5.000000000000000e-01
5.000000000000000e-01 0.000000000000000e+00 5.000000000000000e-01
5.000000000000000e-01 5.000000000000000e-01 0.000000000000000e+00
5.000000000000000e-01 5.000000000000000e-01 5.000000000000000e-01
2.500000000000000e-01 2.500000000000000e-01 5.000000000000000e-01
5.000000000000000e-01 2.500000000000000e-01 2.500000000000000e-01
2.500000000000000e-01 5.000000000000000e-01 2.500000000000000e-01
2.500000000000000e-01 5.000000000000000e-01 5.000000000000000e-01
5.000000000000000e-01 2.500000000000000e-01 5.000000000000000e-01
5.000000000000000e-01 5.000000000000000e-01 2.500000000000000e-01
0.000000000000000e+00 5.000000000000000e-01 5.000000000000000e-01
5.000000000000000e-01 5.000000000000000e-01 0.000000000000000e+00
5.000000000000000e-01 1.000000000000000e+00 5.000000000000000e-01
5.000000000000000e-01 5.000000000000000e-01 5.000000000000000e-01
2.500000000000000e-01 5.000000000000000e-01 2.500000000000000e-01
5.000000000000000e-01 7.500000000000000e-01 2.500000000000000e-01
2.500000000000000e-01 7.500000000000000e-01 5.000000000000000e-01
2.500000000000000e-01 5.000000000000000e-01 5.000000000000000e-01
5.000000000000000e-01 5.000000000000000e-01 2.500000000000000e-01
5.000000000000000e-01 7.500000000000000e-01 5.000000000000000e-01
0.000000000000000e+00 5.000000000000000e-01 5.000000000000000e-01
5.000000000000000e-01 1.000000000000000e+00 5.000000000000000e-01
5.000000000000000e-01 5.000000000000000e-01 1.000000000000000e+00
5.000000000000000e-01 5.000000000000000e-01 5.000000000000000e-01
2.500000000000000e-01 7.500000000000000e-01 5.000000000000000e-01
5.000000000000000e-01 7.500000000000000e-01 7.500000000000000e-01
2.500000000000000e-01 5.000000000000000e-01 7.500000000000000e-01
2.500000000000000e-01 5.000000000000000e-01 5.000000000000000e-01
5.000000000000000e-01 7.500000000000000e-01 5.000000000000000e-01
5.000000000000000e-01 5.000000000000000e-01 7.500000000000000e-01
1.000000000000000e+00 5.000000000000000e-01 5.000000000000000e-01
5.000000000000000e-01 0.000000000000000e+00 5.000000000000000e-01
5.000000000000000e-01 5.000000000000000e-01 1.000000000000000e+00
5.000000000000000e-01 5.000000000000000e-01 5.000000000000000e-01
7.500000000000000e-01 2.500000000000000e-01 5.000000000000000e-01
5.000000000000000e-01 2.500000000000000e-01 7.500000000000000e-01
7.500000000000000e-01 5.000000000000000e-01 7.500000000000000e-01
7.500000000000000e-01 5.000000000000000e-01 5.000000000000000e-01
5.000000000000000e-01 2.500000000000000e-01 5.000000000000000e-01
5.000000000000000e-01 5.000000000000000e-01 7.500000000000000e-01
1.000000000000000e+00 5.000000000000000e-01 5.000000000000000e-01
5.000000000000000e-01 5.000000000000000e-01 0.000000000000000e+00
5.000000000000000e-01 0.000000000000000e+00 5.000000000000000e-01
5.000000000000000e-01 5.000000000000000e-01 5.000000000000000e-01
7.500000000000000e-01 5.000000000000000e-01 2.500000000000000e-01
5.000000000000000e-01 2.500000000000000e-01 2.500000000000000e-01
7.500000000000000e-01 2.500000000000000e-01 5.000000000000000e-01
7.500000000000000e-01 5.000000000000000e-01 5.000000000000000e-01
5.000000000000000e-01 5.000000000000000e-01 2.500000000000000e-01
5.000000000000000e-01 2.500000000000000e-01 5.000000000000000e-01
1.000000000000000e+00 5.000000000000000e-01 5.000000000000000e-01
5.000000000000000e-01 1.000000000000000e+00 5.000000000000000e-01
5.000000000000000e-01 5.000000000000000e-01 0.000000000000000e+00
5.000000000000000e-01 5.000000000000000e-01 5.000000000000000e-01
7.500000000000000e-01 7.500000000000000e-01 5.000000000000000e-01
5.000000000000000e-01 7.500000000000000e-01 2.500000000000000e-01
7.500000000000000e-01 5.000000000000000e-01 2.500000000000000e-01
7.500000000000000e-01 5.000000000000000e-01 5.000000000000000e-01
5.000000000000000e-01 7.500000000000000e-01 5.000000000000000e-01
5.000000000000000e-01 5.000000000000000e-01 2.500000000000000e-01
1.000000000000000e+00 5.000000000000000e-01 5.000000000000000e-01
5.000000000000000e-01 5.000000000000000e-01 1.000000000000000e+00
5.000000000000000e-01 1.000000000000000e+00 5.000000000000000e-01
5.000000000000000e-01 5.000000000000000e-01 5.000000000000000e-01
7.500000000000000e-01 5.000000000000000e-01 7.500000000000000e-01
5.000000000000000e-01 7.500000000000000e-01 7.500000000000000e-01
7.500000000000000e-01 7.500000000000000e-01 5.000000000000000e-01
7.500000000000000e-01 5.000000000000000e-01 5.000000000000000e-01
5.000000000000000e-01 5.000000000000000e-01 7.500000000000000e-01
5.000000000000000e-01 7.500000000000000e-01 5.000000000000000e-01
1.000000000000000e+00 0.000000000000000e+00 1.000000000000000e+00
1.000000000000000e+00 0.000000000000000e+00 0.000000000000000e+00
1.000000000000000e+00 5.000000000000000e-01 5.000000000000000e-01
1.500000000000000e+00 0.000000000000000e+00 5.000000000000000e-01
1.000000000000000e+00 0.000000000000000e+00 5.000000000000000e-01
1.000000000000000e+00 2.500000000000000e-01 2.500000000000000e-01
1.000000000000000e+00 2.500000000000000e-01 7.500000000000000e-01
1.250000000000000e+00 0.000000000000000e+00 7.500000000000000e-01
1.250000000000000e+00 0.000000000000000e+00 2.500000000000000e-01
1.250000000000000e+00 2.500000000000000e-01 5.000000000000000e-01
1.000000000000000e+00 0.000000000000000e+00 0.000000000000000e+00
1.000000000000000e+00 1.000000000000000e+00 0.000000000000000e+00
1.000000000000000e+00 5.000000000000000e-01 5.000000000000000e-01
1.500000000000000e+00 5.000000000000000e-01 0.000000000000000e+00
1.000000000000000e+00 5.000000000000000e-01 0.000000000000000e+00
1.000000000000000e+00 7.500000000000000e-01 2.500000000000000e-01
1.000000000000000e+00 2.500000000000000e-01 2.500000000000000e-01
1.250000000000000e+00 2.500000000000000e-01 0.000000000000000e+00
1.250000000000000e+00 7.500000000000000e-01 0.000000000000000e+00
1.250000000000000e+00 5.000000000000000e-01 2.500000000000000e-01
1.000000000000000e+00 1.000000000000000e+00 0.000000000000000e+00
1.000000000000000e+00 1.000000000000000e+00 1.000000000000000e+00
1.000000000000000e+00 5.000000000000000e-01 5.000000000000000e-01
1.500000000000000e+00 1.000000000000000e+00 5.000000000000000e-01
1.000000000000000e+00 1.000000000000000e+00 5.000000000000000e-01
1.000000000000000e+00 7.500000000000000e-01 7.500000000000000e-01
1.000000000000000e+00 7.500000000000000e-01 2.500000000000000e-01
1.250000000000000e+00 1.000000000000000e+00 2.500000000000000e-01
1.250000000000000e+00 1.000000000000000e+00 7.500000000000000e-01
1.250000000000000e+00 7.500000000000000e-01 5.000000000000000e-01
1.000000000000000e+00 1.000000000000000e+00 1.000000000000000e+00
1.000000000000000e+00 0.000000000000000e+00 1.000000000000000e+00
1.000000000000000e+00 5.000000000000000e-01 5.000000000000000e-01
1.500000000000000e+00 5.000000000000000e-01 1.000000000000000e+00
1.000000000000000e+00 5.000000000000000e-01 1.000000000000000e+00
1.000000000000000e+00 2.500000000000000e-01 7.500000000000000e-01
1.000000000000000e+00 7.500000000000000e-01 7.500000000000000e-01
1.250000000000000e+00 7.500000000000000e-01 1.000000000000000e+00
1.250000000000000e+00 2.500000000000000e-01 1.000000000000000e+00
1.250000000000000e+00 5.000000000000000e-01 7.500000000000000e-01
1.000000000000000e+00 0.000000000000000e+00 1.000000000000000e+00
2.000000000000000e+00 0.000000000000000e+00 1.000000000000000e+00
1.500000000000000e+00 0.000000000000000e+00 5.000000000000000e-01
1.500000000000000e+00 5.000000000000000e-01 1.000000000000000e+00
1.500000000000000e+00 0.000000000000000e+00 1.000000000000000e+00
1.750000000000000e+00 0.000000000000000e+00 7.500000000000000e-01
1.250000000000000e+00 0.000000000000000e+00 7.500000000000000e-01
1.250000000000000e+00 2.500000000000000e-01 1.000000000000000e+00
1.750000000000000e+00 2.500000000000000e-01 1.000000000000000e+00
1.500000000000000e+00 2.500000000000000e-01 7.500000000000000e-01
1.000000000000000e+00 0.000000000000000e+00 0.000000000000000e+00
2.000000000000000e+00 0.000000000000000e+00 0.000000000000000e+00
1.500000000000000e+00 5.000000000000000e-01 0.000000000000000e+00
1.500000000000000e+00 0.000000000000000e+00 5.000000000000000e-01
1.500000000000000e+00 0.000000000000000e+00 0.000000000000000e+00
1.750000000000000e+00 2.500000000000000e-01 0.000000000000000e+00
1.250000000000000e+00 2.500000000000000e-01 0.000000000000000e+00
1.250000000000000e+00 0.000000000000000e+00 2.500000000000000e-01
1.750000000000000e+00 0.000000000000000e+00 2.500000000000000e-01
1.500000000000000e+00 2.500000000000000e-01 2.500000000000000e-01
1.000000000000000e+00 1.000000000000000e+00 0.000000000000000e+00
2.000000000000000e+00 1.000000000000000e+00 0.000000000000000e+00
1.500000000000000e+00 1.000000000000000e+00 5.000000000000000e-01
1.500000000000000e+00 5.000000000000000e-01 0.000000000000000e+00
1.500000000000000e+00 1.000000000000000e+00 0.000000000000000e+00
1.750000000000000e+00 1.000000000000000e+00 2.500000000000000e-01
1.250000000000000e+00 1.000000000000000e+00 2.500000000000000e-01
1.250000000000000e+00 7.500000000000000e-01 0.000000000000000e+00
1.750000000000000e+00 7.500000000000000e-01 0.000000000000000e+00
1.500000000000000e+00 7.500000000000000e-01 2.500000000000000e-01
1.000000000000000e+00 1.000000000000000e+00 1.000000000000000e+00
2.000000000000000e+00 1.000000000000000e+00 1.000000000000000e+00
1.500000000000000e+00 5.000000000000000e-01 1.000000000000000e+00
1.500000000000000e+00 1.000000000000000e+00 5.000000000000000e-01
1.500000000000000e+00 1.000000000000000e+00 1.000000000000000e+00
1.750000000000000e+00 7.500000000000000e-01 1.000000000000000e+00
1.250000000000000e+00 7.500000000000000e-01 1.000000000000000e+00
1.250000000000000e+00 1.000000000000000e+00 7.500000000000000e-01
1.750000000000000e+00 1.000000000000000e+00 7.500000000000000e-01
1.500000000000000e+00 7.500000000000000e-01 7.500000000000000e-01
2.000000000000000e+00 0.000000000000000e+00 1.000000000000000e+00
2.000000000000000e+00 0.000000000000000e+00 0.000000000000000e+00
1.500000000000000e+00 0.000000000000000e+00 5.000000000000000e-01
2.000000000000000e+00 5.000000000000000e-01 5.000000000000000e-01
2.000000000000000e+00 0.000000000000000e+00 5.000000000000000e-01
1.750000000000000e+00 0.000000000000000e+00 2.500000000000000e-01
1.750000000000000e+00 0.000000000000000e+00 7.500000000000000e-01
2.000000000000000e+00 2.500000000000000e-01 7.500000000000000e-01
2.000000000000000e+00 2.500000000000000e-01 2.500000000000000e-01
1.750000000000000e+00 2.500000000000000e-01 5.000000000000000e-01
2.000000000000000e+00 0.000000000000000e+00 0.000000000000000e+00
2.000000000000000e+00 1.000000000000000e+00 0.000000000000000e+00
1.500000000000000e+00 5.000000000000000e-01 0.000000000000000e+00
2.000000000000000e+00 5.000000000000000e-01 5.000000000000000e-01
2.000000000000000e+00 5.000000000000000e-01 0.000000000000000e+00
1.750000000000000e+00 7.500000000000000e-01 0.000000000000000e+00
1.750000000000000e+00 2.500000000000000e-01 0.000000000000000e+00
2.000000000000000e+00 2.500000000000000e-01 2.500000000000000e-01
2.000000000000000e+00 7.500000000000000e-01 2.500000000000000e-01
1.750000000000000e+00 5.000000000000000e-01 2.500000000000000e-01
2.000000000000000e+00 1.000000000000000e+00 0.000000000000000e+00
2.000000000000000e+00 1.000000000000000e+00 1.000000000000000e+00
1.500000000000000e+00 1.000000000000000e+00 5.000000000000000e-01
2.000000000000000e+00 5.000000000000000e-01 5.000000000000000e-01
2.000000000000000e+00 1.000000000000000e+00 5.000000000000000e-01
1.750000000000000e+00 1.000000000000000e+00 7.500000000000000e-01
1.750000000000000e+00 1.000000000000000e+00 2.500000000000000e-01
2.000000000000000e+00 7.500000000000000e-01 2.500000000000000e-01
2.000000000000000e+00 7.500000000000000e-01 7.500000000000000e-01
1.750000000000000e+00 7.500000000000000e-01 5.000000000000000e-01
2.000000000000000e+00 1.000000000000000e+00 1.000000000000000e+00
2.000000000000000e+00 0.000000000000000e+00 1.000000000000000e+00
1.500000000000000e+00 5.000000000000000e-01 1.000000000000000e+00
2.000000000000000e+00 5.000000000000000e-01 5.000000000000000e-01
2.000000000000000e+00 5.000000000000000e-01 1.000000000000000e+00
1.750000000000000e+00 2.500000000000000e-01 1.000000000000000e+00
1.750000000000000e+00 7.500000000000000e-01 1.000000000000000e+00
2.000000000000000e+00 7.500000000000000e-01 7.500000000000000e-01
2.000000000000000e+00 2.500000000000000e-01 7.500000000000000e-01
1.750000000000000e+00 5.000000000000000e-01 7.500000000000000e-01
1.000000000000000e+00 5.000000000000000e-01 5.000000000000000e-01
1.500000000000000e+00 0.000000000000000e+00 5.000000000000000e-01
1.500000000000000e+00 5.000000000000000e-01 1.000000000000000e+00
1.000000000000000e+00 0.000000000000000e+00 1.000000000000000e+00
1.250000000000000e+00 2.500000000000000e-01 5.000000000000000e-01
1.500000000000000e+00 2.500000000000000e-01 7.500000000000000e-01
1.250000000000000e+00 5.000000000000000e-01 7.500000000000000e-01
1.000000000000000e+00 2.500000000000000e-01 7.500000000000000e-01
1.250000000000000e+00 0.000000000000000e+00 7.500000000000000e-01
1.250000000000000e+00 2.500000000000000e-01 1.000000000000000e+00
1.000000000000000e+00 5.000000000000000e-01 5.000000000000000e-01
1.500000000000000e+00 5.000000000000000e-01 0.000000000000000e+00
1.500000000000000e+00 0.000000000000000e+00 5.000000000000000e-01
1.000000000000000e+00 0.000000000000000e+00 0.000000000000000e+00
1.250000000000000e+00 5.000000000000000e-01 2.500000000000000e-01
1.500000000000000e+00 2.500000000000000e-01 2.500000000000000e-01
1.250000000000000e+00 2.500000000000000e-01 5.000000000000000e-01
1.000000000000000e+00 2.500000000000000e-01 2.500000000000000e-01
1.250000000000000e+00 2.500000000000000e-01 0.000000000000000e+00
1.250000000000000e+00 0.000000000000000e+00 2.500000000000000e-01
1.000000000000000e+00 5.000000000000000e-01 5.000000000000000e-01
1.500000000000000e+00 1.000000000000000e+00 5.000000000000000e-01
1.500000000000000e+00 5.000000000000000e-01 0.000000000000000e+00
1.000000000000000e+00 1.000000000000000e+00 0.000000000000000e+00
1.250000000000000e+00 7.500000000000000e-01 5.000000000000000e-01
1.500000000000000e+00 7.500000000000000e-01 2.500000000000000e-01
1.250000000000000e+00 5.000000000000000e-01 2.500000000000000e-01
1.000000000000000e+00 7.500000000000000e-01 2.500000000000000e-01
1.250000000000000e+00 1.000000000000000e+00 2.500000000000000e-01
1.250000000000000e+00 7.500000000000000e-01 0.000000000000000e+00
1.000000000000000e+00 5.000000000000000e-01 5.000000000000000e-01
1.500000000000000e+00 5.000000000000000e-01 1.000000000000000e+00
1.500000000000000e+00 1.000000000000000e+00 5.000000000000000e-01
1.000000000000000e+00 1.000000000000000e+00 1.000000000000000e+00
1.250000000000000e+00 5.000000000000000e-01 7.500000000000000e-01
1.500000000000000e+00 7.500000000000000e-01 7.500000000000000e-01
1.250000000000000e+00 7.500000000000000e-01 5.000000000000000e-01
1.000000000000000e+00 7.500000000000000e-01 7.500000000000000e-01
1.250000000000000e+00 7.500000000000000e-01 1.000000000000000e+00
1.250000000000000e+00 1.000000000000000e+00 7.500000000000000e-01
2.000000000000000e+00 5.000000000000000e-01 5.000000000000000e-01
1.500000000000000e+00 5.000000000000000e-01 1.000000000000000e+00
1.500000000000000e+00 0.000000000000000e+00 5.000000000000000e-01
2.000000000000000e+00 0.000000000000000e+00 1.000000000000000e+00
1.750000000000000e+00 5.000000000000000e-01 7.500000000000000e-01
1.500000000000000e+00 2.500000000000000e-01 7.500000000000000e-01
1.750000000000000e+00 2.500000000000000e-01 5.000000000000000e-01
2.000000000000000e+00 2.500000000000000e-01 7.500000000000000e-01
1.750000000000000e+00 2.500000000000000e-01 1.000000000000000e+00
1.750000000000000e+00 0.000000000000000e+00 7.500000000000000e-01
2.000000000000000e+00 5.000000000000000e-01 5.000000000000000e-01
1.500000000000000e+00 0.000000000000000e+00 5.000000000000000e-01
1.500000000000000e+00 5.000000000000000e-01 0.000000000000000e+00
2.000000000000000e+00 0.000000000000000e+00 0.000000000000000e+00
1.750000000000000e+00 2.500000000000000e-01 5.000000000000000e-01
1.500000000000000e+00 2.500000000000000e-01 2.500000000000000e-01
1.750000000000000e+00 5.000000000000000e-01 2.500000000000000e-01
2.000000000000000e+00 2.500000000000000e-01 2.500000000000000e-01
1.750000000000000e+00 0.000000000000000e+00 2.500000000000000e-01
1.750000000000000e+00 2.500000000000000e-01 0.000000000000000e+00
2.000000000000000e+00 5.000000000000000e-01 5.000000000000000e-01
1.500000000000000e+00 5.000000000000000e-01 0.000000000000000e+00
1.500000000000000e+00 1.000000000000000e+00 5.000000000000000e-01
2.000000000000000e+00 1.000000000000000e+00 0.000000000000000e+00
1.750000000000000e+00 5.000000000000000e-01 2.500000000000000e-01
1.500000000000000e+00 7.500000000000000e-01 2.500000000000000e-01
1.750000000000000e+00 7.500000000000000e-01 5.000000000000000e-01
2.000000000000000e+00 7.500000000000000e-01 2.500000000000000e-01
1.750000000000000e+00 7.500000000000000e-01 0.000000000000000e+00
1.750000000000000e+00 1.000000000000000e+00 2.500000000000000e-01
2.000000000000000e+00 5.000000000000000e-01 5.000000000000000e-01
1.500000000000000e+00 1.000000000000000e+00 5.000000000000000e-01
1.500000000000000e+00 5.000000000000000e-01 1.000000000000000e+00
2.000000000000000e+00 1.000000000000000e+00 1.000000000000000e+00
1.750000000000000e+00 7.500000000000000e-01 5.000000000000000e-01
1.500000000000000e+00 7.500000000000000e-01 7.500000000000000e-01
1.750000000000000e+00 5.000000000000000e-01 7.500000000000000e-01
2.000000000000000e+00 7.500000000000000e-01 7.500000000000000e-01
1.750000000000000e+00 1.000000000000000e+00 7.500000000000000e-01
1.750000000000000e+00 7.500000000000000e-01 1.000000000000000e+00
1.000000000000000e+00 5.000000000000000e-01 5.000000000000000e-01
1.500000000000000e+00 5.000000000000000e-01 1.000000000000000e+00
1.500000000000000e+00 0.000000000000000e+00 5.000000000000000e-01
1.500000000000000e+00 5.000000000000000e-01 5.000000000000000e-01
1.250000000000000e+00 5.000000000000000e-01 7.500000000000000e-01
1.500000000000000e+00 2.500000000000000e-01 7.500000000000000e-01
1.250000000000000e+00 2.500000000000000e-01 5.000000000000000e-01
1.250000000000000e+00 5.000000000000000e-01 5.000000000000000e-01
1.500000000000000e+00 5.000000000000000e-01 7.500000000000000e-01
1.500000000000000e+00 2.500000000000000e-01 5.000000000000000e-01
1.000000000000000e+00 5.000000000000000e-01 5.000000000000000e-01
1.500000000000000e+00 0.000000000000000e+00 5.000000000000000e-01
1.500000000000000e+00 5.000000000000000e-01 0.000000000000000e+00
1.500000000000000e+00 5.000000000000000e-01 5.000000000000000e-01
1.250000000000000e+00 2.500000000000000e-01 5.000000000000000e-01
1.500000000000000e+00 2.500000000000000e-01 2.500000000000000e-01
1.250000000000000e+00 5.000000000000000e-01 2.500000000000000e-01
1.250000000000000e+00 5.000000000000000e-01 5.000000000000000e-01
1.500000000000000e+00 2.500000000000000e-01 5.000000000000000e-01
1.500000000000000e+00 5.000000000000000e-01 2.500000000000000e-01
1.000000000000000e+00 5.000000000000000e-01 5.000000000000000e-01
1.500000000000000e+00 5.000000000000000e-01 0.000000000000000e+00
1.500000000000000e+00 1.000000000000000e+00 5.000000000000000e-01
1.500000000000000e+00 5.000000000000000e-01 5.000000000000000e-01
1.250000000000000e+00 5.000000000000000e-01 2.500000000000000e-01
1.500000000000000e+00 7.500000000000000e-01 2.500000000000000e-01
1.250000000000000e+00 7.500000000000000e-01 5.000000000000000e-01
1.250000000000000e+00 5.000000000000000e-01 5.000000000000000e-01
1.500000000000000e+00 5.000000000000000e-01 2.500000000000000e-01
1.500000000000000e+00 7.500000000000000e-01 5.000000000000000e-01
1.000000000000000e+00 5.000000000000000e-01 5.000000000000000e-01
1.500000000000000e+00 1.000000000000000e+00 5.000000000000000e-01
1.500000000000000e+00 5.000000000000000e-01 1.000000000000000e+00
1.500000000000000e+00 5.000000000000000e-01 5.000000000000000e-01
1.250000000000000e+00 7.500000000000000e-01 5.000000000000000e-01
1.500000000000000e+00 7.500000000000000e-01 7.500000000000000e-01
1.250000000000000e+00 5.000000000000000e-01 7.500000000000000e-01
1.250000000000000e+00 5.000000000000000e-01 5.000000000000000e-01
1.500000000000000e+00 7.500000000000000e-01 5.000000000000000e-01
1.500000000000000e+00 5.000000000000000e-01 7.500000000000000e-01
2.000000000000000e+00 5.000000000000000e-01 5.000000000000000e-01
1.500000000000000e+00 0.000000000000000e+00 5.000000000000000e-01
1.500000000000000e+00 5.000000000000000e-01 1.000000000000000e+00
1.500000000000000e+00 5.000000000000000e-01 5.000000000000000e-01
1.750000000000000e+00 2.500000000000000e-01 5.000000000000000e-01
1.500000000000000e+00 2.500000000000000e-01 7.500000000000000e-01
1.750000000000000e+00 5.000000000000000e-01 7.500000000000000e-01
1.750000000000000e+00 5.000000000000000e-01 5.000000000000000e-01
1.500000000000000e+00 2.500000000000000e-01 5.000000000000000e-01
1.500000000000000e+00 5.000000000000000e-01 7.500000000000000e-01
2.000000000000000e+00 5.000000000000000e-01 5.000000000000000e-01
1.500000000000000e+00 5.000000000000000e-01 0.000000000000000e+00
1.500000000000000e+00 0.000000000000000e+00 5.000000000000000e-01
1.500000000000000e+00 5.000000000000000e-01 5.000000000000000e-01
1.750000000000000e+00 5.000000000000000e-01 2.500000000000000e-01
1.500000000000000e+00 2.500000000000000e-01 2.500000000000000e-01
1.750000000000000e+00 2.500000000000000e-01 5.000000000000000e-01
1.750000000000000e+00 5.000000000000000e-01 5.000000000000000e-01
1.500000000000000e+00 5.000000000000000e-01 2.500000000000000e-01
1.500000000000000e+00 2.500000000000000e-01 5.000000000000000e-01
2.000000000000000e+00 5.000000000000000e-01 5.000000000000000e-01
1.500000000000000e+00 1.000000000000000e+00 5.000000000000000e-01
1.500000000000000e+00 5.000000000000000e-01 0.000000000000000e+00
1.500000000000000e+00 5.000000000000000e-01 5.000000000000000e-01
1.750000000000000e+00 7.500000000000000e-01 5.000000000000000e-01
1.500000000000000e+00 7.500000000000000e-01 2.500000000000000e-01
1.750000000000000e+00 5.000000000000000e-01 2.500000000000000e-01
1.750000000000000e+00 5.000000000000000e-01 5.000000000000000e-01
1.500000000000000e+00 7.500000000000000e-01 5.000000000000000e-01
1.500000000000000e+00 5.000000000000000e-01 2.500000000000000e-01
2.000000000000000e+00 5.000000000000000e-01 5.000000000000000e-01
1.500000000000000e+00 5.000000000000000e-01 1.000000000000000e+00
1.500000000000000e+00 1.000000000000000e+00 5.000000000000000e-01
1.500000000000000e+00 5.000000000000000e-01 5.000000000000000e-01
1.750000000000000e+00 5.000000000000000e-01 7.500000000000000e-01
1.500000000000000e+00 7.500000000000000e-01 7.500000000000000e-01
1.750000000000000e+00 7.500000000000000e-01 5.000000000000000e-01
1.750000000000000e+00 5.000000000000000e-01 5.000000000000000e-01
1.500000000000000e+00 5.000000000000000e-01 7.500000000000000e-01
1.500000000000000e+00 7.500000000000000e-01 5.000000000000000e-01
        </DataArray>
      </Points>

      <Cells>
        <DataArray type="Int32" Name="connectivity" format="ascii">
0 1 2 3 4 5 6 7 8 9 10 11 12 13 14 15 16 17 18 19 20 21 22 23 24 25 26 27 28 29 30 31 32 33 34 35 36 37 38 39 40 41 42 43 44 45 46 47 48 49 50 51 52 53 54 55 56 57 58 59 60 61 62 63 64 65 66 67 68 69 70 71 72 73 74 75 76 77 78 79 80 81 82 83 84 85 86 87 88 89 90 91 92 93 94 95 96 97 98 99 100 101 102 103 104 105 106 107 108 109 110 111 112 113 114 115 116 117 118 119 120 121 122 123 124 125 126 127 128 129 130 131 132 133 134 135 136 137 138 139 140 141 142 143 144 145 146 147 148 149 150 151 152 153 154 155 156 157 158 159 160 161 162 163 164 165 166 167 168 169 170 171 172 173 174 175 176 177 178 179 180 181 182 183 184 185 186 187 188 189 190 191 192 193 194 195 196 197 198 199 200 201 202 203 204 205 206 207 208 209 210 211 212 213 214 215 216 217 218 219 220 221 222 223 224 225 226 227 228 229 230 231 232 233 234 235 236 237 238 239 240 241 242 243 244 245 246 247 248 249 250 251 252 253 254 255 256 257 258 259 260 261 262 263 264 265 266 267 268 269 270 271 272 273 274 275 276 277 278 279 280 281 282 283 284 285 286 287 288 289 290 291 292 293 294 295 296 297 298 299 300 301 302 303 304 305 306 307 308 309 310 311 312 313 314 315 316 317 318 319 320 321 322 323 324 325 326 327 328 329 330 331 332 333 334 335 336 337 338 339 340 341 342 343 344 345 346 347 348 349 350 351 352 353 354 355 356 357 358 359 360 361 362 363 364 365 366 367 368 369 370 371 372 373 374 375 376 377 378 379 380 381 382 383 384 385 386 387 388 389 390 391 392 393 394 395 396 397 398 399 400 401 402 403 404 405 406 407 408 409 410 411 412 413 414 415 416 417 418 419 420 421 422 423 424 425 426 427 428 429 430 431 432 433 434 435 436 437 438 439 440 441 442 443 444 445 446 447 448 449 450 451 452 453 454 455 456 457 458 459 460 461 462 463 464 465 466 467 468 469 470 471 472 473 474 475 476 477 478 479 480 481 482 483 484 485 486 487 488 489 490 491 492 493 494 495 496 497 498 499 500 501 502 503 504 505 506 507 508 509 510 511 512 513 514 515 516 517 518 519 520 521 522 523 524 525 526 527 528 529 530 531 532 533 534 535 536 537 538 539 540 541 542 543 544 545 546 547 548 549 550 551 552 553 554 555 556 557 558 559 
        </DataArray>
        <DataArray type="Int32" Name="offsets" format="ascii">
10 20 30 40 50 60 70 80 90 100 110 120 130 140 150 160 170 180 190 200 210 220 230 240 250 260 270 280 290 300 310 320 330 340 350 360 370 380 390 400 410 420 430 440 450 460 470 480 490 500 510 520 530 540 550 560 
        </DataArray>
        <DataArray type="UInt8" Name="types" format="ascii">
24 24 24 24 24 24 24 24 24 24 24 24 24 24 24 24 24 24 24 24 24 24 24 24 24 24 24 24 24 24 24 24 24 24 24 24 24 24 24 24 24 24 24 24 24 24 24 24 24 24 24 24 24 24 24 24 
        </DataArray>
      </Cells>

  <PointData>
        <DataArray type="Float64" Name="displacement" NumberOfComponents="3" format="ascii">
0.000000000000000e+00 0.000000000000000e+00 0.000000000000000e+00
0.000000000000000e+00 0.000000000000000e+00 0.000000000000000e+00
0.000000000000000e+00 0.000000000000000e+00 0.000000000000000e+00
0.000000000000000e+00 0.000000000000000e+00 0.000000000000000e+00
0.000000000000000e+00 0.000000000000000e+00 0.000000000000000e+00
0.000000000000000e+00 0.000000000000000e+00 0.000000000000000e+00
0.000000000000000e+00 0.000000000000000e+00 0.000000000000000e+00
0.000000000000000e+00 0.000000000000000e+00 0.000000000000000e+00
0.000000000000000e+00 0.000000000000000e+00 0.000000000000000e+00
0.000000000000000e+00 0.000000000000000e+00 0.000000000000000e+00
0.000000000000000e+00 0.000000000000000e+00 0.000000000000000e+00
0.000000000000000e+00 0.000000000000000e+00 0.000000000000000e+00
0.000000000000000e+00 0.000000000000000e+00 0.000000000000000e+00
0.000000000000000e+00 0.000000000000000e+00 0.000000000000000e+00
0.000000000000000e+00 0.000000000000000e+00 0.000000000000000e+00
0.000000000000000e+00 0.000000000000000e+00 0.000000000000000e+00
0.000000000000000e+00 0.000000000000000e+00 0.000000000000000e+00
0.000000000000000e+00 0.000000000000000e+00 0.000000000000000e+00
0.000000000000000e+00 0.000000000000000e+00 0.000000000000000e+00
0.000000000000000e+00 0.000000000000000e+00 0.000000000000000e+00
0.000000000000000e+00 0.000000000000000e+00 0.000000000000000e+00
0.000000000000000e+00 0.000000000000000e+00 0.000000000000000e+00
0.000000000000000e+00 0.000000000000000e+00 0.000000000000000e+00
0.000000000000000e+00 0.000000000000000e+00 0.000000000000000e+00
0.000000000000000e+00 0.000000000000000e+00 0.000000000000000e+00
0.000000000000000e+00 0.000000000000000e+00 0.000000000000000e+00
0.000000000000000e+00 0.000000000000000e+00 0.000000000000000e+00
0.000000000000000e+00 0.000000000000000e+00 0.000000000000000e+00
0.000000000000000e+00 0.000000000000000e+00 0.000000000000000e+00
0.000000000000000e+00 0.000000000000000e+00 0.000000000000000e+00
0.000000000000000e+00 0.000000000000000e+00 0.000000000000000e+00
0.000000000000000e+00 0.000000000000000e+00 0.000000000000000e+00
0.000000000000000e+00 0.000000000000000e+00 0.000000000000000e+00
0.000000000000000e+00 0.000000000000000e+00 0.000000000000000e+00
0.000000000000000e+00 0.000000000000000e+00 0.000000000000000e+00
0.000000000000000e+00 0.000000000000000e+00 0.000000000000000e+00
0.000000000000000e+00 0.000000000000000e+00 0.000000000000000e+00
0.000000000000000e+00 0.000000000000000e+00 0.000000000000000e+00
0.000000000000000e+00 0.000000000000000e+00 0.000000000000000e+00
0.000000000000000e+00 0.000000000000000e+00 0.000000000000000e+00
0.000000000000000e+00 0.000000000000000e+00 0.000000000000000e+00
0.000000000000000e+00 0.000000000000000e+00 0.000000000000000e+00
0.000000000000000e+00 0.000000000000000e+00 0.000000000000000e+00
0.000000000000000e+00 0.000000000000000e+00 0.000000000000000e+00
0.000000000000000e+00 0.000000000000000e+00 0.000000000000000e+00
0.000000000000000e+00 0.000000000000000e+00 0.000000000000000e+00
0.000000000000000e+00 0.000000000000000e+00 0.000000000000000e+00
0.000000000000000e+00 0.000000000000000e+00 0.000000000000000e+00
0.000000000000000e+00 0.000000000000000e+00 0.000000000000000e+00
0.000000000000000e+00 0.000000000000000e+00 0.000000000000000e+00
0.000000000000000e+00 0.000000000000000e+00 0.000000000000000e+00
0.000000000000000e+00 0.000000000000000e+00 0.000000000000000e+00
0.000000000000000e+00 0.000000000000000e+00 0.000000000000000e+00
0.000000000000000e+00 0.000000000000000e+00 0.000000000000000e+00
0.000000000000000e+00 0.000000000000000e+00 0.000000000000000e+00
0.000000000000000e+00 0.000000000000000e+00 0.000000000000000e+00
0.000000000000000e+00 0.000000000000000e+00 0.000000000000000e+00
0.000000000000000e+00 0.000000000000000e+00 0.000000000000000e+00
0.000000000000000e+00 0.000000000000000e+00 0.000000000000000e+00
0.000000000000000e+00 0.000000000000000e+00 0.000000000000000e+00
0.000000000000000e+00 0.000000000000000e+00 0.000000000000000e+00
0.000000000000000e+00 0.000000000000000e+00 0.000000000000000e+00
0.000000000000000e+00 0.000000000000000e+00 0.000000000000000e+00
0.000000000000000e+00 0.000000000000000e+00 0.000000000000000e+00
0.000000000000000e+00 0.000000000000000e+00 0.000000000000000e+00
0.000000000000000e+00 0.000000000000000e+00 0.000000000000000e+00
0.000000000000000e+00 0.000000000000000e+00 0.000000000000000e+00
0.000000000000000e+00 0.000000000000000e+00 0.000000000000000e+00
0.000000000000000e+00 0.000000000000000e+00 0.000000000000000e+00
0.000000000000000e+00 0.000000000000000e+00 0.000000000000000e+00
0.000000000000000e+00 0.000000000000000e+00 0.000000000000000e+00
0.000000000000000e+00 0.000000000000000e+00 0.000000000000000e+00
0.000000000000000e+00 0.000000000000000e+00 0.000000000000000e+00
0.000000000000000e+00 0.000000000000000e+00 0.000000000000000e+00
0.000000000000000e+00 0.000000000000000e+00 0.000000000000000e+00
0.000000000000000e+00 0.000000000000000e+00 0.000000000000000e+00
0.000000000000000e+00 0.000000000000000e+00 0.000000000000000e+00
0.000000000000000e+00 0.000000000000000e+00 0.000000000000000e+00
0.000000000000000e+00 0.000000000000000e+00 0.000000000000000e+00
0.000000000000000e+00 0.000000000000000e+00 0.000000000000000e+00
0.000000000000000e+00 0.000000000000000e+00 0.000000000000000e+00
0.000000000000000e+00 0.000000000000000e+00 0.000000000000000e+00
0.000000000000000e+00 0.000000000000000e+00 0.000000000000000e+00
0.000000000000000e+00 0.000000000000000e+00 0.000000000000000e+00
0.000000000000000e+00 0.000000000000000e+00 0.000000000000000e+00
0.000000000000000e+00 0.000000000000000e+00 0.000000000000000e+00
0.000000000000000e+00 0.000000000000000e+00 0.000000000000000e+00
0.000000000000000e+00 0.000000000000000e+00 0.000000000000000e+00
0.000000000000000e+00 0.000000000000000e+00 0.000000000000000e+00
0.000000000000000e+00 0.000000000000000e+00 0.000000000000000e+00
0.000000000000000e+00 0.000000000000000e+00 0.000000000000000e+00
0.000000000000000e+00 0.000000000000000e+00 0.000000000000000e+00
0.000000000000000e+00 0.000000000000000e+00 0.000000000000000e+00
0.000000000000000e+00 0.000000000000000e+00 0.000000000000000e+00
0.000000000000000e+00 0.000000000000000e+00 0.000000000000000e+00
0.000000000000000e+00 0.000000000000000e+00 0.000000000000000e+00
0.000000000000000e+00 0.000000000000000e+00 0.000000000000000e+00
0.000000000000000e+00 0.000000000000000e+00 0.000000000000000e+00
0.000000000000000e+00 0.000000000000000e+00 0.000000000000000e+00
0.000000000000000e+00 0.000000000000000e+00 0.000000000000000e+00
0.000000000000000e+00 0.000000000000000e+00 0.000000000000000e+00
0.000000000000000e+00 0.000000000000000e+00 0.000000000000000e+00
0.000000000000000e+00 0.000000000000000e+00 0.000000000000000e+00
0.000000000000000e+00 0.000000000000000e+00 0.000000000000000e+00
0.000000000000000e+00 0.000000000000000e+00 0.000000000000000e+00
0.000000000000000e+00 0.000000000000000e+00 0.000000000000000e+00
0.000000000000000e+00 0.000000000000000e+00 0.000000000000000e+00
0.000000000000000e+00 0.000000000000000e+00 0.000000000000000e+00
0.000000000000000e+00 0.000000000000000e+00 0.000000000000000e+00
0.000000000000000e+00 0.000000000000000e+00 0.000000000000000e+00
0.000000000000000e+00 0.000000000000000e+00 0.000000000000000e+00
0.000000000000000e+00 0.000000000000000e+00 0.000000000000000e+00
0.000000000000000e+00 0.000000000000000e+00 0.000000000000000e+00
0.000000000000000e+00 0.000000000000000e+00 0.000000000000000e+00
0.000000000000000e+00 0.000000000000000e+00 0.000000000000000e+00
0.000000000000000e+00 0.000000000000000e+00 0.000000000000000e+00
0.000000000000000e+00 0.000000000000000e+00 0.000000000000000e+00
0.000000000000000e+00 0.000000000000000e+00 0.000000000000000e+00
0.000000000000000e+00 0.000000000000000e+00 0.000000000000000e+00
0.000000000000000e+00 0.000000000000000e+00 0.000000000000000e+00
0.000000000000000e+00 0.000000000000000e+00 0.000000000000000e+00
0.000000000000000e+00 0.000000000000000e+00 0.000000000000000e+00
0.000000000000000e+00 0.000000000000000e+00 0.000000000000000e+00
0.000000000000000e+00 0.000000000000000e+00 0.000000000000000e+00
0.000000000000000e+00 0.000000000000000e+00 0.000000000000000e+00
0.000000000000000e+00 0.000000000000000e+00 0.000000000000000e+00
0.000000000000000e+00 0.000000000000000e+00 0.000000000000000e+00
0.000000000000000e+00 0.000000000000000e+00 0.000000000000000e+00
0.000000000000000e+00 0.000000000000000e+00 0.000000000000000e+00
0.000000000000000e+00 0.000000000000000e+00 0.000000000000000e+00
0.000000000000000e+00 0.000000000000000e+00 0.000000000000000e+00
0.000000000000000e+00 0.000000000000000e+00 0.000000000000000e+00
0.000000000000000e+00 0.000000000000000e+00 0.000000000000000e+00
0.000000000000000e+00 0.000000000000000e+00 0.000000000000000e+00
0.000000000000000e+00 0.000000000000000e+00 0.000000000000000e+00
0.000000000000000e+00 0.000000000000000e+00 0.000000000000000e+00
0.000000000000000e+00 0.000000000000000e+00 0.000000000000000e+00
0.000000000000000e+00 0.000000000000000e+00 0.000000000000000e+00
0.000000000000000e+00 0.000000000000000e+00 0.000000000000000e+00
0.000000000000000e+00 0.000000000000000e+00 0.000000000000000e+00
0.000000000000000e+00 0.000000000000000e+00 0.000000000000000e+00
0.000000000000000e+00 0.000000000000000e+00 0.000000000000000e+00
0.000000000000000e+00 0.000000000000000e+00 0.000000000000000e+00
0.000000000000000e+00 0.000000000000000e+00 0.000000000000000e+00
0.000000000000000e+00 0.000000000000000e+00 0.000000000000000e+00
0.000000000000000e+00 0.000000000000000e+00 0.000000000000000e+00
0.000000000000000e+00 0.000000000000000e+00 0.000000000000000e+00
0.000000000000000e+00 0.000000000000000e+00 0.000000000000000e+00
0.000000000000000e+00 0.000000000000000e+00 0.000000000000000e+00
0.000000000000000e+00 0.000000000000000e+00 0.000000000000000e+00
0.000000000000000e+00 0.000000000000000e+00 0.000000000000000e+00
0.000000000000000e+00 0.000000000000000e+00 0.000000000000000e+00
0.000000000000000e+00 0.000000000000000e+00 0.000000000000000e+00
0.000000000000000e+00 0.000000000000000e+00 0.000000000000000e+00
0.000000000000000e+00 0.000000000000000e+00 0.000000000000000e+00
0.000000000000000e+00 0.000000000000000e+00 0.000000000000000e+00
0.000000000000000e+00 0.000000000000000e+00 0.000000000000000e+00
0.000000000000000e+00 0.000000000000000e+00 0.000000000000000e+00
0.000000000000000e+00 0.000000000000000e+00 0.000000000000000e+00
0.000000000000000e+00 0.000000000000000e+00 0.000000000000000e+00
0.000000000000000e+00 0.000000000000000e+00 0.000000000000000e+00
0.000000000000000e+00 0.000000000000000e+00 0.000000000000000e+00
0.000000000000000e+00 0.000000000000000e+00 0.000000000000000e+00
0.000000000000000e+00 0.000000000000000e+00 0.000000000000000e+00
0.000000000000000e+00 0.000000000000000e+00 0.000000000000000e+00
0.000000000000000e+00 0.000000000000000e+00 0.000000000000000e+00
0.000000000000000e+00 0.000000000000000e+00 0.000000000000000e+00
0.000000000000000e+00 0.000000000000000e+00 0.000000000000000e+00
0.000000000000000e+00 0.000000000000000e+00 0.000000000000000e+00
0.000000000000000e+00 0.000000000000000e+00 0.000000000000000e+00
0.000000000000000e+00 0.000000000000000e+00 0.000000000000000e+00
0.000000000000000e+00 0.000000000000000e+00 0.000000000000000e+00
0.000000000000000e+00 0.000000000000000e+00 0.000000000000000e+00
0.000000000000000e+00 0.000000000000000e+00 0.000000000000000e+00
0.000000000000000e+00 0.000000000000000e+00 0.000000000000000e+00
0.000000000000000e+00 0.000000000000000e+00 0.000000000000000e+00
0.000000000000000e+00 0.000000000000000e+00 0.000000000000000e+00
0.000000000000000e+00 0.000000000000000e+00 0.000000000000000e+00
0.000000000000000e+00 0.000000000000000e+00 0.000000000000000e+00
0.000000000000000e+00 0.000000000000000e+00 0.000000000000000e+00
0.000000000000000e+00 0.000000000000000e+00 0.000000000000000e+00
0.000000000000000e+00 0.000000000000000e+00 0.000000000000000e+00
0.000000000000000e+00 0.000000000000000e+00 0.000000000000000e+00
0.000000000000000e+00 0.000000000000000e+00 0.000000000000000e+00
0.000000000000000e+00 0.000000000000000e+00 0.000000000000000e+00
0.000000000000000e+00 0.000000000000000e+00 0.000000000000000e+00
0.000000000000000e+00 0.000000000000000e+00 0.000000000000000e+00
0.000000000000000e+00 0.000000000000000e+00 0.000000000000000e+00
0.000000000000000e+00 0.000000000000000e+00 0.000000000000000e+00
0.000000000000000e+00 0.000000000000000e+00 0.000000000000000e+00
0.000000000000000e+00 0.000000000000000e+00 0.000000000000000e+00
0.000000000000000e+00 0.000000000000000e+00 0.000000000000000e+00
0.000000000000000e+00 0.000000000000000e+00 0.000000000000000e+00
0.000000000000000e+00 0.000000000000000e+00 0.000000000000000e+00
0.000000000000000e+00 0.000000000000000e+00 0.000000000000000e+00
0.000000000000000e+00 0.000000000000000e+00 0.000000000000000e+00
0.000000000000000e+00 0.000000000000000e+00 0.000000000000000e+00
0.000000000000000e+00 0.000000000000000e+00 0.000000000000000e+00
0.000000000000000e+00 0.000000000000000e+00 0.000000000000000e+00
0.000000000000000e+00 0.000000000000000e+00 0.000000000000000e+00
0.000000000000000e+00 0.000000000000000e+00 0.000000000000000e+00
0.000000000000000e+00 0.000000000000000e+00 0.000000000000000e+00
0.000000000000000e+00 0.000000000000000e+00 0.000000000000000e+00
0.000000000000000e+00 0.000000000000000e+00 0.000000000000000e+00
0.000000000000000e+00 0.000000000000000e+00 0.000000000000000e+00
0.000000000000000e+00 0.000000000000000e+00 0.000000000000000e+00
0.000000000000000e+00 0.000000000000000e+00 0.000000000000000e+00
0.000000000000000e+00 0.000000000000000e+00 0.000000000000000e+00
0.000000000000000e+00 0.000000000000000e+00 0.000000000000000e+00
0.000000000000000e+00 0.000000000000000e+00 0.000000000000000e+00
0.000000000000000e+00 0.000000000000000e+00 0.000000000000000e+00
0.000000000000000e+00 0.000000000000000e+00 0.000000000000000e+00
0.000000000000000e+00 0.000000000000000e+00 0.000000000000000e+00
0.000000000000000e+00 0.000000000000000e+00 0.000000000000000e+00
0.000000000000000e+00 0.000000000000000e+00 0.000000000000000e+00
0.000000000000000e+00 0.000000000000000e+00 0.000000000000000e+00
0.000000000000000e+00 0.000000000000000e+00 0.000000000000000e+00
0.000000000000000e+00 0.000000000000000e+00 0.000000000000000e+00
0.000000000000000e+00 0.000000000000000e+00 0.000000000000000e+00
0.000000000000000e+00 0.000000000000000e+00 0.000000000000000e+00
0.000000000000000e+00 0.000000000000000e+00 0.000000000000000e+00
0.000000000000000e+00 0.000000000000000e+00 0.000000000000000e+00
0.000000000000000e+00 0.000000000000000e+00 0.000000000000000e+00
0.000000000000000e+00 0.000000000000000e+00 0.000000000000000e+00
0.000000000000000e+00 0.000000000000000e+00 0.000000000000000e+00
0.000000000000000e+00 0.000000000000000e+00 0.000000000000000e+00
0.000000000000000e+00 0.000000000000000e+00 0.000000000000000e+00
0.000000000000000e+00 0.000000000000000e+00 0.000000000000000e+00
0.000000000000000e+00 0.000000000000000e+00 0.000000000000000e+00
0.000000000000000e+00 0.000000000000000e+00 0.000000000000000e+00
0.000000000000000e+00 0.000000000000000e+00 0.000000000000000e+00
0.000000000000000e+00 0.000000000000000e+00 0.000000000000000e+00
0.000000000000000e+00 0.000000000000000e+00 0.000000000000000e+00
0.000000000000000e+00 0.000000000000000e+00 0.000000000000000e+00
0.000000000000000e+00 0.000000000000000e+00 0.000000000000000e+00
0.000000000000000e+00 0.000000000000000e+00 0.000000000000000e+00
0.000000000000000e+00 0.000000000000000e+00 0.000000000000000e+00
0.000000000000000e+00 0.000000000000000e+00 0.000000000000000e+00
0.000000000000000e+00 0.000000000000000e+00 0.000000000000000e+00
0.000000000000000e+00 0.000000000000000e+00 0.000000000000000e+00
0.000000000000000e+00 0.000000000000000e+00 0.000000000000000e+00
0.000000000000000e+00 0.000000000000000e+00 0.000000000000000e+00
0.000000000000000e+00 0.000000000000000e+00 0.000000000000000e+00
0.000000000000000e+00 0.000000000000000e+00 0.000000000000000e+00
0.000000000000000e+00 0.000000000000000e+00 0.000000000000000e+00
0.000000000000000e+00 0.000000000000000e+00 0.000000000000000e+00
0.000000000000000e+00 0.000000000000000e+00 0.000000000000000e+00
0.000000000000000e+00 0.000000000000000e+00 0.000000000000000e+00
0.000000000000000e+00 0.000000000000000e+00 0.000000000000000e+00
0.000000000000000e+00 0.000000000000000e+00 0.000000000000000e+00
0.000000000000000e+00 0.000000000000000e+00 0.000000000000000e+00
0.000000000000000e+00 0.000000000000000e+00 0.000000000000000e+00
0.000000000000000e+00 0.000000000000000e+00 0.000000000000000e+00
0.000000000000000e+00 0.000000000000000e+00 0.000000000000000e+00
0.000000000000000e+00 0.000000000000000e+00 0.000000000000000e+00
0.000000000000000e+00 0.000000000000000e+00 0.000000000000000e+00
0.000000000000000e+00 0.000000000000000e+00 0.000000000000000e+00
0.000000000000000e+00 0.000000000000000e+00 0.000000000000000e+00
0.000000000000000e+00 0.000000000000000e+00 0.000000000000000e+00
0.000000000000000e+00 0.000000000000000e+00 0.000000000000000e+00
0.000000000000000e+00 0.000000000000000e+00 0.000000000000000e+00
0.000000000000000e+00 0.000000000000000e+00 0.000000000000000e+00
0.000000000000000e+00 0.000000000000000e+00 0.000000000000000e+00
0.000000000000000e+00 0.000000000000000e+00 0.000000000000000e+00
0.000000000000000e+00 0.000000000000000e+00 0.000000000000000e+00
0.000000000000000e+00 0.000000000000000e+00 0.000000000000000e+00
0.000000000000000e+00 0.000000000000000e+00 0.000000000000000e+00
0.000000000000000e+00 0.000000000000000e+00 0.000000000000000e+00
0.000000000000000e+00 0.000000000000000e+00 0.000000000000000e+00
0.000000000000000e+00 0.000000000000000e+00 0.000000000000000e+00
0.000000000000000e+00 0.000000000000000e+00 0.000000000000000e+00
0.000000000000000e+00 0.000000000000000e+00 0.000000000000000e+00
0.000000000000000e+00 0.000000000000000e+00 0.000000000000000e+00
0.000000000000000e+00 0.000000000000000e+00 0.000000000000000e+00
0.000000000000000e+00 0.000000000000000e+00 0.000000000000000e+00
0.000000000000000e+00 0.000000000000000e+00 0.000000000000000e+00
0.000000000000000e+00 0.000000000000000e+00 0.000000000000000e+00
0.000000000000000e+00 0.000000000000000e+00 0.000000000000000e+00
0.000000000000000e+00 0.000000000000000e+00 0.000000000000000e+00
0.000000000000000e+00 0.000000000000000e+00 0.000000000000000e+00
0.000000000000000e+00 0.000000000000000e+00 0.000000000000000e+00
0.000000000000000e+00 0.000000000000000e+00 0.000000000000000e+00
0.000000000000000e+00 0.000000000000000e+00 0.000000000000000e+00
0.000000000000000e+00 0.000000000000000e+00 0.000000000000000e+00
0.000000000000000e+00 0.000000000000000e+00 0.000000000000000e+00
0.000000000000000e+00 0.000000000000000e+00 0.000000000000000e+00
0.000000000000000e+00 0.000000000000000e+00 0.000000000000000e+00
0.000000000000000e+00 0.000000000000000e+00 0.000000000000000e+00
0.000000000000000e+00 0.000000000000000e+00 0.000000000000000e+00
0.000000000000000e+00 0.000000000000000e+00 0.000000000000000e+00
0.000000000000000e+00 0.000000000000000e+00 0.000000000000000e+00
0.000000000000000e+00 0.000000000000000e+00 0.000000000000000e+00
0.000000000000000e+00 0.000000000000000e+00 0.000000000000000e+00
0.000000000000000e+00 0.000000000000000e+00 0.000000000000000e+00
0.000000000000000e+00 0.000000000000000e+00 0.000000000000000e+00
0.000000000000000e+00 0.000000000000000e+00 0.000000000000000e+00
0.000000000000000e+00 0.000000000000000e+00 0.000000000000000e+00
0.000000000000000e+00 0.000000000000000e+00 0.000000000000000e+00
0.000000000000000e+00 0.000000000000000e+00 0.000000000000000e+00
0.000000000000000e+00 0.000000000000000e+00 0.000000000000000e+00
0.000000000000000e+00 0.000000000000000e+00 0.000000000000000e+00
0.000000000000000e+00 0.000000000000000e+00 0.000000000000000e+00
0.000000000000000e+00 0.000000000000000e+00 0.000000000000000e+00
0.000000000000000e+00 0.000000000000000e+00 0.000000000000000e+00
0.000000000000000e+00 0.000000000000000e+00 0.000000000000000e+00
0.000000000000000e+00 0.000000000000000e+00 0.000000000000000e+00
0.000000000000000e+00 0.000000000000000e+00 0.000000000000000e+00
0.000000000000000e+00 0.000000000000000e+00 0.000000000000000e+00
0.000000000000000e+00 0.000000000000000e+00 0.000000000000000e+00
0.000000000000000e+00 0.000000000000000e+00 0.000000000000000e+00
0.000000000000000e+00 0.000000000000000e+00 0.000000000000000e+00
0.000000000000000e+00 0.000000000000000e+00 0.000000000000000e+00
0.000000000000000e+00 0.000000000000000e+00 0.000000000000000e+00
0.000000000000000e+00 0.000000000000000e+00 0.000000000000000e+00
0.000000000000000e+00 0.000000000000000e+00 0.000000000000000e+00
0.000000000000000e+00 0.000000000000000e+00 0.000000000000000e+00
0.000000000000000e+00 0.000000000000000e+00 0.000000000000000e+00
0.000000000000000e+00 0.000000000000000e+00 0.000000000000000e+00
0.000000000000000e+00 0.000000000000000e+00 0.000000000000000e+00
0.000000000000000e+00 0.000000000000000e+00 0.000000000000000e+00
0.000000000000000e+00 0.000000000000000e+00 0.000000000000000e+00
0.000000000000000e+00 0.000000000000000e+00 0.000000000000000e+00
0.000000000000000e+00 0.000000000000000e+00 0.000000000000000e+00
0.000000000000000e+00 0.000000000000000e+00 0.000000000000000e+00
0.000000000000000e+00 0.000000000000000e+00 0.000000000000000e+00
0.000000000000000e+00 0.000000000000000e+00 0.000000000000000e+00
0.000000000000000e+00 0.000000000000000e+00 0.000000000000000e+00
0.000000000000000e+00 0.000000000000000e+00 0.000000000000000e+00
0.000000000000000e+00 0.000000000000000e+00 0.000000000000000e+00
0.000000000000000e+00 0.000000000000000e+00 0.000000000000000e+00
0.000000000000000e+00 0.000000000000000e+00 0.000000000000000e+00
0.000000000000000e+00 0.000000000000000e+00 0.000000000000000e+00
0.000000000000000e+00 0.000000000000000e+00 0.000000000000000e+00
0.000000000000000e+00 0.000000000000000e+00 0.000000000000000e+00
0.000000000000000e+00 0.000000000000000e+00 0.000000000000000e+00
0.000000000000000e+00 0.000000000000000e+00 0.000000000000000e+00
0.000000000000000e+00 0.000000000000000e+00 0.000000000000000e+00
0.000000000000000e+00 0.000000000000000e+00 0.000000000000000e+00
0.000000000000000e+00 0.000000000000000e+00 0.000000000000000e+00
0.000000000000000e+00 0.000000000000000e+00 0.000000000000000e+00
0.000000000000000e+00 0.000000000000000e+00 0.000000000000000e+00
0.000000000000000e+00 0.000000000000000e+00 0.000000000000000e+00
0.000000000000000e+00 0.000000000000000e+00 0.000000000000000e+00
0.000000000000000e+00 0.000000000000000e+00 0.000000000000000e+00
0.000000000000000e+00 0.000000000000000e+00 0.000000000000000e+00
0.000000000000000e+00 0.000000000000000e+00 0.000000000000000e+00
0.000000000000000e+00 0.000000000000000e+00 0.000000000000000e+00
0.000000000000000e+00 0.000000000000000e+00 0.000000000000000e+00
0.000000000000000e+00 0.000000000000000e+00 0.000000000000000e+00
0.000000000000000e+00 0.000000000000000e+00 0.000000000000000e+00
0.000000000000000e+00 0.000000000000000e+00 0.000000000000000e+00
0.000000000000000e+00 0.000000000000000e+00 0.000000000000000e+00
0.000000000000000e+00 0.000000000000000e+00 0.000000000000000e+00
0.000000000000000e+00 0.000000000000000e+00 0.000000000000000e+00
0.000000000000000e+00 0.000000000000000e+00 0.000000000000000e+00
0.000000000000000e+00 0.000000000000000e+00 0.000000000000000e+00
0.000000000000000e+00 0.000000000000000e+00 0.000000000000000e+00
0.000000000000000e+00 0.000000000000000e+00 0.000000000000000e+00
0.000000000000000e+00 0.000000000000000e+00 0.000000000000000e+00
0.000000000000000e+00 0.000000000000000e+00 0.000000000000000e+00
0.000000000000000e+00 0.000000000000000e+00 0.000000000000000e+00
0.000000000000000e+00 0.000000000000000e+00 0.000000000000000e+00
0.000000000000000e+00 0.000000000000000e+00 0.000000000000000e+00
0.000000000000000e+00 0.000000000000000e+00 0.000000000000000e+00
0.000000000000000e+00 0.000000000000000e+00 0.000000000000000e+00
0.000000000000000e+00 0.000000000000000e+00 0.000000000000000e+00
0.000000000000000e+00 0.000000000000000e+00 0.000000000000000e+00
0.000000000000000e+00 0.000000000000000e+00 0.000000000000000e+00
0.000000000000000e+00 0.000000000000000e+00 0.000000000000000e+00
0.000000000000000e+00 0.000000000000000e+00 0.000000000000000e+00
0.000000000000000e+00 0.000000000000000e+00 0.000000000000000e+00
0.000000000000000e+00 0.000000000000000e+00 0.000000000000000e+00
0.000000000000000e+00 0.000000000000000e+00 0.000000000000000e+00
0.000000000000000e+00 0.000000000000000e+00 0.000000000000000e+00
0.000000000000000e+00 0.000000000000000e+00 0.000000000000000e+00
0.000000000000000e+00 0.000000000000000e+00 0.000000000000000e+00
0.000000000000000e+00 0.000000000000000e+00 0.000000000000000e+00
0.000000000000000e+00 0.000000000000000e+00 0.000000000000000e+00
0.000000000000000e+00 0.000000000000000e+00 0.000000000000000e+00
0.000000000000000e+00 0.000000000000000e+00 0.000000000000000e+00
0.000000000000000e+00 0.000000000000000e+00 0.000000000000000e+00
0.000000000000000e+00 0.000000000000000e+00 0.000000000000000e+00
0.000000000000000e+00 0.000000000000000e+00 0.000000000000000e+00
0.000000000000000e+00 0.000000000000000e+00 0.000000000000000e+00
0.000000000000000e+00 0.000000000000000e+00 0.000000000000000e+00
0.000000000000000e+00 0.000000000000000e+00 0.000000000000000e+00
0.000000000000000e+00 0.000000000000000e+00 0.000000000000000e+00
0.000000000000000e+00 0.000000000000000e+00 0.000000000000000e+00
0.000000000000000e+00 0.000000000000000e+00 0.000000000000000e+00
0.000000000000000e+00 0.000000000000000e+00 0.000000000000000e+00
0.000000000000000e+00 0.000000000000000e+00 0.000000000000000e+00
0.000000000000000e+00 0.000000000000000e+00 0.000000000000000e+00
0.000000000000000e+00 0.000000000000000e+00 0.000000000000000e+00
0.000000000000000e+00 0.000000000000000e+00 0.000000000000000e+00
0.000000000000000e+00 0.000000000000000e+00 0.000000000000000e+00
0.000000000000000e+00 0.000000000000000e+00 0.000000000000000e+00
0.000000000000000e+00 0.000000000000000e+00 0.000000000000000e+00
0.000000000000000e+00 0.000000000000000e+00 0.000000000000000e+00
0.000000000000000e+00 0.000000000000000e+00 0.000000000000000e+00
0.000000000000000e+00 0.000000000000000e+00 0.000000000000000e+00
0.000000000000000e+00 0.000000000000000e+00 0.000000000000000e+00
0.000000000000000e+00 0.000000000000000e+00 0.000000000000000e+00
0.000000000000000e+00 0.000000000000000e+00 0.000000000000000e+00
0.000000000000000e+00 0.000000000000000e+00 0.000000000000000e+00
0.000000000000000e+00 0.000000000000000e+00 0.000000000000000e+00
0.000000000000000e+00 0.000000000000000e+00 0.000000000000000e+00
0.000000000000000e+00 0.000000000000000e+00 0.000000000000000e+00
0.000000000000000e+00 0.000000000000000e+00 0.000000000000000e+00
0.000000000000000e+00 0.000000000000000e+00 0.000000000000000e+00
0.000000000000000e+00 0.000000000000000e+00 0.000000000000000e+00
0.000000000000000e+00 0.000000000000000e+00 0.000000000000000e+00
0.000000000000000e+00 0.000000000000000e+00 0.000000000000000e+00
0.000000000000000e+00 0.000000000000000e+00 0.000000000000000e+00
0.000000000000000e+00 0.000000000000000e+00 0.000000000000000e+00
0.000000000000000e+00 0.000000000000000e+00 0.000000000000000e+00
0.000000000000000e+00 0.000000000000000e+00 0.000000000000000e+00
0.000000000000000e+00 0.000000000000000e+00 0.000000000000000e+00
0.000000000000000e+00 0.000000000000000e+00 0.000000000000000e+00
0.000000000000000e+00 0.000000000000000e+00 0.000000000000000e+00
0.000000000000000e+00 0.000000000000000e+00 0.000000000000000e+00
0.000000000000000e+00 0.000000000000000e+00 0.000000000000000e+00
0.000000000000000e+00 0.000000000000000e+00 0.000000000000000e+00
0.000000000000000e+00 0.000000000000000e+00 0.000000000000000e+00
0.000000000000000e+00 0.000000000000000e+00 0.000000000000000e+00
0.000000000000000e+00 0.000000000000000e+00 0.000000000000000e+00
0.000000000000000e+00 0.000000000000000e+00 0.000000000000000e+00
0.000000000000000e+00 0.000000000000000e+00 0.000000000000000e+00
0.000000000000000e+00 0.000000000000000e+00 0.000000000000000e+00
0.000000000000000e+00 0.000000000000000e+00 0.000000000000000e+00
0.000000000000000e+00 0.000000000000000e+00 0.000000000000000e+00
0.000000000000000e+00 0.000000000000000e+00 0.000000000000000e+00
0.000000000000000e+00 0.000000000000000e+00 0.000000000000000e+00
0.000000000000000e+00 0.000000000000000e+00 0.000000000000000e+00
0.000000000000000e+00 0.000000000000000e+00 0.000000000000000e+00
0.000000000000000e+00 0.000000000000000e+00 0.000000000000000e+00
0.000000000000000e+00 0.000000000000000e+00 0.000000000000000e+00
0.000000000000000e+00 0.000000000000000e+00 0.000000000000000e+00
0.000000000000000e+00 0.000000000000000e+00 0.000000000000000e+00
0.000000000000000e+00 0.000000000000000e+00 0.000000000000000e+00
0.000000000000000e+00 0.000000000000000e+00 0.000000000000000e+00
0.000000000000000e+00 0.000000000000000e+00 0.000000000000000e+00
0.000000000000000e+00 0.000000000000000e+00 0.000000000000000e+00
0.000000000000000e+00 0.000000000000000e+00 0.000000000000000e+00
0.000000000000000e+00 0.000000000000000e+00 0.000000000000000e+00
0.000000000000000e+00 0.000000000000000e+00 0.000000000000000e+00
0.000000000000000e+00 0.000000000000000e+00 0.000000000000000e+00
0.000000000000000e+00 0.000000000000000e+00 0.000000000000000e+00
0.000000000000000e+00 0.000000000000000e+00 0.000000000000000e+00
0.000000000000000e+00 0.000000000000000e+00 0.000000000000000e+00
0.000000000000000e+00 0.000000000000000e+00 0.000000000000000e+00
0.000000000000000e+00 0.000000000000000e+00 0.000000000000000e+00
0.000000000000000e+00 0.000000000000000e+00 0.000000000000000e+00
0.000000000000000e+00 0.000000000000000e+00 0.000000000000000e+00
0.000000000000000e+00 0.000000000000000e+00 0.000000000000000e+00
0.000000000000000e+00 0.000000000000000e+00 0.000000000000000e+00
0.000000000000000e+00 0.000000000000000e+00 0.000000000000000e+00
0.000000000000000e+00 0.000000000000000e+00 0.000000000000000e+00
0.000000000000000e+00 0.000000000000000e+00 0.000000000000000e+00
0.000000000000000e+00 0.000000000000000e+00 0.000000000000000e+00
0.000000000000000e+00 0.000000000000000e+00 0.000000000000000e+00
0.000000000000000e+00 0.000000000000000e+00 0.000000000000000e+00
0.000000000000000e+00 0.000000000000000e+00 0.000000000000000e+00
0.000000000000000e+00 0.000000000000000e+00 0.000000000000000e+00
0.000000000000000e+00 0.000000000000000e+00 0.000000000000000e+00
0.000000000000000e+00 0.000000000000000e+00 0.000000000000000e+00
0.000000000000000e+00 0.000000000000000e+00 0.000000000000000e+00
0.000000000000000e+00 0.000000000000000e+00 0.000000000000000e+00
0.000000000000000e+00 0.000000000000000e+00 0.000000000000000e+00
0.000000000000000e+00 0.000000000000000e+00 0.000000000000000e+00
0.000000000000000e+00 0.000000000000000e+00 0.000000000000000e+00
0.000000000000000e+00 0.000000000000000e+00 0.000000000000000e+00
0.000000000000000e+00 0.000000000000000e+00 0.000000000000000e+00
0.000000000000000e+00 0.000000000000000e+00 0.000000000000000e+00
0.000000000000000e+00 0.000000000000000e+00 0.000000000000000e+00
0.000000000000000e+00 0.000000000000000e+00 0.000000000000000e+00
0.000000000000000e+00 0.000000000000000e+00 0.000000000000000e+00
0.000000000000000e+00 0.000000000000000e+00 0.000000000000000e+00
0.000000000000000e+00 0.000000000000000e+00 0.000000000000000e+00
0.000000000000000e+00 0.000000000000000e+00 0.000000000000000e+00
0.000000000000000e+00 0.000000000000000e+00 0.000000000000000e+00
0.000000000000000e+00 0.000000000000000e+00 0.000000000000000e+00
0.000000000000000e+00 0.000000000000000e+00 0.000000000000000e+00
0.000000000000000e+00 0.000000000000000e+00 0.000000000000000e+00
0.000000000000000e+00 0.000000000000000e+00 0.000000000000000e+00
0.000000000000000e+00 0.000000000000000e+00 0.000000000000000e+00
0.000000000000000e+00 0.000000000000000e+00 0.000000000000000e+00
0.000000000000000e+00 0.000000000000000e+00 0.000000000000000e+00
0.000000000000000e+00 0.000000000000000e+00 0.000000000000000e+00
0.000000000000000e+00 0.000000000000000e+00 0.000000000000000e+00
0.000000000000000e+00 0.000000000000000e+00 0.000000000000000e+00
0.000000000000000e+00 0.000000000000000e+00 0.000000000000000e+00
0.000000000000000e+00 0.000000000000000e+00 0.000000000000000e+00
0.000000000000000e+00 0.000000000000000e+00 0.000000000000000e+00
0.000000000000000e+00 0.000000000000000e+00 0.000000000000000e+00
0.000000000000000e+00 0.000000000000000e+00 0.000000000000000e+00
0.000000000000000e+00 0.000000000000000e+00 0.000000000000000e+00
0.000000000000000e+00 0.000000000000000e+00 0.000000000000000e+00
0.000000000000000e+00 0.000000000000000e+00 0.000000000000000e+00
0.000000000000000e+00 0.000000000000000e+00 0.000000000000000e+00
0.000000000000000e+00 0.000000000000000e+00 0.000000000000000e+00
0.000000000000000e+00 0.000000000000000e+00 0.000000000000000e+00
0.000000000000000e+00 0.000000000000000e+00 0.000000000000000e+00
0.000000000000000e+00 0.000000000000000e+00 0.000000000000000e+00
0.000000000000000e+00 0.000000000000000e+00 0.000000000000000e+00
0.000000000000000e+00 0.000000000000000e+00 0.000000000000000e+00
0.000000000000000e+00 0.000000000000000e+00 0.000000000000000e+00
0.000000000000000e+00 0.000000000000000e+00 0.000000000000000e+00
0.000000000000000e+00 0.000000000000000e+00 0.000000000000000e+00
0.000000000000000e+00 0.000000000000000e+00 0.000000000000000e+00
0.000000000000000e+00 0.000000000000000e+00 0.000000000000000e+00
0.000000000000000e+00 0.000000000000000e+00 0.000000000000000e+00
0.000000000000000e+00 0.000000000000000e+00 0.000000000000000e+00
0.000000000000000e+00 0.000000000000000e+00 0.000000000000000e+00
0.000000000000000e+00 0.000000000000000e+00 0.000000000000000e+00
0.000000000000000e+00 0.000000000000000e+00 0.000000000000000e+00
0.000000000000000e+00 0.000000000000000e+00 0.000000000000000e+00
0.000000000000000e+00 0.000000000000000e+00 0.000000000000000e+00
0.000000000000000e+00 0.000000000000000e+00 0.000000000000000e+00
0.000000000000000e+00 0.000000000000000e+00 0.000000000000000e+00
0.000000000000000e+00 0.000000000000000e+00 0.000000000000000e+00
0.000000000000000e+00 0.000000000000000e+00 0.000000000000000e+00
0.000000000000000e+00 0.000000000000000e+00 0.000000000000000e+00
0.000000000000000e+00 0.000000000000000e+00 0.000000000000000e+00
0.000000000000000e+00 0.000000000000000e+00 0.000000000000000e+00
0.000000000000000e+00 0.000000000000000e+00 0.000000000000000e+00
0.000000000000000e+00 0.000000000000000e+00 0.000000000000000e+00
0.000000000000000e+00 0.000000000000000e+00 0.000000000000000e+00
0.000000000000000e+00 0.000000000000000e+00 0.000000000000000e+00
0.000000000000000e+00 0.000000000000000e+00 0.000000000000000e+00
0.000000000000000e+00 0.000000000000000e+00 0.000000000000000e+00
0.000000000000000e+00 0.000000000000000e+00 0.000000000000000e+00
0.000000000000000e+00 0.000000000000000e+00 0.000000000000000e+00
0.000000000000000e+00 0.000000000000000e+00 0.000000000000000e+00
0.000000000000000e+00 0.000000000000000e+00 0.000000000000000e+00
0.000000000000000e+00 0.000000000000000e+00 0.000000000000000e+00
0.000000000000000e+00 0.000000000000000e+00 0.000000000000000e+00
0.000000000000000e+00 0.000000000000000e+00 0.000000000000000e+00
0.000000000000000e+00 0.000000000000000e+00 0.000000000000000e+00
0.000000000000000e+00 0.000000000000000e+00 0.000000000000000e+00
0.000000000000000e+00 0.000000000000000e+00 0.000000000000000e+00
0.000000000000000e+00 0.000000000000000e+00 0.000000000000000e+00
0.000000000000000e+00 0.000000000000000e+00 0.000000000000000e+00
0.000000000000000e+00 0.000000000000000e+00 0.000000000000000e+00
0.000000000000000e+00 0.000000000000000e+00 0.000000000000000e+00
0.000000000000000e+00 0.000000000000000e+00 0.000000000000000e+00
0.000000000000000e+00 0.000000000000000e+00 0.000000000000000e+00
0.000000000000000e+00 0.000000000000000e+00 0.000000000000000e+00
0.000000000000000e+00 0.000000000000000e+00 0.000000000000000e+00
0.000000000000000e+00 0.000000000000000e+00 0.000000000000000e+00
0.000000000000000e+00 0.000000000000000e+00 0.000000000000000e+00
0.000000000000000e+00 0.000000000000000e+00 0.000000000000000e+00
0.000000000000000e+00 0.000000000000000e+00 0.000000000000000e+00
0.000000000000000e+00 0.000000000000000e+00 0.000000000000000e+00
0.000000000000000e+00 0.000000000000000e+00 0.000000000000000e+00
0.000000000000000e+00 0.000000000000000e+00 0.000000000000000e+00
0.000000000000000e+00 0.000000000000000e+00 0.000000000000000e+00
0.000000000000000e+00 0.000000000000000e+00 0.000000000000000e+00
0.000000000000000e+00 0.000000000000000e+00 0.000000000000000e+00
0.000000000000000e+00 0.000000000000000e+00 0.000000000000000e+00
0.000000000000000e+00 0.000000000000000e+00 0.000000000000000e+00
        </DataArray>
        <DataArray type="Float64" Name="nodal_GL_strains_xyz" NumberOfComponents="6" format="ascii">
2.654073044325037e-16 2.568303598786155e-16 -5.242624062650835e-16 1.139117124584944e-16 -1.091170546930593e-16 1.689166782012611e-16
1.604592278318807e-16 2.482534153247272e-16 2.654073044325037e-16 8.779418749284658e-17 3.835726212348138e-17 2.139456371091744e-16
1.111816280418594e-16 3.066235480739479e-16 1.047887510212792e-16 1.699993090510953e-16 -4.024370405929796e-17 4.141540061562381e-17
2.187828700035968e-17 1.155497631084754e-16 -7.902030569233480e-18 1.875844223161009e-16 7.468037937617858e-17 5.797625825597386e-18
0.000000000000000e+00 0.000000000000000e+00 3.037645665559851e-16 -6.301904617839819e-32 3.804790908029480e-16 -2.679100231244992e-16
-5.281149529263885e-17 1.126907815905127e-16 1.056229905852777e-16 1.366546675008687e-16 -1.092033766653998e-17 1.671098990551165e-16
5.717963035925485e-17 1.241267076623636e-16 1.655022768831515e-16 2.082276740732488e-16 -8.834738756543783e-18 1.528149914653026e-16
-2.993964314893688e-17 3.430777821555291e-17 -2.068778461039394e-16 -5.743742456191035e-17 -3.009896872828066e-17 -1.159525165119476e-17
1.311944986675986e-16 -1.850371707708594e-17 9.418706451342671e-17 -2.177981837704787e-17 1.431460131447606e-16 2.645730648685052e-16
9.567939761312313e-17 5.651223870805604e-17 -1.114046838529407e-16 4.546908963579154e-17 -1.593904393539791e-17 2.032483552537157e-16
1.604592278318807e-16 2.482534153247272e-16 2.654073044325037e-16 8.779418749284658e-17 3.835726212348138e-17 2.139456371091744e-16
2.739842489863919e-16 -3.425998054174978e-16 2.482534153247272e-16 -3.296148944021576e-16 1.894661627935075e-16 5.089573474258429e-17
1.111816280418594e-16 3.066235480739479e-16 1.047887510212792e-16 1.699993090510953e-16 -4.024370405929796e-17 4.141540061562381e-17
-1.834904055549264e-16 6.746266570841978e-17 1.919080245294709e-16 -7.194089204272371e-17 -1.530727856679581e-17 2.966522426975042e-16
0.000000000000000e+00 4.278912742183488e-16 3.430777821555291e-17 -2.351490101248792e-16 3.430777821555281e-17 -1.794942783342571e-31
5.717963035925485e-17 7.067791005234987e-18 1.126907815905127e-16 -9.049384343146538e-17 1.581766916752611e-16 2.211727536937527e-17
-5.281149529263885e-17 1.126907815905127e-16 1.056229905852777e-16 1.366546675008687e-16 -1.092033766653998e-17 1.671098990551165e-16
4.844336022602288e-17 8.275113844157578e-17 4.368135066615994e-18 1.361999360515899e-17 -3.430777821555293e-17 9.527909828008077e-17
1.469985598060656e-16 1.180900934677507e-16 -8.981892944681072e-17 -2.924879660634779e-16 -5.975757238581018e-18 2.593939355266429e-17
8.719804840684115e-17 1.907400891398731e-16 -3.168689717558332e-17 -9.774065374070661e-17 1.052574296438095e-16 -5.386181708109292e-17
2.739842489863919e-16 -3.425998054174978e-16 2.482534153247272e-16 -3.296148944021576e-16 1.894661627935075e-16 5.089573474258429e-17
1.604592278318808e-16 -8.411313780209167e-16 -4.319407581262772e-16 -3.276101299961951e-18 -2.322811496966929e-17 2.793481689239076e-17
1.111816280418594e-16 3.066235480739479e-16 1.047887510212792e-16 1.699993090510953e-16 -4.024370405929796e-17 4.141540061562381e-17
8.477588039553997e-17 -6.087285144121608e-17 1.555755043599538e-16 -1.935507766378619e-16 -1.422133049574503e-16 -7.426325959417946e-17
3.430777821555291e-17 -8.557825484366977e-16 3.935834960027959e-16 2.417012127248034e-16 -1.241267076623635e-16 1.412805967701400e-16
-4.137556922078789e-17 -4.574370428740391e-17 6.694707730310879e-17 1.850980277268914e-16 -3.293360746383061e-16 -8.090452790059510e-17
5.717963035925485e-17 7.067791005234987e-18 1.126907815905127e-16 -9.049384343146538e-17 1.581766916752611e-16 2.211727536937527e-17
-4.844336022602282e-17 -3.925523191921739e-16 1.540663508113006e-16 -1.025062148646594e-16 -8.981892944681069e-17 -2.523405108999352e-17
2.025097110373234e-16 -4.366275443515808e-16 8.171996163095384e-17 1.690361723857690e-16 2.085463252319363e-16 -8.578825137252219e-17
4.016824638186526e-17 5.330531085145521e-16 1.548125173611488e-16 3.571381408314385e-17 -7.413015738061240e-17 -1.404341858149353e-16
1.604592278318808e-16 -8.411313780209167e-16 -4.319407581262772e-16 -3.276101299961951e-18 -2.322811496966929e-17 2.793481689239076e-17
2.654073044325037e-16 2.568303598786155e-16 -5.242624062650835e-16 1.139117124584944e-16 -1.091170546930593e-16 1.689166782012611e-16
1.111816280418594e-16 3.066235480739479e-16 1.047887510212792e-16 1.699993090510953e-16 -4.024370405929796e-17 4.141540061562381e-17
-2.891133961402041e-16 1.182494190470944e-16 -5.863257600962653e-16 1.534710996163196e-17 -1.553763473857743e-16 -5.591303057391931e-16
3.430777821555291e-17 3.037645665559851e-16 -8.557825484366977e-16 -2.719595070324276e-16 -2.220446049250314e-16 4.001356986027199e-16
5.717963035925485e-17 1.241267076623636e-16 1.655022768831515e-16 2.082276740732488e-16 -8.834738756543783e-18 1.528149914653026e-16
-4.137556922078789e-17 -4.574370428740391e-17 6.694707730310879e-17 1.850980277268914e-16 -3.293360746383061e-16 -8.090452790059510e-17
-4.574370428740385e-17 -2.156141162371714e-16 -5.416132326194834e-16 -3.228447289944141e-16 -1.028303534916513e-17 -8.742630202250301e-17
1.469985598060656e-16 5.281149529263883e-17 -2.623889973351973e-16 1.001628217520077e-16 -2.723157698583950e-16 2.524622248119995e-16
2.382425405567451e-17 7.085405608065039e-17 1.437102871148972e-16 9.743130069752016e-17 -1.848431067999416e-16 -2.248271360732199e-16
2.654073044325037e-16 2.568303598786155e-16 -5.242624062650835e-16 1.139117124584944e-16 -1.091170546930593e-16 1.689166782012611e-16
-4.890253113041435e-17 2.353879984938949e-16 -1.627229581548607e-16 -1.554571200392238e-17 1.567366881356816e-16 -2.664196754094860e-16
2.187828700035968e-17 1.155497631084754e-16 -7.902030569233480e-18 1.875844223161009e-16 7.468037937617858e-17 5.797625825597386e-18
-2.891133961402041e-16 1.182494190470944e-16 -5.863257600962653e-16 1.534710996163196e-17 -1.553763473857743e-16 -5.591303057391931e-16
3.935834960027959e-16 3.430777821555291e-17 -8.557825484366977e-16 1.412805967701400e-16 2.417012127248034e-16 -1.241267076623635e-16
-8.711927350819173e-17 -1.850371707708596e-17 1.426304247394495e-16 -3.955938715782318e-17 1.465814400240662e-16 -1.683523794908890e-17
-2.993964314893688e-17 3.430777821555291e-17 -2.068778461039394e-16 -5.743742456191035e-17 -3.009896872828066e-17 -1.159525165119476e-17
1.469985598060656e-16 5.281149529263883e-17 -2.623889973351973e-16 1.001628217520077e-16 -2.723157698583950e-16 2.524622248119995e-16
1.153904375291317e-16 2.368174892528763e-16 -1.998100550987044e-16 2.076324228782658e-16 1.512914715381213e-17 -6.592485946379549e-16
-2.143280184995994e-16 7.709690563738778e-17 -2.744622257244233e-17 1.457054884818681e-16 -8.482743923607136e-17 -5.417847295900336e-16
1.604592278318807e-16 2.482534153247272e-16 2.654073044325037e-16 8.779418749284658e-17 3.835726212348138e-17 2.139456371091744e-16
-4.639283885179307e-16 1.475938110010484e-16 2.353879984938949e-16 2.656603971767492e-16 -6.492455507670108e-18 -2.494591319537011e-16
-1.834904055549264e-16 6.746266570841978e-17 1.919080245294709e-16 -7.194089204272371e-17 -1.530727856679581e-17 2.966522426975042e-16
2.187828700035968e-17 1.155497631084754e-16 -7.902030569233480e-18 1.875844223161009e-16 7.468037937617858e-17 5.797625825597386e-18
4.278912742183488e-16 3.430777821555291e-17 0.000000000000000e+00 3.430777821555281e-17 -1.794942783342571e-31 -2.351490101248792e-16
-6.154776542587083e-17 7.838300337495979e-17 7.131521236972478e-17 1.122736618085135e-16 -8.316825822357501e-17 -1.316116184495978e-16
4.844336022602288e-17 8.275113844157578e-17 4.368135066615994e-18 1.361999360515899e-17 -3.430777821555293e-17 9.527909828008077e-17
1.311944986675986e-16 -1.850371707708594e-17 9.418706451342671e-17 -2.177981837704787e-17 1.431460131447606e-16 2.645730648685052e-16
6.257894223649281e-17 4.137556922078788e-17 1.611341418165355e-16 2.146205510938290e-16 2.342163019375691e-16 -1.517229576986488e-16
-2.074664628564888e-16 9.405960404995170e-17 1.352289379086152e-16 1.965414761321984e-16 -5.896982339931536e-18 2.378654865124552e-16
2.739842489863919e-16 -3.425998054174978e-16 2.482534153247272e-16 -3.296148944021576e-16 1.894661627935075e-16 5.089573474258429e-17
8.086093533903121e-16 -1.839263311705655e-16 1.947670060474337e-16 2.525418876016713e-16 1.380642425624320e-16 2.750264935095012e-16
8.477588039553997e-17 -6.087285144121608e-17 1.555755043599538e-16 -1.935507766378619e-16 -1.422133049574503e-16 -7.426325959417946e-17
-1.834904055549264e-16 6.746266570841978e-17 1.919080245294709e-16 -7.194089204272371e-17 -1.530727856679581e-17 2.966522426975042e-16
4.278912742183488e-16 4.702980202497586e-16 3.430777821555291e-17 2.563523831405841e-16 4.384929607262012e-16 -2.351490101248794e-16
3.263929908755588e-17 -5.133420685985434e-16 1.241267076623637e-16 2.275656307143331e-16 1.084819721032404e-16 4.709353225671342e-17
-4.844336022602282e-17 -3.925523191921739e-16 1.540663508113006e-16 -1.025062148646594e-16 -8.981892944681069e-17 -2.523405108999352e-17
1.469985598060656e-16 1.180900934677507e-16 -8.981892944681072e-17 -2.924879660634779e-16 -5.975757238581018e-18 2.593939355266429e-17
-4.368135066616001e-18 9.521824132404876e-17 4.368135066615988e-18 3.263929908755586e-17 8.914401546215595e-17 3.171267659584886e-16
-2.107060499828316e-16 1.766345964632269e-16 1.130244774161121e-16 -8.632907045126833e-17 -1.900848688798808e-16 9.372071041977157e-17
1.604592278318808e-16 -8.411313780209167e-16 -4.319407581262772e-16 -3.276101299961951e-18 -2.322811496966929e-17 2.793481689239076e-17
3.247289512026744e-16 -3.807180791719636e-16 -3.892950237258518e-16 -2.525120140555443e-16 -5.753589318522188e-17 1.724018943241119e-16
-2.891133961402041e-16 1.182494190470944e-16 -5.863257600962653e-16 1.534710996163196e-17 -1.553763473857743e-16 -5.591303057391931e-16
8.477588039553997e-17 -6.087285144121608e-17 1.555755043599538e-16 -1.935507766378619e-16 -1.422133049574503e-16 -7.426325959417946e-17
3.935834960027959e-16 -4.965068306494547e-16 -1.307970726102617e-15 1.453300806780687e-16 -4.082346664185764e-16 -4.895894863133362e-17
-1.698704119497675e-16 1.796378588936214e-16 -5.759210108350363e-16 1.151558886152287e-17 -5.362139207422451e-16 -8.596638278550563e-17
-4.574370428740385e-17 -2.156141162371714e-16 -5.416132326194834e-16 -3.228447289944141e-16 -1.028303534916513e-17 -8.742630202250301e-17
2.025097110373234e-16 -4.366275443515808e-16 8.171996163095384e-17 1.690361723857690e-16 2.085463252319363e-16 -8.578825137252219e-17
2.438852802581113e-16 -4.817339463216096e-16 -1.621653186271574e-16 -5.878841479565742e-16 -4.442109237621263e-16 -9.688672045204561e-17
-1.885015894903284e-16 1.348465565181902e-16 -2.198061052754867e-16 -2.424815689193955e-16 1.626751604810575e-16 -2.610049797211438e-16
-4.890253113041435e-17 2.353879984938949e-16 -1.627229581548607e-16 -1.554571200392238e-17 1.567366881356816e-16 -2.664196754094860e-16
-4.639283885179307e-16 1.475938110010484e-16 2.353879984938949e-16 2.656603971767492e-16 -6.492455507670108e-18 -2.494591319537011e-16
2.187828700035968e-17 1.155497631084754e-16 -7.902030569233480e-18 1.875844223161009e-16 7.468037937617858e-17 5.797625825597386e-18
9.734555221224487e-16 2.698739081224314e-16 6.627216331845406e-17 -5.066725915416678e-17 -3.845684061057115e-17 -9.412731742117293e-17
-1.201363049284222e-15 -7.266504033903427e-17 3.037645665559851e-16 2.621312031325417e-16 -3.555913756155059e-17 -3.057893085099494e-16
6.257894223649281e-17 4.137556922078788e-17 1.611341418165355e-16 2.146205510938290e-16 2.342163019375691e-16 -1.517229576986488e-16
-8.711927350819173e-17 -1.850371707708596e-17 1.426304247394495e-16 -3.955938715782318e-17 1.465814400240662e-16 -1.683523794908890e-17
5.219566248197113e-16 3.347353865155437e-17 1.211084005650571e-16 -1.441794096829389e-16 -5.218581561963999e-17 -7.892902025828675e-17
2.524998364792790e-16 1.413558201046997e-17 4.490946472340534e-17 1.165621340854575e-16 1.720312341943234e-17 -1.747541354216946e-16
4.628177585202748e-16 -1.156453584560817e-16 1.534290484939255e-17 1.554972782081346e-16 -8.326672684688644e-18 -8.644723279924259e-17
-4.639283885179307e-16 1.475938110010484e-16 2.353879984938949e-16 2.656603971767492e-16 -6.492455507670108e-18 -2.494591319537011e-16
8.086093533903121e-16 -1.839263311705655e-16 1.947670060474337e-16 2.525418876016713e-16 1.380642425624320e-16 2.750264935095012e-16
-1.834904055549264e-16 6.746266570841978e-17 1.919080245294709e-16 -7.194089204272371e-17 -1.530727856679581e-17 2.966522426975042e-16
9.734555221224487e-16 2.698739081224314e-16 6.627216331845406e-17 -5.066725915416678e-17 -3.845684061057115e-17 -9.412731742117293e-17
-7.508156075986834e-18 4.107373851105724e-16 -5.551115123125781e-17 -2.020925912553242e-16 -9.184367140077502e-17 1.829139601935837e-16
-4.368135066616001e-18 9.521824132404876e-17 4.368135066615988e-18 3.263929908755586e-17 8.914401546215595e-17 3.171267659584886e-16
-6.154776542587083e-17 7.838300337495979e-17 7.131521236972478e-17 1.122736618085135e-16 -8.316825822357501e-17 -1.316116184495978e-16
2.524998364792790e-16 1.413558201046997e-17 4.490946472340534e-17 1.165621340854575e-16 1.720312341943234e-17 -1.747541354216946e-16
9.975787336121485e-16 7.433351946703135e-17 2.422168011301144e-17 2.186019948564619e-16 -1.774914030275931e-17 1.015524811161531e-16
1.205047391455959e-16 1.185025641919994e-16 -3.592757177872433e-17 5.314054206048784e-17 -1.986618134337689e-16 2.113247560692046e-16
8.086093533903121e-16 -1.839263311705655e-16 1.947670060474337e-16 2.525418876016713e-16 1.380642425624320e-16 2.750264935095012e-16
3.247289512026744e-16 -3.807180791719636e-16 -3.892950237258518e-16 -2.525120140555443e-16 -5.753589318522188e-17 1.724018943241119e-16
8.477588039553997e-17 -6.087285144121608e-17 1.555755043599538e-16 -1.935507766378619e-16 -1.422133049574503e-16 -7.426325959417946e-17
9.734555221224487e-16 2.698739081224314e-16 6.627216331845406e-17 -5.066725915416678e-17 -3.845684061057115e-17 -9.412731742117293e-17
-5.701278244645516e-16 -9.920577078228467e-16 3.935834960027959e-16 -5.551115123125770e-17 9.309503074677289e-17 7.594114163899631e-17
2.438852802581113e-16 -4.817339463216096e-16 -1.621653186271574e-16 -5.878841479565742e-16 -4.442109237621263e-16 -9.688672045204561e-17
3.263929908755588e-17 -5.133420685985434e-16 1.241267076623637e-16 2.275656307143331e-16 1.084819721032404e-16 4.709353225671342e-17
9.975787336121485e-16 7.433351946703135e-17 2.422168011301144e-17 2.186019948564619e-16 -1.774914030275931e-17 1.015524811161531e-16
7.511907346620418e-16 6.726572846179632e-17 1.985354504639546e-17 -2.345935903247322e-16 3.623405154620553e-17 1.356821279187225e-16
2.969030109128746e-16 3.687581544703232e-16 2.644513509564416e-17 -9.337484320296568e-17 -1.118687134177206e-16 -5.545207005727098e-17
3.247289512026744e-16 -3.807180791719636e-16 -3.892950237258518e-16 -2.525120140555443e-16 -5.753589318522188e-17 1.724018943241119e-16
-4.890253113041435e-17 2.353879984938949e-16 -1.627229581548607e-16 -1.554571200392238e-17 1.567366881356816e-16 -2.664196754094860e-16
-2.891133961402041e-16 1.182494190470944e-16 -5.863257600962653e-16 1.534710996163196e-17 -1.553763473857743e-16 -5.591303057391931e-16
9.734555221224487e-16 2.698739081224314e-16 6.627216331845406e-17 -5.066725915416678e-17 -3.845684061057115e-17 -9.412731742117293e-17
3.280614700035559e-16 3.037645665559851e-16 3.552262338793144e-16 -1.060168650785243e-17 1.266294263543591e-16 -2.813098341942827e-16
1.153904375291317e-16 2.368174892528763e-16 -1.998100550987044e-16 2.076324228782658e-16 1.512914715381213e-17 -6.592485946379549e-16
-1.698704119497675e-16 1.796378588936214e-16 -5.759210108350363e-16 1.151558886152287e-17 -5.362139207422451e-16 -8.596638278550563e-17
7.511907346620418e-16 6.726572846179632e-17 1.985354504639546e-17 -2.345935903247322e-16 3.623405154620553e-17 1.356821279187225e-16
5.219566248197113e-16 3.347353865155437e-17 1.211084005650571e-16 -1.441794096829389e-16 -5.218581561963999e-17 -7.892902025828675e-17
-3.106819108921012e-17 2.309083355217383e-16 -1.996038197365800e-16 6.206335383118083e-18 6.246830222197459e-17 -2.166846804971180e-16
1.111816280418594e-16 3.066235480739479e-16 1.047887510212792e-16 1.699993090510953e-16 -4.024370405929796e-17 4.141540061562381e-17
2.187828700035968e-17 1.155497631084754e-16 -7.902030569233480e-18 1.875844223161009e-16 7.468037937617858e-17 5.797625825597386e-18
-2.891133961402041e-16 1.182494190470944e-16 -5.863257600962653e-16 1.534710996163196e-17 -1.553763473857743e-16 -5.591303057391931e-16
2.654073044325037e-16 2.568303598786155e-16 -5.242624062650835e-16 1.139117124584944e-16 -1.091170546930593e-16 1.689166782012611e-16
9.567939761312313e-17 5.651223870805604e-17 -1.114046838529407e-16 4.546908963579154e-17 -1.593904393539791e-17 2.032483552537157e-16
-2.143280184995994e-16 7.709690563738778e-17 -2.744622257244233e-17 1.457054884818681e-16 -8.482743923607136e-17 -5.417847295900336e-16
2.382425405567451e-17 7.085405608065039e-17 1.437102871148972e-16 9.743130069752016e-17 -1.848431067999416e-16 -2.248271360732199e-16
5.717963035925485e-17 1.241267076623636e-16 1.655022768831515e-16 2.082276740732488e-16 -8.834738756543783e-18 1.528149914653026e-16
-2.993964314893688e-17 3.430777821555291e-17 -2.068778461039394e-16 -5.743742456191035e-17 -3.009896872828066e-17 -1.159525165119476e-17
1.469985598060656e-16 5.281149529263883e-17 -2.623889973351973e-16 1.001628217520077e-16 -2.723157698583950e-16 2.524622248119995e-16
1.111816280418594e-16 3.066235480739479e-16 1.047887510212792e-16 1.699993090510953e-16 -4.024370405929796e-17 4.141540061562381e-17
-1.834904055549264e-16 6.746266570841978e-17 1.919080245294709e-16 -7.194089204272371e-17 -1.530727856679581e-17 2.966522426975042e-16
2.187828700035968e-17 1.155497631084754e-16 -7.902030569233480e-18 1.875844223161009e-16 7.468037937617858e-17 5.797625825597386e-18
1.604592278318807e-16 2.482534153247272e-16 2.654073044325037e-16 8.779418749284658e-17 3.835726212348138e-17 2.139456371091744e-16
8.719804840684115e-17 1.907400891398731e-16 -3.168689717558332e-17 -9.774065374070661e-17 1.052574296438095e-16 -5.386181708109292e-17
-2.074664628564888e-16 9.405960404995170e-17 1.352289379086152e-16 1.965414761321984e-16 -5.896982339931536e-18 2.378654865124552e-16
9.567939761312313e-17 5.651223870805604e-17 -1.114046838529407e-16 4.546908963579154e-17 -1.593904393539791e-17 2.032483552537157e-16
-5.281149529263885e-17 1.126907815905127e-16 1.056229905852777e-16 1.366546675008687e-16 -1.092033766653998e-17 1.671098990551165e-16
4.844336022602288e-17 8.275113844157578e-17 4.368135066615994e-18 1.361999360515899e-17 -3.430777821555293e-17 9.527909828008077e-17
1.311944986675986e-16 -1.850371707708594e-17 9.418706451342671e-17 -2.177981837704787e-17 1.431460131447606e-16 2.645730648685052e-16
1.111816280418594e-16 3.066235480739479e-16 1.047887510212792e-16 1.699993090510953e-16 -4.024370405929796e-17 4.141540061562381e-17
8.477588039553997e-17 -6.087285144121608e-17 1.555755043599538e-16 -1.935507766378619e-16 -1.422133049574503e-16 -7.426325959417946e-17
-1.834904055549264e-16 6.746266570841978e-17 1.919080245294709e-16 -7.194089204272371e-17 -1.530727856679581e-17 2.966522426975042e-16
2.739842489863919e-16 -3.425998054174978e-16 2.482534153247272e-16 -3.296148944021576e-16 1.894661627935075e-16 5.089573474258429e-17
4.016824638186526e-17 5.330531085145521e-16 1.548125173611488e-16 3.571381408314385e-17 -7.413015738061240e-17 -1.404341858149353e-16
-2.107060499828316e-16 1.766345964632269e-16 1.130244774161121e-16 -8.632907045126833e-17 -1.900848688798808e-16 9.372071041977157e-17
8.719804840684115e-17 1.907400891398731e-16 -3.168689717558332e-17 -9.774065374070661e-17 1.052574296438095e-16 -5.386181708109292e-17
5.717963035925485e-17 7.067791005234987e-18 1.126907815905127e-16 -9.049384343146538e-17 1.581766916752611e-16 2.211727536937527e-17
-4.844336022602282e-17 -3.925523191921739e-16 1.540663508113006e-16 -1.025062148646594e-16 -8.981892944681069e-17 -2.523405108999352e-17
1.469985598060656e-16 1.180900934677507e-16 -8.981892944681072e-17 -2.924879660634779e-16 -5.975757238581018e-18 2.593939355266429e-17
1.111816280418594e-16 3.066235480739479e-16 1.047887510212792e-16 1.699993090510953e-16 -4.024370405929796e-17 4.141540061562381e-17
-2.891133961402041e-16 1.182494190470944e-16 -5.863257600962653e-16 1.534710996163196e-17 -1.553763473857743e-16 -5.591303057391931e-16
8.477588039553997e-17 -6.087285144121608e-17 1.555755043599538e-16 -1.935507766378619e-16 -1.422133049574503e-16 -7.426325959417946e-17
1.604592278318808e-16 -8.411313780209167e-16 -4.319407581262772e-16 -3.276101299961951e-18 -2.322811496966929e-17 2.793481689239076e-17
2.382425405567451e-17 7.085405608065039e-17 1.437102871148972e-16 9.743130069752016e-17 -1.848431067999416e-16 -2.248271360732199e-16
-1.885015894903284e-16 1.348465565181902e-16 -2.198061052754867e-16 -2.424815689193955e-16 1.626751604810575e-16 -2.610049797211438e-16
4.016824638186526e-17 5.330531085145521e-16 1.548125173611488e-16 3.571381408314385e-17 -7.413015738061240e-17 -1.404341858149353e-16
-4.137556922078789e-17 -4.574370428740391e-17 6.694707730310879e-17 1.850980277268914e-16 -3.293360746383061e-16 -8.090452790059510e-17
-4.574370428740385e-17 -2.156141162371714e-16 -5.416132326194834e-16 -3.228447289944141e-16 -1.028303534916513e-17 -8.742630202250301e-17
2.025097110373234e-16 -4.366275443515808e-16 8.171996163095384e-17 1.690361723857690e-16 2.085463252319363e-16 -8.578825137252219e-17
9.734555221224487e-16 2.698739081224314e-16 6.627216331845406e-17 -5.066725915416678e-17 -3.845684061057115e-17 -9.412731742117293e-17
-2.891133961402041e-16 1.182494190470944e-16 -5.863257600962653e-16 1.534710996163196e-17 -1.553763473857743e-16 -5.591303057391931e-16
2.187828700035968e-17 1.155497631084754e-16 -7.902030569233480e-18 1.875844223161009e-16 7.468037937617858e-17 5.797625825597386e-18
-4.890253113041435e-17 2.353879984938949e-16 -1.627229581548607e-16 -1.554571200392238e-17 1.567366881356816e-16 -2.664196754094860e-16
-3.106819108921012e-17 2.309083355217383e-16 -1.996038197365800e-16 6.206335383118083e-18 6.246830222197459e-17 -2.166846804971180e-16
-2.143280184995994e-16 7.709690563738778e-17 -2.744622257244233e-17 1.457054884818681e-16 -8.482743923607136e-17 -5.417847295900336e-16
4.628177585202748e-16 -1.156453584560817e-16 1.534290484939255e-17 1.554972782081346e-16 -8.326672684688644e-18 -8.644723279924259e-17
5.219566248197113e-16 3.347353865155437e-17 1.211084005650571e-16 -1.441794096829389e-16 -5.218581561963999e-17 -7.892902025828675e-17
1.153904375291317e-16 2.368174892528763e-16 -1.998100550987044e-16 2.076324228782658e-16 1.512914715381213e-17 -6.592485946379549e-16
-8.711927350819173e-17 -1.850371707708596e-17 1.426304247394495e-16 -3.955938715782318e-17 1.465814400240662e-16 -1.683523794908890e-17
9.734555221224487e-16 2.698739081224314e-16 6.627216331845406e-17 -5.066725915416678e-17 -3.845684061057115e-17 -9.412731742117293e-17
2.187828700035968e-17 1.155497631084754e-16 -7.902030569233480e-18 1.875844223161009e-16 7.468037937617858e-17 5.797625825597386e-18
-1.834904055549264e-16 6.746266570841978e-17 1.919080245294709e-16 -7.194089204272371e-17 -1.530727856679581e-17 2.966522426975042e-16
-4.639283885179307e-16 1.475938110010484e-16 2.353879984938949e-16 2.656603971767492e-16 -6.492455507670108e-18 -2.494591319537011e-16
4.628177585202748e-16 -1.156453584560817e-16 1.534290484939255e-17 1.554972782081346e-16 -8.326672684688644e-18 -8.644723279924259e-17
-2.074664628564888e-16 9.405960404995170e-17 1.352289379086152e-16 1.965414761321984e-16 -5.896982339931536e-18 2.378654865124552e-16
1.205047391455959e-16 1.185025641919994e-16 -3.592757177872433e-17 5.314054206048784e-17 -1.986618134337689e-16 2.113247560692046e-16
2.524998364792790e-16 1.413558201046997e-17 4.490946472340534e-17 1.165621340854575e-16 1.720312341943234e-17 -1.747541354216946e-16
6.257894223649281e-17 4.137556922078788e-17 1.611341418165355e-16 2.146205510938290e-16 2.342163019375691e-16 -1.517229576986488e-16
-6.154776542587083e-17 7.838300337495979e-17 7.131521236972478e-17 1.122736618085135e-16 -8.316825822357501e-17 -1.316116184495978e-16
9.734555221224487e-16 2.698739081224314e-16 6.627216331845406e-17 -5.066725915416678e-17 -3.845684061057115e-17 -9.412731742117293e-17
-1.834904055549264e-16 6.746266570841978e-17 1.919080245294709e-16 -7.194089204272371e-17 -1.530727856679581e-17 2.966522426975042e-16
8.477588039553997e-17 -6.087285144121608e-17 1.555755043599538e-16 -1.935507766378619e-16 -1.422133049574503e-16 -7.426325959417946e-17
8.086093533903121e-16 -1.839263311705655e-16 1.947670060474337e-16 2.525418876016713e-16 1.380642425624320e-16 2.750264935095012e-16
1.205047391455959e-16 1.185025641919994e-16 -3.592757177872433e-17 5.314054206048784e-17 -1.986618134337689e-16 2.113247560692046e-16
-2.107060499828316e-16 1.766345964632269e-16 1.130244774161121e-16 -8.632907045126833e-17 -1.900848688798808e-16 9.372071041977157e-17
2.969030109128746e-16 3.687581544703232e-16 2.644513509564416e-17 -9.337484320296568e-17 -1.118687134177206e-16 -5.545207005727098e-17
9.975787336121485e-16 7.433351946703135e-17 2.422168011301144e-17 2.186019948564619e-16 -1.774914030275931e-17 1.015524811161531e-16
-4.368135066616001e-18 9.521824132404876e-17 4.368135066615988e-18 3.263929908755586e-17 8.914401546215595e-17 3.171267659584886e-16
3.263929908755588e-17 -5.133420685985434e-16 1.241267076623637e-16 2.275656307143331e-16 1.084819721032404e-16 4.709353225671342e-17
9.734555221224487e-16 2.698739081224314e-16 6.627216331845406e-17 -5.066725915416678e-17 -3.845684061057115e-17 -9.412731742117293e-17
8.477588039553997e-17 -6.087285144121608e-17 1.555755043599538e-16 -1.935507766378619e-16 -1.422133049574503e-16 -7.426325959417946e-17
-2.891133961402041e-16 1.182494190470944e-16 -5.863257600962653e-16 1.534710996163196e-17 -1.553763473857743e-16 -5.591303057391931e-16
3.247289512026744e-16 -3.807180791719636e-16 -3.892950237258518e-16 -2.525120140555443e-16 -5.753589318522188e-17 1.724018943241119e-16
2.969030109128746e-16 3.687581544703232e-16 2.644513509564416e-17 -9.337484320296568e-17 -1.118687134177206e-16 -5.545207005727098e-17
-1.885015894903284e-16 1.348465565181902e-16 -2.198061052754867e-16 -2.424815689193955e-16 1.626751604810575e-16 -2.610049797211438e-16
-3.106819108921012e-17 2.309083355217383e-16 -1.996038197365800e-16 6.206335383118083e-18 6.246830222197459e-17 -2.166846804971180e-16
7.511907346620418e-16 6.726572846179632e-17 1.985354504639546e-17 -2.345935903247322e-16 3.623405154620553e-17 1.356821279187225e-16
2.438852802581113e-16 -4.817339463216096e-16 -1.621653186271574e-16 -5.878841479565742e-16 -4.442109237621263e-16 -9.688672045204561e-17
-1.698704119497675e-16 1.796378588936214e-16 -5.759210108350363e-16 1.151558886152287e-17 -5.362139207422451e-16 -8.596638278550563e-17
1.111816280418594e-16 3.066235480739479e-16 1.047887510212792e-16 1.699993090510953e-16 -4.024370405929796e-17 4.141540061562381e-17
-2.891133961402041e-16 1.182494190470944e-16 -5.863257600962653e-16 1.534710996163196e-17 -1.553763473857743e-16 -5.591303057391931e-16
2.187828700035968e-17 1.155497631084754e-16 -7.902030569233480e-18 1.875844223161009e-16 7.468037937617858e-17 5.797625825597386e-18
3.517111442103368e-16 -3.681049690754844e-17 7.695351261597840e-17 -3.506705644828966e-17 3.803031791175223e-17 -9.216728602116834e-18
2.382425405567451e-17 7.085405608065039e-17 1.437102871148972e-16 9.743130069752016e-17 -1.848431067999416e-16 -2.248271360732199e-16
-2.143280184995994e-16 7.709690563738778e-17 -2.744622257244233e-17 1.457054884818681e-16 -8.482743923607136e-17 -5.417847295900336e-16
9.567939761312313e-17 5.651223870805604e-17 -1.114046838529407e-16 4.546908963579154e-17 -1.593904393539791e-17 2.032483552537157e-16
2.735062722483607e-16 2.650421626963117e-17 -2.370609170770046e-17 -1.785342024825914e-17 7.839821761396782e-17 9.762249139273259e-17
1.097709431165179e-16 -4.741218341540089e-17 -3.617784364792384e-16 1.582867829429525e-17 -1.581216460414173e-16 -2.992371059100253e-16
4.339655000802414e-16 2.192464803631006e-16 -4.288472276944112e-17 1.188997158759211e-16 1.118869705045303e-16 -4.100768375044438e-17
1.111816280418594e-16 3.066235480739479e-16 1.047887510212792e-16 1.699993090510953e-16 -4.024370405929796e-17 4.141540061562381e-17
2.187828700035968e-17 1.155497631084754e-16 -7.902030569233480e-18 1.875844223161009e-16 7.468037937617858e-17 5.797625825597386e-18
-1.834904055549264e-16 6.746266570841978e-17 1.919080245294709e-16 -7.194089204272371e-17 -1.530727856679581e-17 2.966522426975042e-16
3.517111442103368e-16 -3.681049690754844e-17 7.695351261597840e-17 -3.506705644828966e-17 3.803031791175223e-17 -9.216728602116834e-18
9.567939761312313e-17 5.651223870805604e-17 -1.114046838529407e-16 4.546908963579154e-17 -1.593904393539791e-17 2.032483552537157e-16
-2.074664628564888e-16 9.405960404995170e-17 1.352289379086152e-16 1.965414761321984e-16 -5.896982339931536e-18 2.378654865124552e-16
8.719804840684115e-17 1.907400891398731e-16 -3.168689717558332e-17 -9.774065374070661e-17 1.052574296438095e-16 -5.386181708109292e-17
2.735062722483607e-16 2.650421626963117e-17 -2.370609170770046e-17 -1.785342024825914e-17 7.839821761396782e-17 9.762249139273259e-17
4.339655000802414e-16 2.192464803631006e-16 -4.288472276944112e-17 1.188997158759211e-16 1.118869705045303e-16 -4.100768375044438e-17
4.049483907928455e-18 -2.620881039969600e-17 3.294954002176498e-16 -2.389943735969217e-17 2.652139587805121e-16 1.023715064411437e-16
1.111816280418594e-16 3.066235480739479e-16 1.047887510212792e-16 1.699993090510953e-16 -4.024370405929796e-17 4.141540061562381e-17
-1.834904055549264e-16 6.746266570841978e-17 1.919080245294709e-16 -7.194089204272371e-17 -1.530727856679581e-17 2.966522426975042e-16
8.477588039553997e-17 -6.087285144121608e-17 1.555755043599538e-16 -1.935507766378619e-16 -1.422133049574503e-16 -7.426325959417946e-17
3.517111442103368e-16 -3.681049690754844e-17 7.695351261597840e-17 -3.506705644828966e-17 3.803031791175223e-17 -9.216728602116834e-18
8.719804840684115e-17 1.907400891398731e-16 -3.168689717558332e-17 -9.774065374070661e-17 1.052574296438095e-16 -5.386181708109292e-17
-2.107060499828316e-16 1.766345964632269e-16 1.130244774161121e-16 -8.632907045126833e-17 -1.900848688798808e-16 9.372071041977157e-17
4.016824638186526e-17 5.330531085145521e-16 1.548125173611488e-16 3.571381408314385e-17 -7.413015738061240e-17 -1.404341858149353e-16
2.735062722483607e-16 2.650421626963117e-17 -2.370609170770046e-17 -1.785342024825914e-17 7.839821761396782e-17 9.762249139273259e-17
4.049483907928455e-18 -2.620881039969600e-17 3.294954002176498e-16 -2.389943735969217e-17 2.652139587805121e-16 1.023715064411437e-16
3.004884652560231e-16 2.657027103024389e-16 7.266504033903433e-17 2.042999040773845e-17 -2.608059923190602e-16 8.463758037739216e-17
1.111816280418594e-16 3.066235480739479e-16 1.047887510212792e-16 1.699993090510953e-16 -4.024370405929796e-17 4.141540061562381e-17
8.477588039553997e-17 -6.087285144121608e-17 1.555755043599538e-16 -1.935507766378619e-16 -1.422133049574503e-16 -7.426325959417946e-17
-2.891133961402041e-16 1.182494190470944e-16 -5.863257600962653e-16 1.534710996163196e-17 -1.553763473857743e-16 -5.591303057391931e-16
3.517111442103368e-16 -3.681049690754844e-17 7.695351261597840e-17 -3.506705644828966e-17 3.803031791175223e-17 -9.216728602116834e-18
4.016824638186526e-17 5.330531085145521e-16 1.548125173611488e-16 3.571381408314385e-17 -7.413015738061240e-17 -1.404341858149353e-16
-1.885015894903284e-16 1.348465565181902e-16 -2.198061052754867e-16 -2.424815689193955e-16 1.626751604810575e-16 -2.610049797211438e-16
2.382425405567451e-17 7.085405608065039e-17 1.437102871148972e-16 9.743130069752016e-17 -1.848431067999416e-16 -2.248271360732199e-16
2.735062722483607e-16 2.650421626963117e-17 -2.370609170770046e-17 -1.785342024825914e-17 7.839821761396782e-17 9.762249139273259e-17
3.004884652560231e-16 2.657027103024389e-16 7.266504033903433e-17 2.042999040773845e-17 -2.608059923190602e-16 8.463758037739216e-17
1.097709431165179e-16 -4.741218341540089e-17 -3.617784364792384e-16 1.582867829429525e-17 -1.581216460414173e-16 -2.992371059100253e-16
9.734555221224487e-16 2.698739081224314e-16 6.627216331845406e-17 -5.066725915416678e-17 -3.845684061057115e-17 -9.412731742117293e-17
2.187828700035968e-17 1.155497631084754e-16 -7.902030569233480e-18 1.875844223161009e-16 7.468037937617858e-17 5.797625825597386e-18
-2.891133961402041e-16 1.182494190470944e-16 -5.863257600962653e-16 1.534710996163196e-17 -1.553763473857743e-16 -5.591303057391931e-16
3.517111442103368e-16 -3.681049690754844e-17 7.695351261597840e-17 -3.506705644828966e-17 3.803031791175223e-17 -9.216728602116834e-18
4.628177585202748e-16 -1.156453584560817e-16 1.534290484939255e-17 1.554972782081346e-16 -8.326672684688644e-18 -8.644723279924259e-17
-2.143280184995994e-16 7.709690563738778e-17 -2.744622257244233e-17 1.457054884818681e-16 -8.482743923607136e-17 -5.417847295900336e-16
-3.106819108921012e-17 2.309083355217383e-16 -1.996038197365800e-16 6.206335383118083e-18 6.246830222197459e-17 -2.166846804971180e-16
1.506309239319948e-16 2.101915590711811e-16 3.327715015176119e-16 -1.453757233950928e-16 -3.336925870605441e-17 -2.091509793437392e-16
4.339655000802414e-16 2.192464803631006e-16 -4.288472276944112e-17 1.188997158759211e-16 1.118869705045303e-16 -4.100768375044438e-17
1.097709431165179e-16 -4.741218341540089e-17 -3.617784364792384e-16 1.582867829429525e-17 -1.581216460414173e-16 -2.992371059100253e-16
9.734555221224487e-16 2.698739081224314e-16 6.627216331845406e-17 -5.066725915416678e-17 -3.845684061057115e-17 -9.412731742117293e-17
-1.834904055549264e-16 6.746266570841978e-17 1.919080245294709e-16 -7.194089204272371e-17 -1.530727856679581e-17 2.966522426975042e-16
2.187828700035968e-17 1.155497631084754e-16 -7.902030569233480e-18 1.875844223161009e-16 7.468037937617858e-17 5.797625825597386e-18
3.517111442103368e-16 -3.681049690754844e-17 7.695351261597840e-17 -3.506705644828966e-17 3.803031791175223e-17 -9.216728602116834e-18
1.205047391455959e-16 1.185025641919994e-16 -3.592757177872433e-17 5.314054206048784e-17 -1.986618134337689e-16 2.113247560692046e-16
-2.074664628564888e-16 9.405960404995170e-17 1.352289379086152e-16 1.965414761321984e-16 -5.896982339931536e-18 2.378654865124552e-16
4.628177585202748e-16 -1.156453584560817e-16 1.534290484939255e-17 1.554972782081346e-16 -8.326672684688644e-18 -8.644723279924259e-17
1.506309239319948e-16 2.101915590711811e-16 3.327715015176119e-16 -1.453757233950928e-16 -3.336925870605441e-17 -2.091509793437392e-16
4.049483907928455e-18 -2.620881039969600e-17 3.294954002176498e-16 -2.389943735969217e-17 2.652139587805121e-16 1.023715064411437e-16
4.339655000802414e-16 2.192464803631006e-16 -4.288472276944112e-17 1.188997158759211e-16 1.118869705045303e-16 -4.100768375044438e-17
9.734555221224487e-16 2.698739081224314e-16 6.627216331845406e-17 -5.066725915416678e-17 -3.845684061057115e-17 -9.412731742117293e-17
8.477588039553997e-17 -6.087285144121608e-17 1.555755043599538e-16 -1.935507766378619e-16 -1.422133049574503e-16 -7.426325959417946e-17
-1.834904055549264e-16 6.746266570841978e-17 1.919080245294709e-16 -7.194089204272371e-17 -1.530727856679581e-17 2.966522426975042e-16
3.517111442103368e-16 -3.681049690754844e-17 7.695351261597840e-17 -3.506705644828966e-17 3.803031791175223e-17 -9.216728602116834e-18
2.969030109128746e-16 3.687581544703232e-16 2.644513509564416e-17 -9.337484320296568e-17 -1.118687134177206e-16 -5.545207005727098e-17
-2.107060499828316e-16 1.766345964632269e-16 1.130244774161121e-16 -8.632907045126833e-17 -1.900848688798808e-16 9.372071041977157e-17
1.205047391455959e-16 1.185025641919994e-16 -3.592757177872433e-17 5.314054206048784e-17 -1.986618134337689e-16 2.113247560692046e-16
1.506309239319948e-16 2.101915590711811e-16 3.327715015176119e-16 -1.453757233950928e-16 -3.336925870605441e-17 -2.091509793437392e-16
3.004884652560231e-16 2.657027103024389e-16 7.266504033903433e-17 2.042999040773845e-17 -2.608059923190602e-16 8.463758037739216e-17
4.049483907928455e-18 -2.620881039969600e-17 3.294954002176498e-16 -2.389943735969217e-17 2.652139587805121e-16 1.023715064411437e-16
9.734555221224487e-16 2.698739081224314e-16 6.627216331845406e-17 -5.066725915416678e-17 -3.845684061057115e-17 -9.412731742117293e-17
-2.891133961402041e-16 1.182494190470944e-16 -5.863257600962653e-16 1.534710996163196e-17 -1.553763473857743e-16 -5.591303057391931e-16
8.477588039553997e-17 -6.087285144121608e-17 1.555755043599538e-16 -1.935507766378619e-16 -1.422133049574503e-16 -7.426325959417946e-17
3.517111442103368e-16 -3.681049690754844e-17 7.695351261597840e-17 -3.506705644828966e-17 3.803031791175223e-17 -9.216728602116834e-18
-3.106819108921012e-17 2.309083355217383e-16 -1.996038197365800e-16 6.206335383118083e-18 6.246830222197459e-17 -2.166846804971180e-16
-1.885015894903284e-16 1.348465565181902e-16 -2.198061052754867e-16 -2.424815689193955e-16 1.626751604810575e-16 -2.610049797211438e-16
2.969030109128746e-16 3.687581544703232e-16 2.644513509564416e-17 -9.337484320296568e-17 -1.118687134177206e-16 -5.545207005727098e-17
1.506309239319948e-16 2.101915590711811e-16 3.327715015176119e-16 -1.453757233950928e-16 -3.336925870605441e-17 -2.091509793437392e-16
1.097709431165179e-16 -4.741218341540089e-17 -3.617784364792384e-16 1.582867829429525e-17 -1.581216460414173e-16 -2.992371059100253e-16
3.004884652560231e-16 2.657027103024389e-16 7.266504033903433e-17 2.042999040773845e-17 -2.608059923190602e-16 8.463758037739216e-17
-4.890253113041435e-17 2.353879984938949e-16 -1.627229581548607e-16 -1.554571200392238e-17 1.567366881356816e-16 -2.664196754094860e-16
-4.639283885179307e-16 1.475938110010484e-16 2.353879984938949e-16 2.656603971767492e-16 -6.492455507670108e-18 -2.494591319537011e-16
9.734555221224487e-16 2.698739081224314e-16 6.627216331845406e-17 -5.066725915416678e-17 -3.845684061057115e-17 -9.412731742117293e-17
4.272539719009742e-17 1.804720984576199e-16 -1.284948427289797e-16 -1.647922329620714e-16 1.065556987725879e-16 -2.662371045413932e-17
-1.201363049284222e-15 -7.266504033903427e-17 3.037645665559851e-16 2.621312031325417e-16 -3.555913756155059e-17 -3.057893085099494e-16
2.524998364792790e-16 1.413558201046997e-17 4.490946472340534e-17 1.165621340854575e-16 1.720312341943234e-17 -1.747541354216946e-16
5.219566248197113e-16 3.347353865155437e-17 1.211084005650571e-16 -1.441794096829389e-16 -5.218581561963999e-17 -7.892902025828675e-17
4.827651231322313e-16 -1.143592607185097e-17 -1.927422640934695e-16 -1.241267076623638e-16 6.283673643914827e-17 -7.163386352841234e-17
4.844336022602284e-16 -4.574370428740388e-17 1.311944986675986e-16 -8.519300017753914e-17 1.657744374643341e-17 1.300039962776328e-16
1.308353107493042e-15 1.162640645424548e-16 6.187060863731738e-19 -2.869758191844004e-17 1.085195837705202e-17 3.159130182797696e-17
-4.639283885179307e-16 1.475938110010484e-16 2.353879984938949e-16 2.656603971767492e-16 -6.492455507670108e-18 -2.494591319537011e-16
8.086093533903121e-16 -1.839263311705655e-16 1.947670060474337e-16 2.525418876016713e-16 1.380642425624320e-16 2.750264935095012e-16
9.734555221224487e-16 2.698739081224314e-16 6.627216331845406e-17 -5.066725915416678e-17 -3.845684061057115e-17 -9.412731742117293e-17
-2.349520728782559e-16 7.905791735961454e-17 2.062029321192846e-16 -3.744446963358896e-17 2.157125848604807e-17 3.405468547130756e-17
-7.508156075986834e-18 4.107373851105724e-16 -5.551115123125781e-17 -2.020925912553242e-16 -9.184367140077502e-17 1.829139601935837e-16
9.975787336121485e-16 7.433351946703135e-17 2.422168011301144e-17 2.186019948564619e-16 -1.774914030275931e-17 1.015524811161531e-16
2.524998364792790e-16 1.413558201046997e-17 4.490946472340534e-17 1.165621340854575e-16 1.720312341943234e-17 -1.747541354216946e-16
-2.919347659908873e-16 1.981415759707074e-16 6.424742136448982e-17 2.972732209120932e-16 2.749778141297330e-17 -1.642509175371538e-16
1.175351176131149e-15 3.239367627610682e-16 -1.197585725957476e-16 -2.117615695758663e-16 -1.450722864754130e-16 -7.396563399668766e-17
1.429455243340471e-16 3.191074714053777e-16 -9.482436683080213e-18 -2.987591291719954e-17 1.166099317592607e-16 -2.510950276469029e-16
8.086093533903121e-16 -1.839263311705655e-16 1.947670060474337e-16 2.525418876016713e-16 1.380642425624320e-16 2.750264935095012e-16
3.247289512026744e-16 -3.807180791719636e-16 -3.892950237258518e-16 -2.525120140555443e-16 -5.753589318522188e-17 1.724018943241119e-16
9.734555221224487e-16 2.698739081224314e-16 6.627216331845406e-17 -5.066725915416678e-17 -3.845684061057115e-17 -9.412731742117293e-17
-8.624940766159652e-16 -1.005799415340069e-16 -6.749139846547544e-19 -1.250898443276896e-16 3.266972756557230e-17 8.226486865050264e-17
-5.701278244645516e-16 -9.920577078228467e-16 3.935834960027959e-16 -5.551115123125770e-17 9.309503074677289e-17 7.594114163899631e-17
7.511907346620418e-16 6.726572846179632e-17 1.985354504639546e-17 -2.345935903247322e-16 3.623405154620553e-17 1.356821279187225e-16
9.975787336121485e-16 7.433351946703135e-17 2.422168011301144e-17 2.186019948564619e-16 -1.774914030275931e-17 1.015524811161531e-16
-6.424742136448983e-17 -6.233331942504372e-16 2.253815631810253e-16 1.358204279368702e-16 7.266504033903428e-17 2.540510411503245e-16
3.097081995955889e-17 -1.567660067499196e-16 -2.438852802581113e-16 4.129214526438799e-16 2.477378269194160e-16 -2.695364511301039e-16
1.858249197573542e-17 6.153917762318791e-16 1.806389463704197e-16 3.187808787079571e-17 1.013765694307254e-17 -7.251036381744124e-17
3.247289512026744e-16 -3.807180791719636e-16 -3.892950237258518e-16 -2.525120140555443e-16 -5.753589318522188e-17 1.724018943241119e-16
-4.890253113041435e-17 2.353879984938949e-16 -1.627229581548607e-16 -1.554571200392238e-17 1.567366881356816e-16 -2.664196754094860e-16
9.734555221224487e-16 2.698739081224314e-16 6.627216331845406e-17 -5.066725915416678e-17 -3.845684061057115e-17 -9.412731742117293e-17
-7.064029838507008e-17 -3.212371068224487e-17 -4.386522863055449e-16 2.847054296787527e-16 -2.652479788531603e-16 -3.038290151066486e-16
3.280614700035559e-16 3.037645665559851e-16 3.552262338793144e-16 -1.060168650785243e-17 1.266294263543591e-16 -2.813098341942827e-16
5.219566248197113e-16 3.347353865155437e-17 1.211084005650571e-16 -1.441794096829389e-16 -5.218581561963999e-17 -7.892902025828675e-17
7.511907346620418e-16 6.726572846179632e-17 1.985354504639546e-17 -2.345935903247322e-16 3.623405154620553e-17 1.356821279187225e-16
5.056369752759335e-16 -3.266364186996871e-16 -7.245880497690990e-16 -2.961811871454392e-16 1.040474926122894e-17 1.692447322767686e-16
3.896092354294266e-16 2.324493541862603e-16 -3.538764059100050e-16 2.691989941377769e-16 5.416132326194826e-17 3.698774042950953e-16
5.561125997893765e-16 5.975182583439884e-17 1.352289379086152e-16 4.645622993934238e-18 -3.680073388627245e-16 -1.282422463309049e-16
-4.890253113041435e-17 2.353879984938949e-16 -1.627229581548607e-16 -1.554571200392238e-17 1.567366881356816e-16 -2.664196754094860e-16
-1.967917480013979e-15 2.568303598786155e-16 5.202129223571549e-16 7.921724293895799e-17 3.520065500802677e-17 -1.218629773393838e-16
4.272539719009742e-17 1.804720984576199e-16 -1.284948427289797e-16 -1.647922329620714e-16 1.065556987725879e-16 -2.662371045413932e-17
-7.064029838507008e-17 -3.212371068224487e-17 -4.386522863055449e-16 2.847054296787527e-16 -2.652479788531603e-16 -3.038290151066486e-16
1.796378588936215e-16 3.430777821555291e-17 -1.796378588936216e-16 -6.418369113275231e-16 4.874519093575344e-16 6.075291331119702e-16
-9.405960404995172e-16 -4.844336022602285e-17 1.540663508113005e-16 -4.534932107786860e-16 5.727809898256636e-17 1.113409536212031e-16
4.827651231322313e-16 -1.143592607185097e-17 -1.927422640934695e-16 -1.241267076623638e-16 6.283673643914827e-17 -7.163386352841234e-17
3.896092354294266e-16 2.324493541862603e-16 -3.538764059100050e-16 2.691989941377769e-16 5.416132326194826e-17 3.698774042950953e-16
-6.008552165999820e-16 1.426304247394496e-16 -6.964673324172778e-17 -2.744013687683911e-16 1.468392342267217e-16 -2.177373268144472e-16
-3.455526065010218e-16 1.267475887023332e-16 1.120233899393139e-16 8.731190084125719e-17 -1.664152913457997e-16 -2.939362626560987e-16
-4.639283885179307e-16 1.475938110010484e-16 2.353879984938949e-16 2.656603971767492e-16 -6.492455507670108e-18 -2.494591319537011e-16
-6.761446895430762e-16 1.155497631084754e-16 2.568303598786155e-16 -2.523626463249094e-16 -2.245473236170227e-17 3.454892154134761e-16
-2.349520728782559e-16 7.905791735961454e-17 2.062029321192846e-16 -3.744446963358896e-17 2.157125848604807e-17 3.405468547130756e-17
4.272539719009742e-17 1.804720984576199e-16 -1.284948427289797e-16 -1.647922329620714e-16 1.065556987725879e-16 -2.662371045413932e-17
1.796378588936215e-16 6.861555643110583e-17 0.000000000000000e+00 -4.702980202497585e-16 5.395942653691767e-31 -4.016824638186528e-16
2.112459811705552e-16 -4.574370428740384e-17 -7.067791005234966e-18 -1.475938110010483e-16 -8.519300017753905e-17 4.336269950747226e-17
-2.919347659908873e-16 1.981415759707074e-16 6.424742136448982e-17 2.972732209120932e-16 2.749778141297330e-17 -1.642509175371538e-16
4.844336022602284e-16 -4.574370428740388e-17 1.311944986675986e-16 -8.519300017753914e-17 1.657744374643341e-17 1.300039962776328e-16
1.284948427289795e-16 -1.850371707708592e-17 1.012548555186617e-16 -8.133946082389273e-16 1.807298926602756e-16 -1.491217703833418e-16
-1.636762479578559e-16 2.224269863154563e-16 5.389135766808643e-17 2.666699472786849e-16 3.230560326195630e-17 1.941117857874412e-16
8.086093533903121e-16 -1.839263311705655e-16 1.947670060474337e-16 2.525418876016713e-16 1.380642425624320e-16 2.750264935095012e-16
3.340228608636094e-16 -4.642237943878657e-16 1.306789102622876e-16 2.906601613561369e-16 -5.563064541576586e-17 -4.820033631686410e-16
-8.624940766159652e-16 -1.005799415340069e-16 -6.749139846547544e-19 -1.250898443276896e-16 3.266972756557230e-17 8.226486865050264e-17
-2.349520728782559e-16 7.905791735961454e-17 2.062029321192846e-16 -3.744446963358896e-17 2.157125848604807e-17 3.405468547130756e-17
1.796378588936215e-16 9.482436683080191e-17 -1.110223024625156e-16 3.592757177872429e-16 2.139456371091738e-16 -4.702980202497585e-16
2.341178333142572e-16 -7.915351270722077e-16 -1.083226465238966e-16 5.002376633986954e-16 1.468392342267216e-16 -2.152202417439237e-17
-6.424742136448983e-17 -6.233331942504372e-16 2.253815631810253e-16 1.358204279368702e-16 7.266504033903428e-17 2.540510411503245e-16
1.175351176131149e-15 3.239367627610682e-16 -1.197585725957476e-16 -2.117615695758663e-16 -1.450722864754130e-16 -7.396563399668766e-17
4.736349785057525e-16 -2.993964314893682e-17 4.304404834878489e-17 2.879605054175181e-16 -1.699456352843267e-17 -6.059215109400050e-16
-1.117140368961273e-15 2.002225258229533e-16 1.267475887023332e-16 5.878725253122015e-17 -1.877368267094776e-17 1.765234077018784e-16
3.247289512026744e-16 -3.807180791719636e-16 -3.892950237258518e-16 -2.525120140555443e-16 -5.753589318522188e-17 1.724018943241119e-16
-8.295737380370016e-16 2.370609170770041e-17 4.838804021876378e-16 4.127621270645364e-16 3.204747427460360e-31 7.332059355816012e-16
-7.064029838507008e-17 -3.212371068224487e-17 -4.386522863055449e-16 2.847054296787527e-16 -2.652479788531603e-16 -3.038290151066486e-16
-8.624940766159652e-16 -1.005799415340069e-16 -6.749139846547544e-19 -1.250898443276896e-16 3.266972756557230e-17 8.226486865050264e-17
1.796378588936215e-16 -7.185514355744860e-16 3.087700039399760e-16 6.075291331119702e-16 -2.073934345092500e-16 1.048524812530167e-15
-8.481349206281971e-17 -1.655022768831515e-16 -5.617854288245663e-16 4.300753417516566e-16 -1.496982157446843e-16 7.306335428739375e-17
5.056369752759335e-16 -3.266364186996871e-16 -7.245880497690990e-16 -2.961811871454392e-16 1.040474926122894e-17 1.692447322767686e-16
3.097081995955889e-17 -1.567660067499196e-16 -2.438852802581113e-16 4.129214526438799e-16 2.477378269194160e-16 -2.695364511301039e-16
-4.158180458291228e-16 -1.110223024625157e-16 3.538764059100050e-16 1.722514167296992e-16 -6.206335383118167e-17 4.446092377104859e-16
-8.567836359134957e-16 -2.260489548322241e-16 -3.602768052640412e-16 -2.113247560692043e-16 2.239565118771569e-17 -1.941891240482380e-16
-1.967917480013979e-15 2.568303598786155e-16 5.202129223571549e-16 7.921724293895799e-17 3.520065500802677e-17 -1.218629773393838e-16
-6.761446895430762e-16 1.155497631084754e-16 2.568303598786155e-16 -2.523626463249094e-16 -2.245473236170227e-17 3.454892154134761e-16
4.272539719009742e-17 1.804720984576199e-16 -1.284948427289797e-16 -1.647922329620714e-16 1.065556987725879e-16 -2.662371045413932e-17
-5.799704947429649e-16 2.489283293093820e-16 1.234517936777089e-16 -2.954957603801866e-16 -8.489537458004776e-17 -3.094872310503205e-16
-8.557825484366977e-16 -2.120337301570490e-17 3.037645665559851e-16 1.605548231794870e-15 -3.617784364792384e-16 1.060168650785239e-17
1.284948427289795e-16 -1.850371707708592e-17 1.012548555186617e-16 -8.133946082389273e-16 1.807298926602756e-16 -1.491217703833418e-16
-9.405960404995172e-16 -4.844336022602285e-17 1.540663508113005e-16 -4.534932107786860e-16 5.727809898256636e-17 1.113409536212031e-16
-1.442502183026210e-15 1.241267076623636e-16 1.742385470163835e-16 4.695550661198078e-16 -1.569253323292634e-16 -2.512108654660017e-16
-8.786544005803997e-16 8.981892944681079e-17 1.355626337342146e-16 1.254273013200173e-16 9.418706451342664e-17 1.083835034799287e-16
-9.301125163396390e-16 -2.644513509564412e-17 -2.482534153247270e-17 -7.921026935233337e-17 2.280736967861885e-16 -2.049272299908745e-16
-6.761446895430762e-16 1.155497631084754e-16 2.568303598786155e-16 -2.523626463249094e-16 -2.245473236170227e-17 3.454892154134761e-16
3.340228608636094e-16 -4.642237943878657e-16 1.306789102622876e-16 2.906601613561369e-16 -5.563064541576586e-17 -4.820033631686410e-16
-2.349520728782559e-16 7.905791735961454e-17 2.062029321192846e-16 -3.744446963358896e-17 2.157125848604807e-17 3.405468547130756e-17
-5.799704947429649e-16 2.489283293093820e-16 1.234517936777089e-16 -2.954957603801866e-16 -8.489537458004776e-17 -3.094872310503205e-16
-8.557825484366977e-16 3.935834960027959e-16 -2.120337301570490e-17 -2.139456371091744e-16 -3.527235151873187e-16 4.328967116023397e-16
4.736349785057525e-16 -2.993964314893682e-17 4.304404834878489e-17 2.879605054175181e-16 -1.699456352843267e-17 -6.059215109400050e-16
2.112459811705552e-16 -4.574370428740384e-17 -7.067791005234966e-18 -1.475938110010483e-16 -8.519300017753905e-17 4.336269950747226e-17
-8.786544005803997e-16 8.981892944681079e-17 1.355626337342146e-16 1.254273013200173e-16 9.418706451342664e-17 1.083835034799287e-16
3.027333897453630e-16 -7.131521236972477e-17 4.368135066616025e-18 -6.321624455386798e-17 -2.592722216145790e-16 -6.180555962852611e-17
-4.311308613446917e-16 -3.792974673232072e-17 7.971778667735739e-17 -2.643175951947249e-16 1.649866884778363e-17 4.358495126858644e-16
3.340228608636094e-16 -4.642237943878657e-16 1.306789102622876e-16 2.906601613561369e-16 -5.563064541576586e-17 -4.820033631686410e-16
-8.295737380370016e-16 2.370609170770041e-17 4.838804021876378e-16 4.127621270645364e-16 3.204747427460360e-31 7.332059355816012e-16
-8.624940766159652e-16 -1.005799415340069e-16 -6.749139846547544e-19 -1.250898443276896e-16 3.266972756557230e-17 8.226486865050264e-17
-5.799704947429649e-16 2.489283293093820e-16 1.234517936777089e-16 -2.954957603801866e-16 -8.489537458004776e-17 -3.094872310503205e-16
-1.574333984011184e-15 -2.775557561562892e-16 3.935834960027959e-16 1.746324215096297e-16 2.629045857405080e-16 -1.715388910777621e-17
-4.158180458291228e-16 -1.110223024625157e-16 3.538764059100050e-16 1.722514167296992e-16 -6.206335383118167e-17 4.446092377104859e-16
2.341178333142572e-16 -7.915351270722077e-16 -1.083226465238966e-16 5.002376633986954e-16 1.468392342267216e-16 -2.152202417439237e-17
3.027333897453630e-16 -7.131521236972477e-17 4.368135066616025e-18 -6.321624455386798e-17 -2.592722216145790e-16 -6.180555962852611e-17
-5.039684961479365e-16 3.538764059100050e-16 1.698704119497676e-16 -3.852546661305067e-18 1.105067140572047e-16 2.298194341138999e-17
-6.212522443981915e-16 2.609754391341502e-16 -1.225069140991922e-16 -6.619940628656939e-16 -1.937068373966481e-16 -2.087699297898477e-16
-8.295737380370016e-16 2.370609170770041e-17 4.838804021876378e-16 4.127621270645364e-16 3.204747427460360e-31 7.332059355816012e-16
-1.967917480013979e-15 2.568303598786155e-16 5.202129223571549e-16 7.921724293895799e-17 3.520065500802677e-17 -1.218629773393838e-16
-7.064029838507008e-17 -3.212371068224487e-17 -4.386522863055449e-16 2.847054296787527e-16 -2.652479788531603e-16 -3.038290151066486e-16
-5.799704947429649e-16 2.489283293093820e-16 1.234517936777089e-16 -2.954957603801866e-16 -8.489537458004776e-17 -3.094872310503205e-16
-1.574333984011184e-15 3.037645665559851e-16 6.256389756958094e-16 1.715388910777613e-17 2.482534153247272e-16 -4.490946472340537e-16
-6.008552165999820e-16 1.426304247394496e-16 -6.964673324172778e-17 -2.744013687683911e-16 1.468392342267217e-16 -2.177373268144472e-16
-8.481349206281971e-17 -1.655022768831515e-16 -5.617854288245663e-16 4.300753417516566e-16 -1.496982157446843e-16 7.306335428739375e-17
-5.039684961479365e-16 3.538764059100050e-16 1.698704119497676e-16 -3.852546661305067e-18 1.105067140572047e-16 2.298194341138999e-17
-1.442502183026210e-15 1.241267076623636e-16 1.742385470163835e-16 4.695550661198078e-16 -1.569253323292634e-16 -2.512108654660017e-16
-1.768709211591750e-16 2.730787568572001e-16 2.744622257244247e-17 1.610736240046957e-16 -2.066791330752711e-16 -6.901110991118708e-16
9.734555221224487e-16 2.698739081224314e-16 6.627216331845406e-17 -5.066725915416678e-17 -3.845684061057115e-17 -9.412731742117293e-17
4.272539719009742e-17 1.804720984576199e-16 -1.284948427289797e-16 -1.647922329620714e-16 1.065556987725879e-16 -2.662371045413932e-17
-7.064029838507008e-17 -3.212371068224487e-17 -4.386522863055449e-16 2.847054296787527e-16 -2.652479788531603e-16 -3.038290151066486e-16
-4.890253113041435e-17 2.353879984938949e-16 -1.627229581548607e-16 -1.554571200392238e-17 1.567366881356816e-16 -2.664196754094860e-16
1.308353107493042e-15 1.162640645424548e-16 6.187060863731738e-19 -2.869758191844004e-17 1.085195837705202e-17 3.159130182797696e-17
-3.455526065010218e-16 1.267475887023332e-16 1.120233899393139e-16 8.731190084125719e-17 -1.664152913457997e-16 -2.939362626560987e-16
5.561125997893765e-16 5.975182583439884e-17 1.352289379086152e-16 4.645622993934238e-18 -3.680073388627245e-16 -1.282422463309049e-16
5.219566248197113e-16 3.347353865155437e-17 1.211084005650571e-16 -1.441794096829389e-16 -5.218581561963999e-17 -7.892902025828675e-17
4.827651231322313e-16 -1.143592607185097e-17 -1.927422640934695e-16 -1.241267076623638e-16 6.283673643914827e-17 -7.163386352841234e-17
3.896092354294266e-16 2.324493541862603e-16 -3.538764059100050e-16 2.691989941377769e-16 5.416132326194826e-17 3.698774042950953e-16
9.734555221224487e-16 2.698739081224314e-16 6.627216331845406e-17 -5.066725915416678e-17 -3.845684061057115e-17 -9.412731742117293e-17
-2.349520728782559e-16 7.905791735961454e-17 2.062029321192846e-16 -3.744446963358896e-17 2.157125848604807e-17 3.405468547130756e-17
4.272539719009742e-17 1.804720984576199e-16 -1.284948427289797e-16 -1.647922329620714e-16 1.065556987725879e-16 -2.662371045413932e-17
-4.639283885179307e-16 1.475938110010484e-16 2.353879984938949e-16 2.656603971767492e-16 -6.492455507670108e-18 -2.494591319537011e-16
1.429455243340471e-16 3.191074714053777e-16 -9.482436683080213e-18 -2.987591291719954e-17 1.166099317592607e-16 -2.510950276469029e-16
-1.636762479578559e-16 2.224269863154563e-16 5.389135766808643e-17 2.666699472786849e-16 3.230560326195630e-17 1.941117857874412e-16
1.308353107493042e-15 1.162640645424548e-16 6.187060863731738e-19 -2.869758191844004e-17 1.085195837705202e-17 3.159130182797696e-17
2.524998364792790e-16 1.413558201046997e-17 4.490946472340534e-17 1.165621340854575e-16 1.720312341943234e-17 -1.747541354216946e-16
-2.919347659908873e-16 1.981415759707074e-16 6.424742136448982e-17 2.972732209120932e-16 2.749778141297330e-17 -1.642509175371538e-16
4.844336022602284e-16 -4.574370428740388e-17 1.311944986675986e-16 -8.519300017753914e-17 1.657744374643341e-17 1.300039962776328e-16
9.734555221224487e-16 2.698739081224314e-16 6.627216331845406e-17 -5.066725915416678e-17 -3.845684061057115e-17 -9.412731742117293e-17
-8.624940766159652e-16 -1.005799415340069e-16 -6.749139846547544e-19 -1.250898443276896e-16 3.266972756557230e-17 8.226486865050264e-17
-2.349520728782559e-16 7.905791735961454e-17 2.062029321192846e-16 -3.744446963358896e-17 2.157125848604807e-17 3.405468547130756e-17
8.086093533903121e-16 -1.839263311705655e-16 1.947670060474337e-16 2.525418876016713e-16 1.380642425624320e-16 2.750264935095012e-16
1.858249197573542e-17 6.153917762318791e-16 1.806389463704197e-16 3.187808787079571e-17 1.013765694307254e-17 -7.251036381744124e-17
-1.117140368961273e-15 2.002225258229533e-16 1.267475887023332e-16 5.878725253122015e-17 -1.877368267094776e-17 1.765234077018784e-16
1.429455243340471e-16 3.191074714053777e-16 -9.482436683080213e-18 -2.987591291719954e-17 1.166099317592607e-16 -2.510950276469029e-16
9.975787336121485e-16 7.433351946703135e-17 2.422168011301144e-17 2.186019948564619e-16 -1.774914030275931e-17 1.015524811161531e-16
-6.424742136448983e-17 -6.233331942504372e-16 2.253815631810253e-16 1.358204279368702e-16 7.266504033903428e-17 2.540510411503245e-16
1.175351176131149e-15 3.239367627610682e-16 -1.197585725957476e-16 -2.117615695758663e-16 -1.450722864754130e-16 -7.396563399668766e-17
9.734555221224487e-16 2.698739081224314e-16 6.627216331845406e-17 -5.066725915416678e-17 -3.845684061057115e-17 -9.412731742117293e-17
-7.064029838507008e-17 -3.212371068224487e-17 -4.386522863055449e-16 2.847054296787527e-16 -2.652479788531603e-16 -3.038290151066486e-16
-8.624940766159652e-16 -1.005799415340069e-16 -6.749139846547544e-19 -1.250898443276896e-16 3.266972756557230e-17 8.226486865050264e-17
3.247289512026744e-16 -3.807180791719636e-16 -3.892950237258518e-16 -2.525120140555443e-16 -5.753589318522188e-17 1.724018943241119e-16
5.561125997893765e-16 5.975182583439884e-17 1.352289379086152e-16 4.645622993934238e-18 -3.680073388627245e-16 -1.282422463309049e-16
-8.567836359134957e-16 -2.260489548322241e-16 -3.602768052640412e-16 -2.113247560692043e-16 2.239565118771569e-17 -1.941891240482380e-16
1.858249197573542e-17 6.153917762318791e-16 1.806389463704197e-16 3.187808787079571e-17 1.013765694307254e-17 -7.251036381744124e-17
7.511907346620418e-16 6.726572846179632e-17 1.985354504639546e-17 -2.345935903247322e-16 3.623405154620553e-17 1.356821279187225e-16
5.056369752759335e-16 -3.266364186996871e-16 -7.245880497690990e-16 -2.961811871454392e-16 1.040474926122894e-17 1.692447322767686e-16
3.097081995955889e-17 -1.567660067499196e-16 -2.438852802581113e-16 4.129214526438799e-16 2.477378269194160e-16 -2.695364511301039e-16
-5.799704947429649e-16 2.489283293093820e-16 1.234517936777089e-16 -2.954957603801866e-16 -8.489537458004776e-17 -3.094872310503205e-16
-7.064029838507008e-17 -3.212371068224487e-17 -4.386522863055449e-16 2.847054296787527e-16 -2.652479788531603e-16 -3.038290151066486e-16
4.272539719009742e-17 1.804720984576199e-16 -1.284948427289797e-16 -1.647922329620714e-16 1.065556987725879e-16 -2.662371045413932e-17
-1.967917480013979e-15 2.568303598786155e-16 5.202129223571549e-16 7.921724293895799e-17 3.520065500802677e-17 -1.218629773393838e-16
-1.768709211591750e-16 2.730787568572001e-16 2.744622257244247e-17 1.610736240046957e-16 -2.066791330752711e-16 -6.901110991118708e-16
-3.455526065010218e-16 1.267475887023332e-16 1.120233899393139e-16 8.731190084125719e-17 -1.664152913457997e-16 -2.939362626560987e-16
-9.301125163396390e-16 -2.644513509564412e-17 -2.482534153247270e-17 -7.921026935233337e-17 2.280736967861885e-16 -2.049272299908745e-16
-1.442502183026210e-15 1.241267076623636e-16 1.742385470163835e-16 4.695550661198078e-16 -1.569253323292634e-16 -2.512108654660017e-16
-6.008552165999820e-16 1.426304247394496e-16 -6.964673324172778e-17 -2.744013687683911e-16 1.468392342267217e-16 -2.177373268144472e-16
-9.405960404995172e-16 -4.844336022602285e-17 1.540663508113005e-16 -4.534932107786860e-16 5.727809898256636e-17 1.113409536212031e-16
-5.799704947429649e-16 2.489283293093820e-16 1.234517936777089e-16 -2.954957603801866e-16 -8.489537458004776e-17 -3.094872310503205e-16
4.272539719009742e-17 1.804720984576199e-16 -1.284948427289797e-16 -1.647922329620714e-16 1.065556987725879e-16 -2.662371045413932e-17
-2.349520728782559e-16 7.905791735961454e-17 2.062029321192846e-16 -3.744446963358896e-17 2.157125848604807e-17 3.405468547130756e-17
-6.761446895430762e-16 1.155497631084754e-16 2.568303598786155e-16 -2.523626463249094e-16 -2.245473236170227e-17 3.454892154134761e-16
-9.301125163396390e-16 -2.644513509564412e-17 -2.482534153247270e-17 -7.921026935233337e-17 2.280736967861885e-16 -2.049272299908745e-16
-1.636762479578559e-16 2.224269863154563e-16 5.389135766808643e-17 2.666699472786849e-16 3.230560326195630e-17 1.941117857874412e-16
-4.311308613446917e-16 -3.792974673232072e-17 7.971778667735739e-17 -2.643175951947249e-16 1.649866884778363e-17 4.358495126858644e-16
-8.786544005803997e-16 8.981892944681079e-17 1.355626337342146e-16 1.254273013200173e-16 9.418706451342664e-17 1.083835034799287e-16
1.284948427289795e-16 -1.850371707708592e-17 1.012548555186617e-16 -8.133946082389273e-16 1.807298926602756e-16 -1.491217703833418e-16
2.112459811705552e-16 -4.574370428740384e-17 -7.067791005234966e-18 -1.475938110010483e-16 -8.519300017753905e-17 4.336269950747226e-17
-5.799704947429649e-16 2.489283293093820e-16 1.234517936777089e-16 -2.954957603801866e-16 -8.489537458004776e-17 -3.094872310503205e-16
-2.349520728782559e-16 7.905791735961454e-17 2.062029321192846e-16 -3.744446963358896e-17 2.157125848604807e-17 3.405468547130756e-17
-8.624940766159652e-16 -1.005799415340069e-16 -6.749139846547544e-19 -1.250898443276896e-16 3.266972756557230e-17 8.226486865050264e-17
3.340228608636094e-16 -4.642237943878657e-16 1.306789102622876e-16 2.906601613561369e-16 -5.563064541576586e-17 -4.820033631686410e-16
-4.311308613446917e-16 -3.792974673232072e-17 7.971778667735739e-17 -2.643175951947249e-16 1.649866884778363e-17 4.358495126858644e-16
-1.117140368961273e-15 2.002225258229533e-16 1.267475887023332e-16 5.878725253122015e-17 -1.877368267094776e-17 1.765234077018784e-16
-6.212522443981915e-16 2.609754391341502e-16 -1.225069140991922e-16 -6.619940628656939e-16 -1.937068373966481e-16 -2.087699297898477e-16
3.027333897453630e-16 -7.131521236972477e-17 4.368135066616025e-18 -6.321624455386798e-17 -2.592722216145790e-16 -6.180555962852611e-17
4.736349785057525e-16 -2.993964314893682e-17 4.304404834878489e-17 2.879605054175181e-16 -1.699456352843267e-17 -6.059215109400050e-16
2.341178333142572e-16 -7.915351270722077e-16 -1.083226465238966e-16 5.002376633986954e-16 1.468392342267216e-16 -2.152202417439237e-17
-5.799704947429649e-16 2.489283293093820e-16 1.234517936777089e-16 -2.954957603801866e-16 -8.489537458004776e-17 -3.094872310503205e-16
-8.624940766159652e-16 -1.005799415340069e-16 -6.749139846547544e-19 -1.250898443276896e-16 3.266972756557230e-17 8.226486865050264e-17
-7.064029838507008e-17 -3.212371068224487e-17 -4.386522863055449e-16 2.847054296787527e-16 -2.652479788531603e-16 -3.038290151066486e-16
-8.295737380370016e-16 2.370609170770041e-17 4.838804021876378e-16 4.127621270645364e-16 3.204747427460360e-31 7.332059355816012e-16
-6.212522443981915e-16 2.609754391341502e-16 -1.225069140991922e-16 -6.619940628656939e-16 -1.937068373966481e-16 -2.087699297898477e-16
-8.567836359134957e-16 -2.260489548322241e-16 -3.602768052640412e-16 -2.113247560692043e-16 2.239565118771569e-17 -1.941891240482380e-16
-1.768709211591750e-16 2.730787568572001e-16 2.744622257244247e-17 1.610736240046957e-16 -2.066791330752711e-16 -6.901110991118708e-16
-5.039684961479365e-16 3.538764059100050e-16 1.698704119497676e-16 -3.852546661305067e-18 1.105067140572047e-16 2.298194341138999e-17
-4.158180458291228e-16 -1.110223024625157e-16 3.538764059100050e-16 1.722514167296992e-16 -6.206335383118167e-17 4.446092377104859e-16
-8.481349206281971e-17 -1.655022768831515e-16 -5.617854288245663e-16 4.300753417516566e-16 -1.496982157446843e-16 7.306335428739375e-17
9.734555221224487e-16 2.698739081224314e-16 6.627216331845406e-17 -5.066725915416678e-17 -3.845684061057115e-17 -9.412731742117293e-17
-7.064029838507008e-17 -3.212371068224487e-17 -4.386522863055449e-16 2.847054296787527e-16 -2.652479788531603e-16 -3.038290151066486e-16
4.272539719009742e-17 1.804720984576199e-16 -1.284948427289797e-16 -1.647922329620714e-16 1.065556987725879e-16 -2.662371045413932e-17
2.199494982968961e-15 -6.998507812507764e-16 -2.525418876016714e-16 1.059463432023754e-16 8.830037298133793e-17 -3.167146096381991e-17
5.561125997893765e-16 5.975182583439884e-17 1.352289379086152e-16 4.645622993934238e-18 -3.680073388627245e-16 -1.282422463309049e-16
-3.455526065010218e-16 1.267475887023332e-16 1.120233899393139e-16 8.731190084125719e-17 -1.664152913457997e-16 -2.939362626560987e-16
1.308353107493042e-15 1.162640645424548e-16 6.187060863731738e-19 -2.869758191844004e-17 1.085195837705202e-17 3.159130182797696e-17
1.614238011350598e-15 -3.221698150097593e-16 -3.103167691559091e-17 -1.272833147778180e-16 1.062732874141043e-16 1.876347664915349e-16
7.013975464667094e-16 -2.449773140247652e-16 -1.069728185545871e-16 5.285226697915686e-16 -2.628307342730240e-16 3.025829430762520e-17
3.698774042950954e-16 1.135250211545112e-16 -4.859051441416020e-16 8.834601569836091e-17 1.865029013300452e-16 -7.652117859497167e-17
9.734555221224487e-16 2.698739081224314e-16 6.627216331845406e-17 -5.066725915416678e-17 -3.845684061057115e-17 -9.412731742117293e-17
4.272539719009742e-17 1.804720984576199e-16 -1.284948427289797e-16 -1.647922329620714e-16 1.065556987725879e-16 -2.662371045413932e-17
-2.349520728782559e-16 7.905791735961454e-17 2.062029321192846e-16 -3.744446963358896e-17 2.157125848604807e-17 3.405468547130756e-17
2.199494982968961e-15 -6.998507812507764e-16 -2.525418876016714e-16 1.059463432023754e-16 8.830037298133793e-17 -3.167146096381991e-17
1.308353107493042e-15 1.162640645424548e-16 6.187060863731738e-19 -2.869758191844004e-17 1.085195837705202e-17 3.159130182797696e-17
-1.636762479578559e-16 2.224269863154563e-16 5.389135766808643e-17 2.666699472786849e-16 3.230560326195630e-17 1.941117857874412e-16
1.429455243340471e-16 3.191074714053777e-16 -9.482436683080213e-18 -2.987591291719954e-17 1.166099317592607e-16 -2.510950276469029e-16
1.614238011350598e-15 -3.221698150097593e-16 -3.103167691559091e-17 -1.272833147778180e-16 1.062732874141043e-16 1.876347664915349e-16
3.698774042950954e-16 1.135250211545112e-16 -4.859051441416020e-16 8.834601569836091e-17 1.865029013300452e-16 -7.652117859497167e-17
7.185514355744857e-16 -6.582174178273330e-16 2.225225816630626e-16 -3.399037410735103e-16 6.705135724860765e-17 -1.944541662109345e-16
9.734555221224487e-16 2.698739081224314e-16 6.627216331845406e-17 -5.066725915416678e-17 -3.845684061057115e-17 -9.412731742117293e-17
-2.349520728782559e-16 7.905791735961454e-17 2.062029321192846e-16 -3.744446963358896e-17 2.157125848604807e-17 3.405468547130756e-17
-8.624940766159652e-16 -1.005799415340069e-16 -6.749139846547544e-19 -1.250898443276896e-16 3.266972756557230e-17 8.226486865050264e-17
2.199494982968961e-15 -6.998507812507764e-16 -2.525418876016714e-16 1.059463432023754e-16 8.830037298133793e-17 -3.167146096381991e-17
1.429455243340471e-16 3.191074714053777e-16 -9.482436683080213e-18 -2.987591291719954e-17 1.166099317592607e-16 -2.510950276469029e-16
-1.117140368961273e-15 2.002225258229533e-16 1.267475887023332e-16 5.878725253122015e-17 -1.877368267094776e-17 1.765234077018784e-16
1.858249197573542e-17 6.153917762318791e-16 1.806389463704197e-16 3.187808787079571e-17 1.013765694307254e-17 -7.251036381744124e-17
1.614238011350598e-15 -3.221698150097593e-16 -3.103167691559091e-17 -1.272833147778180e-16 1.062732874141043e-16 1.876347664915349e-16
7.185514355744857e-16 -6.582174178273330e-16 2.225225816630626e-16 -3.399037410735103e-16 6.705135724860765e-17 -1.944541662109345e-16
8.638815162525546e-16 -1.168011224544731e-16 -5.021030797733159e-17 -1.324646638472354e-16 -6.420758996965303e-17 1.916103989319796e-16
9.734555221224487e-16 2.698739081224314e-16 6.627216331845406e-17 -5.066725915416678e-17 -3.845684061057115e-17 -9.412731742117293e-17
-8.624940766159652e-16 -1.005799415340069e-16 -6.749139846547544e-19 -1.250898443276896e-16 3.266972756557230e-17 8.226486865050264e-17
-7.064029838507008e-17 -3.212371068224487e-17 -4.386522863055449e-16 2.847054296787527e-16 -2.652479788531603e-16 -3.038290151066486e-16
2.199494982968961e-15 -6.998507812507764e-16 -2.525418876016714e-16 1.059463432023754e-16 8.830037298133793e-17 -3.167146096381991e-17
1.858249197573542e-17 6.153917762318791e-16 1.806389463704197e-16 3.187808787079571e-17 1.013765694307254e-17 -7.251036381744124e-17
-8.567836359134957e-16 -2.260489548322241e-16 -3.602768052640412e-16 -2.113247560692043e-16 2.239565118771569e-17 -1.941891240482380e-16
5.561125997893765e-16 5.975182583439884e-17 1.352289379086152e-16 4.645622993934238e-18 -3.680073388627245e-16 -1.282422463309049e-16
1.614238011350598e-15 -3.221698150097593e-16 -3.103167691559091e-17 -1.272833147778180e-16 1.062732874141043e-16 1.876347664915349e-16
8.638815162525546e-16 -1.168011224544731e-16 -5.021030797733159e-17 -1.324646638472354e-16 -6.420758996965303e-17 1.916103989319796e-16
7.013975464667094e-16 -2.449773140247652e-16 -1.069728185545871e-16 5.285226697915686e-16 -2.628307342730240e-16 3.025829430762520e-17
-5.799704947429649e-16 2.489283293093820e-16 1.234517936777089e-16 -2.954957603801866e-16 -8.489537458004776e-17 -3.094872310503205e-16
4.272539719009742e-17 1.804720984576199e-16 -1.284948427289797e-16 -1.647922329620714e-16 1.065556987725879e-16 -2.662371045413932e-17
-7.064029838507008e-17 -3.212371068224487e-17 -4.386522863055449e-16 2.847054296787527e-16 -2.652479788531603e-16 -3.038290151066486e-16
2.199494982968961e-15 -6.998507812507764e-16 -2.525418876016714e-16 1.059463432023754e-16 8.830037298133793e-17 -3.167146096381991e-17
-9.301125163396390e-16 -2.644513509564412e-17 -2.482534153247270e-17 -7.921026935233337e-17 2.280736967861885e-16 -2.049272299908745e-16
-3.455526065010218e-16 1.267475887023332e-16 1.120233899393139e-16 8.731190084125719e-17 -1.664152913457997e-16 -2.939362626560987e-16
-1.768709211591750e-16 2.730787568572001e-16 2.744622257244247e-17 1.610736240046957e-16 -2.066791330752711e-16 -6.901110991118708e-16
1.046978047314234e-15 -1.155497631084754e-16 -3.960862146947908e-17 -2.736996179003520e-16 1.091170546930601e-16 -4.759573460572089e-16
3.698774042950954e-16 1.135250211545112e-16 -4.859051441416020e-16 8.834601569836091e-17 1.865029013300452e-16 -7.652117859497167e-17
7.013975464667094e-16 -2.449773140247652e-16 -1.069728185545871e-16 5.285226697915686e-16 -2.628307342730240e-16 3.025829430762520e-17
-5.799704947429649e-16 2.489283293093820e-16 1.234517936777089e-16 -2.954957603801866e-16 -8.489537458004776e-17 -3.094872310503205e-16
-2.349520728782559e-16 7.905791735961454e-17 2.062029321192846e-16 -3.744446963358896e-17 2.157125848604807e-17 3.405468547130756e-17
4.272539719009742e-17 1.804720984576199e-16 -1.284948427289797e-16 -1.647922329620714e-16 1.065556987725879e-16 -2.662371045413932e-17
2.199494982968961e-15 -6.998507812507764e-16 -2.525418876016714e-16 1.059463432023754e-16 8.830037298133793e-17 -3.167146096381991e-17
-4.311308613446917e-16 -3.792974673232072e-17 7.971778667735739e-17 -2.643175951947249e-16 1.649866884778363e-17 4.358495126858644e-16
-1.636762479578559e-16 2.224269863154563e-16 5.389135766808643e-17 2.666699472786849e-16 3.230560326195630e-17 1.941117857874412e-16
-9.301125163396390e-16 -2.644513509564412e-17 -2.482534153247270e-17 -7.921026935233337e-17 2.280736967861885e-16 -2.049272299908745e-16
1.046978047314234e-15 -1.155497631084754e-16 -3.960862146947908e-17 -2.736996179003520e-16 1.091170546930601e-16 -4.759573460572089e-16
7.185514355744857e-16 -6.582174178273330e-16 2.225225816630626e-16 -3.399037410735103e-16 6.705135724860765e-17 -1.944541662109345e-16
3.698774042950954e-16 1.135250211545112e-16 -4.859051441416020e-16 8.834601569836091e-17 1.865029013300452e-16 -7.652117859497167e-17
-5.799704947429649e-16 2.489283293093820e-16 1.234517936777089e-16 -2.954957603801866e-16 -8.489537458004776e-17 -3.094872310503205e-16
-8.624940766159652e-16 -1.005799415340069e-16 -6.749139846547544e-19 -1.250898443276896e-16 3.266972756557230e-17 8.226486865050264e-17
-2.349520728782559e-16 7.905791735961454e-17 2.062029321192846e-16 -3.744446963358896e-17 2.157125848604807e-17 3.405468547130756e-17
2.199494982968961e-15 -6.998507812507764e-16 -2.525418876016714e-16 1.059463432023754e-16 8.830037298133793e-17 -3.167146096381991e-17
-6.212522443981915e-16 2.609754391341502e-16 -1.225069140991922e-16 -6.619940628656939e-16 -1.937068373966481e-16 -2.087699297898477e-16
-1.117140368961273e-15 2.002225258229533e-16 1.267475887023332e-16 5.878725253122015e-17 -1.877368267094776e-17 1.765234077018784e-16
-4.311308613446917e-16 -3.792974673232072e-17 7.971778667735739e-17 -2.643175951947249e-16 1.649866884778363e-17 4.358495126858644e-16
1.046978047314234e-15 -1.155497631084754e-16 -3.960862146947908e-17 -2.736996179003520e-16 1.091170546930601e-16 -4.759573460572089e-16
8.638815162525546e-16 -1.168011224544731e-16 -5.021030797733159e-17 -1.324646638472354e-16 -6.420758996965303e-17 1.916103989319796e-16
7.185514355744857e-16 -6.582174178273330e-16 2.225225816630626e-16 -3.399037410735103e-16 6.705135724860765e-17 -1.944541662109345e-16
-5.799704947429649e-16 2.489283293093820e-16 1.234517936777089e-16 -2.954957603801866e-16 -8.489537458004776e-17 -3.094872310503205e-16
-7.064029838507008e-17 -3.212371068224487e-17 -4.386522863055449e-16 2.847054296787527e-16 -2.652479788531603e-16 -3.038290151066486e-16
-8.624940766159652e-16 -1.005799415340069e-16 -6.749139846547544e-19 -1.250898443276896e-16 3.266972756557230e-17 8.226486865050264e-17
2.199494982968961e-15 -6.998507812507764e-16 -2.525418876016714e-16 1.059463432023754e-16 8.830037298133793e-17 -3.167146096381991e-17
-1.768709211591750e-16 2.730787568572001e-16 2.744622257244247e-17 1.610736240046957e-16 -2.066791330752711e-16 -6.901110991118708e-16
-8.567836359134957e-16 -2.260489548322241e-16 -3.602768052640412e-16 -2.113247560692043e-16 2.239565118771569e-17 -1.941891240482380e-16
-6.212522443981915e-16 2.609754391341502e-16 -1.225069140991922e-16 -6.619940628656939e-16 -1.937068373966481e-16 -2.087699297898477e-16
1.046978047314234e-15 -1.155497631084754e-16 -3.960862146947908e-17 -2.736996179003520e-16 1.091170546930601e-16 -4.759573460572089e-16
7.013975464667094e-16 -2.449773140247652e-16 -1.069728185545871e-16 5.285226697915686e-16 -2.628307342730240e-16 3.025829430762520e-17
8.638815162525546e-16 -1.168011224544731e-16 -5.021030797733159e-17 -1.324646638472354e-16 -6.420758996965303e-17 1.916103989319796e-16
        </DataArray>
        <DataArray type="Float64" Name="nodal_cauchy_stresses_xyz" NumberOfComponents="6" format="ascii">
2.654073044325040e-14 2.568303598786155e-14 -5.242624062650823e-14 1.139117124584943e-14 -1.091170546930589e-14 1.689166782012608e-14
1.604592278318809e-14 2.482534153247274e-14 2.654073044325039e-14 8.779418749284658e-15 3.835726212348140e-15 2.139456371091744e-14
1.111816280418595e-14 3.066235480739481e-14 1.047887510212795e-14 1.699993090510952e-14 -4.024370405929810e-15 4.141540061562396e-15
2.187828700036023e-15 1.155497631084753e-14 -7.902030569233258e-16 1.875844223161010e-14 7.468037937617837e-15 5.797625825597181e-16
0.000000000000000e+00 0.000000000000000e+00 3.037645665559860e-14 -6.301904617839826e-30 3.804790908029479e-14 -2.679100231244992e-14
-5.281149529263887e-15 1.126907815905128e-14 1.056229905852780e-14 1.366546675008687e-14 -1.092033766653996e-15 1.671098990551165e-14
5.717963035925484e-15 1.241267076623639e-14 1.655022768831524e-14 2.082276740732487e-14 -8.834738756543816e-16 1.528149914653026e-14
-2.993964314893663e-15 3.430777821555290e-15 -2.068778461039390e-14 -5.743742456191029e-15 -3.009896872828064e-15 -1.159525165119476e-15
1.311944986675987e-14 -1.850371707708592e-15 9.418706451342698e-15 -2.177981837704784e-15 1.431460131447606e-14 2.645730648685053e-14
9.567939761312317e-15 5.651223870805606e-15 -1.114046838529406e-14 4.546908963579148e-15 -1.593904393539802e-15 2.032483552537158e-14
1.604592278318809e-14 2.482534153247274e-14 2.654073044325039e-14 8.779418749284658e-15 3.835726212348140e-15 2.139456371091744e-14
2.739842489863920e-14 -3.425998054174970e-14 2.482534153247276e-14 -3.296148944021575e-14 1.894661627935073e-14 5.089573474258424e-15
1.111816280418595e-14 3.066235480739481e-14 1.047887510212795e-14 1.699993090510952e-14 -4.024370405929810e-15 4.141540061562396e-15
-1.834904055549261e-14 6.746266570842005e-15 1.919080245294709e-14 -7.194089204272383e-15 -1.530727856679583e-15 2.966522426975043e-14
0.000000000000000e+00 4.278912742183500e-14 3.430777821555291e-15 -2.351490101248792e-14 3.430777821555284e-15 -1.794942783342571e-29
5.717963035925487e-15 7.067791005235435e-16 1.126907815905129e-14 -9.049384343146539e-15 1.581766916752610e-14 2.211727536937527e-15
-5.281149529263887e-15 1.126907815905128e-14 1.056229905852780e-14 1.366546675008687e-14 -1.092033766653996e-15 1.671098990551165e-14
4.844336022602290e-15 8.275113844157584e-15 4.368135066615973e-16 1.361999360515897e-15 -3.430777821555290e-15 9.527909828008076e-15
1.469985598060656e-14 1.180900934677512e-14 -8.981892944681071e-15 -2.924879660634780e-14 -5.975757238580999e-16 2.593939355266428e-15
8.719804840684116e-15 1.907400891398734e-14 -3.168689717558326e-15 -9.774065374070673e-15 1.052574296438096e-14 -5.386181708109291e-15
2.739842489863920e-14 -3.425998054174970e-14 2.482534153247276e-14 -3.296148944021575e-14 1.894661627935073e-14 5.089573474258424e-15
1.604592278318813e-14 -8.411313780209156e-14 -4.319407581262771e-14 -3.276101299962006e-16 -2.322811496966940e-15 2.793481689239089e-15
1.111816280418595e-14 3.066235480739481e-14 1.047887510212795e-14 1.699993090510952e-14 -4.024370405929810e-15 4.141540061562396e-15
8.477588039554001e-15 -6.087285144121551e-15 1.555755043599539e-14 -1.935507766378618e-14 -1.422133049574505e-14 -7.426325959417949e-15
3.430777821555291e-15 -8.557825484366956e-14 3.935834960027965e-14 2.417012127248033e-14 -1.241267076623637e-14 1.412805967701398e-14
-4.137556922078788e-15 -4.574370428740313e-15 6.694707730310925e-15 1.850980277268913e-14 -3.293360746383060e-14 -8.090452790059500e-15
5.717963035925487e-15 7.067791005235435e-16 1.126907815905129e-14 -9.049384343146539e-15 1.581766916752610e-14 2.211727536937527e-15
-4.844336022602279e-15 -3.925523191921739e-14 1.540663508113007e-14 -1.025062148646592e-14 -8.981892944681078e-15 -2.523405108999358e-15
2.025097110373239e-14 -4.366275443515808e-14 8.171996163095385e-15 1.690361723857689e-14 2.085463252319360e-14 -8.578825137252219e-15
4.016824638186530e-15 5.330531085145521e-14 1.548125173611490e-14 3.571381408314387e-15 -7.413015738061254e-15 -1.404341858149353e-14
1.604592278318813e-14 -8.411313780209156e-14 -4.319407581262771e-14 -3.276101299962006e-16 -2.322811496966940e-15 2.793481689239089e-15
2.654073044325040e-14 2.568303598786155e-14 -5.242624062650823e-14 1.139117124584943e-14 -1.091170546930589e-14 1.689166782012608e-14
1.111816280418595e-14 3.066235480739481e-14 1.047887510212795e-14 1.699993090510952e-14 -4.024370405929810e-15 4.141540061562396e-15
-2.891133961402035e-14 1.182494190470951e-14 -5.863257600962640e-14 1.534710996163205e-15 -1.553763473857737e-14 -5.591303057391928e-14
3.430777821555291e-15 3.037645665559856e-14 -8.557825484366963e-14 -2.719595070324279e-14 -2.220446049250302e-14 4.001356986027197e-14
5.717963035925484e-15 1.241267076623639e-14 1.655022768831524e-14 2.082276740732487e-14 -8.834738756543816e-16 1.528149914653026e-14
-4.137556922078788e-15 -4.574370428740313e-15 6.694707730310925e-15 1.850980277268913e-14 -3.293360746383060e-14 -8.090452790059500e-15
-4.574370428740353e-15 -2.156141162371704e-14 -5.416132326194835e-14 -3.228447289944139e-14 -1.028303534916497e-15 -8.742630202250266e-15
1.469985598060657e-14 5.281149529263906e-15 -2.623889973351969e-14 1.001628217520077e-14 -2.723157698583948e-14 2.524622248119993e-14
2.382425405567484e-15 7.085405608065084e-15 1.437102871148982e-14 9.743130069752010e-15 -1.848431067999415e-14 -2.248271360732199e-14
2.654073044325040e-14 2.568303598786155e-14 -5.242624062650823e-14 1.139117124584943e-14 -1.091170546930589e-14 1.689166782012608e-14
-4.890253113041392e-15 2.353879984938945e-14 -1.627229581548596e-14 -1.554571200392243e-15 1.567366881356816e-14 -2.664196754094855e-14
2.187828700036023e-15 1.155497631084753e-14 -7.902030569233258e-16 1.875844223161010e-14 7.468037937617837e-15 5.797625825597181e-16
-2.891133961402035e-14 1.182494190470951e-14 -5.863257600962640e-14 1.534710996163205e-15 -1.553763473857737e-14 -5.591303057391928e-14
3.935834960027965e-14 3.430777821555291e-15 -8.557825484366956e-14 1.412805967701398e-14 2.417012127248033e-14 -1.241267076623637e-14
-8.711927350819158e-15 -1.850371707708603e-15 1.426304247394501e-14 -3.955938715782332e-15 1.465814400240660e-14 -1.683523794908905e-15
-2.993964314893663e-15 3.430777821555290e-15 -2.068778461039390e-14 -5.743742456191029e-15 -3.009896872828064e-15 -1.159525165119476e-15
1.469985598060657e-14 5.281149529263906e-15 -2.623889973351969e-14 1.001628217520077e-14 -2.723157698583948e-14 2.524622248119993e-14
1.153904375291327e-14 2.368174892528767e-14 -1.998100550987031e-14 2.076324228782662e-14 1.512914715381262e-15 -6.592485946379547e-14
-2.143280184995985e-14 7.709690563738779e-15 -2.744622257244112e-15 1.457054884818682e-14 -8.482743923607127e-15 -5.417847295900335e-14
1.604592278318809e-14 2.482534153247274e-14 2.654073044325039e-14 8.779418749284658e-15 3.835726212348140e-15 2.139456371091744e-14
-4.639283885179307e-14 1.475938110010488e-14 2.353879984938949e-14 2.656603971767492e-14 -6.492455507670260e-16 -2.494591319537010e-14
-1.834904055549261e-14 6.746266570842005e-15 1.919080245294709e-14 -7.194089204272383e-15 -1.530727856679583e-15 2.966522426975043e-14
2.187828700036023e-15 1.155497631084753e-14 -7.902030569233258e-16 1.875844223161010e-14 7.468037937617837e-15 5.797625825597181e-16
4.278912742183500e-14 3.430777821555291e-15 0.000000000000000e+00 3.430777821555284e-15 -1.794942783342571e-29 -2.351490101248792e-14
-6.154776542587019e-15 7.838300337496004e-15 7.131521236972479e-15 1.122736618085133e-14 -8.316825822357493e-15 -1.316116184495978e-14
4.844336022602290e-15 8.275113844157584e-15 4.368135066615973e-16 1.361999360515897e-15 -3.430777821555290e-15 9.527909828008076e-15
1.311944986675987e-14 -1.850371707708592e-15 9.418706451342698e-15 -2.177981837704784e-15 1.431460131447606e-14 2.645730648685053e-14
6.257894223649355e-15 4.137556922078787e-15 1.611341418165357e-14 2.146205510938289e-14 2.342163019375690e-14 -1.517229576986488e-14
-2.074664628564883e-14 9.405960404995168e-15 1.352289379086152e-14 1.965414761321985e-14 -5.896982339931591e-16 2.378654865124551e-14
2.739842489863920e-14 -3.425998054174970e-14 2.482534153247276e-14 -3.296148944021575e-14 1.894661627935073e-14 5.089573474258424e-15
8.086093533903149e-14 -1.839263311705651e-14 1.947670060474342e-14 2.525418876016707e-14 1.380642425624323e-14 2.750264935095012e-14
8.477588039554001e-15 -6.087285144121551e-15 1.555755043599539e-14 -1.935507766378618e-14 -1.422133049574505e-14 -7.426325959417949e-15
-1.834904055549261e-14 6.746266570842005e-15 1.919080245294709e-14 -7.194089204272383e-15 -1.530727856679583e-15 2.966522426975043e-14
4.278912742183496e-14 4.702980202497594e-14 3.430777821555291e-15 2.563523831405842e-14 4.384929607262013e-14 -2.351490101248789e-14
3.263929908755664e-15 -5.133420685985432e-14 1.241267076623640e-14 2.275656307143331e-14 1.084819721032407e-14 4.709353225671359e-15
-4.844336022602279e-15 -3.925523191921739e-14 1.540663508113007e-14 -1.025062148646592e-14 -8.981892944681078e-15 -2.523405108999358e-15
1.469985598060656e-14 1.180900934677512e-14 -8.981892944681071e-15 -2.924879660634780e-14 -5.975757238580999e-16 2.593939355266428e-15
-4.368135066615078e-16 9.521824132404918e-15 4.368135066615953e-16 3.263929908755597e-15 8.914401546215597e-15 3.171267659584886e-14
-2.107060499828315e-14 1.766345964632279e-14 1.130244774161122e-14 -8.632907045126842e-15 -1.900848688798808e-14 9.372071041977160e-15
1.604592278318813e-14 -8.411313780209156e-14 -4.319407581262771e-14 -3.276101299962006e-16 -2.322811496966940e-15 2.793481689239089e-15
3.247289512026753e-14 -3.807180791719619e-14 -3.892950237258506e-14 -2.525120140555434e-14 -5.753589318522177e-15 1.724018943241118e-14
-2.891133961402035e-14 1.182494190470951e-14 -5.863257600962640e-14 1.534710996163205e-15 -1.553763473857737e-14 -5.591303057391928e-14
8.477588039554001e-15 -6.087285144121551e-15 1.555755043599539e-14 -1.935507766378618e-14 -1.422133049574505e-14 -7.426325959417949e-15
3.935834960027968e-14 -4.965068306494522e-14 -1.307970726102614e-13 1.453300806780688e-14 -4.082346664185766e-14 -4.895894863133382e-15
-1.698704119497670e-14 1.796378588936230e-14 -5.759210108350347e-14 1.151558886152334e-15 -5.362139207422443e-14 -8.596638278550522e-15
-4.574370428740353e-15 -2.156141162371704e-14 -5.416132326194835e-14 -3.228447289944139e-14 -1.028303534916497e-15 -8.742630202250266e-15
2.025097110373239e-14 -4.366275443515808e-14 8.171996163095385e-15 1.690361723857689e-14 2.085463252319360e-14 -8.578825137252219e-15
2.438852802581123e-14 -4.817339463216080e-14 -1.621653186271565e-14 -5.878841479565734e-14 -4.442109237621261e-14 -9.688672045204549e-15
-1.885015894903283e-14 1.348465565181907e-14 -2.198061052754865e-14 -2.424815689193955e-14 1.626751604810575e-14 -2.610049797211437e-14
-4.890253113041392e-15 2.353879984938945e-14 -1.627229581548596e-14 -1.554571200392243e-15 1.567366881356816e-14 -2.664196754094855e-14
-4.639283885179307e-14 1.475938110010488e-14 2.353879984938949e-14 2.656603971767492e-14 -6.492455507670260e-16 -2.494591319537010e-14
2.187828700036023e-15 1.155497631084753e-14 -7.902030569233258e-16 1.875844223161010e-14 7.468037937617837e-15 5.797625825597181e-16
9.734555221224495e-14 2.698739081224314e-14 6.627216331845414e-15 -5.066725915416681e-15 -3.845684061057118e-15 -9.412731742117282e-15
-1.201363049284222e-13 -7.266504033903418e-15 3.037645665559856e-14 2.621312031325416e-14 -3.555913756155063e-15 -3.057893085099487e-14
6.257894223649355e-15 4.137556922078787e-15 1.611341418165357e-14 2.146205510938289e-14 2.342163019375690e-14 -1.517229576986488e-14
-8.711927350819158e-15 -1.850371707708603e-15 1.426304247394501e-14 -3.955938715782332e-15 1.465814400240660e-14 -1.683523794908905e-15
5.219566248197124e-14 3.347353865155430e-15 1.211084005650575e-14 -1.441794096829388e-14 -5.218581561964001e-15 -7.892902025828641e-15
2.524998364792794e-14 1.413558201047012e-15 4.490946472340546e-15 1.165621340854575e-14 1.720312341943220e-15 -1.747541354216945e-14
4.628177585202756e-14 -1.156453584560814e-14 1.534290484939321e-15 1.554972782081347e-14 -8.326672684688721e-16 -8.644723279924282e-15
-4.639283885179307e-14 1.475938110010488e-14 2.353879984938949e-14 2.656603971767492e-14 -6.492455507670260e-16 -2.494591319537010e-14
8.086093533903149e-14 -1.839263311705651e-14 1.947670060474342e-14 2.525418876016707e-14 1.380642425624323e-14 2.750264935095012e-14
-1.834904055549261e-14 6.746266570842005e-15 1.919080245294709e-14 -7.194089204272383e-15 -1.530727856679583e-15 2.966522426975043e-14
9.734555221224495e-14 2.698739081224314e-14 6.627216331845414e-15 -5.066725915416681e-15 -3.845684061057118e-15 -9.412731742117282e-15
-7.508156075982024e-16 4.107373851105733e-14 -5.551115123125755e-15 -2.020925912553250e-14 -9.184367140077488e-15 1.829139601935837e-14
-4.368135066615078e-16 9.521824132404918e-15 4.368135066615953e-16 3.263929908755597e-15 8.914401546215597e-15 3.171267659584886e-14
-6.154776542587019e-15 7.838300337496004e-15 7.131521236972479e-15 1.122736618085133e-14 -8.316825822357493e-15 -1.316116184495978e-14
2.524998364792794e-14 1.413558201047012e-15 4.490946472340546e-15 1.165621340854575e-14 1.720312341943220e-15 -1.747541354216945e-14
9.975787336121500e-14 7.433351946703130e-15 2.422168011301177e-15 2.186019948564615e-14 -1.774914030275925e-15 1.015524811161531e-14
1.205047391455965e-14 1.185025641919997e-14 -3.592757177872410e-15 5.314054206048785e-15 -1.986618134337688e-14 2.113247560692048e-14
8.086093533903149e-14 -1.839263311705651e-14 1.947670060474342e-14 2.525418876016707e-14 1.380642425624323e-14 2.750264935095012e-14
3.247289512026753e-14 -3.807180791719619e-14 -3.892950237258506e-14 -2.525120140555434e-14 -5.753589318522177e-15 1.724018943241118e-14
8.477588039554001e-15 -6.087285144121551e-15 1.555755043599539e-14 -1.935507766378618e-14 -1.422133049574505e-14 -7.426325959417949e-15
9.734555221224495e-14 2.698739081224314e-14 6.627216331845414e-15 -5.066725915416681e-15 -3.845684061057118e-15 -9.412731742117282e-15
-5.701278244645508e-14 -9.920577078228444e-14 3.935834960027966e-14 -5.551115123125764e-15 9.309503074677268e-15 7.594114163899647e-15
2.438852802581123e-14 -4.817339463216080e-14 -1.621653186271565e-14 -5.878841479565734e-14 -4.442109237621261e-14 -9.688672045204549e-15
3.263929908755664e-15 -5.133420685985432e-14 1.241267076623640e-14 2.275656307143331e-14 1.084819721032407e-14 4.709353225671359e-15
9.975787336121500e-14 7.433351946703130e-15 2.422168011301177e-15 2.186019948564615e-14 -1.774914030275925e-15 1.015524811161531e-14
7.511907346620428e-14 6.726572846179697e-15 1.985354504639553e-15 -2.345935903247319e-14 3.623405154620550e-15 1.356821279187225e-14
2.969030109128745e-14 3.687581544703238e-14 2.644513509564437e-15 -9.337484320296531e-15 -1.118687134177205e-14 -5.545207005727085e-15
3.247289512026753e-14 -3.807180791719619e-14 -3.892950237258506e-14 -2.525120140555434e-14 -5.753589318522177e-15 1.724018943241118e-14
-4.890253113041392e-15 2.353879984938945e-14 -1.627229581548596e-14 -1.554571200392243e-15 1.567366881356816e-14 -2.664196754094855e-14
-2.891133961402035e-14 1.182494190470951e-14 -5.863257600962640e-14 1.534710996163205e-15 -1.553763473857737e-14 -5.591303057391928e-14
9.734555221224495e-14 2.698739081224314e-14 6.627216331845414e-15 -5.066725915416681e-15 -3.845684061057118e-15 -9.412731742117282e-15
3.280614700035581e-14 3.037645665559847e-14 3.552262338793166e-14 -1.060168650785174e-15 1.266294263543594e-14 -2.813098341942826e-14
1.153904375291327e-14 2.368174892528767e-14 -1.998100550987031e-14 2.076324228782662e-14 1.512914715381262e-15 -6.592485946379547e-14
-1.698704119497670e-14 1.796378588936230e-14 -5.759210108350347e-14 1.151558886152334e-15 -5.362139207422443e-14 -8.596638278550522e-15
7.511907346620428e-14 6.726572846179697e-15 1.985354504639553e-15 -2.345935903247319e-14 3.623405154620550e-15 1.356821279187225e-14
5.219566248197124e-14 3.347353865155430e-15 1.211084005650575e-14 -1.441794096829388e-14 -5.218581561964001e-15 -7.892902025828641e-15
-3.106819108920954e-15 2.309083355217389e-14 -1.996038197365794e-14 6.206335383118197e-16 6.246830222197499e-15 -2.166846804971174e-14
1.111816280418595e-14 3.066235480739481e-14 1.047887510212795e-14 1.699993090510952e-14 -4.024370405929810e-15 4.141540061562396e-15
2.187828700036023e-15 1.155497631084753e-14 -7.902030569233258e-16 1.875844223161010e-14 7.468037937617837e-15 5.797625825597181e-16
-2.891133961402035e-14 1.182494190470951e-14 -5.863257600962640e-14 1.534710996163205e-15 -1.553763473857737e-14 -5.591303057391928e-14
2.654073044325040e-14 2.568303598786155e-14 -5.242624062650823e-14 1.139117124584943e-14 -1.091170546930589e-14 1.689166782012608e-14
9.567939761312317e-15 5.651223870805606e-15 -1.114046838529406e-14 4.546908963579148e-15 -1.593904393539802e-15 2.032483552537158e-14
-2.143280184995985e-14 7.709690563738779e-15 -2.744622257244112e-15 1.457054884818682e-14 -8.482743923607127e-15 -5.417847295900335e-14
2.382425405567484e-15 7.085405608065084e-15 1.437102871148982e-14 9.743130069752010e-15 -1.848431067999415e-14 -2.248271360732199e-14
5.717963035925484e-15 1.241267076623639e-14 1.655022768831524e-14 2.082276740732487e-14 -8.834738756543816e-16 1.528149914653026e-14
-2.993964314893663e-15 3.430777821555290e-15 -2.068778461039390e-14 -5.743742456191029e-15 -3.009896872828064e-15 -1.159525165119476e-15
1.469985598060657e-14 5.281149529263906e-15 -2.623889973351969e-14 1.001628217520077e-14 -2.723157698583948e-14 2.524622248119993e-14
1.111816280418595e-14 3.066235480739481e-14 1.047887510212795e-14 1.699993090510952e-14 -4.024370405929810e-15 4.141540061562396e-15
-1.834904055549261e-14 6.746266570842005e-15 1.919080245294709e-14 -7.194089204272383e-15 -1.530727856679583e-15 2.966522426975043e-14
2.187828700036023e-15 1.155497631084753e-14 -7.902030569233258e-16 1.875844223161010e-14 7.468037937617837e-15 5.797625825597181e-16
1.604592278318809e-14 2.482534153247274e-14 2.654073044325039e-14 8.779418749284658e-15 3.835726212348140e-15 2.139456371091744e-14
8.719804840684116e-15 1.907400891398734e-14 -3.168689717558326e-15 -9.774065374070673e-15 1.052574296438096e-14 -5.386181708109291e-15
-2.074664628564883e-14 9.405960404995168e-15 1.352289379086152e-14 1.965414761321985e-14 -5.896982339931591e-16 2.378654865124551e-14
9.567939761312317e-15 5.651223870805606e-15 -1.114046838529406e-14 4.546908963579148e-15 -1.593904393539802e-15 2.032483552537158e-14
-5.281149529263887e-15 1.126907815905128e-14 1.056229905852780e-14 1.366546675008687e-14 -1.092033766653996e-15 1.671098990551165e-14
4.844336022602290e-15 8.275113844157584e-15 4.368135066615973e-16 1.361999360515897e-15 -3.430777821555290e-15 9.527909828008076e-15
1.311944986675987e-14 -1.850371707708592e-15 9.418706451342698e-15 -2.177981837704784e-15 1.431460131447606e-14 2.645730648685053e-14
1.111816280418595e-14 3.066235480739481e-14 1.047887510212795e-14 1.699993090510952e-14 -4.024370405929810e-15 4.141540061562396e-15
8.477588039554001e-15 -6.087285144121551e-15 1.555755043599539e-14 -1.935507766378618e-14 -1.422133049574505e-14 -7.426325959417949e-15
-1.834904055549261e-14 6.746266570842005e-15 1.919080245294709e-14 -7.194089204272383e-15 -1.530727856679583e-15 2.966522426975043e-14
2.739842489863920e-14 -3.425998054174970e-14 2.482534153247276e-14 -3.296148944021575e-14 1.894661627935073e-14 5.089573474258424e-15
4.016824638186530e-15 5.330531085145521e-14 1.548125173611490e-14 3.571381408314387e-15 -7.413015738061254e-15 -1.404341858149353e-14
-2.107060499828315e-14 1.766345964632279e-14 1.130244774161122e-14 -8.632907045126842e-15 -1.900848688798808e-14 9.372071041977160e-15
8.719804840684116e-15 1.907400891398734e-14 -3.168689717558326e-15 -9.774065374070673e-15 1.052574296438096e-14 -5.386181708109291e-15
5.717963035925487e-15 7.067791005235435e-16 1.126907815905129e-14 -9.049384343146539e-15 1.581766916752610e-14 2.211727536937527e-15
-4.844336022602279e-15 -3.925523191921739e-14 1.540663508113007e-14 -1.025062148646592e-14 -8.981892944681078e-15 -2.523405108999358e-15
1.469985598060656e-14 1.180900934677512e-14 -8.981892944681071e-15 -2.924879660634780e-14 -5.975757238580999e-16 2.593939355266428e-15
1.111816280418595e-14 3.066235480739481e-14 1.047887510212795e-14 1.699993090510952e-14 -4.024370405929810e-15 4.141540061562396e-15
-2.891133961402035e-14 1.182494190470951e-14 -5.863257600962640e-14 1.534710996163205e-15 -1.553763473857737e-14 -5.591303057391928e-14
8.477588039554001e-15 -6.087285144121551e-15 1.555755043599539e-14 -1.935507766378618e-14 -1.422133049574505e-14 -7.426325959417949e-15
1.604592278318813e-14 -8.411313780209156e-14 -4.319407581262771e-14 -3.276101299962006e-16 -2.322811496966940e-15 2.793481689239089e-15
2.382425405567484e-15 7.085405608065084e-15 1.437102871148982e-14 9.743130069752010e-15 -1.848431067999415e-14 -2.248271360732199e-14
-1.885015894903283e-14 1.348465565181907e-14 -2.198061052754865e-14 -2.424815689193955e-14 1.626751604810575e-14 -2.610049797211437e-14
4.016824638186530e-15 5.330531085145521e-14 1.548125173611490e-14 3.571381408314387e-15 -7.413015738061254e-15 -1.404341858149353e-14
-4.137556922078788e-15 -4.574370428740313e-15 6.694707730310925e-15 1.850980277268913e-14 -3.293360746383060e-14 -8.090452790059500e-15
-4.574370428740353e-15 -2.156141162371704e-14 -5.416132326194835e-14 -3.228447289944139e-14 -1.028303534916497e-15 -8.742630202250266e-15
2.025097110373239e-14 -4.366275443515808e-14 8.171996163095385e-15 1.690361723857689e-14 2.085463252319360e-14 -8.578825137252219e-15
9.734555221224495e-14 2.698739081224314e-14 6.627216331845414e-15 -5.066725915416681e-15 -3.845684061057118e-15 -9.412731742117282e-15
-2.891133961402035e-14 1.182494190470951e-14 -5.863257600962640e-14 1.534710996163205e-15 -1.553763473857737e-14 -5.591303057391928e-14
2.187828700036023e-15 1.155497631084753e-14 -7.902030569233258e-16 1.875844223161010e-14 7.468037937617837e-15 5.797625825597181e-16
-4.890253113041392e-15 2.353879984938945e-14 -1.627229581548596e-14 -1.554571200392243e-15 1.567366881356816e-14 -2.664196754094855e-14
-3.106819108920954e-15 2.309083355217389e-14 -1.996038197365794e-14 6.206335383118197e-16 6.246830222197499e-15 -2.166846804971174e-14
-2.143280184995985e-14 7.709690563738779e-15 -2.744622257244112e-15 1.457054884818682e-14 -8.482743923607127e-15 -5.417847295900335e-14
4.628177585202756e-14 -1.156453584560814e-14 1.534290484939321e-15 1.554972782081347e-14 -8.326672684688721e-16 -8.644723279924282e-15
5.219566248197124e-14 3.347353865155430e-15 1.211084005650575e-14 -1.441794096829388e-14 -5.218581561964001e-15 -7.892902025828641e-15
1.153904375291327e-14 2.368174892528767e-14 -1.998100550987031e-14 2.076324228782662e-14 1.512914715381262e-15 -6.592485946379547e-14
-8.711927350819158e-15 -1.850371707708603e-15 1.426304247394501e-14 -3.955938715782332e-15 1.465814400240660e-14 -1.683523794908905e-15
9.734555221224495e-14 2.698739081224314e-14 6.627216331845414e-15 -5.066725915416681e-15 -3.845684061057118e-15 -9.412731742117282e-15
2.187828700036023e-15 1.155497631084753e-14 -7.902030569233258e-16 1.875844223161010e-14 7.468037937617837e-15 5.797625825597181e-16
-1.834904055549261e-14 6.746266570842005e-15 1.919080245294709e-14 -7.194089204272383e-15 -1.530727856679583e-15 2.966522426975043e-14
-4.639283885179307e-14 1.475938110010488e-14 2.353879984938949e-14 2.656603971767492e-14 -6.492455507670260e-16 -2.494591319537010e-14
4.628177585202756e-14 -1.156453584560814e-14 1.534290484939321e-15 1.554972782081347e-14 -8.326672684688721e-16 -8.644723279924282e-15
-2.074664628564883e-14 9.405960404995168e-15 1.352289379086152e-14 1.965414761321985e-14 -5.896982339931591e-16 2.378654865124551e-14
1.205047391455965e-14 1.185025641919997e-14 -3.592757177872410e-15 5.314054206048785e-15 -1.986618134337688e-14 2.113247560692048e-14
2.524998364792794e-14 1.413558201047012e-15 4.490946472340546e-15 1.165621340854575e-14 1.720312341943220e-15 -1.747541354216945e-14
6.257894223649355e-15 4.137556922078787e-15 1.611341418165357e-14 2.146205510938289e-14 2.342163019375690e-14 -1.517229576986488e-14
-6.154776542587019e-15 7.838300337496004e-15 7.131521236972479e-15 1.122736618085133e-14 -8.316825822357493e-15 -1.316116184495978e-14
9.734555221224495e-14 2.698739081224314e-14 6.627216331845414e-15 -5.066725915416681e-15 -3.845684061057118e-15 -9.412731742117282e-15
-1.834904055549261e-14 6.746266570842005e-15 1.919080245294709e-14 -7.194089204272383e-15 -1.530727856679583e-15 2.966522426975043e-14
8.477588039554001e-15 -6.087285144121551e-15 1.555755043599539e-14 -1.935507766378618e-14 -1.422133049574505e-14 -7.426325959417949e-15
8.086093533903149e-14 -1.839263311705651e-14 1.947670060474342e-14 2.525418876016707e-14 1.380642425624323e-14 2.750264935095012e-14
1.205047391455965e-14 1.185025641919997e-14 -3.592757177872410e-15 5.314054206048785e-15 -1.986618134337688e-14 2.113247560692048e-14
-2.107060499828315e-14 1.766345964632279e-14 1.130244774161122e-14 -8.632907045126842e-15 -1.900848688798808e-14 9.372071041977160e-15
2.969030109128745e-14 3.687581544703238e-14 2.644513509564437e-15 -9.337484320296531e-15 -1.118687134177205e-14 -5.545207005727085e-15
9.975787336121500e-14 7.433351946703130e-15 2.422168011301177e-15 2.186019948564615e-14 -1.774914030275925e-15 1.015524811161531e-14
-4.368135066615078e-16 9.521824132404918e-15 4.368135066615953e-16 3.263929908755597e-15 8.914401546215597e-15 3.171267659584886e-14
3.263929908755664e-15 -5.133420685985432e-14 1.241267076623640e-14 2.275656307143331e-14 1.084819721032407e-14 4.709353225671359e-15
9.734555221224495e-14 2.698739081224314e-14 6.627216331845414e-15 -5.066725915416681e-15 -3.845684061057118e-15 -9.412731742117282e-15
8.477588039554001e-15 -6.087285144121551e-15 1.555755043599539e-14 -1.935507766378618e-14 -1.422133049574505e-14 -7.426325959417949e-15
-2.891133961402035e-14 1.182494190470951e-14 -5.863257600962640e-14 1.534710996163205e-15 -1.553763473857737e-14 -5.591303057391928e-14
3.247289512026753e-14 -3.807180791719619e-14 -3.892950237258506e-14 -2.525120140555434e-14 -5.753589318522177e-15 1.724018943241118e-14
2.969030109128745e-14 3.687581544703238e-14 2.644513509564437e-15 -9.337484320296531e-15 -1.118687134177205e-14 -5.545207005727085e-15
-1.885015894903283e-14 1.348465565181907e-14 -2.198061052754865e-14 -2.424815689193955e-14 1.626751604810575e-14 -2.610049797211437e-14
-3.106819108920954e-15 2.309083355217389e-14 -1.996038197365794e-14 6.206335383118197e-16 6.246830222197499e-15 -2.166846804971174e-14
7.511907346620428e-14 6.726572846179697e-15 1.985354504639553e-15 -2.345935903247319e-14 3.623405154620550e-15 1.356821279187225e-14
2.438852802581123e-14 -4.817339463216080e-14 -1.621653186271565e-14 -5.878841479565734e-14 -4.442109237621261e-14 -9.688672045204549e-15
-1.698704119497670e-14 1.796378588936230e-14 -5.759210108350347e-14 1.151558886152334e-15 -5.362139207422443e-14 -8.596638278550522e-15
1.111816280418595e-14 3.066235480739481e-14 1.047887510212795e-14 1.699993090510952e-14 -4.024370405929810e-15 4.141540061562396e-15
-2.891133961402035e-14 1.182494190470951e-14 -5.863257600962640e-14 1.534710996163205e-15 -1.553763473857737e-14 -5.591303057391928e-14
2.187828700036023e-15 1.155497631084753e-14 -7.902030569233258e-16 1.875844223161010e-14 7.468037937617837e-15 5.797625825597181e-16
3.517111442103374e-14 -3.681049690754822e-15 7.695351261597852e-15 -3.506705644828921e-15 3.803031791175249e-15 -9.216728602116649e-16
2.382425405567484e-15 7.085405608065084e-15 1.437102871148982e-14 9.743130069752010e-15 -1.848431067999415e-14 -2.248271360732199e-14
-2.143280184995985e-14 7.709690563738779e-15 -2.744622257244112e-15 1.457054884818682e-14 -8.482743923607127e-15 -5.417847295900335e-14
9.567939761312317e-15 5.651223870805606e-15 -1.114046838529406e-14 4.546908963579148e-15 -1.593904393539802e-15 2.032483552537158e-14
2.735062722483609e-14 2.650421626963142e-15 -2.370609170770040e-15 -1.785342024825903e-15 7.839821761396795e-15 9.762249139273296e-15
1.097709431165187e-14 -4.741218341540081e-15 -3.617784364792373e-14 1.582867829429525e-15 -1.581216460414168e-14 -2.992371059100252e-14
4.339655000802420e-14 2.192464803631008e-14 -4.288472276944093e-15 1.188997158759213e-14 1.118869705045303e-14 -4.100768375044426e-15
1.111816280418595e-14 3.066235480739481e-14 1.047887510212795e-14 1.699993090510952e-14 -4.024370405929810e-15 4.141540061562396e-15
2.187828700036023e-15 1.155497631084753e-14 -7.902030569233258e-16 1.875844223161010e-14 7.468037937617837e-15 5.797625825597181e-16
-1.834904055549261e-14 6.746266570842005e-15 1.919080245294709e-14 -7.194089204272383e-15 -1.530727856679583e-15 2.966522426975043e-14
3.517111442103374e-14 -3.681049690754822e-15 7.695351261597852e-15 -3.506705644828921e-15 3.803031791175249e-15 -9.216728602116649e-16
9.567939761312317e-15 5.651223870805606e-15 -1.114046838529406e-14 4.546908963579148e-15 -1.593904393539802e-15 2.032483552537158e-14
-2.074664628564883e-14 9.405960404995168e-15 1.352289379086152e-14 1.965414761321985e-14 -5.896982339931591e-16 2.378654865124551e-14
8.719804840684116e-15 1.907400891398734e-14 -3.168689717558326e-15 -9.774065374070673e-15 1.052574296438096e-14 -5.386181708109291e-15
2.735062722483609e-14 2.650421626963142e-15 -2.370609170770040e-15 -1.785342024825903e-15 7.839821761396795e-15 9.762249139273296e-15
4.339655000802420e-14 2.192464803631008e-14 -4.288472276944093e-15 1.188997158759213e-14 1.118869705045303e-14 -4.100768375044426e-15
4.049483907929108e-16 -2.620881039969585e-15 3.294954002176501e-14 -2.389943735969204e-15 2.652139587805123e-14 1.023715064411439e-14
1.111816280418595e-14 3.066235480739481e-14 1.047887510212795e-14 1.699993090510952e-14 -4.024370405929810e-15 4.141540061562396e-15
-1.834904055549261e-14 6.746266570842005e-15 1.919080245294709e-14 -7.194089204272383e-15 -1.530727856679583e-15 2.966522426975043e-14
8.477588039554001e-15 -6.087285144121551e-15 1.555755043599539e-14 -1.935507766378618e-14 -1.422133049574505e-14 -7.426325959417949e-15
3.517111442103374e-14 -3.681049690754822e-15 7.695351261597852e-15 -3.506705644828921e-15 3.803031791175249e-15 -9.216728602116649e-16
8.719804840684116e-15 1.907400891398734e-14 -3.168689717558326e-15 -9.774065374070673e-15 1.052574296438096e-14 -5.386181708109291e-15
-2.107060499828315e-14 1.766345964632279e-14 1.130244774161122e-14 -8.632907045126842e-15 -1.900848688798808e-14 9.372071041977160e-15
4.016824638186530e-15 5.330531085145521e-14 1.548125173611490e-14 3.571381408314387e-15 -7.413015738061254e-15 -1.404341858149353e-14
2.735062722483609e-14 2.650421626963142e-15 -2.370609170770040e-15 -1.785342024825903e-15 7.839821761396795e-15 9.762249139273296e-15
4.049483907929108e-16 -2.620881039969585e-15 3.294954002176501e-14 -2.389943735969204e-15 2.652139587805123e-14 1.023715064411439e-14
3.004884652560234e-14 2.657027103024401e-14 7.266504033903438e-15 2.042999040773869e-15 -2.608059923190604e-14 8.463758037739225e-15
1.111816280418595e-14 3.066235480739481e-14 1.047887510212795e-14 1.699993090510952e-14 -4.024370405929810e-15 4.141540061562396e-15
8.477588039554001e-15 -6.087285144121551e-15 1.555755043599539e-14 -1.935507766378618e-14 -1.422133049574505e-14 -7.426325959417949e-15
-2.891133961402035e-14 1.182494190470951e-14 -5.863257600962640e-14 1.534710996163205e-15 -1.553763473857737e-14 -5.591303057391928e-14
3.517111442103374e-14 -3.681049690754822e-15 7.695351261597852e-15 -3.506705644828921e-15 3.803031791175249e-15 -9.216728602116649e-16
4.016824638186530e-15 5.330531085145521e-14 1.548125173611490e-14 3.571381408314387e-15 -7.413015738061254e-15 -1.404341858149353e-14
-1.885015894903283e-14 1.348465565181907e-14 -2.198061052754865e-14 -2.424815689193955e-14 1.626751604810575e-14 -2.610049797211437e-14
2.382425405567484e-15 7.085405608065084e-15 1.437102871148982e-14 9.743130069752010e-15 -1.848431067999415e-14 -2.248271360732199e-14
2.735062722483609e-14 2.650421626963142e-15 -2.370609170770040e-15 -1.785342024825903e-15 7.839821761396795e-15 9.762249139273296e-15
3.004884652560234e-14 2.657027103024401e-14 7.266504033903438e-15 2.042999040773869e-15 -2.608059923190604e-14 8.463758037739225e-15
1.097709431165187e-14 -4.741218341540081e-15 -3.617784364792373e-14 1.582867829429525e-15 -1.581216460414168e-14 -2.992371059100252e-14
9.734555221224495e-14 2.698739081224314e-14 6.627216331845414e-15 -5.066725915416681e-15 -3.845684061057118e-15 -9.412731742117282e-15
2.187828700036023e-15 1.155497631084753e-14 -7.902030569233258e-16 1.875844223161010e-14 7.468037937617837e-15 5.797625825597181e-16
-2.891133961402035e-14 1.182494190470951e-14 -5.863257600962640e-14 1.534710996163205e-15 -1.553763473857737e-14 -5.591303057391928e-14
3.517111442103374e-14 -3.681049690754822e-15 7.695351261597852e-15 -3.506705644828921e-15 3.803031791175249e-15 -9.216728602116649e-16
4.628177585202756e-14 -1.156453584560814e-14 1.534290484939321e-15 1.554972782081347e-14 -8.326672684688721e-16 -8.644723279924282e-15
-2.143280184995985e-14 7.709690563738779e-15 -2.744622257244112e-15 1.457054884818682e-14 -8.482743923607127e-15 -5.417847295900335e-14
-3.106819108920954e-15 2.309083355217389e-14 -1.996038197365794e-14 6.206335383118197e-16 6.246830222197499e-15 -2.166846804971174e-14
1.506309239319950e-14 2.101915590711814e-14 3.327715015176123e-14 -1.453757233950927e-14 -3.336925870605394e-15 -2.091509793437393e-14
4.339655000802420e-14 2.192464803631008e-14 -4.288472276944093e-15 1.188997158759213e-14 1.118869705045303e-14 -4.100768375044426e-15
1.097709431165187e-14 -4.741218341540081e-15 -3.617784364792373e-14 1.582867829429525e-15 -1.581216460414168e-14 -2.992371059100252e-14
9.734555221224495e-14 2.698739081224314e-14 6.627216331845414e-15 -5.066725915416681e-15 -3.845684061057118e-15 -9.412731742117282e-15
-1.834904055549261e-14 6.746266570842005e-15 1.919080245294709e-14 -7.194089204272383e-15 -1.530727856679583e-15 2.966522426975043e-14
2.187828700036023e-15 1.155497631084753e-14 -7.902030569233258e-16 1.875844223161010e-14 7.468037937617837e-15 5.797625825597181e-16
3.517111442103374e-14 -3.681049690754822e-15 7.695351261597852e-15 -3.506705644828921e-15 3.803031791175249e-15 -9.216728602116649e-16
1.205047391455965e-14 1.185025641919997e-14 -3.592757177872410e-15 5.314054206048785e-15 -1.986618134337688e-14 2.113247560692048e-14
-2.074664628564883e-14 9.405960404995168e-15 1.352289379086152e-14 1.965414761321985e-14 -5.896982339931591e-16 2.378654865124551e-14
4.628177585202756e-14 -1.156453584560814e-14 1.534290484939321e-15 1.554972782081347e-14 -8.326672684688721e-16 -8.644723279924282e-15
1.506309239319950e-14 2.101915590711814e-14 3.327715015176123e-14 -1.453757233950927e-14 -3.336925870605394e-15 -2.091509793437393e-14
4.049483907929108e-16 -2.620881039969585e-15 3.294954002176501e-14 -2.389943735969204e-15 2.652139587805123e-14 1.023715064411439e-14
4.339655000802420e-14 2.192464803631008e-14 -4.288472276944093e-15 1.188997158759213e-14 1.118869705045303e-14 -4.100768375044426e-15
9.734555221224495e-14 2.698739081224314e-14 6.627216331845414e-15 -5.066725915416681e-15 -3.845684061057118e-15 -9.412731742117282e-15
8.477588039554001e-15 -6.087285144121551e-15 1.555755043599539e-14 -1.935507766378618e-14 -1.422133049574505e-14 -7.426325959417949e-15
-1.834904055549261e-14 6.746266570842005e-15 1.919080245294709e-14 -7.194089204272383e-15 -1.530727856679583e-15 2.966522426975043e-14
3.517111442103374e-14 -3.681049690754822e-15 7.695351261597852e-15 -3.506705644828921e-15 3.803031791175249e-15 -9.216728602116649e-16
2.969030109128745e-14 3.687581544703238e-14 2.644513509564437e-15 -9.337484320296531e-15 -1.118687134177205e-14 -5.545207005727085e-15
-2.107060499828315e-14 1.766345964632279e-14 1.130244774161122e-14 -8.632907045126842e-15 -1.900848688798808e-14 9.372071041977160e-15
1.205047391455965e-14 1.185025641919997e-14 -3.592757177872410e-15 5.314054206048785e-15 -1.986618134337688e-14 2.113247560692048e-14
1.506309239319950e-14 2.101915590711814e-14 3.327715015176123e-14 -1.453757233950927e-14 -3.336925870605394e-15 -2.091509793437393e-14
3.004884652560234e-14 2.657027103024401e-14 7.266504033903438e-15 2.042999040773869e-15 -2.608059923190604e-14 8.463758037739225e-15
4.049483907929108e-16 -2.620881039969585e-15 3.294954002176501e-14 -2.389943735969204e-15 2.652139587805123e-14 1.023715064411439e-14
9.734555221224495e-14 2.698739081224314e-14 6.627216331845414e-15 -5.066725915416681e-15 -3.845684061057118e-15 -9.412731742117282e-15
-2.891133961402035e-14 1.182494190470951e-14 -5.863257600962640e-14 1.534710996163205e-15 -1.553763473857737e-14 -5.591303057391928e-14
8.477588039554001e-15 -6.087285144121551e-15 1.555755043599539e-14 -1.935507766378618e-14 -1.422133049574505e-14 -7.426325959417949e-15
3.517111442103374e-14 -3.681049690754822e-15 7.695351261597852e-15 -3.506705644828921e-15 3.803031791175249e-15 -9.216728602116649e-16
-3.106819108920954e-15 2.309083355217389e-14 -1.996038197365794e-14 6.206335383118197e-16 6.246830222197499e-15 -2.166846804971174e-14
-1.885015894903283e-14 1.348465565181907e-14 -2.198061052754865e-14 -2.424815689193955e-14 1.626751604810575e-14 -2.610049797211437e-14
2.969030109128745e-14 3.687581544703238e-14 2.644513509564437e-15 -9.337484320296531e-15 -1.118687134177205e-14 -5.545207005727085e-15
1.506309239319950e-14 2.101915590711814e-14 3.327715015176123e-14 -1.453757233950927e-14 -3.336925870605394e-15 -2.091509793437393e-14
1.097709431165187e-14 -4.741218341540081e-15 -3.617784364792373e-14 1.582867829429525e-15 -1.581216460414168e-14 -2.992371059100252e-14
3.004884652560234e-14 2.657027103024401e-14 7.266504033903438e-15 2.042999040773869e-15 -2.608059923190604e-14 8.463758037739225e-15
-4.890253113041392e-15 2.353879984938945e-14 -1.627229581548596e-14 -1.554571200392243e-15 1.567366881356816e-14 -2.664196754094855e-14
-4.639283885179307e-14 1.475938110010488e-14 2.353879984938949e-14 2.656603971767492e-14 -6.492455507670260e-16 -2.494591319537010e-14
9.734555221224495e-14 2.698739081224314e-14 6.627216331845414e-15 -5.066725915416681e-15 -3.845684061057118e-15 -9.412731742117282e-15
4.272539719010233e-15 1.804720984576200e-14 -1.284948427289797e-14 -1.647922329620714e-14 1.065556987725878e-14 -2.662371045413948e-15
-1.201363049284222e-13 -7.266504033903418e-15 3.037645665559856e-14 2.621312031325416e-14 -3.555913756155063e-15 -3.057893085099487e-14
2.524998364792794e-14 1.413558201047012e-15 4.490946472340546e-15 1.165621340854575e-14 1.720312341943220e-15 -1.747541354216945e-14
5.219566248197124e-14 3.347353865155430e-15 1.211084005650575e-14 -1.441794096829388e-14 -5.218581561964001e-15 -7.892902025828641e-15
4.827651231322317e-14 -1.143592607185107e-15 -1.927422640934693e-14 -1.241267076623639e-14 6.283673643914813e-15 -7.163386352841189e-15
4.844336022602286e-14 -4.574370428740387e-15 1.311944986675986e-14 -8.519300017753918e-15 1.657744374643327e-15 1.300039962776328e-14
1.308353107493044e-13 1.162640645424547e-14 6.187060863730219e-17 -2.869758191844022e-15 1.085195837705172e-15 3.159130182797734e-15
-4.639283885179307e-14 1.475938110010488e-14 2.353879984938949e-14 2.656603971767492e-14 -6.492455507670260e-16 -2.494591319537010e-14
8.086093533903149e-14 -1.839263311705651e-14 1.947670060474342e-14 2.525418876016707e-14 1.380642425624323e-14 2.750264935095012e-14
9.734555221224495e-14 2.698739081224314e-14 6.627216331845414e-15 -5.066725915416681e-15 -3.845684061057118e-15 -9.412731742117282e-15
-2.349520728782531e-14 7.905791735961531e-15 2.062029321192849e-14 -3.744446963358920e-15 2.157125848604787e-15 3.405468547130766e-15
-7.508156075982024e-16 4.107373851105733e-14 -5.551115123125755e-15 -2.020925912553250e-14 -9.184367140077488e-15 1.829139601935837e-14
9.975787336121500e-14 7.433351946703130e-15 2.422168011301177e-15 2.186019948564615e-14 -1.774914030275925e-15 1.015524811161531e-14
2.524998364792794e-14 1.413558201047012e-15 4.490946472340546e-15 1.165621340854575e-14 1.720312341943220e-15 -1.747541354216945e-14
-2.919347659908871e-14 1.981415759707078e-14 6.424742136448980e-15 2.972732209120933e-14 2.749778141297324e-15 -1.642509175371538e-14
1.175351176131153e-13 3.239367627610693e-14 -1.197585725957475e-14 -2.117615695758666e-14 -1.450722864754130e-14 -7.396563399668764e-15
1.429455243340476e-14 3.191074714053785e-14 -9.482436683080100e-16 -2.987591291719963e-15 1.166099317592605e-14 -2.510950276469031e-14
8.086093533903149e-14 -1.839263311705651e-14 1.947670060474342e-14 2.525418876016707e-14 1.380642425624323e-14 2.750264935095012e-14
3.247289512026753e-14 -3.807180791719619e-14 -3.892950237258506e-14 -2.525120140555434e-14 -5.753589318522177e-15 1.724018943241118e-14
9.734555221224495e-14 2.698739081224314e-14 6.627216331845414e-15 -5.066725915416681e-15 -3.845684061057118e-15 -9.412731742117282e-15
-8.624940766159625e-14 -1.005799415340066e-14 -6.749139846542689e-17 -1.250898443276879e-14 3.266972756557188e-15 8.226486865050251e-15
-5.701278244645508e-14 -9.920577078228444e-14 3.935834960027966e-14 -5.551115123125764e-15 9.309503074677268e-15 7.594114163899647e-15
7.511907346620428e-14 6.726572846179697e-15 1.985354504639553e-15 -2.345935903247319e-14 3.623405154620550e-15 1.356821279187225e-14
9.975787336121500e-14 7.433351946703130e-15 2.422168011301177e-15 2.186019948564615e-14 -1.774914030275925e-15 1.015524811161531e-14
-6.424742136448920e-15 -6.233331942504371e-14 2.253815631810258e-14 1.358204279368706e-14 7.266504033903457e-15 2.540510411503245e-14
3.097081995955998e-15 -1.567660067499193e-14 -2.438852802581113e-14 4.129214526438808e-14 2.477378269194156e-14 -2.695364511301038e-14
1.858249197573678e-15 6.153917762318791e-14 1.806389463704204e-14 3.187808787079614e-15 1.013765694307235e-15 -7.251036381744112e-15
3.247289512026753e-14 -3.807180791719619e-14 -3.892950237258506e-14 -2.525120140555434e-14 -5.753589318522177e-15 1.724018943241118e-14
-4.890253113041392e-15 2.353879984938945e-14 -1.627229581548596e-14 -1.554571200392243e-15 1.567366881356816e-14 -2.664196754094855e-14
9.734555221224495e-14 2.698739081224314e-14 6.627216331845414e-15 -5.066725915416681e-15 -3.845684061057118e-15 -9.412731742117282e-15
-7.064029838506791e-15 -3.212371068224484e-15 -4.386522863055423e-14 2.847054296787528e-14 -2.652479788531599e-14 -3.038290151066480e-14
3.280614700035581e-14 3.037645665559847e-14 3.552262338793166e-14 -1.060168650785174e-15 1.266294263543594e-14 -2.813098341942826e-14
5.219566248197124e-14 3.347353865155430e-15 1.211084005650575e-14 -1.441794096829388e-14 -5.218581561964001e-15 -7.892902025828641e-15
7.511907346620428e-14 6.726572846179697e-15 1.985354504639553e-15 -2.345935903247319e-14 3.623405154620550e-15 1.356821279187225e-14
5.056369752759337e-14 -3.266364186996867e-14 -7.245880497690985e-14 -2.961811871454389e-14 1.040474926122912e-15 1.692447322767685e-14
3.896092354294269e-14 2.324493541862605e-14 -3.538764059100043e-14 2.691989941377768e-14 5.416132326194863e-15 3.698774042950960e-14
5.561125997893772e-14 5.975182583439930e-15 1.352289379086165e-14 4.645622993934218e-16 -3.680073388627243e-14 -1.282422463309048e-14
-4.890253113041392e-15 2.353879984938945e-14 -1.627229581548596e-14 -1.554571200392243e-15 1.567366881356816e-14 -2.664196754094855e-14
-1.967917480013973e-13 2.568303598786157e-14 5.202129223571567e-14 7.921724293895915e-15 3.520065500802687e-15 -1.218629773393835e-14
4.272539719010233e-15 1.804720984576200e-14 -1.284948427289797e-14 -1.647922329620714e-14 1.065556987725878e-14 -2.662371045413948e-15
-7.064029838506791e-15 -3.212371068224484e-15 -4.386522863055423e-14 2.847054296787528e-14 -2.652479788531599e-14 -3.038290151066480e-14
1.796378588936244e-14 3.430777821555291e-15 -1.796378588936198e-14 -6.418369113275224e-14 4.874519093575344e-14 6.075291331119694e-14
-9.405960404995099e-14 -4.844336022602286e-15 1.540663508113014e-14 -4.534932107786853e-14 5.727809898256603e-15 1.113409536212018e-14
4.827651231322317e-14 -1.143592607185107e-15 -1.927422640934693e-14 -1.241267076623639e-14 6.283673643914813e-15 -7.163386352841189e-15
3.896092354294269e-14 2.324493541862605e-14 -3.538764059100043e-14 2.691989941377768e-14 5.416132326194863e-15 3.698774042950960e-14
-6.008552165999788e-14 1.426304247394498e-14 -6.964673324172631e-15 -2.744013687683905e-14 1.468392342267220e-14 -2.177373268144468e-14
-3.455526065010203e-14 1.267475887023335e-14 1.120233899393155e-14 8.731190084125757e-15 -1.664152913457996e-14 -2.939362626560991e-14
-4.639283885179307e-14 1.475938110010488e-14 2.353879984938949e-14 2.656603971767492e-14 -6.492455507670260e-16 -2.494591319537010e-14
-6.761446895430757e-14 1.155497631084757e-14 2.568303598786155e-14 -2.523626463249097e-14 -2.245473236170233e-15 3.454892154134764e-14
-2.349520728782531e-14 7.905791735961531e-15 2.062029321192849e-14 -3.744446963358920e-15 2.157125848604787e-15 3.405468547130766e-15
4.272539719010233e-15 1.804720984576200e-14 -1.284948427289797e-14 -1.647922329620714e-14 1.065556987725878e-14 -2.662371045413948e-15
1.796378588936232e-14 6.861555643110581e-15 0.000000000000000e+00 -4.702980202497586e-14 5.395942653691768e-29 -4.016824638186528e-14
2.112459811705578e-14 -4.574370428740369e-15 -7.067791005234959e-16 -1.475938110010481e-14 -8.519300017753912e-15 4.336269950747223e-15
-2.919347659908871e-14 1.981415759707078e-14 6.424742136448980e-15 2.972732209120933e-14 2.749778141297324e-15 -1.642509175371538e-14
4.844336022602286e-14 -4.574370428740387e-15 1.311944986675986e-14 -8.519300017753918e-15 1.657744374643327e-15 1.300039962776328e-14
1.284948427289834e-14 -1.850371707708589e-15 1.012548555186620e-14 -8.133946082389273e-14 1.807298926602754e-14 -1.491217703833423e-14
-1.636762479578512e-14 2.224269863154567e-14 5.389135766808654e-15 2.666699472786850e-14 3.230560326195640e-15 1.941117857874418e-14
8.086093533903149e-14 -1.839263311705651e-14 1.947670060474342e-14 2.525418876016707e-14 1.380642425624323e-14 2.750264935095012e-14
3.340228608636119e-14 -4.642237943878654e-14 1.306789102622880e-14 2.906601613561369e-14 -5.563064541576588e-15 -4.820033631686407e-14
-8.624940766159625e-14 -1.005799415340066e-14 -6.749139846542689e-17 -1.250898443276879e-14 3.266972756557188e-15 8.226486865050251e-15
-2.349520728782531e-14 7.905791735961531e-15 2.062029321192849e-14 -3.744446963358920e-15 2.157125848604787e-15 3.405468547130766e-15
1.796378588936233e-14 9.482436683080206e-15 -1.110223024625156e-14 3.592757177872422e-14 2.139456371091737e-14 -4.702980202497585e-14
2.341178333142594e-14 -7.915351270722076e-14 -1.083226465238965e-14 5.002376633986950e-14 1.468392342267215e-14 -2.152202417439202e-15
-6.424742136448920e-15 -6.233331942504371e-14 2.253815631810258e-14 1.358204279368706e-14 7.266504033903457e-15 2.540510411503245e-14
1.175351176131153e-13 3.239367627610693e-14 -1.197585725957475e-14 -2.117615695758666e-14 -1.450722864754130e-14 -7.396563399668764e-15
4.736349785057553e-14 -2.993964314893638e-15 4.304404834878494e-15 2.879605054175187e-14 -1.699456352843254e-15 -6.059215109400048e-14
-1.117140368961272e-13 2.002225258229542e-14 1.267475887023338e-14 5.878725253122020e-15 -1.877368267094779e-15 1.765234077018785e-14
3.247289512026753e-14 -3.807180791719619e-14 -3.892950237258506e-14 -2.525120140555434e-14 -5.753589318522177e-15 1.724018943241118e-14
-8.295737380370005e-14 2.370609170770118e-15 4.838804021876385e-14 4.127621270645356e-14 5.837570698635487e-29 7.332059355816008e-14
-7.064029838506791e-15 -3.212371068224484e-15 -4.386522863055423e-14 2.847054296787528e-14 -2.652479788531599e-14 -3.038290151066480e-14
-8.624940766159625e-14 -1.005799415340066e-14 -6.749139846542689e-17 -1.250898443276879e-14 3.266972756557188e-15 8.226486865050251e-15
1.796378588936246e-14 -7.185514355744834e-14 3.087700039399773e-14 6.075291331119687e-14 -2.073934345092510e-14 1.048524812530167e-13
-8.481349206281848e-15 -1.655022768831513e-14 -5.617854288245653e-14 4.300753417516556e-14 -1.496982157446841e-14 7.306335428739364e-15
5.056369752759337e-14 -3.266364186996867e-14 -7.245880497690985e-14 -2.961811871454389e-14 1.040474926122912e-15 1.692447322767685e-14
3.097081995955998e-15 -1.567660067499193e-14 -2.438852802581113e-14 4.129214526438808e-14 2.477378269194156e-14 -2.695364511301038e-14
-4.158180458291207e-14 -1.110223024625153e-14 3.538764059100056e-14 1.722514167296987e-14 -6.206335383118156e-15 4.446092377104861e-14
-8.567836359134916e-14 -2.260489548322243e-14 -3.602768052640400e-14 -2.113247560692032e-14 2.239565118771529e-15 -1.941891240482373e-14
-1.967917480013973e-13 2.568303598786157e-14 5.202129223571567e-14 7.921724293895915e-15 3.520065500802687e-15 -1.218629773393835e-14
-6.761446895430757e-14 1.155497631084757e-14 2.568303598786155e-14 -2.523626463249097e-14 -2.245473236170233e-15 3.454892154134764e-14
4.272539719010233e-15 1.804720984576200e-14 -1.284948427289797e-14 -1.647922329620714e-14 1.065556987725878e-14 -2.662371045413948e-15
-5.799704947429642e-14 2.489283293093824e-14 1.234517936777087e-14 -2.954957603801865e-14 -8.489537458004783e-15 -3.094872310503205e-14
-8.557825484366984e-14 -2.120337301570487e-15 3.037645665559854e-14 1.605548231794870e-13 -3.617784364792386e-14 1.060168650785251e-15
1.284948427289834e-14 -1.850371707708589e-15 1.012548555186620e-14 -8.133946082389273e-14 1.807298926602754e-14 -1.491217703833423e-14
-9.405960404995099e-14 -4.844336022602286e-15 1.540663508113014e-14 -4.534932107786853e-14 5.727809898256603e-15 1.113409536212018e-14
-1.442502183026206e-13 1.241267076623637e-14 1.742385470163840e-14 4.695550661198082e-14 -1.569253323292634e-14 -2.512108654660010e-14
-8.786544005803999e-14 8.981892944681093e-15 1.355626337342146e-14 1.254273013200170e-14 9.418706451342678e-15 1.083835034799294e-14
-9.301125163396327e-14 -2.644513509564402e-15 -2.482534153247278e-15 -7.921026935233302e-15 2.280736967861885e-14 -2.049272299908749e-14
-6.761446895430757e-14 1.155497631084757e-14 2.568303598786155e-14 -2.523626463249097e-14 -2.245473236170233e-15 3.454892154134764e-14
3.340228608636119e-14 -4.642237943878654e-14 1.306789102622880e-14 2.906601613561369e-14 -5.563064541576588e-15 -4.820033631686407e-14
-2.349520728782531e-14 7.905791735961531e-15 2.062029321192849e-14 -3.744446963358920e-15 2.157125848604787e-15 3.405468547130766e-15
-5.799704947429642e-14 2.489283293093824e-14 1.234517936777087e-14 -2.954957603801865e-14 -8.489537458004783e-15 -3.094872310503205e-14
-8.557825484366952e-14 3.935834960027969e-14 -2.120337301570491e-15 -2.139456371091740e-14 -3.527235151873187e-14 4.328967116023394e-14
4.736349785057553e-14 -2.993964314893638e-15 4.304404834878494e-15 2.879605054175187e-14 -1.699456352843254e-15 -6.059215109400048e-14
2.112459811705578e-14 -4.574370428740369e-15 -7.067791005234959e-16 -1.475938110010481e-14 -8.519300017753912e-15 4.336269950747223e-15
-8.786544005803999e-14 8.981892944681093e-15 1.355626337342146e-14 1.254273013200170e-14 9.418706451342678e-15 1.083835034799294e-14
3.027333897453632e-14 -7.131521236972444e-15 4.368135066616419e-16 -6.321624455386810e-15 -2.592722216145791e-14 -6.180555962852614e-15
-4.311308613446897e-14 -3.792974673232065e-15 7.971778667735769e-15 -2.643175951947251e-14 1.649866884778368e-15 4.358495126858646e-14
3.340228608636119e-14 -4.642237943878654e-14 1.306789102622880e-14 2.906601613561369e-14 -5.563064541576588e-15 -4.820033631686407e-14
-8.295737380370005e-14 2.370609170770118e-15 4.838804021876385e-14 4.127621270645356e-14 5.837570698635487e-29 7.332059355816008e-14
-8.624940766159625e-14 -1.005799415340066e-14 -6.749139846542689e-17 -1.250898443276879e-14 3.266972756557188e-15 8.226486865050251e-15
-5.799704947429642e-14 2.489283293093824e-14 1.234517936777087e-14 -2.954957603801865e-14 -8.489537458004783e-15 -3.094872310503205e-14
-1.574333984011182e-13 -2.775557561562889e-14 3.935834960027971e-14 1.746324215096300e-14 2.629045857405084e-14 -1.715388910777630e-15
-4.158180458291207e-14 -1.110223024625153e-14 3.538764059100056e-14 1.722514167296987e-14 -6.206335383118156e-15 4.446092377104861e-14
2.341178333142594e-14 -7.915351270722076e-14 -1.083226465238965e-14 5.002376633986950e-14 1.468392342267215e-14 -2.152202417439202e-15
3.027333897453632e-14 -7.131521236972444e-15 4.368135066616419e-16 -6.321624455386810e-15 -2.592722216145791e-14 -6.180555962852614e-15
-5.039684961479358e-14 3.538764059100053e-14 1.698704119497675e-14 -3.852546661304626e-16 1.105067140572048e-14 2.298194341138996e-15
-6.212522443981896e-14 2.609754391341509e-14 -1.225069140991921e-14 -6.619940628656933e-14 -1.937068373966484e-14 -2.087699297898480e-14
-8.295737380370005e-14 2.370609170770118e-15 4.838804021876385e-14 4.127621270645356e-14 5.837570698635487e-29 7.332059355816008e-14
-1.967917480013973e-13 2.568303598786157e-14 5.202129223571567e-14 7.921724293895915e-15 3.520065500802687e-15 -1.218629773393835e-14
-7.064029838506791e-15 -3.212371068224484e-15 -4.386522863055423e-14 2.847054296787528e-14 -2.652479788531599e-14 -3.038290151066480e-14
-5.799704947429642e-14 2.489283293093824e-14 1.234517936777087e-14 -2.954957603801865e-14 -8.489537458004783e-15 -3.094872310503205e-14
-1.574333984011181e-13 3.037645665559855e-14 6.256389756958100e-14 1.715388910777692e-15 2.482534153247275e-14 -4.490946472340527e-14
-6.008552165999788e-14 1.426304247394498e-14 -6.964673324172631e-15 -2.744013687683905e-14 1.468392342267220e-14 -2.177373268144468e-14
-8.481349206281848e-15 -1.655022768831513e-14 -5.617854288245653e-14 4.300753417516556e-14 -1.496982157446841e-14 7.306335428739364e-15
-5.039684961479358e-14 3.538764059100053e-14 1.698704119497675e-14 -3.852546661304626e-16 1.105067140572048e-14 2.298194341138996e-15
-1.442502183026206e-13 1.241267076623637e-14 1.742385470163840e-14 4.695550661198082e-14 -1.569253323292634e-14 -2.512108654660010e-14
-1.768709211591711e-14 2.730787568572003e-14 2.744622257244386e-15 1.610736240046960e-14 -2.066791330752714e-14 -6.901110991118703e-14
9.734555221224495e-14 2.698739081224314e-14 6.627216331845414e-15 -5.066725915416681e-15 -3.845684061057118e-15 -9.412731742117282e-15
4.272539719010233e-15 1.804720984576200e-14 -1.284948427289797e-14 -1.647922329620714e-14 1.065556987725878e-14 -2.662371045413948e-15
-7.064029838506791e-15 -3.212371068224484e-15 -4.386522863055423e-14 2.847054296787528e-14 -2.652479788531599e-14 -3.038290151066480e-14
-4.890253113041392e-15 2.353879984938945e-14 -1.627229581548596e-14 -1.554571200392243e-15 1.567366881356816e-14 -2.664196754094855e-14
1.308353107493044e-13 1.162640645424547e-14 6.187060863730219e-17 -2.869758191844022e-15 1.085195837705172e-15 3.159130182797734e-15
-3.455526065010203e-14 1.267475887023335e-14 1.120233899393155e-14 8.731190084125757e-15 -1.664152913457996e-14 -2.939362626560991e-14
5.561125997893772e-14 5.975182583439930e-15 1.352289379086165e-14 4.645622993934218e-16 -3.680073388627243e-14 -1.282422463309048e-14
5.219566248197124e-14 3.347353865155430e-15 1.211084005650575e-14 -1.441794096829388e-14 -5.218581561964001e-15 -7.892902025828641e-15
4.827651231322317e-14 -1.143592607185107e-15 -1.927422640934693e-14 -1.241267076623639e-14 6.283673643914813e-15 -7.163386352841189e-15
3.896092354294269e-14 2.324493541862605e-14 -3.538764059100043e-14 2.691989941377768e-14 5.416132326194863e-15 3.698774042950960e-14
9.734555221224495e-14 2.698739081224314e-14 6.627216331845414e-15 -5.066725915416681e-15 -3.845684061057118e-15 -9.412731742117282e-15
-2.349520728782531e-14 7.905791735961531e-15 2.062029321192849e-14 -3.744446963358920e-15 2.157125848604787e-15 3.405468547130766e-15
4.272539719010233e-15 1.804720984576200e-14 -1.284948427289797e-14 -1.647922329620714e-14 1.065556987725878e-14 -2.662371045413948e-15
-4.639283885179307e-14 1.475938110010488e-14 2.353879984938949e-14 2.656603971767492e-14 -6.492455507670260e-16 -2.494591319537010e-14
1.429455243340476e-14 3.191074714053785e-14 -9.482436683080100e-16 -2.987591291719963e-15 1.166099317592605e-14 -2.510950276469031e-14
-1.636762479578512e-14 2.224269863154567e-14 5.389135766808654e-15 2.666699472786850e-14 3.230560326195640e-15 1.941117857874418e-14
1.308353107493044e-13 1.162640645424547e-14 6.187060863730219e-17 -2.869758191844022e-15 1.085195837705172e-15 3.159130182797734e-15
2.524998364792794e-14 1.413558201047012e-15 4.490946472340546e-15 1.165621340854575e-14 1.720312341943220e-15 -1.747541354216945e-14
-2.919347659908871e-14 1.981415759707078e-14 6.424742136448980e-15 2.972732209120933e-14 2.749778141297324e-15 -1.642509175371538e-14
4.844336022602286e-14 -4.574370428740387e-15 1.311944986675986e-14 -8.519300017753918e-15 1.657744374643327e-15 1.300039962776328e-14
9.734555221224495e-14 2.698739081224314e-14 6.627216331845414e-15 -5.066725915416681e-15 -3.845684061057118e-15 -9.412731742117282e-15
-8.624940766159625e-14 -1.005799415340066e-14 -6.749139846542689e-17 -1.250898443276879e-14 3.266972756557188e-15 8.226486865050251e-15
-2.349520728782531e-14 7.905791735961531e-15 2.062029321192849e-14 -3.744446963358920e-15 2.157125848604787e-15 3.405468547130766e-15
8.086093533903149e-14 -1.839263311705651e-14 1.947670060474342e-14 2.525418876016707e-14 1.380642425624323e-14 2.750264935095012e-14
1.858249197573678e-15 6.153917762318791e-14 1.806389463704204e-14 3.187808787079614e-15 1.013765694307235e-15 -7.251036381744112e-15
-1.117140368961272e-13 2.002225258229542e-14 1.267475887023338e-14 5.878725253122020e-15 -1.877368267094779e-15 1.765234077018785e-14
1.429455243340476e-14 3.191074714053785e-14 -9.482436683080100e-16 -2.987591291719963e-15 1.166099317592605e-14 -2.510950276469031e-14
9.975787336121500e-14 7.433351946703130e-15 2.422168011301177e-15 2.186019948564615e-14 -1.774914030275925e-15 1.015524811161531e-14
-6.424742136448920e-15 -6.233331942504371e-14 2.253815631810258e-14 1.358204279368706e-14 7.266504033903457e-15 2.540510411503245e-14
1.175351176131153e-13 3.239367627610693e-14 -1.197585725957475e-14 -2.117615695758666e-14 -1.450722864754130e-14 -7.396563399668764e-15
9.734555221224495e-14 2.698739081224314e-14 6.627216331845414e-15 -5.066725915416681e-15 -3.845684061057118e-15 -9.412731742117282e-15
-7.064029838506791e-15 -3.212371068224484e-15 -4.386522863055423e-14 2.847054296787528e-14 -2.652479788531599e-14 -3.038290151066480e-14
-8.624940766159625e-14 -1.005799415340066e-14 -6.749139846542689e-17 -1.250898443276879e-14 3.266972756557188e-15 8.226486865050251e-15
3.247289512026753e-14 -3.807180791719619e-14 -3.892950237258506e-14 -2.525120140555434e-14 -5.753589318522177e-15 1.724018943241118e-14
5.561125997893772e-14 5.975182583439930e-15 1.352289379086165e-14 4.645622993934218e-16 -3.680073388627243e-14 -1.282422463309048e-14
-8.567836359134916e-14 -2.260489548322243e-14 -3.602768052640400e-14 -2.113247560692032e-14 2.239565118771529e-15 -1.941891240482373e-14
1.858249197573678e-15 6.153917762318791e-14 1.806389463704204e-14 3.187808787079614e-15 1.013765694307235e-15 -7.251036381744112e-15
7.511907346620428e-14 6.726572846179697e-15 1.985354504639553e-15 -2.345935903247319e-14 3.623405154620550e-15 1.356821279187225e-14
5.056369752759337e-14 -3.266364186996867e-14 -7.245880497690985e-14 -2.961811871454389e-14 1.040474926122912e-15 1.692447322767685e-14
3.097081995955998e-15 -1.567660067499193e-14 -2.438852802581113e-14 4.129214526438808e-14 2.477378269194156e-14 -2.695364511301038e-14
-5.799704947429642e-14 2.489283293093824e-14 1.234517936777087e-14 -2.954957603801865e-14 -8.489537458004783e-15 -3.094872310503205e-14
-7.064029838506791e-15 -3.212371068224484e-15 -4.386522863055423e-14 2.847054296787528e-14 -2.652479788531599e-14 -3.038290151066480e-14
4.272539719010233e-15 1.804720984576200e-14 -1.284948427289797e-14 -1.647922329620714e-14 1.065556987725878e-14 -2.662371045413948e-15
-1.967917480013973e-13 2.568303598786157e-14 5.202129223571567e-14 7.921724293895915e-15 3.520065500802687e-15 -1.218629773393835e-14
-1.768709211591711e-14 2.730787568572003e-14 2.744622257244386e-15 1.610736240046960e-14 -2.066791330752714e-14 -6.901110991118703e-14
-3.455526065010203e-14 1.267475887023335e-14 1.120233899393155e-14 8.731190084125757e-15 -1.664152913457996e-14 -2.939362626560991e-14
-9.301125163396327e-14 -2.644513509564402e-15 -2.482534153247278e-15 -7.921026935233302e-15 2.280736967861885e-14 -2.049272299908749e-14
-1.442502183026206e-13 1.241267076623637e-14 1.742385470163840e-14 4.695550661198082e-14 -1.569253323292634e-14 -2.512108654660010e-14
-6.008552165999788e-14 1.426304247394498e-14 -6.964673324172631e-15 -2.744013687683905e-14 1.468392342267220e-14 -2.177373268144468e-14
-9.405960404995099e-14 -4.844336022602286e-15 1.540663508113014e-14 -4.534932107786853e-14 5.727809898256603e-15 1.113409536212018e-14
-5.799704947429642e-14 2.489283293093824e-14 1.234517936777087e-14 -2.954957603801865e-14 -8.489537458004783e-15 -3.094872310503205e-14
4.272539719010233e-15 1.804720984576200e-14 -1.284948427289797e-14 -1.647922329620714e-14 1.065556987725878e-14 -2.662371045413948e-15
-2.349520728782531e-14 7.905791735961531e-15 2.062029321192849e-14 -3.744446963358920e-15 2.157125848604787e-15 3.405468547130766e-15
-6.761446895430757e-14 1.155497631084757e-14 2.568303598786155e-14 -2.523626463249097e-14 -2.245473236170233e-15 3.454892154134764e-14
-9.301125163396327e-14 -2.644513509564402e-15 -2.482534153247278e-15 -7.921026935233302e-15 2.280736967861885e-14 -2.049272299908749e-14
-1.636762479578512e-14 2.224269863154567e-14 5.389135766808654e-15 2.666699472786850e-14 3.230560326195640e-15 1.941117857874418e-14
-4.311308613446897e-14 -3.792974673232065e-15 7.971778667735769e-15 -2.643175951947251e-14 1.649866884778368e-15 4.358495126858646e-14
-8.786544005803999e-14 8.981892944681093e-15 1.355626337342146e-14 1.254273013200170e-14 9.418706451342678e-15 1.083835034799294e-14
1.284948427289834e-14 -1.850371707708589e-15 1.012548555186620e-14 -8.133946082389273e-14 1.807298926602754e-14 -1.491217703833423e-14
2.112459811705578e-14 -4.574370428740369e-15 -7.067791005234959e-16 -1.475938110010481e-14 -8.519300017753912e-15 4.336269950747223e-15
-5.799704947429642e-14 2.489283293093824e-14 1.234517936777087e-14 -2.954957603801865e-14 -8.489537458004783e-15 -3.094872310503205e-14
-2.349520728782531e-14 7.905791735961531e-15 2.062029321192849e-14 -3.744446963358920e-15 2.157125848604787e-15 3.405468547130766e-15
-8.624940766159625e-14 -1.005799415340066e-14 -6.749139846542689e-17 -1.250898443276879e-14 3.266972756557188e-15 8.226486865050251e-15
3.340228608636119e-14 -4.642237943878654e-14 1.306789102622880e-14 2.906601613561369e-14 -5.563064541576588e-15 -4.820033631686407e-14
-4.311308613446897e-14 -3.792974673232065e-15 7.971778667735769e-15 -2.643175951947251e-14 1.649866884778368e-15 4.358495126858646e-14
-1.117140368961272e-13 2.002225258229542e-14 1.267475887023338e-14 5.878725253122020e-15 -1.877368267094779e-15 1.765234077018785e-14
-6.212522443981896e-14 2.609754391341509e-14 -1.225069140991921e-14 -6.619940628656933e-14 -1.937068373966484e-14 -2.087699297898480e-14
3.027333897453632e-14 -7.131521236972444e-15 4.368135066616419e-16 -6.321624455386810e-15 -2.592722216145791e-14 -6.180555962852614e-15
4.736349785057553e-14 -2.993964314893638e-15 4.304404834878494e-15 2.879605054175187e-14 -1.699456352843254e-15 -6.059215109400048e-14
2.341178333142594e-14 -7.915351270722076e-14 -1.083226465238965e-14 5.002376633986950e-14 1.468392342267215e-14 -2.152202417439202e-15
-5.799704947429642e-14 2.489283293093824e-14 1.234517936777087e-14 -2.954957603801865e-14 -8.489537458004783e-15 -3.094872310503205e-14
-8.624940766159625e-14 -1.005799415340066e-14 -6.749139846542689e-17 -1.250898443276879e-14 3.266972756557188e-15 8.226486865050251e-15
-7.064029838506791e-15 -3.212371068224484e-15 -4.386522863055423e-14 2.847054296787528e-14 -2.652479788531599e-14 -3.038290151066480e-14
-8.295737380370005e-14 2.370609170770118e-15 4.838804021876385e-14 4.127621270645356e-14 5.837570698635487e-29 7.332059355816008e-14
-6.212522443981896e-14 2.609754391341509e-14 -1.225069140991921e-14 -6.619940628656933e-14 -1.937068373966484e-14 -2.087699297898480e-14
-8.567836359134916e-14 -2.260489548322243e-14 -3.602768052640400e-14 -2.113247560692032e-14 2.239565118771529e-15 -1.941891240482373e-14
-1.768709211591711e-14 2.730787568572003e-14 2.744622257244386e-15 1.610736240046960e-14 -2.066791330752714e-14 -6.901110991118703e-14
-5.039684961479358e-14 3.538764059100053e-14 1.698704119497675e-14 -3.852546661304626e-16 1.105067140572048e-14 2.298194341138996e-15
-4.158180458291207e-14 -1.110223024625153e-14 3.538764059100056e-14 1.722514167296987e-14 -6.206335383118156e-15 4.446092377104861e-14
-8.481349206281848e-15 -1.655022768831513e-14 -5.617854288245653e-14 4.300753417516556e-14 -1.496982157446841e-14 7.306335428739364e-15
9.734555221224495e-14 2.698739081224314e-14 6.627216331845414e-15 -5.066725915416681e-15 -3.845684061057118e-15 -9.412731742117282e-15
-7.064029838506791e-15 -3.212371068224484e-15 -4.386522863055423e-14 2.847054296787528e-14 -2.652479788531599e-14 -3.038290151066480e-14
4.272539719010233e-15 1.804720984576200e-14 -1.284948427289797e-14 -1.647922329620714e-14 1.065556987725878e-14 -2.662371045413948e-15
2.199494982968972e-13 -6.998507812507756e-14 -2.525418876016714e-14 1.059463432023756e-14 8.830037298133825e-15 -3.167146096381912e-15
5.561125997893772e-14 5.975182583439930e-15 1.352289379086165e-14 4.645622993934218e-16 -3.680073388627243e-14 -1.282422463309048e-14
-3.455526065010203e-14 1.267475887023335e-14 1.120233899393155e-14 8.731190084125757e-15 -1.664152913457996e-14 -2.939362626560991e-14
1.308353107493044e-13 1.162640645424547e-14 6.187060863730219e-17 -2.869758191844022e-15 1.085195837705172e-15 3.159130182797734e-15
1.614238011350601e-13 -3.221698150097589e-14 -3.103167691559135e-15 -1.272833147778177e-14 1.062732874141044e-14 1.876347664915356e-14
7.013975464667164e-14 -2.449773140247653e-14 -1.069728185545846e-14 5.285226697915686e-14 -2.628307342730238e-14 3.025829430762660e-15
3.698774042951002e-14 1.135250211545115e-14 -4.859051441416020e-14 8.834601569836020e-15 1.865029013300457e-14 -7.652117859497109e-15
9.734555221224495e-14 2.698739081224314e-14 6.627216331845414e-15 -5.066725915416681e-15 -3.845684061057118e-15 -9.412731742117282e-15
4.272539719010233e-15 1.804720984576200e-14 -1.284948427289797e-14 -1.647922329620714e-14 1.065556987725878e-14 -2.662371045413948e-15
-2.349520728782531e-14 7.905791735961531e-15 2.062029321192849e-14 -3.744446963358920e-15 2.157125848604787e-15 3.405468547130766e-15
2.199494982968972e-13 -6.998507812507756e-14 -2.525418876016714e-14 1.059463432023756e-14 8.830037298133825e-15 -3.167146096381912e-15
1.308353107493044e-13 1.162640645424547e-14 6.187060863730219e-17 -2.869758191844022e-15 1.085195837705172e-15 3.159130182797734e-15
-1.636762479578512e-14 2.224269863154567e-14 5.389135766808654e-15 2.666699472786850e-14 3.230560326195640e-15 1.941117857874418e-14
1.429455243340476e-14 3.191074714053785e-14 -9.482436683080100e-16 -2.987591291719963e-15 1.166099317592605e-14 -2.510950276469031e-14
1.614238011350601e-13 -3.221698150097589e-14 -3.103167691559135e-15 -1.272833147778177e-14 1.062732874141044e-14 1.876347664915356e-14
3.698774042951002e-14 1.135250211545115e-14 -4.859051441416020e-14 8.834601569836020e-15 1.865029013300457e-14 -7.652117859497109e-15
7.185514355744942e-14 -6.582174178273324e-14 2.225225816630633e-14 -3.399037410735109e-14 6.705135724860764e-15 -1.944541662109344e-14
9.734555221224495e-14 2.698739081224314e-14 6.627216331845414e-15 -5.066725915416681e-15 -3.845684061057118e-15 -9.412731742117282e-15
-2.349520728782531e-14 7.905791735961531e-15 2.062029321192849e-14 -3.744446963358920e-15 2.157125848604787e-15 3.405468547130766e-15
-8.624940766159625e-14 -1.005799415340066e-14 -6.749139846542689e-17 -1.250898443276879e-14 3.266972756557188e-15 8.226486865050251e-15
2.199494982968972e-13 -6.998507812507756e-14 -2.525418876016714e-14 1.059463432023756e-14 8.830037298133825e-15 -3.167146096381912e-15
1.429455243340476e-14 3.191074714053785e-14 -9.482436683080100e-16 -2.987591291719963e-15 1.166099317592605e-14 -2.510950276469031e-14
-1.117140368961272e-13 2.002225258229542e-14 1.267475887023338e-14 5.878725253122020e-15 -1.877368267094779e-15 1.765234077018785e-14
1.858249197573678e-15 6.153917762318791e-14 1.806389463704204e-14 3.187808787079614e-15 1.013765694307235e-15 -7.251036381744112e-15
1.614238011350601e-13 -3.221698150097589e-14 -3.103167691559135e-15 -1.272833147778177e-14 1.062732874141044e-14 1.876347664915356e-14
7.185514355744942e-14 -6.582174178273324e-14 2.225225816630633e-14 -3.399037410735109e-14 6.705135724860764e-15 -1.944541662109344e-14
8.638815162525662e-14 -1.168011224544717e-14 -5.021030797733155e-15 -1.324646638472330e-14 -6.420758996965349e-15 1.916103989319795e-14
9.734555221224495e-14 2.698739081224314e-14 6.627216331845414e-15 -5.066725915416681e-15 -3.845684061057118e-15 -9.412731742117282e-15
-8.624940766159625e-14 -1.005799415340066e-14 -6.749139846542689e-17 -1.250898443276879e-14 3.266972756557188e-15 8.226486865050251e-15
-7.064029838506791e-15 -3.212371068224484e-15 -4.386522863055423e-14 2.847054296787528e-14 -2.652479788531599e-14 -3.038290151066480e-14
2.199494982968972e-13 -6.998507812507756e-14 -2.525418876016714e-14 1.059463432023756e-14 8.830037298133825e-15 -3.167146096381912e-15
1.858249197573678e-15 6.153917762318791e-14 1.806389463704204e-14 3.187808787079614e-15 1.013765694307235e-15 -7.251036381744112e-15
-8.567836359134916e-14 -2.260489548322243e-14 -3.602768052640400e-14 -2.113247560692032e-14 2.239565118771529e-15 -1.941891240482373e-14
5.561125997893772e-14 5.975182583439930e-15 1.352289379086165e-14 4.645622993934218e-16 -3.680073388627243e-14 -1.282422463309048e-14
1.614238011350601e-13 -3.221698150097589e-14 -3.103167691559135e-15 -1.272833147778177e-14 1.062732874141044e-14 1.876347664915356e-14
8.638815162525662e-14 -1.168011224544717e-14 -5.021030797733155e-15 -1.324646638472330e-14 -6.420758996965349e-15 1.916103989319795e-14
7.013975464667164e-14 -2.449773140247653e-14 -1.069728185545846e-14 5.285226697915686e-14 -2.628307342730238e-14 3.025829430762660e-15
-5.799704947429642e-14 2.489283293093824e-14 1.234517936777087e-14 -2.954957603801865e-14 -8.489537458004783e-15 -3.094872310503205e-14
4.272539719010233e-15 1.804720984576200e-14 -1.284948427289797e-14 -1.647922329620714e-14 1.065556987725878e-14 -2.662371045413948e-15
-7.064029838506791e-15 -3.212371068224484e-15 -4.386522863055423e-14 2.847054296787528e-14 -2.652479788531599e-14 -3.038290151066480e-14
2.199494982968972e-13 -6.998507812507756e-14 -2.525418876016714e-14 1.059463432023756e-14 8.830037298133825e-15 -3.167146096381912e-15
-9.301125163396327e-14 -2.644513509564402e-15 -2.482534153247278e-15 -7.921026935233302e-15 2.280736967861885e-14 -2.049272299908749e-14
-3.455526065010203e-14 1.267475887023335e-14 1.120233899393155e-14 8.731190084125757e-15 -1.664152913457996e-14 -2.939362626560991e-14
-1.768709211591711e-14 2.730787568572003e-14 2.744622257244386e-15 1.610736240046960e-14 -2.066791330752714e-14 -6.901110991118703e-14
1.046978047314241e-13 -1.155497631084751e-14 -3.960862146947917e-15 -2.736996179003521e-14 1.091170546930603e-14 -4.759573460572092e-14
3.698774042951002e-14 1.135250211545115e-14 -4.859051441416020e-14 8.834601569836020e-15 1.865029013300457e-14 -7.652117859497109e-15
7.013975464667164e-14 -2.449773140247653e-14 -1.069728185545846e-14 5.285226697915686e-14 -2.628307342730238e-14 3.025829430762660e-15
-5.799704947429642e-14 2.489283293093824e-14 1.234517936777087e-14 -2.954957603801865e-14 -8.489537458004783e-15 -3.094872310503205e-14
-2.349520728782531e-14 7.905791735961531e-15 2.062029321192849e-14 -3.744446963358920e-15 2.157125848604787e-15 3.405468547130766e-15
4.272539719010233e-15 1.804720984576200e-14 -1.284948427289797e-14 -1.647922329620714e-14 1.065556987725878e-14 -2.662371045413948e-15
2.199494982968972e-13 -6.998507812507756e-14 -2.525418876016714e-14 1.059463432023756e-14 8.830037298133825e-15 -3.167146096381912e-15
-4.311308613446897e-14 -3.792974673232065e-15 7.971778667735769e-15 -2.643175951947251e-14 1.649866884778368e-15 4.358495126858646e-14
-1.636762479578512e-14 2.224269863154567e-14 5.389135766808654e-15 2.666699472786850e-14 3.230560326195640e-15 1.941117857874418e-14
-9.301125163396327e-14 -2.644513509564402e-15 -2.482534153247278e-15 -7.921026935233302e-15 2.280736967861885e-14 -2.049272299908749e-14
1.046978047314241e-13 -1.155497631084751e-14 -3.960862146947917e-15 -2.736996179003521e-14 1.091170546930603e-14 -4.759573460572092e-14
7.185514355744942e-14 -6.582174178273324e-14 2.225225816630633e-14 -3.399037410735109e-14 6.705135724860764e-15 -1.944541662109344e-14
3.698774042951002e-14 1.135250211545115e-14 -4.859051441416020e-14 8.834601569836020e-15 1.865029013300457e-14 -7.652117859497109e-15
-5.799704947429642e-14 2.489283293093824e-14 1.234517936777087e-14 -2.954957603801865e-14 -8.489537458004783e-15 -3.094872310503205e-14
-8.624940766159625e-14 -1.005799415340066e-14 -6.749139846542689e-17 -1.250898443276879e-14 3.266972756557188e-15 8.226486865050251e-15
-2.349520728782531e-14 7.905791735961531e-15 2.062029321192849e-14 -3.744446963358920e-15 2.157125848604787e-15 3.405468547130766e-15
2.199494982968972e-13 -6.998507812507756e-14 -2.525418876016714e-14 1.059463432023756e-14 8.830037298133825e-15 -3.167146096381912e-15
-6.212522443981896e-14 2.609754391341509e-14 -1.225069140991921e-14 -6.619940628656933e-14 -1.937068373966484e-14 -2.087699297898480e-14
-1.117140368961272e-13 2.002225258229542e-14 1.267475887023338e-14 5.878725253122020e-15 -1.877368267094779e-15 1.765234077018785e-14
-4.311308613446897e-14 -3.792974673232065e-15 7.971778667735769e-15 -2.643175951947251e-14 1.649866884778368e-15 4.358495126858646e-14
1.046978047314241e-13 -1.155497631084751e-14 -3.960862146947917e-15 -2.736996179003521e-14 1.091170546930603e-14 -4.759573460572092e-14
8.638815162525662e-14 -1.168011224544717e-14 -5.021030797733155e-15 -1.324646638472330e-14 -6.420758996965349e-15 1.916103989319795e-14
7.185514355744942e-14 -6.582174178273324e-14 2.225225816630633e-14 -3.399037410735109e-14 6.705135724860764e-15 -1.944541662109344e-14
-5.799704947429642e-14 2.489283293093824e-14 1.234517936777087e-14 -2.954957603801865e-14 -8.489537458004783e-15 -3.094872310503205e-14
-7.064029838506791e-15 -3.212371068224484e-15 -4.386522863055423e-14 2.847054296787528e-14 -2.652479788531599e-14 -3.038290151066480e-14
-8.624940766159625e-14 -1.005799415340066e-14 -6.749139846542689e-17 -1.250898443276879e-14 3.266972756557188e-15 8.226486865050251e-15
2.199494982968972e-13 -6.998507812507756e-14 -2.525418876016714e-14 1.059463432023756e-14 8.830037298133825e-15 -3.167146096381912e-15
-1.768709211591711e-14 2.730787568572003e-14 2.744622257244386e-15 1.610736240046960e-14 -2.066791330752714e-14 -6.901110991118703e-14
-8.567836359134916e-14 -2.260489548322243e-14 -3.602768052640400e-14 -2.113247560692032e-14 2.239565118771529e-15 -1.941891240482373e-14
-6.212522443981896e-14 2.609754391341509e-14 -1.225069140991921e-14 -6.619940628656933e-14 -1.937068373966484e-14 -2.087699297898480e-14
1.046978047314241e-13 -1.155497631084751e-14 -3.960862146947917e-15 -2.736996179003521e-14 1.091170546930603e-14 -4.759573460572092e-14
7.013975464667164e-14 -2.449773140247653e-14 -1.069728185545846e-14 5.285226697915686e-14 -2.628307342730238e-14 3.025829430762660e-15
8.638815162525662e-14 -1.168011224544717e-14 -5.021030797733155e-15 -1.324646638472330e-14 -6.420758996965349e-15 1.916103989319795e-14
        </DataArray>
  </PointData>
  <CellData>
        <DataArray type="Float64" Name="element_GL_strains_xyz" NumberOfComponents="6" format="ascii">
0.000000000000000e+00 0.000000000000000e+00 5.551115123125783e-17 2.311115933264683e-32 1.942890293094024e-16 1.665334536937735e-16
0.000000000000000e+00 5.551115123125783e-17 -2.775557561562891e-17 -1.110223024625156e-16 -2.775557561562893e-17 -5.546678239835239e-32
-2.775557561562891e-17 -1.110223024625157e-16 8.326672684688674e-17 5.551115123125784e-17 1.540743955509789e-32 -1.387778780781448e-17
-2.775557561562891e-17 5.551115123125783e-17 -1.110223024625157e-16 6.938893903907233e-17 -2.220446049250313e-16 2.775557561562891e-17
8.326672684688674e-17 -2.775557561562891e-17 -1.110223024625157e-16 -1.387778780781448e-17 5.551115123125784e-17 1.540743955509789e-32
5.551115123125783e-17 -2.775557561562891e-17 0.000000000000000e+00 -2.775557561562893e-17 -5.546678239835239e-32 -1.110223024625156e-16
5.551115123125783e-17 2.220446049250313e-16 -2.775557561562891e-17 1.942890293094024e-16 9.714451465470118e-17 -1.110223024625157e-16
8.326672684688674e-17 0.000000000000000e+00 -7.494005416219807e-16 8.326672684688678e-17 -2.220446049250314e-16 -1.110223024625156e-16
-1.110223024625157e-16 -2.775557561562891e-17 5.551115123125783e-17 2.775557561562891e-17 6.938893903907233e-17 -2.220446049250313e-16
-1.110223024625157e-16 8.326672684688674e-17 -2.775557561562891e-17 1.540743955509789e-32 -1.387778780781448e-17 5.551115123125784e-17
0.000000000000000e+00 -7.494005416219807e-16 8.326672684688674e-17 -2.220446049250314e-16 -1.110223024625156e-16 8.326672684688678e-17
0.000000000000000e+00 5.551115123125783e-17 8.326672684688674e-17 -2.081668171172169e-16 -1.387778780781446e-16 -1.942890293094026e-16
-1.110223024625157e-16 -5.551115123125783e-17 5.551115123125783e-17 2.775557561562891e-17 -7.632783294297951e-17 6.245004513516508e-17
2.775557561562891e-17 -2.775557561562891e-17 -8.326672684688674e-17 5.551115123125783e-17 1.110223024625157e-16 5.551115123125783e-17
-1.110223024625157e-16 1.387778780781446e-16 -2.775557561562891e-17 -7.632783294297951e-17 -1.804112415015879e-16 1.040834085586092e-17
5.551115123125783e-17 1.665334536937735e-16 1.665334536937735e-16 -9.714451465470128e-17 -8.326672684688681e-17 -9.367506770274763e-17
1.387778780781446e-16 0.000000000000000e+00 1.110223024625157e-16 1.700029006457269e-16 -1.040834085586086e-16 -1.387778780781445e-16
3.053113317719180e-16 5.551115123125783e-17 5.551115123125783e-17 1.318389841742373e-16 9.020562075079404e-17 4.857225732735050e-17
1.665334536937735e-16 1.665334536937735e-16 -5.551115123125783e-17 2.775557561562904e-17 -4.857225732735067e-17 1.387778780781438e-17
2.775557561562891e-17 1.110223024625157e-16 5.551115123125783e-17 -3.469446951953590e-18 5.551115123125793e-17 -1.387778780781445e-16
2.220446049250313e-16 -5.551115123125783e-17 1.110223024625157e-16 1.040834085586088e-16 -1.873501354054953e-16 -2.498001805406603e-16
2.775557561562891e-16 1.110223024625157e-16 1.110223024625157e-16 5.551115123125786e-17 1.734723475976808e-16 9.714451465470126e-17
5.551115123125783e-17 5.551115123125783e-17 5.551115123125783e-17 -5.551115123125785e-17 1.232595164407831e-32 -8.326672684688673e-17
1.665334536937735e-16 3.053113317719180e-16 0.000000000000000e+00 -2.220446049250315e-16 -1.387778780781436e-17 -1.804112415015880e-16
3.330669073875470e-16 2.775557561562891e-17 -5.551115123125783e-17 1.387778780781443e-17 2.775557561562884e-17 -3.191891195797325e-16
-2.775557561562891e-17 1.110223024625157e-16 -2.775557561562891e-17 6.938893903907221e-17 -1.249000902703300e-16 1.526556658859590e-16
8.326672684688674e-17 6.106226635438361e-16 0.000000000000000e+00 8.326672684688694e-17 -2.289834988289388e-16 -2.081668171172181e-17
2.775557561562891e-17 2.775557561562891e-16 1.110223024625157e-16 2.775557561562901e-17 2.081668171172169e-16 1.110223024625156e-16
7.494005416219807e-16 -5.551115123125783e-17 5.551115123125783e-17 -8.011868568650901e-32 1.387778780781446e-16 1.387778780781446e-17
1.026956297778270e-15 5.551115123125783e-17 -8.326672684688674e-17 -1.249000902703302e-16 -1.387778780781446e-16 9.244463733058732e-32
7.216449660063518e-16 -5.551115123125783e-17 8.326672684688674e-17 1.110223024625157e-16 1.110223024625157e-16 -5.551115123125786e-17
1.276756478318930e-15 5.551115123125783e-17 -5.551115123125783e-17 1.249000902703302e-16 -1.665334536937735e-16 9.714451465470123e-17
5.551115123125783e-17 -2.775557561562891e-17 -5.551115123125783e-17 -8.326672684688674e-17 2.081668171172167e-16 1.110223024625157e-16
5.551115123125783e-17 -5.551115123125783e-17 0.000000000000000e+00 -2.220446049250313e-16 9.860761315262648e-32 -2.775557561562891e-16
5.551115123125783e-17 -2.775557561562891e-16 -1.110223024625157e-16 1.110223024625157e-16 2.775557561562877e-17 -2.220446049250313e-16
5.551115123125783e-17 -2.220446049250313e-16 -2.498001805406602e-16 1.110223024625157e-16 -8.326672684688659e-17 5.551115123125783e-17
-1.110223024625157e-16 -8.326672684688674e-17 5.551115123125783e-17 -1.942890293094028e-16 4.163336342344342e-17 4.163336342344335e-17
-1.110223024625157e-16 8.326672684688674e-17 -8.326672684688674e-17 -2.775557561562891e-17 -1.665334536937734e-16 -2.498001805406605e-16
-3.330669073875470e-16 -2.775557561562891e-16 8.326672684688674e-17 3.608224830031758e-16 1.387778780781445e-16 1.387778780781453e-17
-3.330669073875470e-16 5.551115123125783e-17 -3.053113317719180e-16 -1.387778780781456e-17 -4.314083075427408e-32 -1.387778780781445e-16
3.330669073875470e-16 1.110223024625157e-16 1.665334536937735e-16 8.326672684688677e-17 2.775557561562885e-17 2.498001805406602e-16
2.775557561562891e-17 2.220446049250313e-16 2.775557561562891e-17 1.526556658859590e-16 9.714451465470120e-17 4.857225732735059e-17
-7.216449660063518e-16 1.387778780781446e-16 8.326672684688674e-17 -1.249000902703300e-16 -1.387778780781457e-17 1.630640067418198e-16
-2.498001805406602e-16 5.551115123125783e-17 5.551115123125783e-17 -6.938893903907255e-17 -2.775557561562894e-16 -1.491862189340053e-16
-1.276756478318930e-15 2.775557561562891e-17 2.775557561562891e-17 2.359223927328454e-16 -6.245004513516509e-17 -2.220446049250313e-16
-5.551115123125783e-17 8.326672684688674e-17 0.000000000000000e+00 1.561251128379126e-16 9.714451465470100e-17 -1.804112415015876e-16
1.110223024625157e-16 1.665334536937735e-16 -1.110223024625157e-16 2.220446049250312e-16 -2.081668171172161e-17 3.608224830031759e-16
-7.216449660063518e-16 1.665334536937735e-16 1.110223024625157e-16 1.387778780781463e-17 -5.551115123125802e-17 -2.949029909160571e-16
7.771561172376096e-16 -2.775557561562891e-17 1.665334536937735e-16 1.873501354054955e-16 -2.428612866367531e-16 -2.914335439641038e-16
1.054711873393899e-15 8.326672684688674e-17 8.326672684688674e-17 6.938893903907249e-17 1.110223024625157e-16 1.526556658859591e-16
4.440892098500626e-16 -8.326672684688674e-17 2.775557561562891e-17 -1.526556658859592e-16 -4.314083075427408e-31 -1.387778780781421e-17
3.330669073875470e-16 1.665334536937735e-16 -2.775557561562891e-16 -1.942890293094025e-16 1.387778780781465e-17 -2.775557561562918e-17
-4.996003610813204e-16 -1.942890293094024e-16 -5.551115123125783e-17 -6.383782391594652e-16 -1.110223024625153e-16 -5.412337245047631e-16
-7.216449660063518e-16 -2.775557561562891e-17 -2.775557561562891e-17 -1.804112415015888e-16 1.665334536937734e-16 2.498001805406597e-16
1.110223024625157e-16 2.498001805406602e-16 0.000000000000000e+00 8.326672684688764e-17 -1.179611963664237e-16 -4.371503159461564e-16
3.330669073875470e-16 -5.551115123125783e-17 1.110223024625157e-16 -1.110223024625137e-16 1.110223024625176e-16 3.608224830031770e-16
        </DataArray>
        <DataArray type="Float64" Name="element_cauchy_stresses_xyz" NumberOfComponents="6" format="ascii">
0.000000000000000e+00 0.000000000000000e+00 5.551115123125854e-15 2.311115933264681e-30 1.942890293094024e-14 1.665334536937735e-14
0.000000000000000e+00 5.551115123125825e-15 -2.775557561562891e-15 -1.110223024625156e-14 -2.775557561562893e-15 -5.546678239835239e-30
-2.775557561562891e-15 -1.110223024625150e-14 8.326672684688702e-15 5.551115123125786e-15 8.628166150854812e-32 -1.387778780781451e-15
-2.775557561562891e-15 5.551115123125854e-15 -1.110223024625151e-14 6.938893903907218e-15 -2.220446049250312e-14 2.775557561562885e-15
8.326672684688702e-15 -2.775557561562891e-15 -1.110223024625150e-14 -1.387778780781451e-15 5.551115123125786e-15 8.628166150854812e-32
5.551115123125825e-15 -2.775557561562891e-15 0.000000000000000e+00 -2.775557561562893e-15 -5.546678239835239e-30 -1.110223024625156e-14
5.551115123125817e-15 2.220446049250316e-14 -2.775557561562891e-15 1.942890293094025e-14 9.714451465470120e-15 -1.110223024625155e-14
8.326672684688706e-15 1.249481718160218e-28 -7.494005416219794e-14 8.326672684688699e-15 -2.220446049250311e-14 -1.110223024625155e-14
-1.110223024625151e-14 -2.775557561562891e-15 5.551115123125854e-15 2.775557561562885e-15 6.938893903907218e-15 -2.220446049250312e-14
-1.110223024625150e-14 8.326672684688702e-15 -2.775557561562891e-15 8.628166150854812e-32 -1.387778780781451e-15 5.551115123125786e-15
1.249481718160218e-28 -7.494005416219795e-14 8.326672684688706e-15 -2.220446049250311e-14 -1.110223024625155e-14 8.326672684688699e-15
1.091709537116016e-28 5.551115123125854e-15 8.326672684688778e-15 -2.081668171172165e-14 -1.387778780781441e-14 -1.942890293094025e-14
-1.110223024625156e-14 -5.551115123125776e-15 5.551115123125791e-15 2.775557561562889e-15 -7.632783294297954e-15 6.245004513516509e-15
2.775557561562897e-15 -2.775557561562888e-15 -8.326672684688666e-15 5.551115123125784e-15 1.110223024625157e-14 5.551115123125785e-15
-1.110223024625156e-14 1.387778780781451e-14 -2.775557561562881e-15 -7.632783294297948e-15 -1.804112415015879e-14 1.040834085586093e-15
5.551115123125793e-15 1.665334536937740e-14 1.665334536937743e-14 -9.714451465470120e-15 -8.326672684688685e-15 -9.367506770274774e-15
1.387778780781459e-14 1.962599650528369e-29 1.110223024625165e-14 1.700029006457271e-14 -1.040834085586085e-14 -1.387778780781441e-14
3.053113317719188e-14 5.551115123125789e-15 5.551115123125793e-15 1.318389841742374e-14 9.020562075079406e-15 4.857225732735069e-15
1.665334536937742e-14 1.665334536937739e-14 -5.551115123125774e-15 2.775557561562943e-15 -4.857225732735062e-15 1.387778780781446e-15
2.775557561562947e-15 1.110223024625158e-14 5.551115123125801e-15 -3.469446951953405e-16 5.551115123125792e-15 -1.387778780781444e-14
2.220446049250317e-14 -5.551115123125776e-15 1.110223024625170e-14 1.040834085586087e-14 -1.873501354054949e-14 -2.498001805406604e-14
2.775557561562894e-14 1.110223024625160e-14 1.110223024625159e-14 5.551115123125799e-15 1.734723475976809e-14 9.714451465470137e-15
5.551115123125798e-15 5.551115123125806e-15 5.551115123125806e-15 -5.551115123125788e-15 1.183291357831518e-29 -8.326672684688668e-15
1.665334536937736e-14 3.053113317719184e-14 1.327504992067234e-29 -2.220446049250315e-14 -1.387778780781449e-15 -1.804112415015878e-14
3.330669073875478e-14 2.775557561562915e-15 -5.551115123125707e-15 1.387778780781454e-15 2.775557561562877e-15 -3.191891195797324e-14
-2.775557561562832e-15 1.110223024625162e-14 -2.775557561562835e-15 6.938893903907209e-15 -1.249000902703299e-14 1.526556658859590e-14
8.326672684688721e-15 6.106226635438374e-14 4.033667675524627e-29 8.326672684688680e-15 -2.289834988289387e-14 -2.081668171172169e-15
2.775557561562923e-15 2.775557561562892e-14 1.110223024625160e-14 2.775557561562921e-15 2.081668171172170e-14 1.110223024625158e-14
7.494005416219824e-14 -5.551115123125777e-15 5.551115123125825e-15 -1.037845128431394e-29 1.387778780781445e-14 1.387778780781502e-15
1.026956297778273e-13 5.551115123125832e-15 -8.326672684688652e-15 -1.249000902703307e-14 -1.387778780781444e-14 9.071900410041636e-30
7.216449660063525e-14 -5.551115123125757e-15 8.326672684688707e-15 1.110223024625156e-14 1.110223024625155e-14 -5.551115123125788e-15
1.276756478318932e-13 5.551115123125813e-15 -5.551115123125742e-15 1.249000902703305e-14 -1.665334536937732e-14 9.714451465470148e-15
5.551115123125892e-15 -2.775557561562891e-15 -5.551115123125724e-15 -8.326672684688650e-15 2.081668171172167e-14 1.110223024625155e-14
5.551115123125897e-15 -5.551115123125781e-15 0.000000000000000e+00 -2.220446049250313e-14 9.860761315262648e-30 -2.775557561562892e-14
5.551115123125872e-15 -2.775557561562889e-14 -1.110223024625157e-14 1.110223024625154e-14 2.775557561562875e-15 -2.220446049250312e-14
5.551115123125927e-15 -2.220446049250305e-14 -2.498001805406596e-14 1.110223024625152e-14 -8.326672684688695e-15 5.551115123125795e-15
-1.110223024625114e-14 -8.326672684688671e-15 5.551115123125825e-15 -1.942890293094026e-14 4.163336342344310e-15 4.163336342344233e-15
-1.110223024625137e-14 8.326672684688715e-15 -8.326672684688672e-15 -2.775557561562851e-15 -1.665334536937734e-14 -2.498001805406604e-14
-3.330669073875456e-14 -2.775557561562892e-14 8.326672684688718e-15 3.608224830031756e-14 1.387778780781446e-14 1.387778780781475e-15
-3.330669073875459e-14 5.551115123125801e-15 -3.053113317719172e-14 -1.387778780781432e-15 2.918785349317744e-29 -1.387778780781443e-14
3.330669073875475e-14 1.110223024625158e-14 1.665334536937741e-14 8.326672684688695e-15 2.775557561562905e-15 2.498001805406605e-14
2.775557561562962e-15 2.220446049250316e-14 2.775557561562898e-15 1.526556658859592e-14 9.714451465470128e-15 4.857225732735072e-15
-7.216449660063495e-14 1.387778780781456e-14 8.326672684688707e-15 -1.249000902703293e-14 -1.387778780781448e-15 1.630640067418197e-14
-2.498001805406583e-14 5.551115123125828e-15 5.551115123125874e-15 -6.938893903907244e-15 -2.775557561562897e-14 -1.491862189340045e-14
-1.276756478318926e-13 2.775557561562892e-15 2.775557561562922e-15 2.359223927328456e-14 -6.245004513516518e-15 -2.220446049250309e-14
-5.551115123125548e-15 8.326672684688690e-15 1.024594730414009e-29 1.561251128379126e-14 9.714451465470107e-15 -1.804112415015874e-14
1.110223024625170e-14 1.665334536937738e-14 -1.110223024625154e-14 2.220446049250313e-14 -2.081668171172154e-15 3.608224830031759e-14
-7.216449660063487e-14 1.665334536937740e-14 1.110223024625163e-14 1.387778780781525e-15 -5.551115123125817e-15 -2.949029909160568e-14
7.771561172376108e-14 -2.775557561562849e-15 1.665334536937747e-14 1.873501354054958e-14 -2.428612866367531e-14 -2.914335439641039e-14
1.054711873393901e-13 8.326672684688690e-15 8.326672684688699e-15 6.938893903907239e-15 1.110223024625158e-14 1.526556658859595e-14
4.440892098500655e-14 -8.326672684688586e-15 2.775557561562907e-15 -1.526556658859592e-14 -5.206481974458678e-29 -1.387778780781408e-15
3.330669073875480e-14 1.665334536937741e-14 -2.775557561562885e-14 -1.942890293094020e-14 1.387778780781460e-15 -2.775557561562921e-15
-4.996003610813138e-14 -1.942890293094023e-14 -5.551115123125593e-15 -6.383782391594641e-14 -1.110223024625155e-14 -5.412337245047639e-14
-7.216449660063432e-14 -2.775557561562830e-15 -2.775557561562859e-15 -1.804112415015892e-14 1.665334536937736e-14 2.498001805406603e-14
1.110223024625225e-14 2.498001805406609e-14 9.353548405108827e-29 8.326672684688788e-15 -1.179611963664234e-14 -4.371503159461566e-14
3.330669073875581e-14 -5.551115123125846e-15 1.110223024625159e-14 -1.110223024625135e-14 1.110223024625170e-14 3.608224830031785e-14
        </DataArray>
      </CellData>

    </Piece>
  </UnstructuredGrid>
</VTKFile>
