<?xml version="1.0" ?> 
<!-- 
# vtk DataFile Version 3.0
-->
<VTKFile type="UnstructuredGrid" version="0.1" compressor="vtkZLibDataCompressor" byte_order="LittleEndian">
  <UnstructuredGrid>
    <FieldData>
      <DataArray type="Float64" Name="TIME" NumberOfTuples="1" format="ascii">
9.999999999999999e-02 
      </DataArray>
    </FieldData>

    <Piece NumberOfPoints="600" NumberOfCells="75" >
      <Points>
        <DataArray type="Float64" NumberOfComponents="3" format="ascii">
-5.000000000000000e+00 -5.000000000000000e+00 5.000000000000000e+00
-5.000000000000000e+00 -5.000000000000000e+00 3.000000000000000e+00
-5.000000000000000e+00 -3.000000000000000e+00 3.000000000000000e+00
-5.000000000000000e+00 -3.000000000000000e+00 5.000000000000000e+00
-3.000000000000000e+00 -5.000000000000000e+00 5.000000000000000e+00
-3.000000000000000e+00 -5.000000000000000e+00 3.000000000000000e+00
-3.000000000000000e+00 -3.000000000000000e+00 3.000000000000000e+00
-3.000000000000000e+00 -3.000000000000000e+00 4.999999999999999e+00
-5.000000000000000e+00 -5.000000000000000e+00 3.000000000000000e+00
-5.000000000000000e+00 -5.000000000000000e+00 1.000000000000000e+00
-5.000000000000000e+00 -3.000000000000000e+00 1.000000000000000e+00
-5.000000000000000e+00 -3.000000000000000e+00 3.000000000000000e+00
-3.000000000000000e+00 -5.000000000000000e+00 3.000000000000000e+00
-3.000000000000000e+00 -5.000000000000000e+00 1.000000000000000e+00
-3.000000000000000e+00 -3.000000000000000e+00 1.000000000000000e+00
-3.000000000000000e+00 -3.000000000000000e+00 3.000000000000000e+00
-5.000000000000000e+00 -5.000000000000000e+00 1.000000000000000e+00
-5.000000000000000e+00 -5.000000000000000e+00 -1.000000000000000e+00
-5.000000000000000e+00 -3.000000000000000e+00 -1.000000000000000e+00
-5.000000000000000e+00 -3.000000000000000e+00 1.000000000000000e+00
-3.000000000000000e+00 -5.000000000000000e+00 1.000000000000000e+00
-3.000000000000000e+00 -5.000000000000000e+00 -1.000000000000000e+00
-3.000000000000000e+00 -3.000000000000000e+00 -1.000000000000000e+00
-3.000000000000000e+00 -3.000000000000000e+00 1.000000000000000e+00
-5.000000000000000e+00 -3.000000000000000e+00 5.000000000000000e+00
-5.000000000000000e+00 -3.000000000000000e+00 3.000000000000000e+00
-5.000000000000000e+00 -1.000000000000000e+00 3.000000000000000e+00
-5.000000000000000e+00 -1.000000000000000e+00 5.000000000000000e+00
-3.000000000000000e+00 -3.000000000000000e+00 4.999999999999999e+00
-3.000000000000000e+00 -3.000000000000000e+00 3.000000000000000e+00
-3.000000000000000e+00 -1.000000000000001e+00 3.000000000000000e+00
-3.000000000000000e+00 -1.000000000000000e+00 5.000000000000000e+00
-5.000000000000000e+00 -3.000000000000000e+00 3.000000000000000e+00
-5.000000000000000e+00 -3.000000000000000e+00 1.000000000000000e+00
-5.000000000000000e+00 -1.000000000000000e+00 1.000000000000000e+00
-5.000000000000000e+00 -1.000000000000000e+00 3.000000000000000e+00
-3.000000000000000e+00 -3.000000000000000e+00 3.000000000000000e+00
-3.000000000000000e+00 -3.000000000000000e+00 1.000000000000000e+00
-3.000000000000000e+00 -1.000000000000000e+00 1.000000000000000e+00
-3.000000000000000e+00 -1.000000000000001e+00 3.000000000000000e+00
-5.000000000000000e+00 -3.000000000000000e+00 1.000000000000000e+00
-5.000000000000000e+00 -3.000000000000000e+00 -1.000000000000000e+00
-5.000000000000000e+00 -1.000000000000000e+00 -1.000000000000000e+00
-5.000000000000000e+00 -1.000000000000000e+00 1.000000000000000e+00
-3.000000000000000e+00 -3.000000000000000e+00 1.000000000000000e+00
-3.000000000000000e+00 -3.000000000000000e+00 -1.000000000000000e+00
-3.000000000000000e+00 -1.000000000000000e+00 -1.000000000000000e+00
-3.000000000000000e+00 -1.000000000000000e+00 1.000000000000000e+00
-5.000000000000000e+00 -1.000000000000000e+00 5.000000000000000e+00
-5.000000000000000e+00 -1.000000000000000e+00 3.000000000000000e+00
-5.000000000000000e+00 1.000000000000000e+00 3.000000000000000e+00
-5.000000000000000e+00 1.000000000000000e+00 5.000000000000000e+00
-3.000000000000000e+00 -1.000000000000000e+00 5.000000000000000e+00
-3.000000000000000e+00 -1.000000000000001e+00 3.000000000000000e+00
-3.000000000000000e+00 1.000000000000000e+00 3.000000000000000e+00
-3.000000000000000e+00 1.000000000000000e+00 5.000000000000000e+00
-5.000000000000000e+00 -1.000000000000000e+00 3.000000000000000e+00
-5.000000000000000e+00 -1.000000000000000e+00 1.000000000000000e+00
-5.000000000000000e+00 1.000000000000000e+00 1.000000000000000e+00
-5.000000000000000e+00 1.000000000000000e+00 3.000000000000000e+00
-3.000000000000000e+00 -1.000000000000001e+00 3.000000000000000e+00
-3.000000000000000e+00 -1.000000000000000e+00 1.000000000000000e+00
-3.000000000000000e+00 1.000000000000000e+00 1.000000000000000e+00
-3.000000000000000e+00 1.000000000000000e+00 3.000000000000000e+00
-5.000000000000000e+00 -1.000000000000000e+00 1.000000000000000e+00
-5.000000000000000e+00 -1.000000000000000e+00 -1.000000000000000e+00
-5.000000000000000e+00 1.000000000000000e+00 -1.000000000000000e+00
-5.000000000000000e+00 1.000000000000000e+00 1.000000000000000e+00
-3.000000000000000e+00 -1.000000000000000e+00 1.000000000000000e+00
-3.000000000000000e+00 -1.000000000000000e+00 -1.000000000000000e+00
-3.000000000000000e+00 1.000000000000000e+00 -1.000000000000000e+00
-3.000000000000000e+00 1.000000000000000e+00 1.000000000000000e+00
-5.000000000000000e+00 1.000000000000000e+00 5.000000000000000e+00
-5.000000000000000e+00 1.000000000000000e+00 3.000000000000000e+00
-5.000000000000000e+00 3.000000000000000e+00 3.000000000000000e+00
-5.000000000000000e+00 3.000000000000000e+00 5.000000000000000e+00
-3.000000000000000e+00 1.000000000000000e+00 5.000000000000000e+00
-3.000000000000000e+00 1.000000000000000e+00 3.000000000000000e+00
-3.000000000000000e+00 3.000000000000000e+00 3.000000000000000e+00
-3.000000000000000e+00 3.000000000000000e+00 5.000000000000000e+00
-5.000000000000000e+00 1.000000000000000e+00 3.000000000000000e+00
-5.000000000000000e+00 1.000000000000000e+00 1.000000000000000e+00
-5.000000000000000e+00 3.000000000000000e+00 1.000000000000000e+00
-5.000000000000000e+00 3.000000000000000e+00 3.000000000000000e+00
-3.000000000000000e+00 1.000000000000000e+00 3.000000000000000e+00
-3.000000000000000e+00 1.000000000000000e+00 1.000000000000000e+00
-3.000000000000000e+00 3.000000000000000e+00 1.000000000000000e+00
-3.000000000000000e+00 3.000000000000000e+00 3.000000000000000e+00
-5.000000000000000e+00 1.000000000000000e+00 1.000000000000000e+00
-5.000000000000000e+00 1.000000000000000e+00 -1.000000000000000e+00
-5.000000000000000e+00 3.000000000000000e+00 -1.000000000000000e+00
-5.000000000000000e+00 3.000000000000000e+00 1.000000000000000e+00
-3.000000000000000e+00 1.000000000000000e+00 1.000000000000000e+00
-3.000000000000000e+00 1.000000000000000e+00 -1.000000000000000e+00
-3.000000000000000e+00 3.000000000000000e+00 -9.999999999999999e-01
-3.000000000000000e+00 3.000000000000000e+00 1.000000000000000e+00
-5.000000000000000e+00 3.000000000000000e+00 5.000000000000000e+00
-5.000000000000000e+00 3.000000000000000e+00 3.000000000000000e+00
-5.000000000000000e+00 5.000000000000000e+00 3.000000000000000e+00
-5.000000000000000e+00 5.000000000000000e+00 5.000000000000000e+00
-3.000000000000000e+00 3.000000000000000e+00 5.000000000000000e+00
-3.000000000000000e+00 3.000000000000000e+00 3.000000000000000e+00
-3.000000000000000e+00 4.999999999999999e+00 3.000000000000000e+00
-3.000000000000000e+00 5.000000000000000e+00 5.000000000000000e+00
-5.000000000000000e+00 3.000000000000000e+00 3.000000000000000e+00
-5.000000000000000e+00 3.000000000000000e+00 1.000000000000000e+00
-5.000000000000000e+00 5.000000000000000e+00 1.000000000000000e+00
-5.000000000000000e+00 5.000000000000000e+00 3.000000000000000e+00
-3.000000000000000e+00 3.000000000000000e+00 3.000000000000000e+00
-3.000000000000000e+00 3.000000000000000e+00 1.000000000000000e+00
-3.000000000000000e+00 5.000000000000000e+00 1.000000000000000e+00
-3.000000000000000e+00 4.999999999999999e+00 3.000000000000000e+00
-5.000000000000000e+00 3.000000000000000e+00 1.000000000000000e+00
-5.000000000000000e+00 3.000000000000000e+00 -1.000000000000000e+00
-5.000000000000000e+00 5.000000000000000e+00 -1.000000000000000e+00
-5.000000000000000e+00 5.000000000000000e+00 1.000000000000000e+00
-3.000000000000000e+00 3.000000000000000e+00 1.000000000000000e+00
-3.000000000000000e+00 3.000000000000000e+00 -9.999999999999999e-01
-3.000000000000000e+00 5.000000000000000e+00 -1.000000000000000e+00
-3.000000000000000e+00 5.000000000000000e+00 1.000000000000000e+00
-3.000000000000000e+00 -5.000000000000000e+00 5.000000000000000e+00
-3.000000000000000e+00 -5.000000000000000e+00 3.000000000000000e+00
-3.000000000000000e+00 -3.000000000000000e+00 3.000000000000000e+00
-3.000000000000000e+00 -3.000000000000000e+00 4.999999999999999e+00
-1.000000000000000e+00 -5.000000000000000e+00 5.000000000000000e+00
-1.000000000000000e+00 -5.000000000000000e+00 3.000000000000000e+00
-1.000000000000000e+00 -3.000000000000000e+00 3.000000000000000e+00
-1.000000000000000e+00 -3.000000000000000e+00 5.000000000000000e+00
-3.000000000000000e+00 -5.000000000000000e+00 3.000000000000000e+00
-3.000000000000000e+00 -5.000000000000000e+00 1.000000000000000e+00
-3.000000000000000e+00 -3.000000000000000e+00 1.000000000000000e+00
-3.000000000000000e+00 -3.000000000000000e+00 3.000000000000000e+00
-1.000000000000000e+00 -5.000000000000000e+00 3.000000000000000e+00
-1.000000000000000e+00 -5.000000000000000e+00 1.000000000000000e+00
-1.000000000000000e+00 -3.000000000000000e+00 1.000000000000000e+00
-1.000000000000000e+00 -3.000000000000000e+00 3.000000000000000e+00
-3.000000000000000e+00 -5.000000000000000e+00 1.000000000000000e+00
-3.000000000000000e+00 -5.000000000000000e+00 -1.000000000000000e+00
-3.000000000000000e+00 -3.000000000000000e+00 -1.000000000000000e+00
-3.000000000000000e+00 -3.000000000000000e+00 1.000000000000000e+00
-1.000000000000000e+00 -5.000000000000000e+00 1.000000000000000e+00
-1.000000000000000e+00 -5.000000000000000e+00 -1.000000000000000e+00
-1.000000000000000e+00 -3.000000000000000e+00 -1.000000000000000e+00
-1.000000000000000e+00 -3.000000000000000e+00 1.000000000000000e+00
-3.000000000000000e+00 -3.000000000000000e+00 4.999999999999999e+00
-3.000000000000000e+00 -3.000000000000000e+00 3.000000000000000e+00
-3.000000000000000e+00 -1.000000000000001e+00 3.000000000000000e+00
-3.000000000000000e+00 -1.000000000000000e+00 5.000000000000000e+00
-1.000000000000000e+00 -3.000000000000000e+00 5.000000000000000e+00
-1.000000000000000e+00 -3.000000000000000e+00 3.000000000000000e+00
-1.000000000000000e+00 -1.000000000000000e+00 3.000000000000000e+00
-1.000000000000000e+00 -1.000000000000000e+00 5.000000000000000e+00
-3.000000000000000e+00 -3.000000000000000e+00 3.000000000000000e+00
-3.000000000000000e+00 -3.000000000000000e+00 1.000000000000000e+00
-3.000000000000000e+00 -1.000000000000000e+00 1.000000000000000e+00
-3.000000000000000e+00 -1.000000000000001e+00 3.000000000000000e+00
-1.000000000000000e+00 -3.000000000000000e+00 3.000000000000000e+00
-1.000000000000000e+00 -3.000000000000000e+00 1.000000000000000e+00
-1.000000000000000e+00 -1.000000000000000e+00 1.000000000000000e+00
-1.000000000000000e+00 -1.000000000000000e+00 3.000000000000000e+00
-3.000000000000000e+00 -3.000000000000000e+00 1.000000000000000e+00
-3.000000000000000e+00 -3.000000000000000e+00 -1.000000000000000e+00
-3.000000000000000e+00 -1.000000000000000e+00 -1.000000000000000e+00
-3.000000000000000e+00 -1.000000000000000e+00 1.000000000000000e+00
-1.000000000000000e+00 -3.000000000000000e+00 1.000000000000000e+00
-1.000000000000000e+00 -3.000000000000000e+00 -1.000000000000000e+00
-1.000000000000000e+00 -1.000000000000000e+00 -1.000000000000000e+00
-1.000000000000000e+00 -1.000000000000000e+00 1.000000000000000e+00
-3.000000000000000e+00 -1.000000000000000e+00 5.000000000000000e+00
-3.000000000000000e+00 -1.000000000000001e+00 3.000000000000000e+00
-3.000000000000000e+00 1.000000000000000e+00 3.000000000000000e+00
-3.000000000000000e+00 1.000000000000000e+00 5.000000000000000e+00
-1.000000000000000e+00 -1.000000000000000e+00 5.000000000000000e+00
-1.000000000000000e+00 -1.000000000000000e+00 3.000000000000000e+00
-1.000000000000000e+00 1.000000000000000e+00 3.000000000000000e+00
-1.000000000000000e+00 1.000000000000000e+00 5.000000000000000e+00
-3.000000000000000e+00 -1.000000000000001e+00 3.000000000000000e+00
-3.000000000000000e+00 -1.000000000000000e+00 1.000000000000000e+00
-3.000000000000000e+00 1.000000000000000e+00 1.000000000000000e+00
-3.000000000000000e+00 1.000000000000000e+00 3.000000000000000e+00
-1.000000000000000e+00 -1.000000000000000e+00 3.000000000000000e+00
-1.000000000000000e+00 -1.000000000000000e+00 1.000000000000000e+00
-1.000000000000000e+00 1.000000000000000e+00 1.000000000000000e+00
-1.000000000000000e+00 1.000000000000000e+00 3.000000000000000e+00
-3.000000000000000e+00 -1.000000000000000e+00 1.000000000000000e+00
-3.000000000000000e+00 -1.000000000000000e+00 -1.000000000000000e+00
-3.000000000000000e+00 1.000000000000000e+00 -1.000000000000000e+00
-3.000000000000000e+00 1.000000000000000e+00 1.000000000000000e+00
-1.000000000000000e+00 -1.000000000000000e+00 1.000000000000000e+00
-1.000000000000000e+00 -1.000000000000000e+00 -1.000000000000000e+00
-1.000000000000000e+00 1.000000000000000e+00 -1.000000000000000e+00
-1.000000000000000e+00 1.000000000000000e+00 1.000000000000000e+00
-3.000000000000000e+00 1.000000000000000e+00 5.000000000000000e+00
-3.000000000000000e+00 1.000000000000000e+00 3.000000000000000e+00
-3.000000000000000e+00 3.000000000000000e+00 3.000000000000000e+00
-3.000000000000000e+00 3.000000000000000e+00 5.000000000000000e+00
-1.000000000000000e+00 1.000000000000000e+00 5.000000000000000e+00
-1.000000000000000e+00 1.000000000000000e+00 3.000000000000000e+00
-1.000000000000000e+00 3.000000000000000e+00 3.000000000000000e+00
-1.000000000000000e+00 3.000000000000000e+00 5.000000000000000e+00
-3.000000000000000e+00 1.000000000000000e+00 3.000000000000000e+00
-3.000000000000000e+00 1.000000000000000e+00 1.000000000000000e+00
-3.000000000000000e+00 3.000000000000000e+00 1.000000000000000e+00
-3.000000000000000e+00 3.000000000000000e+00 3.000000000000000e+00
-1.000000000000000e+00 1.000000000000000e+00 3.000000000000000e+00
-1.000000000000000e+00 1.000000000000000e+00 1.000000000000000e+00
-1.000000000000000e+00 3.000000000000000e+00 1.000000000000000e+00
-1.000000000000000e+00 3.000000000000000e+00 3.000000000000000e+00
-3.000000000000000e+00 1.000000000000000e+00 1.000000000000000e+00
-3.000000000000000e+00 1.000000000000000e+00 -1.000000000000000e+00
-3.000000000000000e+00 3.000000000000000e+00 -9.999999999999999e-01
-3.000000000000000e+00 3.000000000000000e+00 1.000000000000000e+00
-1.000000000000000e+00 1.000000000000000e+00 1.000000000000000e+00
-1.000000000000000e+00 1.000000000000000e+00 -1.000000000000000e+00
-1.000000000000000e+00 3.000000000000000e+00 -1.000000000000000e+00
-1.000000000000000e+00 3.000000000000000e+00 1.000000000000000e+00
-3.000000000000000e+00 3.000000000000000e+00 5.000000000000000e+00
-3.000000000000000e+00 3.000000000000000e+00 3.000000000000000e+00
-3.000000000000000e+00 4.999999999999999e+00 3.000000000000000e+00
-3.000000000000000e+00 5.000000000000000e+00 5.000000000000000e+00
-1.000000000000000e+00 3.000000000000000e+00 5.000000000000000e+00
-1.000000000000000e+00 3.000000000000000e+00 3.000000000000000e+00
-1.000000000000000e+00 5.000000000000000e+00 3.000000000000000e+00
-1.000000000000000e+00 5.000000000000000e+00 5.000000000000000e+00
-3.000000000000000e+00 3.000000000000000e+00 3.000000000000000e+00
-3.000000000000000e+00 3.000000000000000e+00 1.000000000000000e+00
-3.000000000000000e+00 5.000000000000000e+00 1.000000000000000e+00
-3.000000000000000e+00 4.999999999999999e+00 3.000000000000000e+00
-1.000000000000000e+00 3.000000000000000e+00 3.000000000000000e+00
-1.000000000000000e+00 3.000000000000000e+00 1.000000000000000e+00
-1.000000000000000e+00 5.000000000000000e+00 1.000000000000000e+00
-1.000000000000000e+00 5.000000000000000e+00 3.000000000000000e+00
-3.000000000000000e+00 3.000000000000000e+00 1.000000000000000e+00
-3.000000000000000e+00 3.000000000000000e+00 -9.999999999999999e-01
-3.000000000000000e+00 5.000000000000000e+00 -1.000000000000000e+00
-3.000000000000000e+00 5.000000000000000e+00 1.000000000000000e+00
-1.000000000000000e+00 3.000000000000000e+00 1.000000000000000e+00
-1.000000000000000e+00 3.000000000000000e+00 -1.000000000000000e+00
-1.000000000000000e+00 5.000000000000000e+00 -1.000000000000000e+00
-1.000000000000000e+00 5.000000000000000e+00 1.000000000000000e+00
-1.000000000000000e+00 -5.000000000000000e+00 5.000000000000000e+00
-1.000000000000000e+00 -5.000000000000000e+00 3.000000000000000e+00
-1.000000000000000e+00 -3.000000000000000e+00 3.000000000000000e+00
-1.000000000000000e+00 -3.000000000000000e+00 5.000000000000000e+00
1.000000000000000e+00 -5.000000000000000e+00 5.000000000000000e+00
1.000000000000000e+00 -5.000000000000000e+00 3.000000000000000e+00
1.000000000000000e+00 -3.000000000000000e+00 3.000000000000000e+00
1.000000000000000e+00 -3.000000000000000e+00 5.000000000000000e+00
-1.000000000000000e+00 -5.000000000000000e+00 3.000000000000000e+00
-1.000000000000000e+00 -5.000000000000000e+00 1.000000000000000e+00
-1.000000000000000e+00 -3.000000000000000e+00 1.000000000000000e+00
-1.000000000000000e+00 -3.000000000000000e+00 3.000000000000000e+00
1.000000000000000e+00 -5.000000000000000e+00 3.000000000000000e+00
1.000000000000000e+00 -5.000000000000000e+00 1.000000000000000e+00
1.000000000000000e+00 -3.000000000000000e+00 1.000000000000000e+00
1.000000000000000e+00 -3.000000000000000e+00 3.000000000000000e+00
-1.000000000000000e+00 -5.000000000000000e+00 1.000000000000000e+00
-1.000000000000000e+00 -5.000000000000000e+00 -1.000000000000000e+00
-1.000000000000000e+00 -3.000000000000000e+00 -1.000000000000000e+00
-1.000000000000000e+00 -3.000000000000000e+00 1.000000000000000e+00
1.000000000000000e+00 -5.000000000000000e+00 1.000000000000000e+00
1.000000000000000e+00 -5.000000000000000e+00 -1.000000000000000e+00
1.000000000000000e+00 -3.000000000000000e+00 -1.000000000000000e+00
1.000000000000000e+00 -3.000000000000000e+00 1.000000000000000e+00
-1.000000000000000e+00 -3.000000000000000e+00 5.000000000000000e+00
-1.000000000000000e+00 -3.000000000000000e+00 3.000000000000000e+00
-1.000000000000000e+00 -1.000000000000000e+00 3.000000000000000e+00
-1.000000000000000e+00 -1.000000000000000e+00 5.000000000000000e+00
1.000000000000000e+00 -3.000000000000000e+00 5.000000000000000e+00
1.000000000000000e+00 -3.000000000000000e+00 3.000000000000000e+00
1.000000000000000e+00 -1.000000000000000e+00 3.000000000000000e+00
1.000000000000000e+00 -1.000000000000000e+00 5.000000000000000e+00
-1.000000000000000e+00 -3.000000000000000e+00 3.000000000000000e+00
-1.000000000000000e+00 -3.000000000000000e+00 1.000000000000000e+00
-1.000000000000000e+00 -1.000000000000000e+00 1.000000000000000e+00
-1.000000000000000e+00 -1.000000000000000e+00 3.000000000000000e+00
1.000000000000000e+00 -3.000000000000000e+00 3.000000000000000e+00
1.000000000000000e+00 -3.000000000000000e+00 1.000000000000000e+00
1.000000000000000e+00 -1.000000000000000e+00 1.000000000000000e+00
1.000000000000000e+00 -1.000000000000000e+00 3.000000000000000e+00
-1.000000000000000e+00 -3.000000000000000e+00 1.000000000000000e+00
-1.000000000000000e+00 -3.000000000000000e+00 -1.000000000000000e+00
-1.000000000000000e+00 -1.000000000000000e+00 -1.000000000000000e+00
-1.000000000000000e+00 -1.000000000000000e+00 1.000000000000000e+00
1.000000000000000e+00 -3.000000000000000e+00 1.000000000000000e+00
1.000000000000000e+00 -3.000000000000000e+00 -1.000000000000000e+00
1.000000000000000e+00 -1.000000000000000e+00 -1.000000000000000e+00
1.000000000000000e+00 -1.000000000000000e+00 1.000000000000000e+00
-1.000000000000000e+00 -1.000000000000000e+00 5.000000000000000e+00
-1.000000000000000e+00 -1.000000000000000e+00 3.000000000000000e+00
-1.000000000000000e+00 1.000000000000000e+00 3.000000000000000e+00
-1.000000000000000e+00 1.000000000000000e+00 5.000000000000000e+00
1.000000000000000e+00 -1.000000000000000e+00 5.000000000000000e+00
1.000000000000000e+00 -1.000000000000000e+00 3.000000000000000e+00
1.000000000000000e+00 1.000000000000000e+00 3.000000000000000e+00
1.000000000000000e+00 1.000000000000000e+00 5.000000000000000e+00
-1.000000000000000e+00 -1.000000000000000e+00 3.000000000000000e+00
-1.000000000000000e+00 -1.000000000000000e+00 1.000000000000000e+00
-1.000000000000000e+00 1.000000000000000e+00 1.000000000000000e+00
-1.000000000000000e+00 1.000000000000000e+00 3.000000000000000e+00
1.000000000000000e+00 -1.000000000000000e+00 3.000000000000000e+00
1.000000000000000e+00 -1.000000000000000e+00 1.000000000000000e+00
1.000000000000000e+00 1.000000000000000e+00 1.000000000000000e+00
1.000000000000000e+00 1.000000000000000e+00 3.000000000000000e+00
-1.000000000000000e+00 -1.000000000000000e+00 1.000000000000000e+00
-1.000000000000000e+00 -1.000000000000000e+00 -1.000000000000000e+00
-1.000000000000000e+00 1.000000000000000e+00 -1.000000000000000e+00
-1.000000000000000e+00 1.000000000000000e+00 1.000000000000000e+00
1.000000000000000e+00 -1.000000000000000e+00 1.000000000000000e+00
1.000000000000000e+00 -1.000000000000000e+00 -1.000000000000000e+00
1.000000000000000e+00 1.000000000000000e+00 -1.000000000000000e+00
1.000000000000000e+00 1.000000000000000e+00 1.000000000000000e+00
-1.000000000000000e+00 1.000000000000000e+00 5.000000000000000e+00
-1.000000000000000e+00 1.000000000000000e+00 3.000000000000000e+00
-1.000000000000000e+00 3.000000000000000e+00 3.000000000000000e+00
-1.000000000000000e+00 3.000000000000000e+00 5.000000000000000e+00
1.000000000000000e+00 1.000000000000000e+00 5.000000000000000e+00
1.000000000000000e+00 1.000000000000000e+00 3.000000000000000e+00
1.000000000000000e+00 3.000000000000000e+00 3.000000000000000e+00
1.000000000000000e+00 3.000000000000000e+00 5.000000000000000e+00
-1.000000000000000e+00 1.000000000000000e+00 3.000000000000000e+00
-1.000000000000000e+00 1.000000000000000e+00 1.000000000000000e+00
-1.000000000000000e+00 3.000000000000000e+00 1.000000000000000e+00
-1.000000000000000e+00 3.000000000000000e+00 3.000000000000000e+00
1.000000000000000e+00 1.000000000000000e+00 3.000000000000000e+00
1.000000000000000e+00 1.000000000000000e+00 1.000000000000000e+00
1.000000000000000e+00 3.000000000000000e+00 1.000000000000000e+00
1.000000000000000e+00 3.000000000000000e+00 3.000000000000000e+00
-1.000000000000000e+00 1.000000000000000e+00 1.000000000000000e+00
-1.000000000000000e+00 1.000000000000000e+00 -1.000000000000000e+00
-1.000000000000000e+00 3.000000000000000e+00 -1.000000000000000e+00
-1.000000000000000e+00 3.000000000000000e+00 1.000000000000000e+00
1.000000000000000e+00 1.000000000000000e+00 1.000000000000000e+00
1.000000000000000e+00 1.000000000000000e+00 -1.000000000000000e+00
1.000000000000000e+00 3.000000000000000e+00 -1.000000000000000e+00
1.000000000000000e+00 3.000000000000000e+00 1.000000000000000e+00
-1.000000000000000e+00 3.000000000000000e+00 5.000000000000000e+00
-1.000000000000000e+00 3.000000000000000e+00 3.000000000000000e+00
-1.000000000000000e+00 5.000000000000000e+00 3.000000000000000e+00
-1.000000000000000e+00 5.000000000000000e+00 5.000000000000000e+00
1.000000000000000e+00 3.000000000000000e+00 5.000000000000000e+00
1.000000000000000e+00 3.000000000000000e+00 3.000000000000000e+00
1.000000000000000e+00 5.000000000000000e+00 3.000000000000000e+00
1.000000000000000e+00 5.000000000000000e+00 5.000000000000000e+00
-1.000000000000000e+00 3.000000000000000e+00 3.000000000000000e+00
-1.000000000000000e+00 3.000000000000000e+00 1.000000000000000e+00
-1.000000000000000e+00 5.000000000000000e+00 1.000000000000000e+00
-1.000000000000000e+00 5.000000000000000e+00 3.000000000000000e+00
1.000000000000000e+00 3.000000000000000e+00 3.000000000000000e+00
1.000000000000000e+00 3.000000000000000e+00 1.000000000000000e+00
1.000000000000000e+00 5.000000000000000e+00 1.000000000000000e+00
1.000000000000000e+00 5.000000000000000e+00 3.000000000000000e+00
-1.000000000000000e+00 3.000000000000000e+00 1.000000000000000e+00
-1.000000000000000e+00 3.000000000000000e+00 -1.000000000000000e+00
-1.000000000000000e+00 5.000000000000000e+00 -1.000000000000000e+00
-1.000000000000000e+00 5.000000000000000e+00 1.000000000000000e+00
1.000000000000000e+00 3.000000000000000e+00 1.000000000000000e+00
1.000000000000000e+00 3.000000000000000e+00 -1.000000000000000e+00
1.000000000000000e+00 5.000000000000000e+00 -1.000000000000000e+00
1.000000000000000e+00 5.000000000000000e+00 1.000000000000000e+00
1.000000000000000e+00 -5.000000000000000e+00 5.000000000000000e+00
1.000000000000000e+00 -5.000000000000000e+00 3.000000000000000e+00
1.000000000000000e+00 -3.000000000000000e+00 3.000000000000000e+00
1.000000000000000e+00 -3.000000000000000e+00 5.000000000000000e+00
3.000000000000000e+00 -5.000000000000000e+00 5.000000000000000e+00
3.000000000000000e+00 -4.999999999999999e+00 3.000000000000000e+00
3.000000000000000e+00 -3.000000000000000e+00 3.000000000000000e+00
3.000000000000000e+00 -3.000000000000000e+00 5.000000000000000e+00
1.000000000000000e+00 -5.000000000000000e+00 3.000000000000000e+00
1.000000000000000e+00 -5.000000000000000e+00 1.000000000000000e+00
1.000000000000000e+00 -3.000000000000000e+00 1.000000000000000e+00
1.000000000000000e+00 -3.000000000000000e+00 3.000000000000000e+00
3.000000000000000e+00 -4.999999999999999e+00 3.000000000000000e+00
3.000000000000000e+00 -5.000000000000000e+00 1.000000000000000e+00
3.000000000000000e+00 -3.000000000000000e+00 1.000000000000000e+00
3.000000000000000e+00 -3.000000000000000e+00 3.000000000000000e+00
1.000000000000000e+00 -5.000000000000000e+00 1.000000000000000e+00
1.000000000000000e+00 -5.000000000000000e+00 -1.000000000000000e+00
1.000000000000000e+00 -3.000000000000000e+00 -1.000000000000000e+00
1.000000000000000e+00 -3.000000000000000e+00 1.000000000000000e+00
3.000000000000000e+00 -5.000000000000000e+00 1.000000000000000e+00
3.000000000000000e+00 -5.000000000000000e+00 -1.000000000000000e+00
3.000000000000000e+00 -3.000000000000000e+00 -1.000000000000000e+00
3.000000000000000e+00 -3.000000000000000e+00 1.000000000000000e+00
1.000000000000000e+00 -3.000000000000000e+00 5.000000000000000e+00
1.000000000000000e+00 -3.000000000000000e+00 3.000000000000000e+00
1.000000000000000e+00 -1.000000000000000e+00 3.000000000000000e+00
1.000000000000000e+00 -1.000000000000000e+00 5.000000000000000e+00
3.000000000000000e+00 -3.000000000000000e+00 5.000000000000000e+00
3.000000000000000e+00 -3.000000000000000e+00 3.000000000000000e+00
3.000000000000000e+00 -1.000000000000000e+00 3.000000000000000e+00
3.000000000000000e+00 -1.000000000000000e+00 5.000000000000000e+00
1.000000000000000e+00 -3.000000000000000e+00 3.000000000000000e+00
1.000000000000000e+00 -3.000000000000000e+00 1.000000000000000e+00
1.000000000000000e+00 -1.000000000000000e+00 1.000000000000000e+00
1.000000000000000e+00 -1.000000000000000e+00 3.000000000000000e+00
3.000000000000000e+00 -3.000000000000000e+00 3.000000000000000e+00
3.000000000000000e+00 -3.000000000000000e+00 1.000000000000000e+00
3.000000000000000e+00 -1.000000000000000e+00 1.000000000000000e+00
3.000000000000000e+00 -1.000000000000000e+00 3.000000000000000e+00
1.000000000000000e+00 -3.000000000000000e+00 1.000000000000000e+00
1.000000000000000e+00 -3.000000000000000e+00 -1.000000000000000e+00
1.000000000000000e+00 -1.000000000000000e+00 -1.000000000000000e+00
1.000000000000000e+00 -1.000000000000000e+00 1.000000000000000e+00
3.000000000000000e+00 -3.000000000000000e+00 1.000000000000000e+00
3.000000000000000e+00 -3.000000000000000e+00 -1.000000000000000e+00
3.000000000000000e+00 -1.000000000000000e+00 -1.000000000000000e+00
3.000000000000000e+00 -1.000000000000000e+00 1.000000000000000e+00
1.000000000000000e+00 -1.000000000000000e+00 5.000000000000000e+00
1.000000000000000e+00 -1.000000000000000e+00 3.000000000000000e+00
1.000000000000000e+00 1.000000000000000e+00 3.000000000000000e+00
1.000000000000000e+00 1.000000000000000e+00 5.000000000000000e+00
3.000000000000000e+00 -1.000000000000000e+00 5.000000000000000e+00
3.000000000000000e+00 -1.000000000000000e+00 3.000000000000000e+00
3.000000000000000e+00 1.000000000000000e+00 3.000000000000000e+00
3.000000000000000e+00 1.000000000000000e+00 5.000000000000000e+00
1.000000000000000e+00 -1.000000000000000e+00 3.000000000000000e+00
1.000000000000000e+00 -1.000000000000000e+00 1.000000000000000e+00
1.000000000000000e+00 1.000000000000000e+00 1.000000000000000e+00
1.000000000000000e+00 1.000000000000000e+00 3.000000000000000e+00
3.000000000000000e+00 -1.000000000000000e+00 3.000000000000000e+00
3.000000000000000e+00 -1.000000000000000e+00 1.000000000000000e+00
3.000000000000000e+00 1.000000000000000e+00 1.000000000000000e+00
3.000000000000000e+00 1.000000000000000e+00 3.000000000000000e+00
1.000000000000000e+00 -1.000000000000000e+00 1.000000000000000e+00
1.000000000000000e+00 -1.000000000000000e+00 -1.000000000000000e+00
1.000000000000000e+00 1.000000000000000e+00 -1.000000000000000e+00
1.000000000000000e+00 1.000000000000000e+00 1.000000000000000e+00
3.000000000000000e+00 -1.000000000000000e+00 1.000000000000000e+00
3.000000000000000e+00 -1.000000000000000e+00 -1.000000000000000e+00
3.000000000000000e+00 1.000000000000000e+00 -1.000000000000000e+00
3.000000000000000e+00 1.000000000000000e+00 1.000000000000000e+00
1.000000000000000e+00 1.000000000000000e+00 5.000000000000000e+00
1.000000000000000e+00 1.000000000000000e+00 3.000000000000000e+00
1.000000000000000e+00 3.000000000000000e+00 3.000000000000000e+00
1.000000000000000e+00 3.000000000000000e+00 5.000000000000000e+00
3.000000000000000e+00 1.000000000000000e+00 5.000000000000000e+00
3.000000000000000e+00 1.000000000000000e+00 3.000000000000000e+00
3.000000000000000e+00 3.000000000000000e+00 3.000000000000000e+00
3.000000000000000e+00 3.000000000000000e+00 5.000000000000000e+00
1.000000000000000e+00 1.000000000000000e+00 3.000000000000000e+00
1.000000000000000e+00 1.000000000000000e+00 1.000000000000000e+00
1.000000000000000e+00 3.000000000000000e+00 1.000000000000000e+00
1.000000000000000e+00 3.000000000000000e+00 3.000000000000000e+00
3.000000000000000e+00 1.000000000000000e+00 3.000000000000000e+00
3.000000000000000e+00 1.000000000000000e+00 1.000000000000000e+00
3.000000000000000e+00 3.000000000000000e+00 1.000000000000000e+00
3.000000000000000e+00 3.000000000000000e+00 3.000000000000000e+00
1.000000000000000e+00 1.000000000000000e+00 1.000000000000000e+00
1.000000000000000e+00 1.000000000000000e+00 -1.000000000000000e+00
1.000000000000000e+00 3.000000000000000e+00 -1.000000000000000e+00
1.000000000000000e+00 3.000000000000000e+00 1.000000000000000e+00
3.000000000000000e+00 1.000000000000000e+00 1.000000000000000e+00
3.000000000000000e+00 1.000000000000000e+00 -1.000000000000000e+00
3.000000000000000e+00 3.000000000000000e+00 -1.000000000000000e+00
3.000000000000000e+00 3.000000000000000e+00 1.000000000000000e+00
1.000000000000000e+00 3.000000000000000e+00 5.000000000000000e+00
1.000000000000000e+00 3.000000000000000e+00 3.000000000000000e+00
1.000000000000000e+00 5.000000000000000e+00 3.000000000000000e+00
1.000000000000000e+00 5.000000000000000e+00 5.000000000000000e+00
3.000000000000000e+00 3.000000000000000e+00 5.000000000000000e+00
3.000000000000000e+00 3.000000000000000e+00 3.000000000000000e+00
3.000000000000000e+00 5.000000000000000e+00 3.000000000000000e+00
3.000000000000000e+00 5.000000000000000e+00 5.000000000000000e+00
1.000000000000000e+00 3.000000000000000e+00 3.000000000000000e+00
1.000000000000000e+00 3.000000000000000e+00 1.000000000000000e+00
1.000000000000000e+00 5.000000000000000e+00 1.000000000000000e+00
1.000000000000000e+00 5.000000000000000e+00 3.000000000000000e+00
3.000000000000000e+00 3.000000000000000e+00 3.000000000000000e+00
3.000000000000000e+00 3.000000000000000e+00 1.000000000000000e+00
3.000000000000000e+00 5.000000000000000e+00 1.000000000000000e+00
3.000000000000000e+00 5.000000000000000e+00 3.000000000000000e+00
1.000000000000000e+00 3.000000000000000e+00 1.000000000000000e+00
1.000000000000000e+00 3.000000000000000e+00 -1.000000000000000e+00
1.000000000000000e+00 5.000000000000000e+00 -1.000000000000000e+00
1.000000000000000e+00 5.000000000000000e+00 1.000000000000000e+00
3.000000000000000e+00 3.000000000000000e+00 1.000000000000000e+00
3.000000000000000e+00 3.000000000000000e+00 -1.000000000000000e+00
3.000000000000000e+00 5.000000000000000e+00 -1.000000000000000e+00
3.000000000000000e+00 5.000000000000000e+00 1.000000000000000e+00
3.000000000000000e+00 -5.000000000000000e+00 5.000000000000000e+00
3.000000000000000e+00 -4.999999999999999e+00 3.000000000000000e+00
3.000000000000000e+00 -3.000000000000000e+00 3.000000000000000e+00
3.000000000000000e+00 -3.000000000000000e+00 5.000000000000000e+00
5.000000000000000e+00 -5.000000000000000e+00 5.000000000000000e+00
5.000000000000000e+00 -5.000000000000000e+00 3.000000000000000e+00
5.000000000000000e+00 -3.000000000000000e+00 3.000000000000000e+00
5.000000000000000e+00 -3.000000000000000e+00 5.000000000000000e+00
3.000000000000000e+00 -4.999999999999999e+00 3.000000000000000e+00
3.000000000000000e+00 -5.000000000000000e+00 1.000000000000000e+00
3.000000000000000e+00 -3.000000000000000e+00 1.000000000000000e+00
3.000000000000000e+00 -3.000000000000000e+00 3.000000000000000e+00
5.000000000000000e+00 -5.000000000000000e+00 3.000000000000000e+00
5.000000000000000e+00 -5.000000000000000e+00 1.000000000000000e+00
5.000000000000000e+00 -3.000000000000000e+00 1.000000000000000e+00
5.000000000000000e+00 -3.000000000000000e+00 3.000000000000000e+00
3.000000000000000e+00 -5.000000000000000e+00 1.000000000000000e+00
3.000000000000000e+00 -5.000000000000000e+00 -1.000000000000000e+00
3.000000000000000e+00 -3.000000000000000e+00 -1.000000000000000e+00
3.000000000000000e+00 -3.000000000000000e+00 1.000000000000000e+00
5.000000000000000e+00 -5.000000000000000e+00 1.000000000000000e+00
5.000000000000000e+00 -5.000000000000000e+00 -1.000000000000000e+00
5.000000000000000e+00 -3.000000000000000e+00 -1.000000000000000e+00
5.000000000000000e+00 -3.000000000000000e+00 1.000000000000000e+00
3.000000000000000e+00 -3.000000000000000e+00 5.000000000000000e+00
3.000000000000000e+00 -3.000000000000000e+00 3.000000000000000e+00
3.000000000000000e+00 -1.000000000000000e+00 3.000000000000000e+00
3.000000000000000e+00 -1.000000000000000e+00 5.000000000000000e+00
5.000000000000000e+00 -3.000000000000000e+00 5.000000000000000e+00
5.000000000000000e+00 -3.000000000000000e+00 3.000000000000000e+00
5.000000000000000e+00 -1.000000000000000e+00 3.000000000000000e+00
5.000000000000000e+00 -1.000000000000000e+00 5.000000000000000e+00
3.000000000000000e+00 -3.000000000000000e+00 3.000000000000000e+00
3.000000000000000e+00 -3.000000000000000e+00 1.000000000000000e+00
3.000000000000000e+00 -1.000000000000000e+00 1.000000000000000e+00
3.000000000000000e+00 -1.000000000000000e+00 3.000000000000000e+00
5.000000000000000e+00 -3.000000000000000e+00 3.000000000000000e+00
5.000000000000000e+00 -3.000000000000000e+00 1.000000000000000e+00
5.000000000000000e+00 -1.000000000000000e+00 1.000000000000000e+00
5.000000000000000e+00 -1.000000000000000e+00 3.000000000000000e+00
3.000000000000000e+00 -3.000000000000000e+00 1.000000000000000e+00
3.000000000000000e+00 -3.000000000000000e+00 -1.000000000000000e+00
3.000000000000000e+00 -1.000000000000000e+00 -1.000000000000000e+00
3.000000000000000e+00 -1.000000000000000e+00 1.000000000000000e+00
5.000000000000000e+00 -3.000000000000000e+00 1.000000000000000e+00
5.000000000000000e+00 -3.000000000000000e+00 -1.000000000000000e+00
5.000000000000000e+00 -1.000000000000000e+00 -1.000000000000000e+00
5.000000000000000e+00 -1.000000000000000e+00 1.000000000000000e+00
3.000000000000000e+00 -1.000000000000000e+00 5.000000000000000e+00
3.000000000000000e+00 -1.000000000000000e+00 3.000000000000000e+00
3.000000000000000e+00 1.000000000000000e+00 3.000000000000000e+00
3.000000000000000e+00 1.000000000000000e+00 5.000000000000000e+00
5.000000000000000e+00 -1.000000000000000e+00 5.000000000000000e+00
5.000000000000000e+00 -1.000000000000000e+00 3.000000000000000e+00
5.000000000000000e+00 1.000000000000000e+00 3.000000000000000e+00
5.000000000000000e+00 1.000000000000000e+00 5.000000000000000e+00
3.000000000000000e+00 -1.000000000000000e+00 3.000000000000000e+00
3.000000000000000e+00 -1.000000000000000e+00 1.000000000000000e+00
3.000000000000000e+00 1.000000000000000e+00 1.000000000000000e+00
3.000000000000000e+00 1.000000000000000e+00 3.000000000000000e+00
5.000000000000000e+00 -1.000000000000000e+00 3.000000000000000e+00
5.000000000000000e+00 -1.000000000000000e+00 1.000000000000000e+00
5.000000000000000e+00 1.000000000000000e+00 1.000000000000000e+00
5.000000000000000e+00 1.000000000000000e+00 3.000000000000000e+00
3.000000000000000e+00 -1.000000000000000e+00 1.000000000000000e+00
3.000000000000000e+00 -1.000000000000000e+00 -1.000000000000000e+00
3.000000000000000e+00 1.000000000000000e+00 -1.000000000000000e+00
3.000000000000000e+00 1.000000000000000e+00 1.000000000000000e+00
5.000000000000000e+00 -1.000000000000000e+00 1.000000000000000e+00
5.000000000000000e+00 -1.000000000000000e+00 -1.000000000000000e+00
5.000000000000000e+00 1.000000000000000e+00 -1.000000000000000e+00
5.000000000000000e+00 1.000000000000000e+00 1.000000000000000e+00
3.000000000000000e+00 1.000000000000000e+00 5.000000000000000e+00
3.000000000000000e+00 1.000000000000000e+00 3.000000000000000e+00
3.000000000000000e+00 3.000000000000000e+00 3.000000000000000e+00
3.000000000000000e+00 3.000000000000000e+00 5.000000000000000e+00
5.000000000000000e+00 1.000000000000000e+00 5.000000000000000e+00
5.000000000000000e+00 1.000000000000000e+00 3.000000000000000e+00
5.000000000000000e+00 3.000000000000000e+00 3.000000000000000e+00
5.000000000000000e+00 3.000000000000000e+00 5.000000000000000e+00
3.000000000000000e+00 1.000000000000000e+00 3.000000000000000e+00
3.000000000000000e+00 1.000000000000000e+00 1.000000000000000e+00
3.000000000000000e+00 3.000000000000000e+00 1.000000000000000e+00
3.000000000000000e+00 3.000000000000000e+00 3.000000000000000e+00
5.000000000000000e+00 1.000000000000000e+00 3.000000000000000e+00
5.000000000000000e+00 1.000000000000000e+00 1.000000000000000e+00
5.000000000000000e+00 3.000000000000000e+00 1.000000000000000e+00
5.000000000000000e+00 3.000000000000000e+00 3.000000000000000e+00
3.000000000000000e+00 1.000000000000000e+00 1.000000000000000e+00
3.000000000000000e+00 1.000000000000000e+00 -1.000000000000000e+00
3.000000000000000e+00 3.000000000000000e+00 -1.000000000000000e+00
3.000000000000000e+00 3.000000000000000e+00 1.000000000000000e+00
5.000000000000000e+00 1.000000000000000e+00 1.000000000000000e+00
5.000000000000000e+00 1.000000000000000e+00 -1.000000000000000e+00
5.000000000000000e+00 3.000000000000000e+00 -1.000000000000000e+00
5.000000000000000e+00 3.000000000000000e+00 1.000000000000000e+00
3.000000000000000e+00 3.000000000000000e+00 5.000000000000000e+00
3.000000000000000e+00 3.000000000000000e+00 3.000000000000000e+00
3.000000000000000e+00 5.000000000000000e+00 3.000000000000000e+00
3.000000000000000e+00 5.000000000000000e+00 5.000000000000000e+00
5.000000000000000e+00 3.000000000000000e+00 5.000000000000000e+00
5.000000000000000e+00 3.000000000000000e+00 3.000000000000000e+00
5.000000000000000e+00 5.000000000000000e+00 3.000000000000000e+00
5.000000000000000e+00 5.000000000000000e+00 5.000000000000000e+00
3.000000000000000e+00 3.000000000000000e+00 3.000000000000000e+00
3.000000000000000e+00 3.000000000000000e+00 1.000000000000000e+00
3.000000000000000e+00 5.000000000000000e+00 1.000000000000000e+00
3.000000000000000e+00 5.000000000000000e+00 3.000000000000000e+00
5.000000000000000e+00 3.000000000000000e+00 3.000000000000000e+00
5.000000000000000e+00 3.000000000000000e+00 1.000000000000000e+00
5.000000000000000e+00 5.000000000000000e+00 1.000000000000000e+00
5.000000000000000e+00 5.000000000000000e+00 3.000000000000000e+00
3.000000000000000e+00 3.000000000000000e+00 1.000000000000000e+00
3.000000000000000e+00 3.000000000000000e+00 -1.000000000000000e+00
3.000000000000000e+00 5.000000000000000e+00 -1.000000000000000e+00
3.000000000000000e+00 5.000000000000000e+00 1.000000000000000e+00
5.000000000000000e+00 3.000000000000000e+00 1.000000000000000e+00
5.000000000000000e+00 3.000000000000000e+00 -1.000000000000000e+00
5.000000000000000e+00 5.000000000000000e+00 -1.000000000000000e+00
5.000000000000000e+00 5.000000000000000e+00 1.000000000000000e+00
        </DataArray>
      </Points>

      <Cells>
        <DataArray type="Int32" Name="connectivity" format="ascii">
0 1 2 3 4 5 6 7 8 9 10 11 12 13 14 15 16 17 18 19 20 21 22 23 24 25 26 27 28 29 30 31 32 33 34 35 36 37 38 39 40 41 42 43 44 45 46 47 48 49 50 51 52 53 54 55 56 57 58 59 60 61 62 63 64 65 66 67 68 69 70 71 72 73 74 75 76 77 78 79 80 81 82 83 84 85 86 87 88 89 90 91 92 93 94 95 96 97 98 99 100 101 102 103 104 105 106 107 108 109 110 111 112 113 114 115 116 117 118 119 120 121 122 123 124 125 126 127 128 129 130 131 132 133 134 135 136 137 138 139 140 141 142 143 144 145 146 147 148 149 150 151 152 153 154 155 156 157 158 159 160 161 162 163 164 165 166 167 168 169 170 171 172 173 174 175 176 177 178 179 180 181 182 183 184 185 186 187 188 189 190 191 192 193 194 195 196 197 198 199 200 201 202 203 204 205 206 207 208 209 210 211 212 213 214 215 216 217 218 219 220 221 222 223 224 225 226 227 228 229 230 231 232 233 234 235 236 237 238 239 240 241 242 243 244 245 246 247 248 249 250 251 252 253 254 255 256 257 258 259 260 261 262 263 264 265 266 267 268 269 270 271 272 273 274 275 276 277 278 279 280 281 282 283 284 285 286 287 288 289 290 291 292 293 294 295 296 297 298 299 300 301 302 303 304 305 306 307 308 309 310 311 312 313 314 315 316 317 318 319 320 321 322 323 324 325 326 327 328 329 330 331 332 333 334 335 336 337 338 339 340 341 342 343 344 345 346 347 348 349 350 351 352 353 354 355 356 357 358 359 360 361 362 363 364 365 366 367 368 369 370 371 372 373 374 375 376 377 378 379 380 381 382 383 384 385 386 387 388 389 390 391 392 393 394 395 396 397 398 399 400 401 402 403 404 405 406 407 408 409 410 411 412 413 414 415 416 417 418 419 420 421 422 423 424 425 426 427 428 429 430 431 432 433 434 435 436 437 438 439 440 441 442 443 444 445 446 447 448 449 450 451 452 453 454 455 456 457 458 459 460 461 462 463 464 465 466 467 468 469 470 471 472 473 474 475 476 477 478 479 480 481 482 483 484 485 486 487 488 489 490 491 492 493 494 495 496 497 498 499 500 501 502 503 504 505 506 507 508 509 510 511 512 513 514 515 516 517 518 519 520 521 522 523 524 525 526 527 528 529 530 531 532 533 534 535 536 537 538 539 540 541 542 543 544 545 546 547 548 549 550 551 552 553 554 555 556 557 558 559 560 561 562 563 564 565 566 567 568 569 570 571 572 573 574 575 576 577 578 579 580 581 582 583 584 585 586 587 588 589 590 591 592 593 594 595 596 597 598 599 
        </DataArray>
        <DataArray type="Int32" Name="offsets" format="ascii">
8 16 24 32 40 48 56 64 72 80 88 96 104 112 120 128 136 144 152 160 168 176 184 192 200 208 216 224 232 240 248 256 264 272 280 288 296 304 312 320 328 336 344 352 360 368 376 384 392 400 408 416 424 432 440 448 456 464 472 480 488 496 504 512 520 528 536 544 552 560 568 576 584 592 600 
        </DataArray>
        <DataArray type="UInt8" Name="types" format="ascii">
12 12 12 12 12 12 12 12 12 12 12 12 12 12 12 12 12 12 12 12 12 12 12 12 12 12 12 12 12 12 12 12 12 12 12 12 12 12 12 12 12 12 12 12 12 12 12 12 12 12 12 12 12 12 12 12 12 12 12 12 12 12 12 12 12 12 12 12 12 12 12 12 12 12 12 
        </DataArray>
      </Cells>

  <PointData>
        <DataArray type="Float64" Name="displacement" NumberOfComponents="3" format="ascii">
0.000000000000000e+00 0.000000000000000e+00 0.000000000000000e+00
0.000000000000000e+00 0.000000000000000e+00 0.000000000000000e+00
0.000000000000000e+00 0.000000000000000e+00 0.000000000000000e+00
0.000000000000000e+00 0.000000000000000e+00 0.000000000000000e+00
-4.538264040059901e-04 0.000000000000000e+00 0.000000000000000e+00
-4.538264040056050e-04 0.000000000000000e+00 0.000000000000000e+00
-4.538264040055560e-04 -7.063873141088731e-16 -6.489659381031534e-16
-4.538264040056711e-04 0.000000000000000e+00 0.000000000000000e+00
0.000000000000000e+00 0.000000000000000e+00 0.000000000000000e+00
0.000000000000000e+00 0.000000000000000e+00 0.000000000000000e+00
0.000000000000000e+00 0.000000000000000e+00 0.000000000000000e+00
0.000000000000000e+00 0.000000000000000e+00 0.000000000000000e+00
-4.538264040056050e-04 0.000000000000000e+00 0.000000000000000e+00
-4.538264040055777e-04 0.000000000000000e+00 0.000000000000000e+00
-4.538264040064241e-04 -3.746618000058497e-16 -2.230401226018463e-17
-4.538264040055560e-04 -7.063873141088731e-16 -6.489659381031534e-16
0.000000000000000e+00 0.000000000000000e+00 0.000000000000000e+00
0.000000000000000e+00 0.000000000000000e+00 0.000000000000000e+00
0.000000000000000e+00 0.000000000000000e+00 0.000000000000000e+00
0.000000000000000e+00 0.000000000000000e+00 0.000000000000000e+00
-4.538264040055777e-04 0.000000000000000e+00 0.000000000000000e+00
-4.538264040063062e-04 0.000000000000000e+00 0.000000000000000e+00
-4.538264040062064e-04 1.767777750412395e-16 -8.048514369125884e-17
-4.538264040064241e-04 -3.746618000058497e-16 -2.230401226018463e-17
0.000000000000000e+00 0.000000000000000e+00 0.000000000000000e+00
0.000000000000000e+00 0.000000000000000e+00 0.000000000000000e+00
0.000000000000000e+00 0.000000000000000e+00 0.000000000000000e+00
0.000000000000000e+00 0.000000000000000e+00 0.000000000000000e+00
-4.538264040056711e-04 0.000000000000000e+00 0.000000000000000e+00
-4.538264040055560e-04 -7.063873141088731e-16 -6.489659381031534e-16
-4.538264040060189e-04 1.103652986670742e-16 6.527006783370345e-16
-4.538264040052291e-04 0.000000000000000e+00 0.000000000000000e+00
0.000000000000000e+00 0.000000000000000e+00 0.000000000000000e+00
0.000000000000000e+00 0.000000000000000e+00 0.000000000000000e+00
0.000000000000000e+00 0.000000000000000e+00 0.000000000000000e+00
0.000000000000000e+00 0.000000000000000e+00 0.000000000000000e+00
-4.538264040055560e-04 -7.063873141088731e-16 -6.489659381031534e-16
-4.538264040064241e-04 -3.746618000058497e-16 -2.230401226018463e-17
-4.538264040062688e-04 -6.765838025000311e-17 -2.039884481794599e-16
-4.538264040060189e-04 1.103652986670742e-16 6.527006783370345e-16
0.000000000000000e+00 0.000000000000000e+00 0.000000000000000e+00
0.000000000000000e+00 0.000000000000000e+00 0.000000000000000e+00
0.000000000000000e+00 0.000000000000000e+00 0.000000000000000e+00
0.000000000000000e+00 0.000000000000000e+00 0.000000000000000e+00
-4.538264040064241e-04 -3.746618000058497e-16 -2.230401226018463e-17
-4.538264040062064e-04 1.767777750412395e-16 -8.048514369125884e-17
-4.538264040060575e-04 1.859644499141998e-16 1.356886324893634e-17
-4.538264040062688e-04 -6.765838025000311e-17 -2.039884481794599e-16
0.000000000000000e+00 0.000000000000000e+00 0.000000000000000e+00
0.000000000000000e+00 0.000000000000000e+00 0.000000000000000e+00
0.000000000000000e+00 0.000000000000000e+00 0.000000000000000e+00
0.000000000000000e+00 0.000000000000000e+00 0.000000000000000e+00
-4.538264040052291e-04 0.000000000000000e+00 0.000000000000000e+00
-4.538264040060189e-04 1.103652986670742e-16 6.527006783370345e-16
-4.538264040058734e-04 1.253566329825049e-16 -1.362239228924210e-16
-4.538264040058554e-04 0.000000000000000e+00 0.000000000000000e+00
0.000000000000000e+00 0.000000000000000e+00 0.000000000000000e+00
0.000000000000000e+00 0.000000000000000e+00 0.000000000000000e+00
0.000000000000000e+00 0.000000000000000e+00 0.000000000000000e+00
0.000000000000000e+00 0.000000000000000e+00 0.000000000000000e+00
-4.538264040060189e-04 1.103652986670742e-16 6.527006783370345e-16
-4.538264040062688e-04 -6.765838025000311e-17 -2.039884481794599e-16
-4.538264040059365e-04 1.258490493956833e-16 -5.338451120181642e-16
-4.538264040058734e-04 1.253566329825049e-16 -1.362239228924210e-16
0.000000000000000e+00 0.000000000000000e+00 0.000000000000000e+00
0.000000000000000e+00 0.000000000000000e+00 0.000000000000000e+00
0.000000000000000e+00 0.000000000000000e+00 0.000000000000000e+00
0.000000000000000e+00 0.000000000000000e+00 0.000000000000000e+00
-4.538264040062688e-04 -6.765838025000311e-17 -2.039884481794599e-16
-4.538264040060575e-04 1.859644499141998e-16 1.356886324893634e-17
-4.538264040060606e-04 2.823663517213395e-17 4.727924158812611e-16
-4.538264040059365e-04 1.258490493956833e-16 -5.338451120181642e-16
0.000000000000000e+00 0.000000000000000e+00 0.000000000000000e+00
0.000000000000000e+00 0.000000000000000e+00 0.000000000000000e+00
0.000000000000000e+00 0.000000000000000e+00 0.000000000000000e+00
0.000000000000000e+00 0.000000000000000e+00 0.000000000000000e+00
-4.538264040058554e-04 0.000000000000000e+00 0.000000000000000e+00
-4.538264040058734e-04 1.253566329825049e-16 -1.362239228924210e-16
-4.538264040058815e-04 -4.187845750439118e-17 8.997922383433520e-17
-4.538264040062813e-04 0.000000000000000e+00 0.000000000000000e+00
0.000000000000000e+00 0.000000000000000e+00 0.000000000000000e+00
0.000000000000000e+00 0.000000000000000e+00 0.000000000000000e+00
0.000000000000000e+00 0.000000000000000e+00 0.000000000000000e+00
0.000000000000000e+00 0.000000000000000e+00 0.000000000000000e+00
-4.538264040058734e-04 1.253566329825049e-16 -1.362239228924210e-16
-4.538264040059365e-04 1.258490493956833e-16 -5.338451120181642e-16
-4.538264040061671e-04 3.012398977285031e-16 4.530082223343134e-18
-4.538264040058815e-04 -4.187845750439118e-17 8.997922383433520e-17
0.000000000000000e+00 0.000000000000000e+00 0.000000000000000e+00
0.000000000000000e+00 0.000000000000000e+00 0.000000000000000e+00
0.000000000000000e+00 0.000000000000000e+00 0.000000000000000e+00
0.000000000000000e+00 0.000000000000000e+00 0.000000000000000e+00
-4.538264040059365e-04 1.258490493956833e-16 -5.338451120181642e-16
-4.538264040060606e-04 2.823663517213395e-17 4.727924158812611e-16
-4.538264040063923e-04 5.285482626847600e-16 -9.003733712997433e-16
-4.538264040061671e-04 3.012398977285031e-16 4.530082223343134e-18
0.000000000000000e+00 0.000000000000000e+00 0.000000000000000e+00
0.000000000000000e+00 0.000000000000000e+00 0.000000000000000e+00
0.000000000000000e+00 0.000000000000000e+00 0.000000000000000e+00
0.000000000000000e+00 0.000000000000000e+00 0.000000000000000e+00
-4.538264040062813e-04 0.000000000000000e+00 0.000000000000000e+00
-4.538264040058815e-04 -4.187845750439118e-17 8.997922383433520e-17
-4.538264040060124e-04 0.000000000000000e+00 0.000000000000000e+00
-4.538264040050324e-04 0.000000000000000e+00 0.000000000000000e+00
0.000000000000000e+00 0.000000000000000e+00 0.000000000000000e+00
0.000000000000000e+00 0.000000000000000e+00 0.000000000000000e+00
0.000000000000000e+00 0.000000000000000e+00 0.000000000000000e+00
0.000000000000000e+00 0.000000000000000e+00 0.000000000000000e+00
-4.538264040058815e-04 -4.187845750439118e-17 8.997922383433520e-17
-4.538264040061671e-04 3.012398977285031e-16 4.530082223343134e-18
-4.538264040059793e-04 0.000000000000000e+00 0.000000000000000e+00
-4.538264040060124e-04 0.000000000000000e+00 0.000000000000000e+00
0.000000000000000e+00 0.000000000000000e+00 0.000000000000000e+00
0.000000000000000e+00 0.000000000000000e+00 0.000000000000000e+00
0.000000000000000e+00 0.000000000000000e+00 0.000000000000000e+00
0.000000000000000e+00 0.000000000000000e+00 0.000000000000000e+00
-4.538264040061671e-04 3.012398977285031e-16 4.530082223343134e-18
-4.538264040063923e-04 5.285482626847600e-16 -9.003733712997433e-16
-4.538264040053909e-04 0.000000000000000e+00 0.000000000000000e+00
-4.538264040059793e-04 0.000000000000000e+00 0.000000000000000e+00
-4.538264040059901e-04 0.000000000000000e+00 0.000000000000000e+00
-4.538264040056050e-04 0.000000000000000e+00 0.000000000000000e+00
-4.538264040055560e-04 -7.063873141088731e-16 -6.489659381031534e-16
-4.538264040056711e-04 0.000000000000000e+00 0.000000000000000e+00
-9.070747024732346e-04 0.000000000000000e+00 0.000000000000000e+00
-9.070747024710772e-04 0.000000000000000e+00 0.000000000000000e+00
-9.070747024716974e-04 3.566590598410387e-16 -1.105663392201275e-15
-9.070747024716131e-04 0.000000000000000e+00 0.000000000000000e+00
-4.538264040056050e-04 0.000000000000000e+00 0.000000000000000e+00
-4.538264040055777e-04 0.000000000000000e+00 0.000000000000000e+00
-4.538264040064241e-04 -3.746618000058497e-16 -2.230401226018463e-17
-4.538264040055560e-04 -7.063873141088731e-16 -6.489659381031534e-16
-9.070747024710772e-04 0.000000000000000e+00 0.000000000000000e+00
-9.070747024728391e-04 0.000000000000000e+00 0.000000000000000e+00
-9.070747024725157e-04 -8.364846204622962e-16 2.941733000660130e-16
-9.070747024716974e-04 3.566590598410387e-16 -1.105663392201275e-15
-4.538264040055777e-04 0.000000000000000e+00 0.000000000000000e+00
-4.538264040063062e-04 0.000000000000000e+00 0.000000000000000e+00
-4.538264040062064e-04 1.767777750412395e-16 -8.048514369125884e-17
-4.538264040064241e-04 -3.746618000058497e-16 -2.230401226018463e-17
-9.070747024728391e-04 0.000000000000000e+00 0.000000000000000e+00
-9.070747024730009e-04 0.000000000000000e+00 0.000000000000000e+00
-9.070747024727678e-04 -1.597613578256863e-17 4.102192730425869e-16
-9.070747024725157e-04 -8.364846204622962e-16 2.941733000660130e-16
-4.538264040056711e-04 0.000000000000000e+00 0.000000000000000e+00
-4.538264040055560e-04 -7.063873141088731e-16 -6.489659381031534e-16
-4.538264040060189e-04 1.103652986670742e-16 6.527006783370345e-16
-4.538264040052291e-04 0.000000000000000e+00 0.000000000000000e+00
-9.070747024716131e-04 0.000000000000000e+00 0.000000000000000e+00
-9.070747024716974e-04 3.566590598410387e-16 -1.105663392201275e-15
-9.070747024720460e-04 -2.811488016460592e-16 5.281085250600487e-16
-9.070747024716087e-04 0.000000000000000e+00 0.000000000000000e+00
-4.538264040055560e-04 -7.063873141088731e-16 -6.489659381031534e-16
-4.538264040064241e-04 -3.746618000058497e-16 -2.230401226018463e-17
-4.538264040062688e-04 -6.765838025000311e-17 -2.039884481794599e-16
-4.538264040060189e-04 1.103652986670742e-16 6.527006783370345e-16
-9.070747024716974e-04 3.566590598410387e-16 -1.105663392201275e-15
-9.070747024725157e-04 -8.364846204622962e-16 2.941733000660130e-16
-9.070747024724026e-04 2.519604487952961e-16 7.232700098712073e-18
-9.070747024720460e-04 -2.811488016460592e-16 5.281085250600487e-16
-4.538264040064241e-04 -3.746618000058497e-16 -2.230401226018463e-17
-4.538264040062064e-04 1.767777750412395e-16 -8.048514369125884e-17
-4.538264040060575e-04 1.859644499141998e-16 1.356886324893634e-17
-4.538264040062688e-04 -6.765838025000311e-17 -2.039884481794599e-16
-9.070747024725157e-04 -8.364846204622962e-16 2.941733000660130e-16
-9.070747024727678e-04 -1.597613578256863e-17 4.102192730425869e-16
-9.070747024718018e-04 8.357133642956256e-16 9.012523665329920e-16
-9.070747024724026e-04 2.519604487952961e-16 7.232700098712073e-18
-4.538264040052291e-04 0.000000000000000e+00 0.000000000000000e+00
-4.538264040060189e-04 1.103652986670742e-16 6.527006783370345e-16
-4.538264040058734e-04 1.253566329825049e-16 -1.362239228924210e-16
-4.538264040058554e-04 0.000000000000000e+00 0.000000000000000e+00
-9.070747024716087e-04 0.000000000000000e+00 0.000000000000000e+00
-9.070747024720460e-04 -2.811488016460592e-16 5.281085250600487e-16
-9.070747024719668e-04 -8.173659089502462e-17 2.306434242064123e-17
-9.070747024716449e-04 0.000000000000000e+00 0.000000000000000e+00
-4.538264040060189e-04 1.103652986670742e-16 6.527006783370345e-16
-4.538264040062688e-04 -6.765838025000311e-17 -2.039884481794599e-16
-4.538264040059365e-04 1.258490493956833e-16 -5.338451120181642e-16
-4.538264040058734e-04 1.253566329825049e-16 -1.362239228924210e-16
-9.070747024720460e-04 -2.811488016460592e-16 5.281085250600487e-16
-9.070747024724026e-04 2.519604487952961e-16 7.232700098712073e-18
-9.070747024718368e-04 -9.945598538990367e-18 -2.827336181754402e-16
-9.070747024719668e-04 -8.173659089502462e-17 2.306434242064123e-17
-4.538264040062688e-04 -6.765838025000311e-17 -2.039884481794599e-16
-4.538264040060575e-04 1.859644499141998e-16 1.356886324893634e-17
-4.538264040060606e-04 2.823663517213395e-17 4.727924158812611e-16
-4.538264040059365e-04 1.258490493956833e-16 -5.338451120181642e-16
-9.070747024724026e-04 2.519604487952961e-16 7.232700098712073e-18
-9.070747024718018e-04 8.357133642956256e-16 9.012523665329920e-16
-9.070747024725827e-04 2.133860967029513e-16 1.482201870391843e-16
-9.070747024718368e-04 -9.945598538990367e-18 -2.827336181754402e-16
-4.538264040058554e-04 0.000000000000000e+00 0.000000000000000e+00
-4.538264040058734e-04 1.253566329825049e-16 -1.362239228924210e-16
-4.538264040058815e-04 -4.187845750439118e-17 8.997922383433520e-17
-4.538264040062813e-04 0.000000000000000e+00 0.000000000000000e+00
-9.070747024716449e-04 0.000000000000000e+00 0.000000000000000e+00
-9.070747024719668e-04 -8.173659089502462e-17 2.306434242064123e-17
-9.070747024725951e-04 -1.040325035782134e-16 5.076005256384841e-17
-9.070747024719476e-04 0.000000000000000e+00 0.000000000000000e+00
-4.538264040058734e-04 1.253566329825049e-16 -1.362239228924210e-16
-4.538264040059365e-04 1.258490493956833e-16 -5.338451120181642e-16
-4.538264040061671e-04 3.012398977285031e-16 4.530082223343134e-18
-4.538264040058815e-04 -4.187845750439118e-17 8.997922383433520e-17
-9.070747024719668e-04 -8.173659089502462e-17 2.306434242064123e-17
-9.070747024718368e-04 -9.945598538990367e-18 -2.827336181754402e-16
-9.070747024722205e-04 5.152456923602691e-16 -3.093635561723916e-17
-9.070747024725951e-04 -1.040325035782134e-16 5.076005256384841e-17
-4.538264040059365e-04 1.258490493956833e-16 -5.338451120181642e-16
-4.538264040060606e-04 2.823663517213395e-17 4.727924158812611e-16
-4.538264040063923e-04 5.285482626847600e-16 -9.003733712997433e-16
-4.538264040061671e-04 3.012398977285031e-16 4.530082223343134e-18
-9.070747024718368e-04 -9.945598538990367e-18 -2.827336181754402e-16
-9.070747024725827e-04 2.133860967029513e-16 1.482201870391843e-16
-9.070747024725876e-04 1.648680044208991e-16 -1.994624339337378e-16
-9.070747024722205e-04 5.152456923602691e-16 -3.093635561723916e-17
-4.538264040062813e-04 0.000000000000000e+00 0.000000000000000e+00
-4.538264040058815e-04 -4.187845750439118e-17 8.997922383433520e-17
-4.538264040060124e-04 0.000000000000000e+00 0.000000000000000e+00
-4.538264040050324e-04 0.000000000000000e+00 0.000000000000000e+00
-9.070747024719476e-04 0.000000000000000e+00 0.000000000000000e+00
-9.070747024725951e-04 -1.040325035782134e-16 5.076005256384841e-17
-9.070747024719912e-04 0.000000000000000e+00 0.000000000000000e+00
-9.070747024722235e-04 0.000000000000000e+00 0.000000000000000e+00
-4.538264040058815e-04 -4.187845750439118e-17 8.997922383433520e-17
-4.538264040061671e-04 3.012398977285031e-16 4.530082223343134e-18
-4.538264040059793e-04 0.000000000000000e+00 0.000000000000000e+00
-4.538264040060124e-04 0.000000000000000e+00 0.000000000000000e+00
-9.070747024725951e-04 -1.040325035782134e-16 5.076005256384841e-17
-9.070747024722205e-04 5.152456923602691e-16 -3.093635561723916e-17
-9.070747024719109e-04 0.000000000000000e+00 0.000000000000000e+00
-9.070747024719912e-04 0.000000000000000e+00 0.000000000000000e+00
-4.538264040061671e-04 3.012398977285031e-16 4.530082223343134e-18
-4.538264040063923e-04 5.285482626847600e-16 -9.003733712997433e-16
-4.538264040053909e-04 0.000000000000000e+00 0.000000000000000e+00
-4.538264040059793e-04 0.000000000000000e+00 0.000000000000000e+00
-9.070747024722205e-04 5.152456923602691e-16 -3.093635561723916e-17
-9.070747024725876e-04 1.648680044208991e-16 -1.994624339337378e-16
-9.070747024720485e-04 0.000000000000000e+00 0.000000000000000e+00
-9.070747024719109e-04 0.000000000000000e+00 0.000000000000000e+00
-9.070747024732346e-04 0.000000000000000e+00 0.000000000000000e+00
-9.070747024710772e-04 0.000000000000000e+00 0.000000000000000e+00
-9.070747024716974e-04 3.566590598410387e-16 -1.105663392201275e-15
-9.070747024716131e-04 0.000000000000000e+00 0.000000000000000e+00
-1.360466801259552e-03 0.000000000000000e+00 0.000000000000000e+00
-1.360466801260537e-03 0.000000000000000e+00 0.000000000000000e+00
-1.360466801260617e-03 5.440281419543477e-16 -2.233946955675838e-16
-1.360466801260838e-03 0.000000000000000e+00 0.000000000000000e+00
-9.070747024710772e-04 0.000000000000000e+00 0.000000000000000e+00
-9.070747024728391e-04 0.000000000000000e+00 0.000000000000000e+00
-9.070747024725157e-04 -8.364846204622962e-16 2.941733000660130e-16
-9.070747024716974e-04 3.566590598410387e-16 -1.105663392201275e-15
-1.360466801260537e-03 0.000000000000000e+00 0.000000000000000e+00
-1.360466801260384e-03 0.000000000000000e+00 0.000000000000000e+00
-1.360466801260517e-03 -1.821693858237830e-16 -1.438659725145900e-16
-1.360466801260617e-03 5.440281419543477e-16 -2.233946955675838e-16
-9.070747024728391e-04 0.000000000000000e+00 0.000000000000000e+00
-9.070747024730009e-04 0.000000000000000e+00 0.000000000000000e+00
-9.070747024727678e-04 -1.597613578256863e-17 4.102192730425869e-16
-9.070747024725157e-04 -8.364846204622962e-16 2.941733000660130e-16
-1.360466801260384e-03 0.000000000000000e+00 0.000000000000000e+00
-1.360466801260880e-03 0.000000000000000e+00 0.000000000000000e+00
-1.360466801260842e-03 6.854490348985413e-16 2.623434596676117e-16
-1.360466801260517e-03 -1.821693858237830e-16 -1.438659725145900e-16
-9.070747024716131e-04 0.000000000000000e+00 0.000000000000000e+00
-9.070747024716974e-04 3.566590598410387e-16 -1.105663392201275e-15
-9.070747024720460e-04 -2.811488016460592e-16 5.281085250600487e-16
-9.070747024716087e-04 0.000000000000000e+00 0.000000000000000e+00
-1.360466801260838e-03 0.000000000000000e+00 0.000000000000000e+00
-1.360466801260617e-03 5.440281419543477e-16 -2.233946955675838e-16
-1.360466801261966e-03 2.712965770160811e-16 -4.073294277951937e-16
-1.360466801260690e-03 0.000000000000000e+00 0.000000000000000e+00
-9.070747024716974e-04 3.566590598410387e-16 -1.105663392201275e-15
-9.070747024725157e-04 -8.364846204622962e-16 2.941733000660130e-16
-9.070747024724026e-04 2.519604487952961e-16 7.232700098712073e-18
-9.070747024720460e-04 -2.811488016460592e-16 5.281085250600487e-16
-1.360466801260617e-03 5.440281419543477e-16 -2.233946955675838e-16
-1.360466801260517e-03 -1.821693858237830e-16 -1.438659725145900e-16
-1.360466801261159e-03 5.374860847091933e-16 -7.141823840739649e-17
-1.360466801261966e-03 2.712965770160811e-16 -4.073294277951937e-16
-9.070747024725157e-04 -8.364846204622962e-16 2.941733000660130e-16
-9.070747024727678e-04 -1.597613578256863e-17 4.102192730425869e-16
-9.070747024718018e-04 8.357133642956256e-16 9.012523665329920e-16
-9.070747024724026e-04 2.519604487952961e-16 7.232700098712073e-18
-1.360466801260517e-03 -1.821693858237830e-16 -1.438659725145900e-16
-1.360466801260842e-03 6.854490348985413e-16 2.623434596676117e-16
-1.360466801260679e-03 6.948480333283856e-16 6.010424104567725e-17
-1.360466801261159e-03 5.374860847091933e-16 -7.141823840739649e-17
-9.070747024716087e-04 0.000000000000000e+00 0.000000000000000e+00
-9.070747024720460e-04 -2.811488016460592e-16 5.281085250600487e-16
-9.070747024719668e-04 -8.173659089502462e-17 2.306434242064123e-17
-9.070747024716449e-04 0.000000000000000e+00 0.000000000000000e+00
-1.360466801260690e-03 0.000000000000000e+00 0.000000000000000e+00
-1.360466801261966e-03 2.712965770160811e-16 -4.073294277951937e-16
-1.360466801261016e-03 4.659285705939559e-17 1.911372054633900e-16
-1.360466801260954e-03 0.000000000000000e+00 0.000000000000000e+00
-9.070747024720460e-04 -2.811488016460592e-16 5.281085250600487e-16
-9.070747024724026e-04 2.519604487952961e-16 7.232700098712073e-18
-9.070747024718368e-04 -9.945598538990367e-18 -2.827336181754402e-16
-9.070747024719668e-04 -8.173659089502462e-17 2.306434242064123e-17
-1.360466801261966e-03 2.712965770160811e-16 -4.073294277951937e-16
-1.360466801261159e-03 5.374860847091933e-16 -7.141823840739649e-17
-1.360466801261147e-03 7.363468549705323e-16 -1.898905898656892e-17
-1.360466801261016e-03 4.659285705939559e-17 1.911372054633900e-16
-9.070747024724026e-04 2.519604487952961e-16 7.232700098712073e-18
-9.070747024718018e-04 8.357133642956256e-16 9.012523665329920e-16
-9.070747024725827e-04 2.133860967029513e-16 1.482201870391843e-16
-9.070747024718368e-04 -9.945598538990367e-18 -2.827336181754402e-16
-1.360466801261159e-03 5.374860847091933e-16 -7.141823840739649e-17
-1.360466801260679e-03 6.948480333283856e-16 6.010424104567725e-17
-1.360466801260643e-03 2.596101249826536e-16 -2.805195409235785e-16
-1.360466801261147e-03 7.363468549705323e-16 -1.898905898656892e-17
-9.070747024716449e-04 0.000000000000000e+00 0.000000000000000e+00
-9.070747024719668e-04 -8.173659089502462e-17 2.306434242064123e-17
-9.070747024725951e-04 -1.040325035782134e-16 5.076005256384841e-17
-9.070747024719476e-04 0.000000000000000e+00 0.000000000000000e+00
-1.360466801260954e-03 0.000000000000000e+00 0.000000000000000e+00
-1.360466801261016e-03 4.659285705939559e-17 1.911372054633900e-16
-1.360466801260811e-03 3.870444294968011e-16 1.645963348377287e-16
-1.360466801261006e-03 0.000000000000000e+00 0.000000000000000e+00
-9.070747024719668e-04 -8.173659089502462e-17 2.306434242064123e-17
-9.070747024718368e-04 -9.945598538990367e-18 -2.827336181754402e-16
-9.070747024722205e-04 5.152456923602691e-16 -3.093635561723916e-17
-9.070747024725951e-04 -1.040325035782134e-16 5.076005256384841e-17
-1.360466801261016e-03 4.659285705939559e-17 1.911372054633900e-16
-1.360466801261147e-03 7.363468549705323e-16 -1.898905898656892e-17
-1.360466801261308e-03 -1.574075542808271e-16 -6.210023236144329e-16
-1.360466801260811e-03 3.870444294968011e-16 1.645963348377287e-16
-9.070747024718368e-04 -9.945598538990367e-18 -2.827336181754402e-16
-9.070747024725827e-04 2.133860967029513e-16 1.482201870391843e-16
-9.070747024725876e-04 1.648680044208991e-16 -1.994624339337378e-16
-9.070747024722205e-04 5.152456923602691e-16 -3.093635561723916e-17
-1.360466801261147e-03 7.363468549705323e-16 -1.898905898656892e-17
-1.360466801260643e-03 2.596101249826536e-16 -2.805195409235785e-16
-1.360466801261091e-03 9.506934586566232e-16 -2.907996883208956e-17
-1.360466801261308e-03 -1.574075542808271e-16 -6.210023236144329e-16
-9.070747024719476e-04 0.000000000000000e+00 0.000000000000000e+00
-9.070747024725951e-04 -1.040325035782134e-16 5.076005256384841e-17
-9.070747024719912e-04 0.000000000000000e+00 0.000000000000000e+00
-9.070747024722235e-04 0.000000000000000e+00 0.000000000000000e+00
-1.360466801261006e-03 0.000000000000000e+00 0.000000000000000e+00
-1.360466801260811e-03 3.870444294968011e-16 1.645963348377287e-16
-1.360466801261419e-03 0.000000000000000e+00 0.000000000000000e+00
-1.360466801260570e-03 0.000000000000000e+00 0.000000000000000e+00
-9.070747024725951e-04 -1.040325035782134e-16 5.076005256384841e-17
-9.070747024722205e-04 5.152456923602691e-16 -3.093635561723916e-17
-9.070747024719109e-04 0.000000000000000e+00 0.000000000000000e+00
-9.070747024719912e-04 0.000000000000000e+00 0.000000000000000e+00
-1.360466801260811e-03 3.870444294968011e-16 1.645963348377287e-16
-1.360466801261308e-03 -1.574075542808271e-16 -6.210023236144329e-16
-1.360466801260568e-03 0.000000000000000e+00 0.000000000000000e+00
-1.360466801261419e-03 0.000000000000000e+00 0.000000000000000e+00
-9.070747024722205e-04 5.152456923602691e-16 -3.093635561723916e-17
-9.070747024725876e-04 1.648680044208991e-16 -1.994624339337378e-16
-9.070747024720485e-04 0.000000000000000e+00 0.000000000000000e+00
-9.070747024719109e-04 0.000000000000000e+00 0.000000000000000e+00
-1.360466801261308e-03 -1.574075542808271e-16 -6.210023236144329e-16
-1.360466801261091e-03 9.506934586566232e-16 -2.907996883208956e-17
-1.360466801260579e-03 0.000000000000000e+00 0.000000000000000e+00
-1.360466801260568e-03 0.000000000000000e+00 0.000000000000000e+00
-1.360466801259552e-03 0.000000000000000e+00 0.000000000000000e+00
-1.360466801260537e-03 0.000000000000000e+00 0.000000000000000e+00
-1.360466801260617e-03 5.440281419543477e-16 -2.233946955675838e-16
-1.360466801260838e-03 0.000000000000000e+00 0.000000000000000e+00
-1.814801405133439e-03 0.000000000000000e+00 0.000000000000000e+00
-1.814801405133476e-03 0.000000000000000e+00 0.000000000000000e+00
-1.814801405133270e-03 7.034249973248072e-17 4.963213176876843e-17
-1.814801405133088e-03 0.000000000000000e+00 0.000000000000000e+00
-1.360466801260537e-03 0.000000000000000e+00 0.000000000000000e+00
-1.360466801260384e-03 0.000000000000000e+00 0.000000000000000e+00
-1.360466801260517e-03 -1.821693858237830e-16 -1.438659725145900e-16
-1.360466801260617e-03 5.440281419543477e-16 -2.233946955675838e-16
-1.814801405133476e-03 0.000000000000000e+00 0.000000000000000e+00
-1.814801405133180e-03 0.000000000000000e+00 0.000000000000000e+00
-1.814801405132649e-03 1.547942853567560e-16 2.707655253432903e-16
-1.814801405133270e-03 7.034249973248072e-17 4.963213176876843e-17
-1.360466801260384e-03 0.000000000000000e+00 0.000000000000000e+00
-1.360466801260880e-03 0.000000000000000e+00 0.000000000000000e+00
-1.360466801260842e-03 6.854490348985413e-16 2.623434596676117e-16
-1.360466801260517e-03 -1.821693858237830e-16 -1.438659725145900e-16
-1.814801405133180e-03 0.000000000000000e+00 0.000000000000000e+00
-1.814801405133442e-03 0.000000000000000e+00 0.000000000000000e+00
-1.814801405132633e-03 -4.776686640559282e-16 4.300741978807861e-16
-1.814801405132649e-03 1.547942853567560e-16 2.707655253432903e-16
-1.360466801260838e-03 0.000000000000000e+00 0.000000000000000e+00
-1.360466801260617e-03 5.440281419543477e-16 -2.233946955675838e-16
-1.360466801261966e-03 2.712965770160811e-16 -4.073294277951937e-16
-1.360466801260690e-03 0.000000000000000e+00 0.000000000000000e+00
-1.814801405133088e-03 0.000000000000000e+00 0.000000000000000e+00
-1.814801405133270e-03 7.034249973248072e-17 4.963213176876843e-17
-1.814801405133475e-03 1.367988952261064e-16 3.598499266085796e-16
-1.814801405133230e-03 0.000000000000000e+00 0.000000000000000e+00
-1.360466801260617e-03 5.440281419543477e-16 -2.233946955675838e-16
-1.360466801260517e-03 -1.821693858237830e-16 -1.438659725145900e-16
-1.360466801261159e-03 5.374860847091933e-16 -7.141823840739649e-17
-1.360466801261966e-03 2.712965770160811e-16 -4.073294277951937e-16
-1.814801405133270e-03 7.034249973248072e-17 4.963213176876843e-17
-1.814801405132649e-03 1.547942853567560e-16 2.707655253432903e-16
-1.814801405132922e-03 8.397294923247209e-16 -1.847604465441028e-16
-1.814801405133475e-03 1.367988952261064e-16 3.598499266085796e-16
-1.360466801260517e-03 -1.821693858237830e-16 -1.438659725145900e-16
-1.360466801260842e-03 6.854490348985413e-16 2.623434596676117e-16
-1.360466801260679e-03 6.948480333283856e-16 6.010424104567725e-17
-1.360466801261159e-03 5.374860847091933e-16 -7.141823840739649e-17
-1.814801405132649e-03 1.547942853567560e-16 2.707655253432903e-16
-1.814801405132633e-03 -4.776686640559282e-16 4.300741978807861e-16
-1.814801405133487e-03 1.095387649074805e-15 -8.863038377945227e-17
-1.814801405132922e-03 8.397294923247209e-16 -1.847604465441028e-16
-1.360466801260690e-03 0.000000000000000e+00 0.000000000000000e+00
-1.360466801261966e-03 2.712965770160811e-16 -4.073294277951937e-16
-1.360466801261016e-03 4.659285705939559e-17 1.911372054633900e-16
-1.360466801260954e-03 0.000000000000000e+00 0.000000000000000e+00
-1.814801405133230e-03 0.000000000000000e+00 0.000000000000000e+00
-1.814801405133475e-03 1.367988952261064e-16 3.598499266085796e-16
-1.814801405133630e-03 1.946917180547508e-16 5.373648386730224e-16
-1.814801405132244e-03 0.000000000000000e+00 0.000000000000000e+00
-1.360466801261966e-03 2.712965770160811e-16 -4.073294277951937e-16
-1.360466801261159e-03 5.374860847091933e-16 -7.141823840739649e-17
-1.360466801261147e-03 7.363468549705323e-16 -1.898905898656892e-17
-1.360466801261016e-03 4.659285705939559e-17 1.911372054633900e-16
-1.814801405133475e-03 1.367988952261064e-16 3.598499266085796e-16
-1.814801405132922e-03 8.397294923247209e-16 -1.847604465441028e-16
-1.814801405132746e-03 -4.422472295835756e-16 -1.442360381539519e-17
-1.814801405133630e-03 1.946917180547508e-16 5.373648386730224e-16
-1.360466801261159e-03 5.374860847091933e-16 -7.141823840739649e-17
-1.360466801260679e-03 6.948480333283856e-16 6.010424104567725e-17
-1.360466801260643e-03 2.596101249826536e-16 -2.805195409235785e-16
-1.360466801261147e-03 7.363468549705323e-16 -1.898905898656892e-17
-1.814801405132922e-03 8.397294923247209e-16 -1.847604465441028e-16
-1.814801405133487e-03 1.095387649074805e-15 -8.863038377945227e-17
-1.814801405132446e-03 3.617934068135430e-16 6.742130962035172e-17
-1.814801405132746e-03 -4.422472295835756e-16 -1.442360381539519e-17
-1.360466801260954e-03 0.000000000000000e+00 0.000000000000000e+00
-1.360466801261016e-03 4.659285705939559e-17 1.911372054633900e-16
-1.360466801260811e-03 3.870444294968011e-16 1.645963348377287e-16
-1.360466801261006e-03 0.000000000000000e+00 0.000000000000000e+00
-1.814801405132244e-03 0.000000000000000e+00 0.000000000000000e+00
-1.814801405133630e-03 1.946917180547508e-16 5.373648386730224e-16
-1.814801405133754e-03 1.501322288748044e-16 -7.691124829352477e-17
-1.814801405132268e-03 0.000000000000000e+00 0.000000000000000e+00
-1.360466801261016e-03 4.659285705939559e-17 1.911372054633900e-16
-1.360466801261147e-03 7.363468549705323e-16 -1.898905898656892e-17
-1.360466801261308e-03 -1.574075542808271e-16 -6.210023236144329e-16
-1.360466801260811e-03 3.870444294968011e-16 1.645963348377287e-16
-1.814801405133630e-03 1.946917180547508e-16 5.373648386730224e-16
-1.814801405132746e-03 -4.422472295835756e-16 -1.442360381539519e-17
-1.814801405132513e-03 8.236016459270562e-16 -3.260117089344545e-16
-1.814801405133754e-03 1.501322288748044e-16 -7.691124829352477e-17
-1.360466801261147e-03 7.363468549705323e-16 -1.898905898656892e-17
-1.360466801260643e-03 2.596101249826536e-16 -2.805195409235785e-16
-1.360466801261091e-03 9.506934586566232e-16 -2.907996883208956e-17
-1.360466801261308e-03 -1.574075542808271e-16 -6.210023236144329e-16
-1.814801405132746e-03 -4.422472295835756e-16 -1.442360381539519e-17
-1.814801405132446e-03 3.617934068135430e-16 6.742130962035172e-17
-1.814801405133545e-03 -3.058390193858612e-17 7.820188217914047e-17
-1.814801405132513e-03 8.236016459270562e-16 -3.260117089344545e-16
-1.360466801261006e-03 0.000000000000000e+00 0.000000000000000e+00
-1.360466801260811e-03 3.870444294968011e-16 1.645963348377287e-16
-1.360466801261419e-03 0.000000000000000e+00 0.000000000000000e+00
-1.360466801260570e-03 0.000000000000000e+00 0.000000000000000e+00
-1.814801405132268e-03 0.000000000000000e+00 0.000000000000000e+00
-1.814801405133754e-03 1.501322288748044e-16 -7.691124829352477e-17
-1.814801405133412e-03 0.000000000000000e+00 0.000000000000000e+00
-1.814801405133067e-03 0.000000000000000e+00 0.000000000000000e+00
-1.360466801260811e-03 3.870444294968011e-16 1.645963348377287e-16
-1.360466801261308e-03 -1.574075542808271e-16 -6.210023236144329e-16
-1.360466801260568e-03 0.000000000000000e+00 0.000000000000000e+00
-1.360466801261419e-03 0.000000000000000e+00 0.000000000000000e+00
-1.814801405133754e-03 1.501322288748044e-16 -7.691124829352477e-17
-1.814801405132513e-03 8.236016459270562e-16 -3.260117089344545e-16
-1.814801405132715e-03 0.000000000000000e+00 0.000000000000000e+00
-1.814801405133412e-03 0.000000000000000e+00 0.000000000000000e+00
-1.360466801261308e-03 -1.574075542808271e-16 -6.210023236144329e-16
-1.360466801261091e-03 9.506934586566232e-16 -2.907996883208956e-17
-1.360466801260579e-03 0.000000000000000e+00 0.000000000000000e+00
-1.360466801260568e-03 0.000000000000000e+00 0.000000000000000e+00
-1.814801405132513e-03 8.236016459270562e-16 -3.260117089344545e-16
-1.814801405133545e-03 -3.058390193858612e-17 7.820188217914047e-17
-1.814801405132797e-03 0.000000000000000e+00 0.000000000000000e+00
-1.814801405132715e-03 0.000000000000000e+00 0.000000000000000e+00
-1.814801405133439e-03 0.000000000000000e+00 0.000000000000000e+00
-1.814801405133476e-03 0.000000000000000e+00 0.000000000000000e+00
-1.814801405133270e-03 7.034249973248072e-17 4.963213176876843e-17
-1.814801405133088e-03 0.000000000000000e+00 0.000000000000000e+00
-2.270846922507602e-03 0.000000000000000e+00 0.000000000000000e+00
-2.270846922507545e-03 0.000000000000000e+00 0.000000000000000e+00
-2.270846922508240e-03 1.298550398185914e-16 9.591236822415578e-18
-2.270846922506590e-03 0.000000000000000e+00 0.000000000000000e+00
-1.814801405133476e-03 0.000000000000000e+00 0.000000000000000e+00
-1.814801405133180e-03 0.000000000000000e+00 0.000000000000000e+00
-1.814801405132649e-03 1.547942853567560e-16 2.707655253432903e-16
-1.814801405133270e-03 7.034249973248072e-17 4.963213176876843e-17
-2.270846922507545e-03 0.000000000000000e+00 0.000000000000000e+00
-2.270846922506640e-03 0.000000000000000e+00 0.000000000000000e+00
-2.270846922507830e-03 -4.548178272299865e-17 3.398456095718645e-17
-2.270846922508240e-03 1.298550398185914e-16 9.591236822415578e-18
-1.814801405133180e-03 0.000000000000000e+00 0.000000000000000e+00
-1.814801405133442e-03 0.000000000000000e+00 0.000000000000000e+00
-1.814801405132633e-03 -4.776686640559282e-16 4.300741978807861e-16
-1.814801405132649e-03 1.547942853567560e-16 2.707655253432903e-16
-2.270846922506640e-03 0.000000000000000e+00 0.000000000000000e+00
-2.270846922506292e-03 0.000000000000000e+00 0.000000000000000e+00
-2.270846922508740e-03 6.111654494030197e-16 -2.937288231963122e-16
-2.270846922507830e-03 -4.548178272299865e-17 3.398456095718645e-17
-1.814801405133088e-03 0.000000000000000e+00 0.000000000000000e+00
-1.814801405133270e-03 7.034249973248072e-17 4.963213176876843e-17
-1.814801405133475e-03 1.367988952261064e-16 3.598499266085796e-16
-1.814801405133230e-03 0.000000000000000e+00 0.000000000000000e+00
-2.270846922506590e-03 0.000000000000000e+00 0.000000000000000e+00
-2.270846922508240e-03 1.298550398185914e-16 9.591236822415578e-18
-2.270846922509690e-03 2.032348238961037e-16 -1.544291555700241e-16
-2.270846922507443e-03 0.000000000000000e+00 0.000000000000000e+00
-1.814801405133270e-03 7.034249973248072e-17 4.963213176876843e-17
-1.814801405132649e-03 1.547942853567560e-16 2.707655253432903e-16
-1.814801405132922e-03 8.397294923247209e-16 -1.847604465441028e-16
-1.814801405133475e-03 1.367988952261064e-16 3.598499266085796e-16
-2.270846922508240e-03 1.298550398185914e-16 9.591236822415578e-18
-2.270846922507830e-03 -4.548178272299865e-17 3.398456095718645e-17
-2.270846922508420e-03 6.322905514003109e-17 -3.067990302375268e-16
-2.270846922509690e-03 2.032348238961037e-16 -1.544291555700241e-16
-1.814801405132649e-03 1.547942853567560e-16 2.707655253432903e-16
-1.814801405132633e-03 -4.776686640559282e-16 4.300741978807861e-16
-1.814801405133487e-03 1.095387649074805e-15 -8.863038377945227e-17
-1.814801405132922e-03 8.397294923247209e-16 -1.847604465441028e-16
-2.270846922507830e-03 -4.548178272299865e-17 3.398456095718645e-17
-2.270846922508740e-03 6.111654494030197e-16 -2.937288231963122e-16
-2.270846922507120e-03 6.568396951295748e-16 -2.582750060439580e-17
-2.270846922508420e-03 6.322905514003109e-17 -3.067990302375268e-16
-1.814801405133230e-03 0.000000000000000e+00 0.000000000000000e+00
-1.814801405133475e-03 1.367988952261064e-16 3.598499266085796e-16
-1.814801405133630e-03 1.946917180547508e-16 5.373648386730224e-16
-1.814801405132244e-03 0.000000000000000e+00 0.000000000000000e+00
-2.270846922507443e-03 0.000000000000000e+00 0.000000000000000e+00
-2.270846922509690e-03 2.032348238961037e-16 -1.544291555700241e-16
-2.270846922507647e-03 8.217045540553489e-16 3.835557195805262e-16
-2.270846922508407e-03 0.000000000000000e+00 0.000000000000000e+00
-1.814801405133475e-03 1.367988952261064e-16 3.598499266085796e-16
-1.814801405132922e-03 8.397294923247209e-16 -1.847604465441028e-16
-1.814801405132746e-03 -4.422472295835756e-16 -1.442360381539519e-17
-1.814801405133630e-03 1.946917180547508e-16 5.373648386730224e-16
-2.270846922509690e-03 2.032348238961037e-16 -1.544291555700241e-16
-2.270846922508420e-03 6.322905514003109e-17 -3.067990302375268e-16
-2.270846922507758e-03 -6.421269597104823e-17 -2.475070455400475e-16
-2.270846922507647e-03 8.217045540553489e-16 3.835557195805262e-16
-1.814801405132922e-03 8.397294923247209e-16 -1.847604465441028e-16
-1.814801405133487e-03 1.095387649074805e-15 -8.863038377945227e-17
-1.814801405132446e-03 3.617934068135430e-16 6.742130962035172e-17
-1.814801405132746e-03 -4.422472295835756e-16 -1.442360381539519e-17
-2.270846922508420e-03 6.322905514003109e-17 -3.067990302375268e-16
-2.270846922507120e-03 6.568396951295748e-16 -2.582750060439580e-17
-2.270846922507012e-03 -4.700124860015104e-17 -5.615888143113795e-16
-2.270846922507758e-03 -6.421269597104823e-17 -2.475070455400475e-16
-1.814801405132244e-03 0.000000000000000e+00 0.000000000000000e+00
-1.814801405133630e-03 1.946917180547508e-16 5.373648386730224e-16
-1.814801405133754e-03 1.501322288748044e-16 -7.691124829352477e-17
-1.814801405132268e-03 0.000000000000000e+00 0.000000000000000e+00
-2.270846922508407e-03 0.000000000000000e+00 0.000000000000000e+00
-2.270846922507647e-03 8.217045540553489e-16 3.835557195805262e-16
-2.270846922507452e-03 1.757823336593331e-18 -3.506453063575924e-16
-2.270846922508580e-03 0.000000000000000e+00 0.000000000000000e+00
-1.814801405133630e-03 1.946917180547508e-16 5.373648386730224e-16
-1.814801405132746e-03 -4.422472295835756e-16 -1.442360381539519e-17
-1.814801405132513e-03 8.236016459270562e-16 -3.260117089344545e-16
-1.814801405133754e-03 1.501322288748044e-16 -7.691124829352477e-17
-2.270846922507647e-03 8.217045540553489e-16 3.835557195805262e-16
-2.270846922507758e-03 -6.421269597104823e-17 -2.475070455400475e-16
-2.270846922508087e-03 1.230601971141918e-16 -2.319310729027219e-16
-2.270846922507452e-03 1.757823336593331e-18 -3.506453063575924e-16
-1.814801405132746e-03 -4.422472295835756e-16 -1.442360381539519e-17
-1.814801405132446e-03 3.617934068135430e-16 6.742130962035172e-17
-1.814801405133545e-03 -3.058390193858612e-17 7.820188217914047e-17
-1.814801405132513e-03 8.236016459270562e-16 -3.260117089344545e-16
-2.270846922507758e-03 -6.421269597104823e-17 -2.475070455400475e-16
-2.270846922507012e-03 -4.700124860015104e-17 -5.615888143113795e-16
-2.270846922508282e-03 6.243706181391896e-16 2.854055328221602e-16
-2.270846922508087e-03 1.230601971141918e-16 -2.319310729027219e-16
-1.814801405132268e-03 0.000000000000000e+00 0.000000000000000e+00
-1.814801405133754e-03 1.501322288748044e-16 -7.691124829352477e-17
-1.814801405133412e-03 0.000000000000000e+00 0.000000000000000e+00
-1.814801405133067e-03 0.000000000000000e+00 0.000000000000000e+00
-2.270846922508580e-03 0.000000000000000e+00 0.000000000000000e+00
-2.270846922507452e-03 1.757823336593331e-18 -3.506453063575924e-16
-2.270846922508743e-03 0.000000000000000e+00 0.000000000000000e+00
-2.270846922507724e-03 0.000000000000000e+00 0.000000000000000e+00
-1.814801405133754e-03 1.501322288748044e-16 -7.691124829352477e-17
-1.814801405132513e-03 8.236016459270562e-16 -3.260117089344545e-16
-1.814801405132715e-03 0.000000000000000e+00 0.000000000000000e+00
-1.814801405133412e-03 0.000000000000000e+00 0.000000000000000e+00
-2.270846922507452e-03 1.757823336593331e-18 -3.506453063575924e-16
-2.270846922508087e-03 1.230601971141918e-16 -2.319310729027219e-16
-2.270846922507820e-03 0.000000000000000e+00 0.000000000000000e+00
-2.270846922508743e-03 0.000000000000000e+00 0.000000000000000e+00
-1.814801405132513e-03 8.236016459270562e-16 -3.260117089344545e-16
-1.814801405133545e-03 -3.058390193858612e-17 7.820188217914047e-17
-1.814801405132797e-03 0.000000000000000e+00 0.000000000000000e+00
-1.814801405132715e-03 0.000000000000000e+00 0.000000000000000e+00
-2.270846922508087e-03 1.230601971141918e-16 -2.319310729027219e-16
-2.270846922508282e-03 6.243706181391896e-16 2.854055328221602e-16
-2.270846922507125e-03 0.000000000000000e+00 0.000000000000000e+00
-2.270846922507820e-03 0.000000000000000e+00 0.000000000000000e+00
        </DataArray>
        <DataArray type="Float64" Name="nodal_GL_strains_xyz" NumberOfComponents="6" format="ascii">
-2.268874572014633e-04 2.017261133810714e-16 1.908374665798256e-16 -2.296213520271956e-17 -2.978075028736849e-16 3.527574059940317e-18
-2.268874572014782e-04 4.678592641235994e-16 1.583669685928393e-16 -4.504219626201493e-17 2.169226675145706e-16 8.153309749658032e-18
-2.268874572020945e-04 -1.909351877882007e-16 -2.003650325309154e-16 -3.306846600660657e-16 -5.144399587956400e-17 -1.883506940560211e-17
-2.268874572014950e-04 -4.488041322214201e-16 -5.124817685536119e-16 -2.936367415314668e-16 1.869437193742597e-16 2.700188415098996e-16
-2.267429635923341e-04 4.096259511920302e-16 -8.544445620713583e-16 2.407324902964088e-16 -2.412511107027162e-16 1.089199467326920e-16
-2.267429635908432e-04 -5.016908429607413e-16 -9.478705346902256e-17 9.185878593070370e-17 8.948560033691033e-17 5.440679652941538e-17
-2.267429635914969e-04 -2.388269046904735e-16 1.065743593974154e-17 -2.341518829750043e-16 6.154528918420115e-17 9.617779952511860e-17
-2.267429635914303e-04 3.571039409673414e-16 9.106851143318814e-17 1.964924639004733e-16 2.417684418570130e-16 -2.475866559456876e-16
-2.268874572014782e-04 4.678592641235994e-16 1.583669685928393e-16 -4.504219626201493e-17 2.169226675145706e-16 8.153309749658032e-18
-2.268874572015857e-04 -2.775557561562891e-17 1.110223024625156e-16 5.511791592911520e-16 -6.469435566998561e-17 1.405913965518647e-17
-2.268874572021087e-04 7.991288532568503e-17 -4.770936664495641e-17 -2.522153319984414e-16 -2.967142195897516e-17 -3.455276600348585e-17
-2.268874572020945e-04 -1.909351877882007e-16 -2.003650325309154e-16 -3.306846600660657e-16 -5.144399587956400e-17 -1.883506940560211e-17
-2.267429635908432e-04 -5.016908429607413e-16 -9.478705346902256e-17 9.185878593070370e-17 8.948560033691033e-17 5.440679652941538e-17
-2.267429635922379e-04 -2.091631974527397e-16 -9.950197584037979e-17 -2.427017809220388e-16 2.936351602186816e-17 3.002775423826067e-17
-2.267429635909841e-04 1.880306758305730e-16 -1.088471915341533e-16 -3.870598598175675e-16 -1.192120306015152e-16 1.741646600378359e-16
-2.267429635914969e-04 -2.388269046904735e-16 1.065743593974154e-17 -2.341518829750043e-16 6.154528918420115e-17 9.617779952511860e-17
-2.268874572015857e-04 -2.775557561562891e-17 1.110223024625156e-16 5.511791592911520e-16 -6.469435566998561e-17 1.405913965518647e-17
-2.268874572022499e-04 4.373815268076591e-16 -1.110223024625156e-16 3.714222365453490e-16 -7.542709879170907e-18 2.849589893044035e-18
-2.268874572023697e-04 -7.855180447552936e-17 -1.759632984364885e-17 -2.074417051978749e-16 -3.064135571670398e-17 -3.637078092784897e-17
-2.268874572021087e-04 7.991288532568503e-17 -4.770936664495641e-17 -2.522153319984414e-16 -2.967142195897516e-17 -3.455276600348585e-17
-2.267429635922379e-04 -2.091631974527397e-16 -9.950197584037979e-17 -2.427017809220388e-16 2.936351602186816e-17 3.002775423826067e-17
-2.267429635918446e-04 1.475760429999691e-16 1.235390094201744e-16 1.634611174307126e-17 -4.204048808859505e-17 1.666532695213705e-16
-2.267429635916631e-04 2.979719689086242e-17 -3.537500994461400e-17 -6.446766625548610e-17 4.386415116543293e-17 -6.032300678094627e-17
-2.267429635909841e-04 1.880306758305730e-16 -1.088471915341533e-16 -3.870598598175675e-16 -1.192120306015152e-16 1.741646600378359e-16
-2.268874572014950e-04 -4.488041322214201e-16 -5.124817685536119e-16 -2.936367415314668e-16 1.869437193742597e-16 2.700188415098996e-16
-2.268874572020945e-04 -1.909351877882007e-16 -2.003650325309154e-16 -3.306846600660657e-16 -5.144399587956400e-17 -1.883506940560211e-17
-2.268874572019932e-04 -2.251314671399753e-16 -7.855180447552936e-17 -1.895009639396190e-16 8.659076849859856e-17 1.286863585629995e-16
-2.268874572014489e-04 -2.904371636285806e-16 6.695853775046707e-16 3.519473523419140e-17 1.203536664853130e-16 -1.169503327255190e-16
-2.267429635914303e-04 3.571039409673414e-16 9.106851143318814e-17 1.964924639004733e-16 2.417684418570130e-16 -2.475866559456876e-16
-2.267429635914969e-04 -2.388269046904735e-16 1.065743593974154e-17 -2.341518829750043e-16 6.154528918420115e-17 9.617779952511860e-17
-2.267429635913256e-04 5.401658072797331e-17 -2.747001048028489e-16 -5.109363798746932e-17 -3.219607408920996e-17 5.962967468412738e-17
-2.267429635918087e-04 2.362870932474785e-16 4.535190545927772e-17 -1.933866696207595e-16 -5.646551654624413e-17 5.110954265000995e-16
-2.268874572020945e-04 -1.909351877882007e-16 -2.003650325309154e-16 -3.306846600660657e-16 -5.144399587956400e-17 -1.883506940560211e-17
-2.268874572021087e-04 7.991288532568503e-17 -4.770936664495641e-17 -2.522153319984414e-16 -2.967142195897516e-17 -3.455276600348585e-17
-2.268874572024547e-04 -1.123833833126713e-16 2.616852076774286e-16 6.167844238381582e-17 1.032806536566916e-19 5.496271244446767e-18
-2.268874572019932e-04 -2.251314671399753e-16 -7.855180447552936e-17 -1.895009639396190e-16 8.659076849859856e-17 1.286863585629995e-16
-2.267429635914969e-04 -2.388269046904735e-16 1.065743593974154e-17 -2.341518829750043e-16 6.154528918420115e-17 9.617779952511860e-17
-2.267429635909841e-04 1.880306758305730e-16 -1.088471915341533e-16 -3.870598598175675e-16 -1.192120306015152e-16 1.741646600378359e-16
-2.267429635914427e-04 1.264435213778021e-16 9.193140211558228e-17 8.017235025617425e-17 -7.519565792640085e-17 -1.373663756103384e-17
-2.267429635913256e-04 5.401658072797331e-17 -2.747001048028489e-16 -5.109363798746932e-17 -3.219607408920996e-17 5.962967468412738e-17
-2.268874572021087e-04 7.991288532568503e-17 -4.770936664495641e-17 -2.522153319984414e-16 -2.967142195897516e-17 -3.455276600348585e-17
-2.268874572023697e-04 -7.855180447552936e-17 -1.759632984364885e-17 -2.074417051978749e-16 -3.064135571670398e-17 -3.637078092784897e-17
-2.268874572023663e-04 -1.401389589283003e-16 2.366517937621111e-16 8.663078631658464e-17 2.539964132383108e-17 1.547370549533663e-16
-2.268874572024547e-04 -1.123833833126713e-16 2.616852076774286e-16 6.167844238381582e-17 1.032806536566916e-19 5.496271244446767e-18
-2.267429635909841e-04 1.880306758305730e-16 -1.088471915341533e-16 -3.870598598175675e-16 -1.192120306015152e-16 1.741646600378359e-16
-2.267429635916631e-04 2.979719689086242e-17 -3.537500994461400e-17 -6.446766625548610e-17 4.386415116543293e-17 -6.032300678094627e-17
-2.267429635908419e-04 -3.419627935177464e-17 -2.252649567931041e-16 2.079784803802401e-16 -1.930943211438380e-17 1.082466699911770e-16
-2.267429635914427e-04 1.264435213778021e-16 9.193140211558228e-17 8.017235025617425e-17 -7.519565792640085e-17 -1.373663756103384e-17
-2.268874572014489e-04 -2.904371636285806e-16 6.695853775046707e-16 3.519473523419140e-17 1.203536664853130e-16 -1.169503327255190e-16
-2.268874572019932e-04 -2.251314671399753e-16 -7.855180447552936e-17 -1.895009639396190e-16 8.659076849859856e-17 1.286863585629995e-16
-2.268874572019740e-04 -1.682592350585617e-16 3.199185206089978e-16 8.006702756050280e-17 2.664857966097885e-17 -5.359771746910823e-17
-2.268874572023359e-04 1.950184303386676e-16 -3.154705775438980e-16 1.500989363276292e-16 -5.108093188486057e-17 -1.132074076004512e-17
-2.267429635918087e-04 2.362870932474785e-16 4.535190545927772e-17 -1.933866696207595e-16 -5.646551654624413e-17 5.110954265000995e-16
-2.267429635913256e-04 5.401658072797331e-17 -2.747001048028489e-16 -5.109363798746932e-17 -3.219607408920996e-17 5.962967468412738e-17
-2.267429635917057e-04 4.199806393807598e-17 9.882143541530207e-17 6.714324890028037e-17 -1.709901891180947e-16 3.445138510767961e-17
-2.267429635914458e-04 -1.909351877882007e-16 6.839255870354923e-17 -2.179878511034781e-16 3.405921715485341e-17 -7.515423830710047e-17
-2.268874572019932e-04 -2.251314671399753e-16 -7.855180447552936e-17 -1.895009639396190e-16 8.659076849859856e-17 1.286863585629995e-16
-2.268874572024547e-04 -1.123833833126713e-16 2.616852076774286e-16 6.167844238381582e-17 1.032806536566916e-19 5.496271244446767e-18
-2.268874572023880e-04 -2.367233306516190e-17 -2.894407832930575e-16 1.226585115395877e-16 4.765107454776091e-17 -1.132455420920910e-16
-2.268874572019740e-04 -1.682592350585617e-16 3.199185206089978e-16 8.006702756050280e-17 2.664857966097885e-17 -5.359771746910823e-17
-2.267429635913256e-04 5.401658072797331e-17 -2.747001048028489e-16 -5.109363798746932e-17 -3.219607408920996e-17 5.962967468412738e-17
-2.267429635914427e-04 1.264435213778021e-16 9.193140211558228e-17 8.017235025617425e-17 -7.519565792640085e-17 -1.373663756103384e-17
-2.267429635913679e-04 6.362877572800444e-17 -5.092971851302929e-17 3.738046551791082e-17 4.040889551430797e-17 -3.896597632703450e-17
-2.267429635917057e-04 4.199806393807598e-17 9.882143541530207e-17 6.714324890028037e-17 -1.709901891180947e-16 3.445138510767961e-17
-2.268874572024547e-04 -1.123833833126713e-16 2.616852076774286e-16 6.167844238381582e-17 1.032806536566916e-19 5.496271244446767e-18
-2.268874572023663e-04 -1.401389589283003e-16 2.366517937621111e-16 8.663078631658464e-17 2.539964132383108e-17 1.547370549533663e-16
-2.268874572022120e-04 -2.044482750813824e-16 -2.224093054396640e-16 -2.035775781441676e-17 1.150587594329175e-17 5.015605311621255e-17
-2.268874572023880e-04 -2.367233306516190e-17 -2.894407832930575e-16 1.226585115395877e-16 4.765107454776091e-17 -1.132455420920910e-16
-2.267429635914427e-04 1.264435213778021e-16 9.193140211558228e-17 8.017235025617425e-17 -7.519565792640085e-17 -1.373663756103384e-17
-2.267429635908419e-04 -3.419627935177464e-17 -2.252649567931041e-16 2.079784803802401e-16 -1.930943211438380e-17 1.082466699911770e-16
-2.267429635915496e-04 5.922969326709217e-17 -3.417315826562425e-16 -1.005421195025126e-16 -9.987084790667281e-17 1.272661654868049e-16
-2.267429635913679e-04 6.362877572800444e-17 -5.092971851302929e-17 3.738046551791082e-17 4.040889551430797e-17 -3.896597632703450e-17
-2.268874572023359e-04 1.950184303386676e-16 -3.154705775438980e-16 1.500989363276292e-16 -5.108093188486057e-17 -1.132074076004512e-17
-2.268874572019740e-04 -1.682592350585617e-16 3.199185206089978e-16 8.006702756050280e-17 2.664857966097885e-17 -5.359771746910823e-17
-2.268874572019777e-04 3.767907526904111e-16 -1.178277067132941e-16 -9.944924174741088e-18 -6.645269118809159e-17 4.535254025628263e-17
-2.268874572014802e-04 -2.782851571855544e-16 2.247667666253427e-16 2.308753371294369e-16 -1.979587107410490e-17 -3.976939268635786e-17
-2.267429635914458e-04 -1.909351877882007e-16 6.839255870354923e-17 -2.179878511034781e-16 3.405921715485341e-17 -7.515423830710047e-17
-2.267429635917057e-04 4.199806393807598e-17 9.882143541530207e-17 6.714324890028037e-17 -1.709901891180947e-16 3.445138510767961e-17
-2.267429635913447e-04 -2.161509519608344e-16 -2.328843911220893e-16 -8.351278311914560e-17 4.284710294949410e-17 -1.683473111777673e-16
-2.267429635920023e-04 2.539811442995016e-17 -3.957481633842158e-16 -8.973309264255554e-17 -2.011339135489864e-16 2.463140806699921e-16
-2.268874572019740e-04 -1.682592350585617e-16 3.199185206089978e-16 8.006702756050280e-17 2.664857966097885e-17 -5.359771746910823e-17
-2.268874572023880e-04 -2.367233306516190e-17 -2.894407832930575e-16 1.226585115395877e-16 4.765107454776091e-17 -1.132455420920910e-16
-2.268874572018430e-04 1.723162932901640e-17 4.571660597391047e-17 -1.651960169923022e-18 -1.298152471213806e-17 4.618497637397600e-19
-2.268874572019777e-04 3.767907526904111e-16 -1.178277067132941e-16 -9.944924174741088e-18 -6.645269118809159e-17 4.535254025628263e-17
-2.267429635917057e-04 4.199806393807598e-17 9.882143541530207e-17 6.714324890028037e-17 -1.709901891180947e-16 3.445138510767961e-17
-2.267429635913679e-04 6.362877572800444e-17 -5.092971851302929e-17 3.738046551791082e-17 4.040889551430797e-17 -3.896597632703450e-17
-2.267429635916116e-04 -2.503341391531762e-17 2.797797276888390e-16 -2.288173802317757e-17 -3.593026481962396e-18 5.888247340051265e-19
-2.267429635913447e-04 -2.161509519608344e-16 -2.328843911220893e-16 -8.351278311914560e-17 4.284710294949410e-17 -1.683473111777673e-16
-2.268874572023880e-04 -2.367233306516190e-17 -2.894407832930575e-16 1.226585115395877e-16 4.765107454776091e-17 -1.132455420920910e-16
-2.268874572022120e-04 -2.044482750813824e-16 -2.224093054396640e-16 -2.035775781441676e-17 1.150587594329175e-17 5.015605311621255e-17
-2.268874572020769e-04 2.603241268272730e-16 -1.882130260878893e-16 2.415132846909796e-16 -3.104147429453085e-18 -3.041093682027667e-16
-2.268874572018430e-04 1.723162932901640e-17 4.571660597391047e-17 -1.651960169923022e-18 -1.298152471213806e-17 4.618497637397600e-19
-2.267429635913679e-04 6.362877572800444e-17 -5.092971851302929e-17 3.738046551791082e-17 4.040889551430797e-17 -3.896597632703450e-17
-2.267429635915496e-04 5.922969326709217e-17 -3.417315826562425e-16 -1.005421195025126e-16 -9.987084790667281e-17 1.272661654868049e-16
-2.267429635913715e-04 5.805096267425278e-17 4.119834123777090e-16 -2.476858385612436e-16 -6.205075950440883e-17 -1.729092852036435e-16
-2.267429635916116e-04 -2.503341391531762e-17 2.797797276888390e-16 -2.288173802317757e-17 -3.593026481962396e-18 5.888247340051265e-19
-2.268874572014802e-04 -2.782851571855544e-16 2.247667666253427e-16 2.308753371294369e-16 -1.979587107410490e-17 -3.976939268635786e-17
-2.268874572019777e-04 3.767907526904111e-16 -1.178277067132941e-16 -9.944924174741088e-18 -6.645269118809159e-17 4.535254025628263e-17
-2.268874572015125e-04 -6.445519635893528e-16 -4.714922371357341e-18 -1.653026852316744e-16 -7.457195220476737e-17 9.063583267438933e-18
-2.268874572032153e-04 -1.516592855504360e-16 -1.502004834919052e-16 -1.756880256970531e-16 6.877514344055880e-17 -1.832339734178238e-16
-2.267429635920023e-04 2.539811442995016e-17 -3.957481633842158e-16 -8.973309264255554e-17 -2.011339135489864e-16 2.463140806699921e-16
-2.267429635913447e-04 -2.161509519608344e-16 -2.328843911220893e-16 -8.351278311914560e-17 4.284710294949410e-17 -1.683473111777673e-16
-2.267429635916144e-04 4.600574795372981e-16 -8.462780769704241e-17 -1.094589084463316e-16 -1.146118259008154e-16 1.459681957780292e-16
-2.267429635920442e-04 5.551115123125778e-17 6.539818083320676e-16 4.371354298673284e-16 2.916158942214199e-16 7.212571532678825e-17
-2.268874572019777e-04 3.767907526904111e-16 -1.178277067132941e-16 -9.944924174741088e-18 -6.645269118809159e-17 4.535254025628263e-17
-2.268874572018430e-04 1.723162932901640e-17 4.571660597391047e-17 -1.651960169923022e-18 -1.298152471213806e-17 4.618497637397600e-19
-2.268874572017421e-04 5.511259909704859e-16 5.750391190230380e-17 -7.014213539155244e-17 -2.699160415734559e-17 5.597000044205762e-17
-2.268874572015125e-04 -6.445519635893528e-16 -4.714922371357341e-18 -1.653026852316744e-16 -7.457195220476737e-17 9.063583267438933e-18
-2.267429635913447e-04 -2.161509519608344e-16 -2.328843911220893e-16 -8.351278311914560e-17 4.284710294949410e-17 -1.683473111777673e-16
-2.267429635916116e-04 -2.503341391531762e-17 2.797797276888390e-16 -2.288173802317757e-17 -3.593026481962396e-18 5.888247340051265e-19
-2.267429635912881e-04 -3.131131163582193e-16 -1.100259221269927e-16 6.679478292358655e-17 -8.852482794246673e-17 -4.961175021708034e-17
-2.267429635916144e-04 4.600574795372981e-16 -8.462780769704241e-17 -1.094589084463316e-16 -1.146118259008154e-16 1.459681957780292e-16
-2.268874572018430e-04 1.723162932901640e-17 4.571660597391047e-17 -1.651960169923022e-18 -1.298152471213806e-17 4.618497637397600e-19
-2.268874572020769e-04 2.603241268272730e-16 -1.882130260878893e-16 2.415132846909796e-16 -3.104147429453085e-18 -3.041093682027667e-16
-2.268874572018159e-04 3.724405308336866e-16 -4.475407725796394e-16 -3.675657378053526e-16 5.917129154384832e-17 -1.290850834086794e-16
-2.268874572017421e-04 5.511259909704859e-16 5.750391190230380e-17 -7.014213539155244e-17 -2.699160415734559e-17 5.597000044205762e-17
-2.267429635916116e-04 -2.503341391531762e-17 2.797797276888390e-16 -2.288173802317757e-17 -3.593026481962396e-18 5.888247340051265e-19
-2.267429635913715e-04 5.805096267425278e-17 4.119834123777090e-16 -2.476858385612436e-16 -6.205075950440883e-17 -1.729092852036435e-16
-2.267429635913293e-04 -3.943870825340601e-16 2.875195595115194e-17 3.395744368023114e-16 2.145384308729527e-16 -1.173023568482811e-16
-2.267429635912881e-04 -3.131131163582193e-16 -1.100259221269927e-16 6.679478292358655e-17 -8.852482794246673e-17 -4.961175021708034e-17
-2.267429635923341e-04 4.096259511920302e-16 -8.544445620713583e-16 2.407324902964088e-16 -2.412511107027162e-16 1.089199467326920e-16
-2.267429635908432e-04 -5.016908429607413e-16 -9.478705346902256e-17 9.185878593070370e-17 8.948560033691033e-17 5.440679652941538e-17
-2.267429635914969e-04 -2.388269046904735e-16 1.065743593974154e-17 -2.341518829750043e-16 6.154528918420115e-17 9.617779952511860e-17
-2.267429635914303e-04 3.571039409673414e-16 9.106851143318814e-17 1.964924639004733e-16 2.417684418570130e-16 -2.475866559456876e-16
-2.266344119127249e-04 -8.415631545990668e-16 -2.024555144103365e-16 7.393724437947150e-16 1.945291822820942e-16 -4.380124206532892e-16
-2.266344119129282e-04 8.022872523613021e-16 -9.206489176871115e-17 -2.279602692939565e-16 -3.803936892954935e-17 7.244140544026299e-17
-2.266344119128703e-04 -4.407353683288607e-16 -8.698526888272101e-17 8.843548300229265e-17 8.610758789163028e-17 -9.167773928926883e-17
-2.266344119128791e-04 -9.478705346902258e-17 7.301761516219185e-16 1.310163411092628e-17 -7.407487980090435e-17 2.992625766822746e-16
-2.267429635908432e-04 -5.016908429607413e-16 -9.478705346902256e-17 9.185878593070370e-17 8.948560033691033e-17 5.440679652941538e-17
-2.267429635922379e-04 -2.091631974527397e-16 -9.950197584037979e-17 -2.427017809220388e-16 2.936351602186816e-17 3.002775423826067e-17
-2.267429635909841e-04 1.880306758305730e-16 -1.088471915341533e-16 -3.870598598175675e-16 -1.192120306015152e-16 1.741646600378359e-16
-2.267429635914969e-04 -2.388269046904735e-16 1.065743593974154e-17 -2.341518829750043e-16 6.154528918420115e-17 9.617779952511860e-17
-2.266344119129282e-04 8.022872523613021e-16 -9.206489176871115e-17 -2.279602692939565e-16 -3.803936892954935e-17 7.244140544026299e-17
-2.266344119128768e-04 -1.513923062441783e-16 -2.867186215927462e-16 3.546729136319791e-16 3.571310337777912e-18 2.491655164259395e-16
-2.266344119127752e-04 2.410020156188357e-16 -2.313898206188048e-16 -4.347438246955311e-17 1.458590726169057e-17 1.004597445612178e-16
-2.266344119128703e-04 -4.407353683288607e-16 -8.698526888272101e-17 8.843548300229265e-17 8.610758789163028e-17 -9.167773928926883e-17
-2.267429635922379e-04 -2.091631974527397e-16 -9.950197584037979e-17 -2.427017809220388e-16 2.936351602186816e-17 3.002775423826067e-17
-2.267429635918446e-04 1.475760429999691e-16 1.235390094201744e-16 1.634611174307126e-17 -4.204048808859505e-17 1.666532695213705e-16
-2.267429635916631e-04 2.979719689086242e-17 -3.537500994461400e-17 -6.446766625548610e-17 4.386415116543293e-17 -6.032300678094627e-17
-2.267429635909841e-04 1.880306758305730e-16 -1.088471915341533e-16 -3.870598598175675e-16 -1.192120306015152e-16 1.741646600378359e-16
-2.266344119128768e-04 -1.513923062441783e-16 -2.867186215927462e-16 3.546729136319791e-16 3.571310337777912e-18 2.491655164259395e-16
-2.266344119126875e-04 2.579666656415943e-16 2.095017136485050e-17 3.951085519959388e-16 8.237515405890125e-17 -1.670982048425268e-16
-2.266344119129011e-04 -1.218620886595735e-16 -1.546972871611925e-16 1.865870538587711e-16 1.184224473389360e-18 5.426313095175515e-17
-2.266344119127752e-04 2.410020156188357e-16 -2.313898206188048e-16 -4.347438246955311e-17 1.458590726169057e-17 1.004597445612178e-16
-2.267429635914303e-04 3.571039409673414e-16 9.106851143318814e-17 1.964924639004733e-16 2.417684418570130e-16 -2.475866559456876e-16
-2.267429635914969e-04 -2.388269046904735e-16 1.065743593974154e-17 -2.341518829750043e-16 6.154528918420115e-17 9.617779952511860e-17
-2.267429635913256e-04 5.401658072797331e-17 -2.747001048028489e-16 -5.109363798746932e-17 -3.219607408920996e-17 5.962967468412738e-17
-2.267429635918087e-04 2.362870932474785e-16 4.535190545927772e-17 -1.933866696207595e-16 -5.646551654624413e-17 5.110954265000995e-16
-2.266344119128791e-04 -9.478705346902258e-17 7.301761516219185e-16 1.310163411092628e-17 -7.407487980090435e-17 2.992625766822746e-16
-2.266344119128703e-04 -4.407353683288607e-16 -8.698526888272101e-17 8.843548300229265e-17 8.610758789163028e-17 -9.167773928926883e-17
-2.266344119129550e-04 -1.474067849020862e-17 2.236011281919368e-17 -3.819356224559975e-17 2.853578402465247e-17 -1.289245241624747e-16
-2.266344119131611e-04 1.875813462669990e-16 -1.868519452377337e-16 5.807117371476951e-17 2.814833142793307e-16 -3.368391232868913e-17
-2.267429635914969e-04 -2.388269046904735e-16 1.065743593974154e-17 -2.341518829750043e-16 6.154528918420115e-17 9.617779952511860e-17
-2.267429635909841e-04 1.880306758305730e-16 -1.088471915341533e-16 -3.870598598175675e-16 -1.192120306015152e-16 1.741646600378359e-16
-2.267429635914427e-04 1.264435213778021e-16 9.193140211558228e-17 8.017235025617425e-17 -7.519565792640085e-17 -1.373663756103384e-17
-2.267429635913256e-04 5.401658072797331e-17 -2.747001048028489e-16 -5.109363798746932e-17 -3.219607408920996e-17 5.962967468412738e-17
-2.266344119128703e-04 -4.407353683288607e-16 -8.698526888272101e-17 8.843548300229265e-17 8.610758789163028e-17 -9.167773928926883e-17
-2.266344119127752e-04 2.410020156188357e-16 -2.313898206188048e-16 -4.347438246955311e-17 1.458590726169057e-17 1.004597445612178e-16
-2.266344119129883e-04 -2.403703357979454e-17 -2.985547881253272e-16 1.344368158004803e-16 -2.263963282368238e-16 -8.622293139521045e-17
-2.266344119129550e-04 -1.474067849020862e-17 2.236011281919368e-17 -3.819356224559975e-17 2.853578402465247e-17 -1.289245241624747e-16
-2.267429635909841e-04 1.880306758305730e-16 -1.088471915341533e-16 -3.870598598175675e-16 -1.192120306015152e-16 1.741646600378359e-16
-2.267429635916631e-04 2.979719689086242e-17 -3.537500994461400e-17 -6.446766625548610e-17 4.386415116543293e-17 -6.032300678094627e-17
-2.267429635908419e-04 -3.419627935177464e-17 -2.252649567931041e-16 2.079784803802401e-16 -1.930943211438380e-17 1.082466699911770e-16
-2.267429635914427e-04 1.264435213778021e-16 9.193140211558228e-17 8.017235025617425e-17 -7.519565792640085e-17 -1.373663756103384e-17
-2.266344119127752e-04 2.410020156188357e-16 -2.313898206188048e-16 -4.347438246955311e-17 1.458590726169057e-17 1.004597445612178e-16
-2.266344119129011e-04 -1.218620886595735e-16 -1.546972871611925e-16 1.865870538587711e-16 1.184224473389360e-18 5.426313095175515e-17
-2.266344119130300e-04 -2.351083626546391e-16 2.675919528010596e-17 1.204920216919498e-16 -1.073303714435480e-16 9.158958386728290e-17
-2.266344119129883e-04 -2.403703357979454e-17 -2.985547881253272e-16 1.344368158004803e-16 -2.263963282368238e-16 -8.622293139521045e-17
-2.267429635918087e-04 2.362870932474785e-16 4.535190545927772e-17 -1.933866696207595e-16 -5.646551654624413e-17 5.110954265000995e-16
-2.267429635913256e-04 5.401658072797331e-17 -2.747001048028489e-16 -5.109363798746932e-17 -3.219607408920996e-17 5.962967468412738e-17
-2.267429635917057e-04 4.199806393807598e-17 9.882143541530207e-17 6.714324890028037e-17 -1.709901891180947e-16 3.445138510767961e-17
-2.267429635914458e-04 -1.909351877882007e-16 6.839255870354923e-17 -2.179878511034781e-16 3.405921715485341e-17 -7.515423830710047e-17
-2.266344119131611e-04 1.875813462669990e-16 -1.868519452377337e-16 5.807117371476951e-17 2.814833142793307e-16 -3.368391232868913e-17
-2.266344119129550e-04 -1.474067849020862e-17 2.236011281919368e-17 -3.819356224559975e-17 2.853578402465247e-17 -1.289245241624747e-16
-2.266344119129178e-04 -1.542121891528646e-17 5.265549987781763e-17 -1.003168517188636e-16 -8.687517201962470e-17 -4.589969478837898e-17
-2.266344119130614e-04 1.327018748566315e-16 1.242684104494398e-16 -2.568225390378148e-17 -5.213012512413467e-17 1.791260606492977e-16
-2.267429635913256e-04 5.401658072797331e-17 -2.747001048028489e-16 -5.109363798746932e-17 -3.219607408920996e-17 5.962967468412738e-17
-2.267429635914427e-04 1.264435213778021e-16 9.193140211558228e-17 8.017235025617425e-17 -7.519565792640085e-17 -1.373663756103384e-17
-2.267429635913679e-04 6.362877572800444e-17 -5.092971851302929e-17 3.738046551791082e-17 4.040889551430797e-17 -3.896597632703450e-17
-2.267429635917057e-04 4.199806393807598e-17 9.882143541530207e-17 6.714324890028037e-17 -1.709901891180947e-16 3.445138510767961e-17
-2.266344119129550e-04 -1.474067849020862e-17 2.236011281919368e-17 -3.819356224559975e-17 2.853578402465247e-17 -1.289245241624747e-16
-2.266344119129883e-04 -2.403703357979454e-17 -2.985547881253272e-16 1.344368158004803e-16 -2.263963282368238e-16 -8.622293139521045e-17
-2.266344119129693e-04 4.603244588435557e-17 -4.181571368075970e-17 9.399853684419128e-17 3.137629468783578e-18 1.860760405066478e-16
-2.266344119129178e-04 -1.542121891528646e-17 5.265549987781763e-17 -1.003168517188636e-16 -8.687517201962470e-17 -4.589969478837898e-17
-2.267429635914427e-04 1.264435213778021e-16 9.193140211558228e-17 8.017235025617425e-17 -7.519565792640085e-17 -1.373663756103384e-17
-2.267429635908419e-04 -3.419627935177464e-17 -2.252649567931041e-16 2.079784803802401e-16 -1.930943211438380e-17 1.082466699911770e-16
-2.267429635915496e-04 5.922969326709217e-17 -3.417315826562425e-16 -1.005421195025126e-16 -9.987084790667281e-17 1.272661654868049e-16
-2.267429635913679e-04 6.362877572800444e-17 -5.092971851302929e-17 3.738046551791082e-17 4.040889551430797e-17 -3.896597632703450e-17
-2.266344119129883e-04 -2.403703357979454e-17 -2.985547881253272e-16 1.344368158004803e-16 -2.263963282368238e-16 -8.622293139521045e-17
-2.266344119130300e-04 -2.351083626546391e-16 2.675919528010596e-17 1.204920216919498e-16 -1.073303714435480e-16 9.158958386728290e-17
-2.266344119128339e-04 -1.667158039510898e-16 5.433242063841845e-17 -6.275574487503393e-17 -1.748938210079676e-16 -2.566026143754260e-17
-2.266344119129693e-04 4.603244588435557e-17 -4.181571368075970e-17 9.399853684419128e-17 3.137629468783578e-18 1.860760405066478e-16
-2.267429635914458e-04 -1.909351877882007e-16 6.839255870354923e-17 -2.179878511034781e-16 3.405921715485341e-17 -7.515423830710047e-17
-2.267429635917057e-04 4.199806393807598e-17 9.882143541530207e-17 6.714324890028037e-17 -1.709901891180947e-16 3.445138510767961e-17
-2.267429635913447e-04 -2.161509519608344e-16 -2.328843911220893e-16 -8.351278311914560e-17 4.284710294949410e-17 -1.683473111777673e-16
-2.267429635920023e-04 2.539811442995016e-17 -3.957481633842158e-16 -8.973309264255554e-17 -2.011339135489864e-16 2.463140806699921e-16
-2.266344119130614e-04 1.327018748566315e-16 1.242684104494398e-16 -2.568225390378148e-17 -5.213012512413467e-17 1.791260606492977e-16
-2.266344119129178e-04 -1.542121891528646e-17 5.265549987781763e-17 -1.003168517188636e-16 -8.687517201962470e-17 -4.589969478837898e-17
-2.266344119126845e-04 -4.077047274104920e-17 -4.317679453091539e-17 -1.004353066486334e-16 -2.527885620356871e-17 -5.928346986868171e-17
-2.266344119128934e-04 3.047773731594038e-17 -9.206489176871114e-17 -3.135090983245035e-17 -3.798156621417344e-17 3.213076896035803e-16
-2.267429635917057e-04 4.199806393807598e-17 9.882143541530207e-17 6.714324890028037e-17 -1.709901891180947e-16 3.445138510767961e-17
-2.267429635913679e-04 6.362877572800444e-17 -5.092971851302929e-17 3.738046551791082e-17 4.040889551430797e-17 -3.896597632703450e-17
-2.267429635916116e-04 -2.503341391531762e-17 2.797797276888390e-16 -2.288173802317757e-17 -3.593026481962396e-18 5.888247340051265e-19
-2.267429635913447e-04 -2.161509519608344e-16 -2.328843911220893e-16 -8.351278311914560e-17 4.284710294949410e-17 -1.683473111777673e-16
-2.266344119129178e-04 -1.542121891528646e-17 5.265549987781763e-17 -1.003168517188636e-16 -8.687517201962470e-17 -4.589969478837898e-17
-2.266344119129693e-04 4.603244588435557e-17 -4.181571368075970e-17 9.399853684419128e-17 3.137629468783578e-18 1.860760405066478e-16
-2.266344119130286e-04 1.787343207409871e-16 1.152032662213582e-17 -8.058509701778577e-17 1.050905867773458e-16 -1.113035775054799e-16
-2.266344119126845e-04 -4.077047274104920e-17 -4.317679453091539e-17 -1.004353066486334e-16 -2.527885620356871e-17 -5.928346986868171e-17
-2.267429635913679e-04 6.362877572800444e-17 -5.092971851302929e-17 3.738046551791082e-17 4.040889551430797e-17 -3.896597632703450e-17
-2.267429635915496e-04 5.922969326709217e-17 -3.417315826562425e-16 -1.005421195025126e-16 -9.987084790667281e-17 1.272661654868049e-16
-2.267429635913715e-04 5.805096267425278e-17 4.119834123777090e-16 -2.476858385612436e-16 -6.205075950440883e-17 -1.729092852036435e-16
-2.267429635916116e-04 -2.503341391531762e-17 2.797797276888390e-16 -2.288173802317757e-17 -3.593026481962396e-18 5.888247340051265e-19
-2.266344119129693e-04 4.603244588435557e-17 -4.181571368075970e-17 9.399853684419128e-17 3.137629468783578e-18 1.860760405066478e-16
-2.266344119128339e-04 -1.667158039510898e-16 5.433242063841845e-17 -6.275574487503393e-17 -1.748938210079676e-16 -2.566026143754260e-17
-2.266344119128875e-04 -1.482565834250467e-16 -9.782505507977904e-17 -3.394492314198397e-17 -3.602392410238681e-18 1.316617310252972e-16
-2.266344119130286e-04 1.787343207409871e-16 1.152032662213582e-17 -8.058509701778577e-17 1.050905867773458e-16 -1.113035775054799e-16
-2.267429635920023e-04 2.539811442995016e-17 -3.957481633842158e-16 -8.973309264255554e-17 -2.011339135489864e-16 2.463140806699921e-16
-2.267429635913447e-04 -2.161509519608344e-16 -2.328843911220893e-16 -8.351278311914560e-17 4.284710294949410e-17 -1.683473111777673e-16
-2.267429635916144e-04 4.600574795372981e-16 -8.462780769704241e-17 -1.094589084463316e-16 -1.146118259008154e-16 1.459681957780292e-16
-2.267429635920442e-04 5.551115123125778e-17 6.539818083320676e-16 4.371354298673284e-16 2.916158942214199e-16 7.212571532678825e-17
-2.266344119128934e-04 3.047773731594038e-17 -9.206489176871114e-17 -3.135090983245035e-17 -3.798156621417344e-17 3.213076896035803e-16
-2.266344119126845e-04 -4.077047274104920e-17 -4.317679453091539e-17 -1.004353066486334e-16 -2.527885620356871e-17 -5.928346986868171e-17
-2.266344119129830e-04 1.571036089510588e-16 6.802785818891656e-17 1.797361272105765e-16 8.652819522369445e-17 -1.838746354543427e-16
-2.266344119129692e-04 4.569706173223539e-16 1.387778780781446e-16 1.443281362737450e-16 -1.007629394506889e-16 -3.106097618374393e-17
-2.267429635913447e-04 -2.161509519608344e-16 -2.328843911220893e-16 -8.351278311914560e-17 4.284710294949410e-17 -1.683473111777673e-16
-2.267429635916116e-04 -2.503341391531762e-17 2.797797276888390e-16 -2.288173802317757e-17 -3.593026481962396e-18 5.888247340051265e-19
-2.267429635912881e-04 -3.131131163582193e-16 -1.100259221269927e-16 6.679478292358655e-17 -8.852482794246673e-17 -4.961175021708034e-17
-2.267429635916144e-04 4.600574795372981e-16 -8.462780769704241e-17 -1.094589084463316e-16 -1.146118259008154e-16 1.459681957780292e-16
-2.266344119126845e-04 -4.077047274104920e-17 -4.317679453091539e-17 -1.004353066486334e-16 -2.527885620356871e-17 -5.928346986868171e-17
-2.266344119130286e-04 1.787343207409871e-16 1.152032662213582e-17 -8.058509701778577e-17 1.050905867773458e-16 -1.113035775054799e-16
-2.266344119127492e-04 -1.692556153940848e-16 1.401389589283002e-16 -8.213036637248785e-17 3.253094536014165e-17 3.750216625612155e-17
-2.266344119129830e-04 1.571036089510588e-16 6.802785818891656e-17 1.797361272105765e-16 8.652819522369445e-17 -1.838746354543427e-16
-2.267429635916116e-04 -2.503341391531762e-17 2.797797276888390e-16 -2.288173802317757e-17 -3.593026481962396e-18 5.888247340051265e-19
-2.267429635913715e-04 5.805096267425278e-17 4.119834123777090e-16 -2.476858385612436e-16 -6.205075950440883e-17 -1.729092852036435e-16
-2.267429635913293e-04 -3.943870825340601e-16 2.875195595115194e-17 3.395744368023114e-16 2.145384308729527e-16 -1.173023568482811e-16
-2.267429635912881e-04 -3.131131163582193e-16 -1.100259221269927e-16 6.679478292358655e-17 -8.852482794246673e-17 -4.961175021708034e-17
-2.266344119130286e-04 1.787343207409871e-16 1.152032662213582e-17 -8.058509701778577e-17 1.050905867773458e-16 -1.113035775054799e-16
-2.266344119128875e-04 -1.482565834250467e-16 -9.782505507977904e-17 -3.394492314198397e-17 -3.602392410238681e-18 1.316617310252972e-16
-2.266344119129410e-04 2.302110900259653e-16 -2.131487187948314e-17 3.969231833477942e-16 -1.759215829198857e-17 -1.490357714717380e-16
-2.266344119127492e-04 -1.692556153940848e-16 1.401389589283002e-16 -8.213036637248785e-17 3.253094536014165e-17 3.750216625612155e-17
-2.266344119127249e-04 -8.415631545990668e-16 -2.024555144103365e-16 7.393724437947150e-16 1.945291822820942e-16 -4.380124206532892e-16
-2.266344119129282e-04 8.022872523613021e-16 -9.206489176871115e-17 -2.279602692939565e-16 -3.803936892954935e-17 7.244140544026299e-17
-2.266344119128703e-04 -4.407353683288607e-16 -8.698526888272101e-17 8.843548300229265e-17 8.610758789163028e-17 -9.167773928926883e-17
-2.266344119128791e-04 -9.478705346902258e-17 7.301761516219185e-16 1.310163411092628e-17 -7.407487980090435e-17 2.992625766822746e-16
-2.269059266447348e-04 6.066371422017442e-16 -1.571036089510587e-16 8.727938160155320e-17 1.328752830027593e-16 1.702342293960153e-17
-2.269059266450435e-04 4.671298630943342e-16 7.954818481105244e-17 2.835080828670532e-17 -1.839340201133233e-16 2.008939502313470e-16
-2.269059266448545e-04 1.377814977426216e-16 -1.691578941857101e-17 -1.856774648856500e-16 -4.402166199067323e-17 2.756690566481514e-17
-2.269059266447249e-04 -2.417314166481011e-16 4.495335332506854e-16 -3.691057882107904e-16 -1.503832722534150e-16 1.134826953292437e-16
-2.266344119129282e-04 8.022872523613021e-16 -9.206489176871115e-17 -2.279602692939565e-16 -3.803936892954935e-17 7.244140544026299e-17
-2.266344119128768e-04 -1.513923062441783e-16 -2.867186215927462e-16 3.546729136319791e-16 3.571310337777912e-18 2.491655164259395e-16
-2.266344119127752e-04 2.410020156188357e-16 -2.313898206188048e-16 -4.347438246955311e-17 1.458590726169057e-17 1.004597445612178e-16
-2.266344119128703e-04 -4.407353683288607e-16 -8.698526888272101e-17 8.843548300229265e-17 8.610758789163028e-17 -9.167773928926883e-17
-2.269059266450435e-04 4.671298630943342e-16 7.954818481105244e-17 2.835080828670532e-17 -1.839340201133233e-16 2.008939502313470e-16
-2.269059266447594e-04 -2.721114327556664e-16 5.823331293156907e-17 3.814317494425762e-16 -3.696920830592557e-17 7.402131703557748e-17
-2.269059266444719e-04 -2.054935160210929e-16 -2.897566232035027e-16 -2.530384101131945e-16 -1.543777797680122e-16 2.002074604867138e-17
-2.269059266448545e-04 1.377814977426216e-16 -1.691578941857101e-17 -1.856774648856500e-16 -4.402166199067323e-17 2.756690566481514e-17
-2.266344119128768e-04 -1.513923062441783e-16 -2.867186215927462e-16 3.546729136319791e-16 3.571310337777912e-18 2.491655164259395e-16
-2.266344119126875e-04 2.579666656415943e-16 2.095017136485050e-17 3.951085519959388e-16 8.237515405890125e-17 -1.670982048425268e-16
-2.266344119129011e-04 -1.218620886595735e-16 -1.546972871611925e-16 1.865870538587711e-16 1.184224473389360e-18 5.426313095175515e-17
-2.266344119127752e-04 2.410020156188357e-16 -2.313898206188048e-16 -4.347438246955311e-17 1.458590726169057e-17 1.004597445612178e-16
-2.269059266447594e-04 -2.721114327556664e-16 5.823331293156907e-17 3.814317494425762e-16 -3.696920830592557e-17 7.402131703557748e-17
-2.269059266446467e-04 3.240017631594651e-16 -8.326672684688672e-17 9.631292145885607e-17 -2.946303425384690e-17 8.948824039908277e-17
-2.269059266444108e-04 3.090787344119398e-16 8.598888854719811e-17 -1.466214356482415e-16 4.595618537754786e-17 1.159905076260870e-16
-2.269059266444719e-04 -2.054935160210929e-16 -2.897566232035027e-16 -2.530384101131945e-16 -1.543777797680122e-16 2.002074604867138e-17
-2.266344119128791e-04 -9.478705346902258e-17 7.301761516219185e-16 1.310163411092628e-17 -7.407487980090435e-17 2.992625766822746e-16
-2.266344119128703e-04 -4.407353683288607e-16 -8.698526888272101e-17 8.843548300229265e-17 8.610758789163028e-17 -9.167773928926883e-17
-2.266344119129550e-04 -1.474067849020862e-17 2.236011281919368e-17 -3.819356224559975e-17 2.853578402465247e-17 -1.289245241624747e-16
-2.266344119131611e-04 1.875813462669990e-16 -1.868519452377337e-16 5.807117371476951e-17 2.814833142793307e-16 -3.368391232868913e-17
-2.269059266447249e-04 -2.417314166481011e-16 4.495335332506854e-16 -3.691057882107904e-16 -1.503832722534150e-16 1.134826953292437e-16
-2.269059266448545e-04 1.377814977426216e-16 -1.691578941857101e-17 -1.856774648856500e-16 -4.402166199067323e-17 2.756690566481514e-17
-2.269059266447927e-04 9.633048457649448e-17 -9.661055604218668e-18 -1.116307398565386e-17 1.132866524956727e-17 -2.311207067882379e-17
-2.269059266452729e-04 -2.464463390194585e-16 -7.446856192506233e-17 1.477725777477722e-17 8.429863487165182e-17 3.433339591211208e-16
-2.266344119128703e-04 -4.407353683288607e-16 -8.698526888272101e-17 8.843548300229265e-17 8.610758789163028e-17 -9.167773928926883e-17
-2.266344119127752e-04 2.410020156188357e-16 -2.313898206188048e-16 -4.347438246955311e-17 1.458590726169057e-17 1.004597445612178e-16
-2.266344119129883e-04 -2.403703357979454e-17 -2.985547881253272e-16 1.344368158004803e-16 -2.263963282368238e-16 -8.622293139521045e-17
-2.266344119129550e-04 -1.474067849020862e-17 2.236011281919368e-17 -3.819356224559975e-17 2.853578402465247e-17 -1.289245241624747e-16
-2.269059266448545e-04 1.377814977426216e-16 -1.691578941857101e-17 -1.856774648856500e-16 -4.402166199067323e-17 2.756690566481514e-17
-2.269059266444719e-04 -2.054935160210929e-16 -2.897566232035027e-16 -2.530384101131945e-16 -1.543777797680122e-16 2.002074604867138e-17
-2.269059266445333e-04 -6.263239539248141e-17 -2.638603186057910e-16 3.760497128013492e-18 -4.482466418186131e-17 -2.214126704056867e-16
-2.269059266447927e-04 9.633048457649448e-17 -9.661055604218668e-18 -1.116307398565386e-17 1.132866524956727e-17 -2.311207067882379e-17
-2.266344119127752e-04 2.410020156188357e-16 -2.313898206188048e-16 -4.347438246955311e-17 1.458590726169057e-17 1.004597445612178e-16
-2.266344119129011e-04 -1.218620886595735e-16 -1.546972871611925e-16 1.865870538587711e-16 1.184224473389360e-18 5.426313095175515e-17
-2.266344119130300e-04 -2.351083626546391e-16 2.675919528010596e-17 1.204920216919498e-16 -1.073303714435480e-16 9.158958386728290e-17
-2.266344119129883e-04 -2.403703357979454e-17 -2.985547881253272e-16 1.344368158004803e-16 -2.263963282368238e-16 -8.622293139521045e-17
-2.269059266444719e-04 -2.054935160210929e-16 -2.897566232035027e-16 -2.530384101131945e-16 -1.543777797680122e-16 2.002074604867138e-17
-2.269059266444108e-04 3.090787344119398e-16 8.598888854719811e-17 -1.466214356482415e-16 4.595618537754786e-17 1.159905076260870e-16
-2.269059266450333e-04 -2.027713543207816e-16 -2.330667413794056e-16 -3.252502934939600e-18 -2.171039508856143e-17 -1.295219481198761e-16
-2.269059266445333e-04 -6.263239539248141e-17 -2.638603186057910e-16 3.760497128013492e-18 -4.482466418186131e-17 -2.214126704056867e-16
-2.266344119131611e-04 1.875813462669990e-16 -1.868519452377337e-16 5.807117371476951e-17 2.814833142793307e-16 -3.368391232868913e-17
-2.266344119129550e-04 -1.474067849020862e-17 2.236011281919368e-17 -3.819356224559975e-17 2.853578402465247e-17 -1.289245241624747e-16
-2.266344119129178e-04 -1.542121891528646e-17 5.265549987781763e-17 -1.003168517188636e-16 -8.687517201962470e-17 -4.589969478837898e-17
-2.266344119130614e-04 1.327018748566315e-16 1.242684104494398e-16 -2.568225390378148e-17 -5.213012512413467e-17 1.791260606492977e-16
-2.269059266452729e-04 -2.464463390194585e-16 -7.446856192506233e-17 1.477725777477722e-17 8.429863487165182e-17 3.433339591211208e-16
-2.269059266447927e-04 9.633048457649448e-17 -9.661055604218668e-18 -1.116307398565386e-17 1.132866524956727e-17 -2.311207067882379e-17
-2.269059266449817e-04 1.780537803159092e-16 -5.991023369216998e-17 2.404410450482170e-16 -1.058544192353703e-17 3.055350308196995e-18
-2.269059266444659e-04 -7.211110073938361e-17 2.704833725992530e-16 -5.476703655006749e-17 -4.440975529533832e-17 4.296356801599623e-17
-2.266344119129550e-04 -1.474067849020862e-17 2.236011281919368e-17 -3.819356224559975e-17 2.853578402465247e-17 -1.289245241624747e-16
-2.266344119129883e-04 -2.403703357979454e-17 -2.985547881253272e-16 1.344368158004803e-16 -2.263963282368238e-16 -8.622293139521045e-17
-2.266344119129693e-04 4.603244588435557e-17 -4.181571368075970e-17 9.399853684419128e-17 3.137629468783578e-18 1.860760405066478e-16
-2.266344119129178e-04 -1.542121891528646e-17 5.265549987781763e-17 -1.003168517188636e-16 -8.687517201962470e-17 -4.589969478837898e-17
-2.269059266447927e-04 9.633048457649448e-17 -9.661055604218668e-18 -1.116307398565386e-17 1.132866524956727e-17 -2.311207067882379e-17
-2.269059266445333e-04 -6.263239539248141e-17 -2.638603186057910e-16 3.760497128013492e-18 -4.482466418186131e-17 -2.214126704056867e-16
-2.269059266448363e-04 -2.372834735830014e-16 7.904999464329082e-17 -1.065232953089137e-16 -4.682135171365779e-17 -3.601223500644891e-17
-2.269059266449817e-04 1.780537803159092e-16 -5.991023369216998e-17 2.404410450482170e-16 -1.058544192353703e-17 3.055350308196995e-18
-2.266344119129883e-04 -2.403703357979454e-17 -2.985547881253272e-16 1.344368158004803e-16 -2.263963282368238e-16 -8.622293139521045e-17
-2.266344119130300e-04 -2.351083626546391e-16 2.675919528010596e-17 1.204920216919498e-16 -1.073303714435480e-16 9.158958386728290e-17
-2.266344119128339e-04 -1.667158039510898e-16 5.433242063841845e-17 -6.275574487503393e-17 -1.748938210079676e-16 -2.566026143754260e-17
-2.266344119129693e-04 4.603244588435557e-17 -4.181571368075970e-17 9.399853684419128e-17 3.137629468783578e-18 1.860760405066478e-16
-2.269059266445333e-04 -6.263239539248141e-17 -2.638603186057910e-16 3.760497128013492e-18 -4.482466418186131e-17 -2.214126704056867e-16
-2.269059266450333e-04 -2.027713543207816e-16 -2.330667413794056e-16 -3.252502934939600e-18 -2.171039508856143e-17 -1.295219481198761e-16
-2.269059266444341e-04 8.227034651136368e-17 7.075001988922798e-17 9.599294427073881e-18 1.282187329804349e-17 -1.241933320499897e-16
-2.269059266448363e-04 -2.372834735830014e-16 7.904999464329082e-17 -1.065232953089137e-16 -4.682135171365779e-17 -3.601223500644891e-17
-2.266344119130614e-04 1.327018748566315e-16 1.242684104494398e-16 -2.568225390378148e-17 -5.213012512413467e-17 1.791260606492977e-16
-2.266344119129178e-04 -1.542121891528646e-17 5.265549987781763e-17 -1.003168517188636e-16 -8.687517201962470e-17 -4.589969478837898e-17
-2.266344119126845e-04 -4.077047274104920e-17 -4.317679453091539e-17 -1.004353066486334e-16 -2.527885620356871e-17 -5.928346986868171e-17
-2.266344119128934e-04 3.047773731594038e-17 -9.206489176871114e-17 -3.135090983245035e-17 -3.798156621417344e-17 3.213076896035803e-16
-2.269059266444659e-04 -7.211110073938361e-17 2.704833725992530e-16 -5.476703655006749e-17 -4.440975529533832e-17 4.296356801599623e-17
-2.269059266449817e-04 1.780537803159092e-16 -5.991023369216998e-17 2.404410450482170e-16 -1.058544192353703e-17 3.055350308196995e-18
-2.269059266445986e-04 -4.553425571659409e-17 1.750157787051527e-16 -1.563344801348947e-16 -3.416208867852781e-17 -1.302469721818899e-16
-2.269059266447259e-04 1.090295417914697e-16 -9.342597261886683e-17 3.013199728828416e-17 -5.654864807551572e-17 1.884775915298593e-17
-2.266344119129178e-04 -1.542121891528646e-17 5.265549987781763e-17 -1.003168517188636e-16 -8.687517201962470e-17 -4.589969478837898e-17
-2.266344119129693e-04 4.603244588435557e-17 -4.181571368075970e-17 9.399853684419128e-17 3.137629468783578e-18 1.860760405066478e-16
-2.266344119130286e-04 1.787343207409871e-16 1.152032662213582e-17 -8.058509701778577e-17 1.050905867773458e-16 -1.113035775054799e-16
-2.266344119126845e-04 -4.077047274104920e-17 -4.317679453091539e-17 -1.004353066486334e-16 -2.527885620356871e-17 -5.928346986868171e-17
-2.269059266449817e-04 1.780537803159092e-16 -5.991023369216998e-17 2.404410450482170e-16 -1.058544192353703e-17 3.055350308196995e-18
-2.269059266448363e-04 -2.372834735830014e-16 7.904999464329082e-17 -1.065232953089137e-16 -4.682135171365779e-17 -3.601223500644891e-17
-2.269059266445463e-04 -2.571037749592001e-16 6.567039700323787e-17 5.808104229273598e-17 -7.951933826638854e-17 -2.741062321629307e-17
-2.269059266445986e-04 -4.553425571659409e-17 1.750157787051527e-16 -1.563344801348947e-16 -3.416208867852781e-17 -1.302469721818899e-16
-2.266344119129693e-04 4.603244588435557e-17 -4.181571368075970e-17 9.399853684419128e-17 3.137629468783578e-18 1.860760405066478e-16
-2.266344119128339e-04 -1.667158039510898e-16 5.433242063841845e-17 -6.275574487503393e-17 -1.748938210079676e-16 -2.566026143754260e-17
-2.266344119128875e-04 -1.482565834250467e-16 -9.782505507977904e-17 -3.394492314198397e-17 -3.602392410238681e-18 1.316617310252972e-16
-2.266344119130286e-04 1.787343207409871e-16 1.152032662213582e-17 -8.058509701778577e-17 1.050905867773458e-16 -1.113035775054799e-16
-2.269059266448363e-04 -2.372834735830014e-16 7.904999464329082e-17 -1.065232953089137e-16 -4.682135171365779e-17 -3.601223500644891e-17
-2.269059266444341e-04 8.227034651136368e-17 7.075001988922798e-17 9.599294427073881e-18 1.282187329804349e-17 -1.241933320499897e-16
-2.269059266445255e-04 -1.387778780781446e-17 -3.872658383728366e-16 -7.387308882266196e-17 1.144716002900839e-17 -6.551270571058975e-17
-2.269059266445463e-04 -2.571037749592001e-16 6.567039700323787e-17 5.808104229273598e-17 -7.951933826638854e-17 -2.741062321629307e-17
-2.266344119128934e-04 3.047773731594038e-17 -9.206489176871114e-17 -3.135090983245035e-17 -3.798156621417344e-17 3.213076896035803e-16
-2.266344119126845e-04 -4.077047274104920e-17 -4.317679453091539e-17 -1.004353066486334e-16 -2.527885620356871e-17 -5.928346986868171e-17
-2.266344119129830e-04 1.571036089510588e-16 6.802785818891656e-17 1.797361272105765e-16 8.652819522369445e-17 -1.838746354543427e-16
-2.266344119129692e-04 4.569706173223539e-16 1.387778780781446e-16 1.443281362737450e-16 -1.007629394506889e-16 -3.106097618374393e-17
-2.269059266447259e-04 1.090295417914697e-16 -9.342597261886683e-17 3.013199728828416e-17 -5.654864807551572e-17 1.884775915298593e-17
-2.269059266445986e-04 -4.553425571659409e-17 1.750157787051527e-16 -1.563344801348947e-16 -3.416208867852781e-17 -1.302469721818899e-16
-2.269059266447401e-04 -2.247667666253426e-16 -1.262611711204858e-16 1.402328097364700e-17 -1.626280903450285e-16 -6.685412911053500e-17
-2.269059266447076e-04 3.439555541887924e-16 -1.258964706058531e-16 2.399032717528351e-17 1.197659377088225e-16 2.280231644093751e-16
-2.266344119126845e-04 -4.077047274104920e-17 -4.317679453091539e-17 -1.004353066486334e-16 -2.527885620356871e-17 -5.928346986868171e-17
-2.266344119130286e-04 1.787343207409871e-16 1.152032662213582e-17 -8.058509701778577e-17 1.050905867773458e-16 -1.113035775054799e-16
-2.266344119127492e-04 -1.692556153940848e-16 1.401389589283002e-16 -8.213036637248785e-17 3.253094536014165e-17 3.750216625612155e-17
-2.266344119129830e-04 1.571036089510588e-16 6.802785818891656e-17 1.797361272105765e-16 8.652819522369445e-17 -1.838746354543427e-16
-2.269059266445986e-04 -4.553425571659409e-17 1.750157787051527e-16 -1.563344801348947e-16 -3.416208867852781e-17 -1.302469721818899e-16
-2.269059266445463e-04 -2.571037749592001e-16 6.567039700323787e-17 5.808104229273598e-17 -7.951933826638854e-17 -2.741062321629307e-17
-2.269059266447059e-04 -8.054456514657544e-17 -1.073037604266813e-16 -4.729607537453382e-17 8.400313396347733e-17 -7.374839956701983e-17
-2.269059266447401e-04 -2.247667666253426e-16 -1.262611711204858e-16 1.402328097364700e-17 -1.626280903450285e-16 -6.685412911053500e-17
-2.266344119130286e-04 1.787343207409871e-16 1.152032662213582e-17 -8.058509701778577e-17 1.050905867773458e-16 -1.113035775054799e-16
-2.266344119128875e-04 -1.482565834250467e-16 -9.782505507977904e-17 -3.394492314198397e-17 -3.602392410238681e-18 1.316617310252972e-16
-2.266344119129410e-04 2.302110900259653e-16 -2.131487187948314e-17 3.969231833477942e-16 -1.759215829198857e-17 -1.490357714717380e-16
-2.266344119127492e-04 -1.692556153940848e-16 1.401389589283002e-16 -8.213036637248785e-17 3.253094536014165e-17 3.750216625612155e-17
-2.269059266445463e-04 -2.571037749592001e-16 6.567039700323787e-17 5.808104229273598e-17 -7.951933826638854e-17 -2.741062321629307e-17
-2.269059266445255e-04 -1.387778780781446e-17 -3.872658383728366e-16 -7.387308882266196e-17 1.144716002900839e-17 -6.551270571058975e-17
-2.269059266449663e-04 -4.498982337653180e-16 -1.623524899349317e-17 2.210310353760452e-16 9.007913718499040e-17 -4.314530580667522e-17
-2.269059266447059e-04 -8.054456514657544e-17 -1.073037604266813e-16 -4.729607537453382e-17 8.400313396347733e-17 -7.374839956701983e-17
-2.269059266447348e-04 6.066371422017442e-16 -1.571036089510587e-16 8.727938160155320e-17 1.328752830027593e-16 1.702342293960153e-17
-2.269059266450435e-04 4.671298630943342e-16 7.954818481105244e-17 2.835080828670532e-17 -1.839340201133233e-16 2.008939502313470e-16
-2.269059266448545e-04 1.377814977426216e-16 -1.691578941857101e-17 -1.856774648856500e-16 -4.402166199067323e-17 2.756690566481514e-17
-2.269059266447249e-04 -2.417314166481011e-16 4.495335332506854e-16 -3.691057882107904e-16 -1.503832722534150e-16 1.134826953292437e-16
-2.275691304712530e-04 -3.561075606318185e-16 5.679929197848698e-16 3.359778002547528e-16 -1.899933371281951e-16 -1.375394016108175e-16
-2.275691304713390e-04 2.108889788175284e-16 9.750921516933380e-17 4.067594216306473e-17 -6.861275242974204e-17 -7.955401687183532e-17
-2.275691304714521e-04 4.355222557897420e-16 -2.457657985943806e-16 -9.262223274166383e-17 -1.720215783868291e-16 6.734276254234946e-17
-2.275691304712002e-04 -4.096259511920302e-16 2.372834735830014e-16 2.092574314329596e-16 9.615007034304142e-17 -1.363058087939044e-17
-2.269059266450435e-04 4.671298630943342e-16 7.954818481105244e-17 2.835080828670532e-17 -1.839340201133233e-16 2.008939502313470e-16
-2.269059266447594e-04 -2.721114327556664e-16 5.823331293156907e-17 3.814317494425762e-16 -3.696920830592557e-17 7.402131703557748e-17
-2.269059266444719e-04 -2.054935160210929e-16 -2.897566232035027e-16 -2.530384101131945e-16 -1.543777797680122e-16 2.002074604867138e-17
-2.269059266448545e-04 1.377814977426216e-16 -1.691578941857101e-17 -1.856774648856500e-16 -4.402166199067323e-17 2.756690566481514e-17
-2.275691304713390e-04 2.108889788175284e-16 9.750921516933380e-17 4.067594216306473e-17 -6.861275242974204e-17 -7.955401687183532e-17
-2.275691304711569e-04 -3.297130658663453e-16 -1.854908643875780e-16 3.926248865497056e-16 1.953198195702689e-16 -3.298189325013492e-18
-2.275691304712863e-04 4.126866290881072e-17 9.342597261886676e-17 1.124383424284567e-16 5.194585353006063e-17 -5.733625146131138e-17
-2.275691304714521e-04 4.355222557897420e-16 -2.457657985943806e-16 -9.262223274166383e-17 -1.720215783868291e-16 6.734276254234946e-17
-2.269059266447594e-04 -2.721114327556664e-16 5.823331293156907e-17 3.814317494425762e-16 -3.696920830592557e-17 7.402131703557748e-17
-2.269059266446467e-04 3.240017631594651e-16 -8.326672684688672e-17 9.631292145885607e-17 -2.946303425384690e-17 8.948824039908277e-17
-2.269059266444108e-04 3.090787344119398e-16 8.598888854719811e-17 -1.466214356482415e-16 4.595618537754786e-17 1.159905076260870e-16
-2.269059266444719e-04 -2.054935160210929e-16 -2.897566232035027e-16 -2.530384101131945e-16 -1.543777797680122e-16 2.002074604867138e-17
-2.275691304711569e-04 -3.297130658663453e-16 -1.854908643875780e-16 3.926248865497056e-16 1.953198195702689e-16 -3.298189325013492e-18
-2.275691304710333e-04 -4.884447349738173e-16 -1.487416814333741e-17 6.889271151826382e-16 2.158106817482956e-16 -1.102225644607595e-16
-2.275691304715274e-04 1.765592098126248e-16 9.614813431917824e-17 -2.271839364114329e-16 9.710849758363961e-17 3.140507347324626e-17
-2.275691304712863e-04 4.126866290881072e-17 9.342597261886676e-17 1.124383424284567e-16 5.194585353006063e-17 -5.733625146131138e-17
-2.269059266447249e-04 -2.417314166481011e-16 4.495335332506854e-16 -3.691057882107904e-16 -1.503832722534150e-16 1.134826953292437e-16
-2.269059266448545e-04 1.377814977426216e-16 -1.691578941857101e-17 -1.856774648856500e-16 -4.402166199067323e-17 2.756690566481514e-17
-2.269059266447927e-04 9.633048457649448e-17 -9.661055604218668e-18 -1.116307398565386e-17 1.132866524956727e-17 -2.311207067882379e-17
-2.269059266452729e-04 -2.464463390194585e-16 -7.446856192506233e-17 1.477725777477722e-17 8.429863487165182e-17 3.433339591211208e-16
-2.275691304712002e-04 -4.096259511920302e-16 2.372834735830014e-16 2.092574314329596e-16 9.615007034304142e-17 -1.363058087939044e-17
-2.275691304714521e-04 4.355222557897420e-16 -2.457657985943806e-16 -9.262223274166383e-17 -1.720215783868291e-16 6.734276254234946e-17
-2.275691304713578e-04 -8.580653828988173e-17 -3.220351868072856e-17 -8.658500770863890e-17 -9.949430124505697e-17 -1.122245931229666e-17
-2.275691304712933e-04 -1.181924072279268e-16 1.672628547230388e-16 1.757856334411773e-16 3.504583711922342e-17 -2.011457483821286e-16
-2.269059266448545e-04 1.377814977426216e-16 -1.691578941857101e-17 -1.856774648856500e-16 -4.402166199067323e-17 2.756690566481514e-17
-2.269059266444719e-04 -2.054935160210929e-16 -2.897566232035027e-16 -2.530384101131945e-16 -1.543777797680122e-16 2.002074604867138e-17
-2.269059266445333e-04 -6.263239539248141e-17 -2.638603186057910e-16 3.760497128013492e-18 -4.482466418186131e-17 -2.214126704056867e-16
-2.269059266447927e-04 9.633048457649448e-17 -9.661055604218668e-18 -1.116307398565386e-17 1.132866524956727e-17 -2.311207067882379e-17
-2.275691304714521e-04 4.355222557897420e-16 -2.457657985943806e-16 -9.262223274166383e-17 -1.720215783868291e-16 6.734276254234946e-17
-2.275691304712863e-04 4.126866290881072e-17 9.342597261886676e-17 1.124383424284567e-16 5.194585353006063e-17 -5.733625146131138e-17
-2.275691304715054e-04 -2.032695444885432e-16 2.861846629802307e-17 -1.057433474881856e-17 -1.562505334528417e-16 -9.480533795509612e-17
-2.275691304713578e-04 -8.580653828988173e-17 -3.220351868072856e-17 -8.658500770863890e-17 -9.949430124505697e-17 -1.122245931229666e-17
-2.269059266444719e-04 -2.054935160210929e-16 -2.897566232035027e-16 -2.530384101131945e-16 -1.543777797680122e-16 2.002074604867138e-17
-2.269059266444108e-04 3.090787344119398e-16 8.598888854719811e-17 -1.466214356482415e-16 4.595618537754786e-17 1.159905076260870e-16
-2.269059266450333e-04 -2.027713543207816e-16 -2.330667413794056e-16 -3.252502934939600e-18 -2.171039508856143e-17 -1.295219481198761e-16
-2.269059266445333e-04 -6.263239539248141e-17 -2.638603186057910e-16 3.760497128013492e-18 -4.482466418186131e-17 -2.214126704056867e-16
-2.275691304712863e-04 4.126866290881072e-17 9.342597261886676e-17 1.124383424284567e-16 5.194585353006063e-17 -5.733625146131138e-17
-2.275691304715274e-04 1.765592098126248e-16 9.614813431917824e-17 -2.271839364114329e-16 9.710849758363961e-17 3.140507347324626e-17
-2.275691304711286e-04 7.093237014654428e-17 1.895741069380448e-17 -8.975689211741133e-17 1.891411347029671e-17 2.554524189627758e-17
-2.275691304715054e-04 -2.032695444885432e-16 2.861846629802307e-17 -1.057433474881856e-17 -1.562505334528417e-16 -9.480533795509612e-17
-2.269059266452729e-04 -2.464463390194585e-16 -7.446856192506233e-17 1.477725777477722e-17 8.429863487165182e-17 3.433339591211208e-16
-2.269059266447927e-04 9.633048457649448e-17 -9.661055604218668e-18 -1.116307398565386e-17 1.132866524956727e-17 -2.311207067882379e-17
-2.269059266449817e-04 1.780537803159092e-16 -5.991023369216998e-17 2.404410450482170e-16 -1.058544192353703e-17 3.055350308196995e-18
-2.269059266444659e-04 -7.211110073938361e-17 2.704833725992530e-16 -5.476703655006749e-17 -4.440975529533832e-17 4.296356801599623e-17
-2.275691304712933e-04 -1.181924072279268e-16 1.672628547230388e-16 1.757856334411773e-16 3.504583711922342e-17 -2.011457483821286e-16
-2.275691304713578e-04 -8.580653828988173e-17 -3.220351868072856e-17 -8.658500770863890e-17 -9.949430124505697e-17 -1.122245931229666e-17
-2.275691304713548e-04 -8.258618642180890e-17 -6.412696589576596e-17 8.208094409153468e-17 -1.549562522422747e-16 5.023559318270702e-17
-2.275691304715550e-04 1.567389084364260e-16 -2.386445544331570e-16 2.220763731206903e-16 1.591553703532163e-17 6.942668067027409e-17
-2.269059266447927e-04 9.633048457649448e-17 -9.661055604218668e-18 -1.116307398565386e-17 1.132866524956727e-17 -2.311207067882379e-17
-2.269059266445333e-04 -6.263239539248141e-17 -2.638603186057910e-16 3.760497128013492e-18 -4.482466418186131e-17 -2.214126704056867e-16
-2.269059266448363e-04 -2.372834735830014e-16 7.904999464329082e-17 -1.065232953089137e-16 -4.682135171365779e-17 -3.601223500644891e-17
-2.269059266449817e-04 1.780537803159092e-16 -5.991023369216998e-17 2.404410450482170e-16 -1.058544192353703e-17 3.055350308196995e-18
-2.275691304713578e-04 -8.580653828988173e-17 -3.220351868072856e-17 -8.658500770863890e-17 -9.949430124505697e-17 -1.122245931229666e-17
-2.275691304715054e-04 -2.032695444885432e-16 2.861846629802307e-17 -1.057433474881856e-17 -1.562505334528417e-16 -9.480533795509612e-17
-2.275691304710076e-04 4.807406715958912e-17 -1.519751254608811e-16 -2.131500330356069e-17 -3.854498900172406e-17 -1.149500198101271e-16
-2.275691304713548e-04 -8.258618642180890e-17 -6.412696589576596e-17 8.208094409153468e-17 -1.549562522422747e-16 5.023559318270702e-17
-2.269059266445333e-04 -6.263239539248141e-17 -2.638603186057910e-16 3.760497128013492e-18 -4.482466418186131e-17 -2.214126704056867e-16
-2.269059266450333e-04 -2.027713543207816e-16 -2.330667413794056e-16 -3.252502934939600e-18 -2.171039508856143e-17 -1.295219481198761e-16
-2.269059266444341e-04 8.227034651136368e-17 7.075001988922798e-17 9.599294427073881e-18 1.282187329804349e-17 -1.241933320499897e-16
-2.269059266448363e-04 -2.372834735830014e-16 7.904999464329082e-17 -1.065232953089137e-16 -4.682135171365779e-17 -3.601223500644891e-17
-2.275691304715054e-04 -2.032695444885432e-16 2.861846629802307e-17 -1.057433474881856e-17 -1.562505334528417e-16 -9.480533795509612e-17
-2.275691304711286e-04 7.093237014654428e-17 1.895741069380448e-17 -8.975689211741133e-17 1.891411347029671e-17 2.554524189627758e-17
-2.275691304711914e-04 -2.677612108989418e-16 -1.437597797557594e-17 -3.252055408474171e-17 -7.678456697215360e-17 2.235665267609185e-17
-2.275691304710076e-04 4.807406715958912e-17 -1.519751254608811e-16 -2.131500330356069e-17 -3.854498900172406e-17 -1.149500198101271e-16
-2.269059266444659e-04 -7.211110073938361e-17 2.704833725992530e-16 -5.476703655006749e-17 -4.440975529533832e-17 4.296356801599623e-17
-2.269059266449817e-04 1.780537803159092e-16 -5.991023369216998e-17 2.404410450482170e-16 -1.058544192353703e-17 3.055350308196995e-18
-2.269059266445986e-04 -4.553425571659409e-17 1.750157787051527e-16 -1.563344801348947e-16 -3.416208867852781e-17 -1.302469721818899e-16
-2.269059266447259e-04 1.090295417914697e-16 -9.342597261886683e-17 3.013199728828416e-17 -5.654864807551572e-17 1.884775915298593e-17
-2.275691304715550e-04 1.567389084364260e-16 -2.386445544331570e-16 2.220763731206903e-16 1.591553703532163e-17 6.942668067027409e-17
-2.275691304713548e-04 -8.258618642180890e-17 -6.412696589576596e-17 8.208094409153468e-17 -1.549562522422747e-16 5.023559318270702e-17
-2.275691304711085e-04 -1.299797131563201e-16 -4.993333817750627e-17 -1.152457090459109e-17 -1.917789374840600e-16 -8.204133365788510e-17
-2.275691304715970e-04 2.298463895113327e-16 3.519265968729768e-17 -1.856544068924985e-16 7.581906414410038e-17 2.519215610515195e-16
-2.269059266449817e-04 1.780537803159092e-16 -5.991023369216998e-17 2.404410450482170e-16 -1.058544192353703e-17 3.055350308196995e-18
-2.269059266448363e-04 -2.372834735830014e-16 7.904999464329082e-17 -1.065232953089137e-16 -4.682135171365779e-17 -3.601223500644891e-17
-2.269059266445463e-04 -2.571037749592001e-16 6.567039700323787e-17 5.808104229273598e-17 -7.951933826638854e-17 -2.741062321629307e-17
-2.269059266445986e-04 -4.553425571659409e-17 1.750157787051527e-16 -1.563344801348947e-16 -3.416208867852781e-17 -1.302469721818899e-16
-2.275691304713548e-04 -8.258618642180890e-17 -6.412696589576596e-17 8.208094409153468e-17 -1.549562522422747e-16 5.023559318270702e-17
-2.275691304710076e-04 4.807406715958912e-17 -1.519751254608811e-16 -2.131500330356069e-17 -3.854498900172406e-17 -1.149500198101271e-16
-2.275691304715129e-04 8.412961752928083e-17 7.564729251790167e-17 -1.792559071946581e-16 5.741280627377540e-17 -2.784489961699631e-17
-2.275691304711085e-04 -1.299797131563201e-16 -4.993333817750627e-17 -1.152457090459109e-17 -1.917789374840600e-16 -8.204133365788510e-17
-2.269059266448363e-04 -2.372834735830014e-16 7.904999464329082e-17 -1.065232953089137e-16 -4.682135171365779e-17 -3.601223500644891e-17
-2.269059266444341e-04 8.227034651136368e-17 7.075001988922798e-17 9.599294427073881e-18 1.282187329804349e-17 -1.241933320499897e-16
-2.269059266445255e-04 -1.387778780781446e-17 -3.872658383728366e-16 -7.387308882266196e-17 1.144716002900839e-17 -6.551270571058975e-17
-2.269059266445463e-04 -2.571037749592001e-16 6.567039700323787e-17 5.808104229273598e-17 -7.951933826638854e-17 -2.741062321629307e-17
-2.275691304710076e-04 4.807406715958912e-17 -1.519751254608811e-16 -2.131500330356069e-17 -3.854498900172406e-17 -1.149500198101271e-16
-2.275691304711914e-04 -2.677612108989418e-16 -1.437597797557594e-17 -3.252055408474171e-17 -7.678456697215360e-17 2.235665267609185e-17
-2.275691304715722e-04 -2.268083879005760e-16 6.907309912862707e-17 -1.438112627869473e-16 1.286365459027524e-16 1.272545432822559e-16
-2.275691304715129e-04 8.412961752928083e-17 7.564729251790167e-17 -1.792559071946581e-16 5.741280627377540e-17 -2.784489961699631e-17
-2.269059266447259e-04 1.090295417914697e-16 -9.342597261886683e-17 3.013199728828416e-17 -5.654864807551572e-17 1.884775915298593e-17
-2.269059266445986e-04 -4.553425571659409e-17 1.750157787051527e-16 -1.563344801348947e-16 -3.416208867852781e-17 -1.302469721818899e-16
-2.269059266447401e-04 -2.247667666253426e-16 -1.262611711204858e-16 1.402328097364700e-17 -1.626280903450285e-16 -6.685412911053500e-17
-2.269059266447076e-04 3.439555541887924e-16 -1.258964706058531e-16 2.399032717528351e-17 1.197659377088225e-16 2.280231644093751e-16
-2.275691304715970e-04 2.298463895113327e-16 3.519265968729768e-17 -1.856544068924985e-16 7.581906414410038e-17 2.519215610515195e-16
-2.275691304711085e-04 -1.299797131563201e-16 -4.993333817750627e-17 -1.152457090459109e-17 -1.917789374840600e-16 -8.204133365788510e-17
-2.275691304714361e-04 -1.415000397784559e-16 -8.090926566120808e-17 1.881260357752812e-16 7.231460825893529e-17 -9.622941138344277e-17
-2.275691304711806e-04 3.541147999607724e-16 -2.837294805861771e-16 -1.523224205176825e-17 2.640670991652006e-17 1.348124894512656e-16
-2.269059266445986e-04 -4.553425571659409e-17 1.750157787051527e-16 -1.563344801348947e-16 -3.416208867852781e-17 -1.302469721818899e-16
-2.269059266445463e-04 -2.571037749592001e-16 6.567039700323787e-17 5.808104229273598e-17 -7.951933826638854e-17 -2.741062321629307e-17
-2.269059266447059e-04 -8.054456514657544e-17 -1.073037604266813e-16 -4.729607537453382e-17 8.400313396347733e-17 -7.374839956701983e-17
-2.269059266447401e-04 -2.247667666253426e-16 -1.262611711204858e-16 1.402328097364700e-17 -1.626280903450285e-16 -6.685412911053500e-17
-2.275691304711085e-04 -1.299797131563201e-16 -4.993333817750627e-17 -1.152457090459109e-17 -1.917789374840600e-16 -8.204133365788510e-17
-2.275691304715129e-04 8.412961752928083e-17 7.564729251790167e-17 -1.792559071946581e-16 5.741280627377540e-17 -2.784489961699631e-17
-2.275691304712114e-04 -3.994667054200502e-16 -1.096612216123599e-16 1.055146537657703e-16 7.899148329399864e-17 -9.305395602443706e-17
-2.275691304714361e-04 -1.415000397784559e-16 -8.090926566120808e-17 1.881260357752812e-16 7.231460825893529e-17 -9.622941138344277e-17
-2.269059266445463e-04 -2.571037749592001e-16 6.567039700323787e-17 5.808104229273598e-17 -7.951933826638854e-17 -2.741062321629307e-17
-2.269059266445255e-04 -1.387778780781446e-17 -3.872658383728366e-16 -7.387308882266196e-17 1.144716002900839e-17 -6.551270571058975e-17
-2.269059266449663e-04 -4.498982337653180e-16 -1.623524899349317e-17 2.210310353760452e-16 9.007913718499040e-17 -4.314530580667522e-17
-2.269059266447059e-04 -8.054456514657544e-17 -1.073037604266813e-16 -4.729607537453382e-17 8.400313396347733e-17 -7.374839956701983e-17
-2.275691304715129e-04 8.412961752928083e-17 7.564729251790167e-17 -1.792559071946581e-16 5.741280627377540e-17 -2.784489961699631e-17
-2.275691304715722e-04 -2.268083879005760e-16 6.907309912862707e-17 -1.438112627869473e-16 1.286365459027524e-16 1.272545432822559e-16
-2.275691304712201e-04 6.252298523809157e-16 -1.929279484592467e-16 1.325358751300006e-17 -5.436426615781978e-17 -1.449666005400620e-16
-2.275691304712114e-04 -3.994667054200502e-16 -1.096612216123599e-16 1.055146537657703e-16 7.899148329399864e-17 -9.305395602443706e-17
-2.275691304712530e-04 -3.561075606318185e-16 5.679929197848698e-16 3.359778002547528e-16 -1.899933371281951e-16 -1.375394016108175e-16
-2.275691304713390e-04 2.108889788175284e-16 9.750921516933380e-17 4.067594216306473e-17 -6.861275242974204e-17 -7.955401687183532e-17
-2.275691304714521e-04 4.355222557897420e-16 -2.457657985943806e-16 -9.262223274166383e-17 -1.720215783868291e-16 6.734276254234946e-17
-2.275691304712002e-04 -4.096259511920302e-16 2.372834735830014e-16 2.092574314329596e-16 9.615007034304142e-17 -1.363058087939044e-17
-2.279967614984334e-04 9.429844742714769e-18 -8.525948751793273e-17 3.286906295460314e-17 8.106718561643058e-17 -7.995909722710058e-17
-2.279967614974538e-04 3.107556551725407e-16 2.830000795569119e-16 -2.470003173740295e-16 -4.706547167301909e-17 -2.355526462818982e-16
-2.279967614982256e-04 3.883110793125471e-16 -1.391425785927773e-16 -2.348602371566277e-16 6.645991652751354e-17 3.755994190005740e-17
-2.279967614973725e-04 -3.303447456872355e-16 1.746999387947075e-16 1.287086462302013e-16 7.327090959778472e-17 6.801062270675482e-16
-2.275691304713390e-04 2.108889788175284e-16 9.750921516933380e-17 4.067594216306473e-17 -6.861275242974204e-17 -7.955401687183532e-17
-2.275691304711569e-04 -3.297130658663453e-16 -1.854908643875780e-16 3.926248865497056e-16 1.953198195702689e-16 -3.298189325013492e-18
-2.275691304712863e-04 4.126866290881072e-17 9.342597261886676e-17 1.124383424284567e-16 5.194585353006063e-17 -5.733625146131138e-17
-2.275691304714521e-04 4.355222557897420e-16 -2.457657985943806e-16 -9.262223274166383e-17 -1.720215783868291e-16 6.734276254234946e-17
-2.279967614974538e-04 3.107556551725407e-16 2.830000795569119e-16 -2.470003173740295e-16 -4.706547167301909e-17 -2.355526462818982e-16
-2.279967614972154e-04 8.598888854719807e-17 2.071704367816939e-16 -3.727827663581221e-16 -8.102077979213687e-17 -1.541314514864644e-16
-2.279967614981091e-04 -2.640426688631073e-16 -1.045815987263699e-16 -2.612650769898008e-16 -1.138295317159617e-16 -4.105495075547993e-18
-2.279967614982256e-04 3.883110793125471e-16 -1.391425785927773e-16 -2.348602371566277e-16 6.645991652751354e-17 3.755994190005740e-17
-2.275691304711569e-04 -3.297130658663453e-16 -1.854908643875780e-16 3.926248865497056e-16 1.953198195702689e-16 -3.298189325013492e-18
-2.275691304710333e-04 -4.884447349738173e-16 -1.487416814333741e-17 6.889271151826382e-16 2.158106817482956e-16 -1.102225644607595e-16
-2.275691304715274e-04 1.765592098126248e-16 9.614813431917824e-17 -2.271839364114329e-16 9.710849758363961e-17 3.140507347324626e-17
-2.275691304712863e-04 4.126866290881072e-17 9.342597261886676e-17 1.124383424284567e-16 5.194585353006063e-17 -5.733625146131138e-17
-2.279967614972154e-04 8.598888854719807e-17 2.071704367816939e-16 -3.727827663581221e-16 -8.102077979213687e-17 -1.541314514864644e-16
-2.279967614975296e-04 3.337963084168122e-16 9.614813431917812e-17 -2.274074322463925e-16 -6.746374145455540e-17 1.996247635925774e-16
-2.279967614981514e-04 9.133549073944574e-17 2.031849154396018e-17 -1.704807052394145e-16 -5.659118185208336e-18 -1.475050721883577e-16
-2.279967614981091e-04 -2.640426688631073e-16 -1.045815987263699e-16 -2.612650769898008e-16 -1.138295317159617e-16 -4.105495075547993e-18
-2.275691304712002e-04 -4.096259511920302e-16 2.372834735830014e-16 2.092574314329596e-16 9.615007034304142e-17 -1.363058087939044e-17
-2.275691304714521e-04 4.355222557897420e-16 -2.457657985943806e-16 -9.262223274166383e-17 -1.720215783868291e-16 6.734276254234946e-17
-2.275691304713578e-04 -8.580653828988173e-17 -3.220351868072856e-17 -8.658500770863890e-17 -9.949430124505697e-17 -1.122245931229666e-17
-2.275691304712933e-04 -1.181924072279268e-16 1.672628547230388e-16 1.757856334411773e-16 3.504583711922342e-17 -2.011457483821286e-16
-2.279967614973725e-04 -3.303447456872355e-16 1.746999387947075e-16 1.287086462302013e-16 7.327090959778472e-17 6.801062270675482e-16
-2.279967614982256e-04 3.883110793125471e-16 -1.391425785927773e-16 -2.348602371566277e-16 6.645991652751354e-17 3.755994190005740e-17
-2.279967614990563e-04 2.427277969836241e-16 2.048129755960151e-16 4.368879855967199e-17 4.658538497973128e-17 -1.044601891323032e-16
-2.279967614981363e-04 -1.571036089510587e-16 -6.411004008597762e-16 -2.897159033566294e-16 -1.569507590592985e-16 4.868016171947001e-16
-2.275691304714521e-04 4.355222557897420e-16 -2.457657985943806e-16 -9.262223274166383e-17 -1.720215783868291e-16 6.734276254234946e-17
-2.275691304712863e-04 4.126866290881072e-17 9.342597261886676e-17 1.124383424284567e-16 5.194585353006063e-17 -5.733625146131138e-17
-2.275691304715054e-04 -2.032695444885432e-16 2.861846629802307e-17 -1.057433474881856e-17 -1.562505334528417e-16 -9.480533795509612e-17
-2.275691304713578e-04 -8.580653828988173e-17 -3.220351868072856e-17 -8.658500770863890e-17 -9.949430124505697e-17 -1.122245931229666e-17
-2.279967614982256e-04 3.883110793125471e-16 -1.391425785927773e-16 -2.348602371566277e-16 6.645991652751354e-17 3.755994190005740e-17
-2.279967614981091e-04 -2.640426688631073e-16 -1.045815987263699e-16 -2.612650769898008e-16 -1.138295317159617e-16 -4.105495075547993e-18
-2.279967614981074e-04 -3.310741467165009e-16 -1.201851678989727e-16 -8.547269506219338e-17 -1.073383602299104e-16 -3.491695137699995e-16
-2.279967614990563e-04 2.427277969836241e-16 2.048129755960151e-16 4.368879855967199e-17 4.658538497973128e-17 -1.044601891323032e-16
-2.275691304712863e-04 4.126866290881072e-17 9.342597261886676e-17 1.124383424284567e-16 5.194585353006063e-17 -5.733625146131138e-17
-2.275691304715274e-04 1.765592098126248e-16 9.614813431917824e-17 -2.271839364114329e-16 9.710849758363961e-17 3.140507347324626e-17
-2.275691304711286e-04 7.093237014654428e-17 1.895741069380448e-17 -8.975689211741133e-17 1.891411347029671e-17 2.554524189627758e-17
-2.275691304715054e-04 -2.032695444885432e-16 2.861846629802307e-17 -1.057433474881856e-17 -1.562505334528417e-16 -9.480533795509612e-17
-2.279967614981091e-04 -2.640426688631073e-16 -1.045815987263699e-16 -2.612650769898008e-16 -1.138295317159617e-16 -4.105495075547993e-18
-2.279967614981514e-04 9.133549073944574e-17 2.031849154396018e-17 -1.704807052394145e-16 -5.659118185208336e-18 -1.475050721883577e-16
-2.279967614980984e-04 -6.666677733876097e-17 1.729741574299192e-16 6.763407169472246e-17 -6.006439122571471e-17 -8.090798308660719e-17
-2.279967614981074e-04 -3.310741467165009e-16 -1.201851678989727e-16 -8.547269506219338e-17 -1.073383602299104e-16 -3.491695137699995e-16
-2.275691304712933e-04 -1.181924072279268e-16 1.672628547230388e-16 1.757856334411773e-16 3.504583711922342e-17 -2.011457483821286e-16
-2.275691304713578e-04 -8.580653828988173e-17 -3.220351868072856e-17 -8.658500770863890e-17 -9.949430124505697e-17 -1.122245931229666e-17
-2.275691304713548e-04 -8.258618642180890e-17 -6.412696589576596e-17 8.208094409153468e-17 -1.549562522422747e-16 5.023559318270702e-17
-2.275691304715550e-04 1.567389084364260e-16 -2.386445544331570e-16 2.220763731206903e-16 1.591553703532163e-17 6.942668067027409e-17
-2.279967614981363e-04 -1.571036089510587e-16 -6.411004008597762e-16 -2.897159033566294e-16 -1.569507590592985e-16 4.868016171947001e-16
-2.279967614990563e-04 2.427277969836241e-16 2.048129755960151e-16 4.368879855967199e-17 4.658538497973128e-17 -1.044601891323032e-16
-2.279967614973427e-04 3.047773731594028e-17 -1.354240365569428e-16 6.617644688354730e-16 -7.708673433780082e-18 -1.583543071432098e-16
-2.279967614986101e-04 -1.739705377654421e-16 3.541147999607723e-16 -3.512267725510476e-16 -2.456001345437055e-16 6.596821728649507e-17
-2.275691304713578e-04 -8.580653828988173e-17 -3.220351868072856e-17 -8.658500770863890e-17 -9.949430124505697e-17 -1.122245931229666e-17
-2.275691304715054e-04 -2.032695444885432e-16 2.861846629802307e-17 -1.057433474881856e-17 -1.562505334528417e-16 -9.480533795509612e-17
-2.275691304710076e-04 4.807406715958912e-17 -1.519751254608811e-16 -2.131500330356069e-17 -3.854498900172406e-17 -1.149500198101271e-16
-2.275691304713548e-04 -8.258618642180890e-17 -6.412696589576596e-17 8.208094409153468e-17 -1.549562522422747e-16 5.023559318270702e-17
-2.279967614990563e-04 2.427277969836241e-16 2.048129755960151e-16 4.368879855967199e-17 4.658538497973128e-17 -1.044601891323032e-16
-2.279967614981074e-04 -3.310741467165009e-16 -1.201851678989727e-16 -8.547269506219338e-17 -1.073383602299104e-16 -3.491695137699995e-16
-2.279967614977798e-04 -1.096612216123600e-16 2.951520859999379e-16 1.077962927162328e-17 2.004735222482937e-16 -1.466870730298828e-16
-2.279967614973427e-04 3.047773731594028e-17 -1.354240365569428e-16 6.617644688354730e-16 -7.708673433780082e-18 -1.583543071432098e-16
-2.275691304715054e-04 -2.032695444885432e-16 2.861846629802307e-17 -1.057433474881856e-17 -1.562505334528417e-16 -9.480533795509612e-17
-2.275691304711286e-04 7.093237014654428e-17 1.895741069380448e-17 -8.975689211741133e-17 1.891411347029671e-17 2.554524189627758e-17
-2.275691304711914e-04 -2.677612108989418e-16 -1.437597797557594e-17 -3.252055408474171e-17 -7.678456697215360e-17 2.235665267609185e-17
-2.275691304710076e-04 4.807406715958912e-17 -1.519751254608811e-16 -2.131500330356069e-17 -3.854498900172406e-17 -1.149500198101271e-16
-2.279967614981074e-04 -3.310741467165009e-16 -1.201851678989727e-16 -8.547269506219338e-17 -1.073383602299104e-16 -3.491695137699995e-16
-2.279967614980984e-04 -6.666677733876097e-17 1.729741574299192e-16 6.763407169472246e-17 -6.006439122571471e-17 -8.090798308660719e-17
-2.279967614981385e-04 -8.462780769704244e-17 -3.967445437197389e-16 -2.110939343465562e-16 -5.032031371827285e-17 -1.825192807950169e-16
-2.279967614977798e-04 -1.096612216123600e-16 2.951520859999379e-16 1.077962927162328e-17 2.004735222482937e-16 -1.466870730298828e-16
-2.275691304715550e-04 1.567389084364260e-16 -2.386445544331570e-16 2.220763731206903e-16 1.591553703532163e-17 6.942668067027409e-17
-2.275691304713548e-04 -8.258618642180890e-17 -6.412696589576596e-17 8.208094409153468e-17 -1.549562522422747e-16 5.023559318270702e-17
-2.275691304711085e-04 -1.299797131563201e-16 -4.993333817750627e-17 -1.152457090459109e-17 -1.917789374840600e-16 -8.204133365788510e-17
-2.275691304715970e-04 2.298463895113327e-16 3.519265968729768e-17 -1.856544068924985e-16 7.581906414410038e-17 2.519215610515195e-16
-2.279967614986101e-04 -1.739705377654421e-16 3.541147999607723e-16 -3.512267725510476e-16 -2.456001345437055e-16 6.596821728649507e-17
-2.279967614973427e-04 3.047773731594028e-17 -1.354240365569428e-16 6.617644688354730e-16 -7.708673433780082e-18 -1.583543071432098e-16
-2.279967614974812e-04 -1.066720806057910e-16 6.839255870354924e-17 -2.872784928739573e-16 -5.741153875790990e-17 -1.085298395374661e-16
-2.279967614985546e-04 -2.822706785276465e-16 2.051776761106479e-16 -1.875134731444785e-16 -1.197626646689641e-16 -1.528343343759172e-16
-2.275691304713548e-04 -8.258618642180890e-17 -6.412696589576596e-17 8.208094409153468e-17 -1.549562522422747e-16 5.023559318270702e-17
-2.275691304710076e-04 4.807406715958912e-17 -1.519751254608811e-16 -2.131500330356069e-17 -3.854498900172406e-17 -1.149500198101271e-16
-2.275691304715129e-04 8.412961752928083e-17 7.564729251790167e-17 -1.792559071946581e-16 5.741280627377540e-17 -2.784489961699631e-17
-2.275691304711085e-04 -1.299797131563201e-16 -4.993333817750627e-17 -1.152457090459109e-17 -1.917789374840600e-16 -8.204133365788510e-17
-2.279967614973427e-04 3.047773731594028e-17 -1.354240365569428e-16 6.617644688354730e-16 -7.708673433780082e-18 -1.583543071432098e-16
-2.279967614977798e-04 -1.096612216123600e-16 2.951520859999379e-16 1.077962927162328e-17 2.004735222482937e-16 -1.466870730298828e-16
-2.279967614985106e-04 8.433464407191775e-18 -2.210482245895083e-16 -2.245222786324506e-16 -9.513332163103650e-17 1.743622830581223e-16
-2.279967614974812e-04 -1.066720806057910e-16 6.839255870354924e-17 -2.872784928739573e-16 -5.741153875790990e-17 -1.085298395374661e-16
-2.275691304710076e-04 4.807406715958912e-17 -1.519751254608811e-16 -2.131500330356069e-17 -3.854498900172406e-17 -1.149500198101271e-16
-2.275691304711914e-04 -2.677612108989418e-16 -1.437597797557594e-17 -3.252055408474171e-17 -7.678456697215360e-17 2.235665267609185e-17
-2.275691304715722e-04 -2.268083879005760e-16 6.907309912862707e-17 -1.438112627869473e-16 1.286365459027524e-16 1.272545432822559e-16
-2.275691304715129e-04 8.412961752928083e-17 7.564729251790167e-17 -1.792559071946581e-16 5.741280627377540e-17 -2.784489961699631e-17
-2.279967614977798e-04 -1.096612216123600e-16 2.951520859999379e-16 1.077962927162328e-17 2.004735222482937e-16 -1.466870730298828e-16
-2.279967614981385e-04 -8.462780769704244e-17 -3.967445437197389e-16 -2.110939343465562e-16 -5.032031371827285e-17 -1.825192807950169e-16
-2.279967614981562e-04 -6.440703736145811e-18 -2.664001300487860e-16 -1.172037291572123e-16 2.995329044827024e-17 -1.159126174278568e-17
-2.279967614985106e-04 8.433464407191775e-18 -2.210482245895083e-16 -2.245222786324506e-16 -9.513332163103650e-17 1.743622830581223e-16
-2.275691304715970e-04 2.298463895113327e-16 3.519265968729768e-17 -1.856544068924985e-16 7.581906414410038e-17 2.519215610515195e-16
-2.275691304711085e-04 -1.299797131563201e-16 -4.993333817750627e-17 -1.152457090459109e-17 -1.917789374840600e-16 -8.204133365788510e-17
-2.275691304714361e-04 -1.415000397784559e-16 -8.090926566120808e-17 1.881260357752812e-16 7.231460825893529e-17 -9.622941138344277e-17
-2.275691304711806e-04 3.541147999607724e-16 -2.837294805861771e-16 -1.523224205176825e-17 2.640670991652006e-17 1.348124894512656e-16
-2.279967614985546e-04 -2.822706785276465e-16 2.051776761106479e-16 -1.875134731444785e-16 -1.197626646689641e-16 -1.528343343759172e-16
-2.279967614974812e-04 -1.066720806057910e-16 6.839255870354924e-17 -2.872784928739573e-16 -5.741153875790990e-17 -1.085298395374661e-16
-2.279967614983217e-04 2.423630964689914e-16 -1.560356917260278e-17 -2.054155728388417e-16 -2.959041633145233e-18 2.373556739560572e-17
-2.279967614978634e-04 -6.160669869444584e-16 -9.429844742714794e-18 6.059794644467163e-16 -2.074993688515696e-17 7.171373499574629e-17
-2.275691304711085e-04 -1.299797131563201e-16 -4.993333817750627e-17 -1.152457090459109e-17 -1.917789374840600e-16 -8.204133365788510e-17
-2.275691304715129e-04 8.412961752928083e-17 7.564729251790167e-17 -1.792559071946581e-16 5.741280627377540e-17 -2.784489961699631e-17
-2.275691304712114e-04 -3.994667054200502e-16 -1.096612216123599e-16 1.055146537657703e-16 7.899148329399864e-17 -9.305395602443706e-17
-2.275691304714361e-04 -1.415000397784559e-16 -8.090926566120808e-17 1.881260357752812e-16 7.231460825893529e-17 -9.622941138344277e-17
-2.279967614974812e-04 -1.066720806057910e-16 6.839255870354924e-17 -2.872784928739573e-16 -5.741153875790990e-17 -1.085298395374661e-16
-2.279967614985106e-04 8.433464407191775e-18 -2.210482245895083e-16 -2.245222786324506e-16 -9.513332163103650e-17 1.743622830581223e-16
-2.279967614978608e-04 -1.063073800911584e-16 2.775557561562890e-17 3.294381124265030e-16 3.463219574856588e-17 -1.852687643276639e-16
-2.279967614983217e-04 2.423630964689914e-16 -1.560356917260278e-17 -2.054155728388417e-16 -2.959041633145233e-18 2.373556739560572e-17
-2.275691304715129e-04 8.412961752928083e-17 7.564729251790167e-17 -1.792559071946581e-16 5.741280627377540e-17 -2.784489961699631e-17
-2.275691304715722e-04 -2.268083879005760e-16 6.907309912862707e-17 -1.438112627869473e-16 1.286365459027524e-16 1.272545432822559e-16
-2.275691304712201e-04 6.252298523809157e-16 -1.929279484592467e-16 1.325358751300006e-17 -5.436426615781978e-17 -1.449666005400620e-16
-2.275691304712114e-04 -3.994667054200502e-16 -1.096612216123599e-16 1.055146537657703e-16 7.899148329399864e-17 -9.305395602443706e-17
-2.279967614985106e-04 8.433464407191775e-18 -2.210482245895083e-16 -2.245222786324506e-16 -9.513332163103650e-17 1.743622830581223e-16
-2.279967614981562e-04 -6.440703736145811e-18 -2.664001300487860e-16 -1.172037291572123e-16 2.995329044827024e-17 -1.159126174278568e-17
-2.279967614980176e-04 -8.165297406837490e-16 1.110223024625156e-16 4.829951336252295e-17 1.250580102255526e-16 -5.370185595342976e-17
-2.279967614978608e-04 -1.063073800911584e-16 2.775557561562890e-17 3.294381124265030e-16 3.463219574856588e-17 -1.852687643276639e-16
        </DataArray>
        <DataArray type="Float64" Name="nodal_cauchy_stresses_xyz" NumberOfComponents="6" format="ascii">
-6.110935005461400e+02 -2.619566503214451e+02 -2.619566503214622e+02 -3.526726847789610e-11 -4.582693764080187e-10 5.398521460265596e-12
-6.110935005460374e+02 -2.619566503208939e+02 -2.619566503213646e+02 -6.926674864863623e-11 3.338029250822152e-10 1.253643622379498e-11
-6.110935005487726e+02 -2.619566503236692e+02 -2.619566503236641e+02 -5.087580569071526e-10 -7.916257207819194e-11 -2.895144593866694e-11
-6.110935005483249e+02 -2.619566503244035e+02 -2.619566503244865e+02 -4.517469789175670e-10 2.876709984616298e-10 4.155154161777067e-10
-6.107041703466277e+02 -2.617897188422401e+02 -2.617897188441433e+02 3.704562928195530e-10 -3.712397036182701e-10 1.675744839563839e-10
-6.107041703429232e+02 -2.617897188421205e+02 -2.617897188415932e+02 1.412243282008967e-10 1.377013788515490e-10 8.371183435363359e-11
-6.107041703444368e+02 -2.617897188421862e+02 -2.617897188418505e+02 -3.602663526118835e-10 9.470654364383903e-11 1.480024666752855e-10
-6.107041703433979e+02 -2.617897188405049e+02 -2.617897188407916e+02 3.024332157436924e-10 3.720357445140512e-10 -3.809506142491527e-10
-6.110935005460374e+02 -2.619566503208939e+02 -2.619566503213646e+02 -6.926674864863623e-11 3.338029250822152e-10 1.253643622379498e-11
-6.110935005470617e+02 -2.619566503224056e+02 -2.619566503222018e+02 8.480097159759025e-10 -9.955236770034581e-11 2.164627665790642e-11
-6.110935005486247e+02 -2.619566503230433e+02 -2.619566503232114e+02 -3.880777997178716e-10 -4.565870203762506e-11 -5.318085982760053e-11
-6.110935005487726e+02 -2.619566503236692e+02 -2.619566503236641e+02 -5.087580569071526e-10 -7.916257207819194e-11 -2.895144593866694e-11
-6.107041703429232e+02 -2.617897188421205e+02 -2.617897188415932e+02 1.412243282008967e-10 1.377013788515490e-10 8.371183435363359e-11
-6.107041703464877e+02 -2.617897188431513e+02 -2.617897188429926e+02 -3.735591160694619e-10 4.518489123034260e-11 4.625703030471045e-11
-6.107041703424221e+02 -2.617897188404883e+02 -2.617897188408511e+02 -5.955589841217071e-10 -1.834447154848325e-10 2.680287151406834e-10
-6.107041703444368e+02 -2.617897188421862e+02 -2.617897188418505e+02 -3.602663526118835e-10 9.470654364383903e-11 1.480024666752855e-10
-6.110935005470617e+02 -2.619566503224056e+02 -2.619566503222018e+02 8.480097159759025e-10 -9.955236770034581e-11 2.164627665790642e-11
-6.110935005485028e+02 -2.619566503223170e+02 -2.619566503231596e+02 5.715412952746359e-10 -1.160680278166252e-11 4.388203861011773e-12
-6.110935005492280e+02 -2.619566503234843e+02 -2.619566503234083e+02 -3.191674092089723e-10 -4.715124649678870e-11 -5.595507941390303e-11
-6.110935005486247e+02 -2.619566503230433e+02 -2.619566503232114e+02 -3.880777997178716e-10 -4.565870203762506e-11 -5.318085982760053e-11
-6.107041703464877e+02 -2.617897188431513e+02 -2.617897188429926e+02 -3.735591160694619e-10 4.518489123034260e-11 4.625703030471045e-11
-6.107041703445632e+02 -2.617897188412693e+02 -2.617897188413290e+02 2.516027808228445e-11 -6.469235589738808e-11 2.564615118589560e-10
-6.107041703446079e+02 -2.617897188417732e+02 -2.617897188417858e+02 -9.921385101035015e-11 6.749860760147340e-11 -9.284392024789289e-11
-6.107041703424221e+02 -2.617897188404883e+02 -2.617897188408511e+02 -5.955589841217071e-10 -1.834447154848325e-10 2.680287151406834e-10
-6.110935005483249e+02 -2.619566503244035e+02 -2.619566503244865e+02 -4.517469789175670e-10 2.876709984616298e-10 4.155154161777067e-10
-6.110935005487726e+02 -2.619566503236692e+02 -2.619566503236641e+02 -5.087580569071526e-10 -7.916257207819194e-11 -2.895144593866694e-11
-6.110935005482952e+02 -2.619566503234980e+02 -2.619566503232755e+02 -2.916829674236401e-10 1.332468023795053e-10 1.980186184084627e-10
-6.110935005463346e+02 -2.619566503222745e+02 -2.619566503208441e+02 5.419826151804016e-11 1.852015115684873e-10 -1.800332645383111e-10
-6.107041703433979e+02 -2.617897188405049e+02 -2.617897188407916e+02 3.024332157436924e-10 3.720357445140512e-10 -3.809506142491527e-10
-6.107041703444368e+02 -2.617897188421862e+02 -2.617897188418505e+02 -3.602663526118835e-10 9.470654364383903e-11 1.480024666752855e-10
-6.107041703439528e+02 -2.617897188415583e+02 -2.617897188420148e+02 -7.865996410600185e-11 -4.954365137845471e-11 9.183994360195090e-11
-6.107041703445690e+02 -2.617897188411617e+02 -2.617897188414267e+02 -2.975981341655297e-10 -8.688970570289830e-11 7.864842804492923e-10
-6.110935005487726e+02 -2.619566503236692e+02 -2.619566503236641e+02 -5.087580569071526e-10 -7.916257207819194e-11 -2.895144593866694e-11
-6.110935005486247e+02 -2.619566503230433e+02 -2.619566503232114e+02 -3.880777997178716e-10 -4.565870203762506e-11 -5.318085982760053e-11
-6.110935005490729e+02 -2.619566503232594e+02 -2.619566503227084e+02 9.493185224962270e-11 1.589293764916838e-13 8.473144249913766e-12
-6.110935005482952e+02 -2.619566503234980e+02 -2.619566503232755e+02 -2.916829674236401e-10 1.332468023795053e-10 1.980186184084627e-10
-6.107041703444368e+02 -2.617897188421862e+02 -2.617897188418505e+02 -3.602663526118835e-10 9.470654364383903e-11 1.480024666752855e-10
-6.107041703424221e+02 -2.617897188404883e+02 -2.617897188408511e+02 -5.955589841217071e-10 -1.834447154848325e-10 2.680287151406834e-10
-6.107041703437436e+02 -2.617897188411349e+02 -2.617897188411577e+02 1.233870198007476e-10 -1.157118688622400e-10 -2.113412192756177e-11
-6.107041703439528e+02 -2.617897188415583e+02 -2.617897188420148e+02 -7.865996410600185e-11 -4.954365137845471e-11 9.183994360195090e-11
-6.110935005486247e+02 -2.619566503230433e+02 -2.619566503232114e+02 -3.880777997178716e-10 -4.565870203762506e-11 -5.318085982760053e-11
-6.110935005492280e+02 -2.619566503234843e+02 -2.619566503234083e+02 -3.191674092089723e-10 -4.715124649678870e-11 -5.595507941390303e-11
-6.110935005491423e+02 -2.619566503235300e+02 -2.619566503229983e+02 1.332683394159273e-10 3.908524022444282e-11 2.380805369672574e-10
-6.110935005490729e+02 -2.619566503232594e+02 -2.619566503227084e+02 9.493185224962270e-11 1.589293764916838e-13 8.473144249913766e-12
-6.107041703424221e+02 -2.617897188404883e+02 -2.617897188408511e+02 -5.955589841217071e-10 -1.834447154848325e-10 2.680287151406834e-10
-6.107041703446079e+02 -2.617897188417732e+02 -2.617897188417858e+02 -9.921385101035015e-11 6.749860760147340e-11 -9.284392024789289e-11
-6.107041703425753e+02 -2.617897188411119e+02 -2.617897188413604e+02 3.200279402742122e-10 -2.971355900624060e-11 1.665078455755621e-10
-6.107041703437436e+02 -2.617897188411349e+02 -2.617897188411577e+02 1.233870198007476e-10 -1.157118688622400e-10 -2.113412192756177e-11
-6.110935005463346e+02 -2.619566503222745e+02 -2.619566503208441e+02 5.419826151804016e-11 1.852015115684873e-10 -1.800332645383111e-10
-6.110935005482952e+02 -2.619566503234980e+02 -2.619566503232755e+02 -2.916829674236401e-10 1.332468023795053e-10 1.980186184084627e-10
-6.110935005480696e+02 -2.619566503230914e+02 -2.619566503223541e+02 1.232348771436632e-10 4.100711991993031e-11 -8.241930838270103e-11
-6.110935005492206e+02 -2.619566503232201e+02 -2.619566503239541e+02 2.309409488229271e-10 -7.860388531293772e-11 -1.745949085982492e-11
-6.107041703445690e+02 -2.617897188411617e+02 -2.617897188414267e+02 -2.975981341655297e-10 -8.688970570289830e-11 7.864842804492923e-10
-6.107041703439528e+02 -2.617897188415583e+02 -2.617897188420148e+02 -7.865996410600185e-11 -4.954365137845471e-11 9.183994360195090e-11
-6.107041703445108e+02 -2.617897188415918e+02 -2.617897188415239e+02 1.033253369069171e-10 -2.631214962327528e-10 5.302512429392735e-11
-6.107041703441114e+02 -2.617897188419748e+02 -2.617897188415586e+02 -3.355340254483715e-10 5.241065554575576e-11 -1.156051786965256e-10
-6.110935005482952e+02 -2.619566503234980e+02 -2.619566503232755e+02 -2.916829674236401e-10 1.332468023795053e-10 1.980186184084627e-10
-6.110935005490729e+02 -2.619566503232594e+02 -2.619566503227084e+02 9.493185224962270e-11 1.589293764916838e-13 8.473144249913766e-12
-6.110935005495140e+02 -2.619566503237249e+02 -2.619566503241258e+02 1.887333262047500e-10 7.332598409193397e-11 -1.742108081667620e-10
-6.110935005480696e+02 -2.619566503230914e+02 -2.619566503223541e+02 1.232348771436632e-10 4.100711991993031e-11 -8.241930838270103e-11
-6.107041703439528e+02 -2.617897188415583e+02 -2.617897188420148e+02 -7.865996410600185e-11 -4.954365137845471e-11 9.183994360195090e-11
-6.107041703437436e+02 -2.617897188411349e+02 -2.617897188411577e+02 1.233870198007476e-10 -1.157118688622400e-10 -2.113412192756177e-11
-6.107041703435839e+02 -2.617897188411486e+02 -2.617897188413493e+02 5.749804085247512e-11 6.218163111368778e-11 -5.994476671233303e-11
-6.107041703445108e+02 -2.617897188415918e+02 -2.617897188415239e+02 1.033253369069171e-10 -2.631214962327528e-10 5.302512429392735e-11
-6.110935005490729e+02 -2.619566503232594e+02 -2.619566503227084e+02 9.493185224962270e-11 1.589293764916838e-13 8.473144249913766e-12
-6.110935005491423e+02 -2.619566503235300e+02 -2.619566503229983e+02 1.332683394159273e-10 3.908524022444282e-11 2.380805369672574e-10
-6.110935005491224e+02 -2.619566503238079e+02 -2.619566503238985e+02 -3.132028507634060e-11 1.770536518617128e-11 7.716731552804634e-11
-6.110935005495140e+02 -2.619566503237249e+02 -2.619566503241258e+02 1.887333262047500e-10 7.332598409193397e-11 -1.742108081667620e-10
-6.107041703437436e+02 -2.617897188411349e+02 -2.617897188411577e+02 1.233870198007476e-10 -1.157118688622400e-10 -2.113412192756177e-11
-6.107041703425753e+02 -2.617897188411119e+02 -2.617897188413604e+02 3.200279402742122e-10 -2.971355900624060e-11 1.665078455755621e-10
-6.107041703446758e+02 -2.617897188419272e+02 -2.617897188425052e+02 -1.547371907160727e-10 -1.536823093485711e-10 1.958673553867462e-10
-6.107041703435839e+02 -2.617897188411486e+02 -2.617897188413493e+02 5.749804085247512e-11 6.218163111368778e-11 -5.994476671233303e-11
-6.110935005492206e+02 -2.619566503232201e+02 -2.619566503239541e+02 2.309409488229271e-10 -7.860388531293772e-11 -1.745949085982492e-11
-6.110935005480696e+02 -2.619566503230914e+02 -2.619566503223541e+02 1.232348771436632e-10 4.100711991993031e-11 -8.241930838270103e-11
-6.110935005478980e+02 -2.619566503220997e+02 -2.619566503228306e+02 -1.527677718888746e-11 -1.022581132360460e-10 6.975742675728632e-11
-6.110935005469316e+02 -2.619566503227860e+02 -2.619566503220891e+02 3.552429653394746e-10 -3.046209852016880e-11 -6.117062606068364e-11
-6.107041703441114e+02 -2.617897188419748e+02 -2.617897188415586e+02 -3.355340254483715e-10 5.241065554575576e-11 -1.156051786965256e-10
-6.107041703445108e+02 -2.617897188415918e+02 -2.617897188415239e+02 1.033253369069171e-10 -2.631214962327528e-10 5.302512429392735e-11
-6.107041703442098e+02 -2.617897188422730e+02 -2.617897188422234e+02 -1.285281453954357e-10 6.593357974635110e-11 -2.589695303368779e-10
-6.107041703458036e+02 -2.617897188424595e+02 -2.617897188430522e+02 -1.380545849379801e-10 -3.095069438161308e-10 3.788811267581163e-10
-6.110935005480696e+02 -2.619566503230914e+02 -2.619566503223541e+02 1.232348771436632e-10 4.100711991993031e-11 -8.241930838270103e-11
-6.110935005495140e+02 -2.619566503237249e+02 -2.619566503241258e+02 1.887333262047500e-10 7.332598409193397e-11 -1.742108081667620e-10
-6.110935005477198e+02 -2.619566503226882e+02 -2.619566503225998e+02 -2.604529062294565e-12 -1.997610932314251e-11 7.359480776207538e-13
-6.110935005478980e+02 -2.619566503220997e+02 -2.619566503228306e+02 -1.527677718888746e-11 -1.022581132360460e-10 6.975742675728632e-11
-6.107041703445108e+02 -2.617897188415918e+02 -2.617897188415239e+02 1.033253369069171e-10 -2.631214962327528e-10 5.302512429392735e-11
-6.107041703435839e+02 -2.617897188411486e+02 -2.617897188413493e+02 5.749804085247512e-11 6.218163111368778e-11 -5.994476671233303e-11
-6.107041703440991e+02 -2.617897188414215e+02 -2.617897188409638e+02 -3.520867023088359e-11 -5.528956690321366e-12 9.075476592864930e-13
-6.107041703442098e+02 -2.617897188422730e+02 -2.617897188422234e+02 -1.285281453954357e-10 6.593357974635110e-11 -2.589695303368779e-10
-6.110935005495140e+02 -2.619566503237249e+02 -2.619566503241258e+02 1.887333262047500e-10 7.332598409193397e-11 -1.742108081667620e-10
-6.110935005491224e+02 -2.619566503238079e+02 -2.619566503238985e+02 -3.132028507634060e-11 1.770536518617128e-11 7.716731552804634e-11
-6.110935005481954e+02 -2.619566503224078e+02 -2.619566503230967e+02 3.716314202111861e-10 -4.776695325159075e-12 -4.679148623400090e-10
-6.110935005477198e+02 -2.619566503226882e+02 -2.619566503225998e+02 -2.604529062294565e-12 -1.997610932314251e-11 7.359480776207538e-13
-6.107041703435839e+02 -2.617897188411486e+02 -2.617897188413493e+02 5.749804085247512e-11 6.218163111368778e-11 -5.994476671233303e-11
-6.107041703446758e+02 -2.617897188419272e+02 -2.617897188425052e+02 -1.547371907160727e-10 -1.536823093485711e-10 1.958673553867462e-10
-6.107041703431977e+02 -2.617897188408142e+02 -2.617897188402690e+02 -3.810924889975515e-10 -9.548437325496593e-11 -2.661099594139921e-10
-6.107041703440991e+02 -2.617897188414215e+02 -2.617897188409638e+02 -3.520867023088359e-11 -5.528956690321366e-12 9.075476592864930e-13
-6.110935005469316e+02 -2.619566503227860e+02 -2.619566503220891e+02 3.552429653394746e-10 -3.046209852016880e-11 -6.117062606068364e-11
-6.110935005478980e+02 -2.619566503220997e+02 -2.619566503228306e+02 -1.527677718888746e-11 -1.022581132360460e-10 6.975742675728632e-11
-6.110935005474391e+02 -2.619566503239319e+02 -2.619566503229613e+02 -2.543692621231222e-10 -1.147521190858052e-10 1.396892182795526e-11
-6.110935005512656e+02 -2.619566503243605e+02 -2.619566503244271e+02 -2.702396127641856e-10 1.058319276470518e-10 -2.819446880922181e-10
-6.107041703458036e+02 -2.617897188424595e+02 -2.617897188430522e+02 -1.380545849379801e-10 -3.095069438161308e-10 3.788811267581163e-10
-6.107041703442098e+02 -2.617897188422730e+02 -2.617897188422234e+02 -1.285281453954357e-10 6.593357974635110e-11 -2.589695303368779e-10
-6.107041703441839e+02 -2.617897188407137e+02 -2.617897188415179e+02 -1.684100003426559e-10 -1.763658681758590e-10 2.246344676505956e-10
-6.107041703447154e+02 -2.617897188413162e+02 -2.617897188405142e+02 6.727378858324531e-10 4.487415155540410e-10 1.111092992375446e-10
-6.110935005478980e+02 -2.619566503220997e+02 -2.619566503228306e+02 -1.527677718888746e-11 -1.022581132360460e-10 6.975742675728632e-11
-6.110935005477198e+02 -2.619566503226882e+02 -2.619566503225998e+02 -2.604529062294565e-12 -1.997610932314251e-11 7.359480776207538e-13
-6.110935005469496e+02 -2.619566503211068e+02 -2.619566503219772e+02 -1.079578941149043e-10 -4.153496969042217e-11 8.612421651134762e-11
-6.110935005474391e+02 -2.619566503239319e+02 -2.619566503229613e+02 -2.543692621231222e-10 -1.147521190858052e-10 1.396892182795526e-11
-6.107041703442098e+02 -2.617897188422730e+02 -2.617897188422234e+02 -1.285281453954357e-10 6.593357974635110e-11 -2.589695303368779e-10
-6.107041703440991e+02 -2.617897188414215e+02 -2.617897188409638e+02 -3.520867023088359e-11 -5.528956690321366e-12 9.075476592864930e-13
-6.107041703438866e+02 -2.617897188421505e+02 -2.617897188418940e+02 1.028642528396874e-10 -1.362229078793799e-10 -7.635377686579985e-11
-6.107041703441839e+02 -2.617897188407137e+02 -2.617897188415179e+02 -1.684100003426559e-10 -1.763658681758590e-10 2.246344676505956e-10
-6.110935005477198e+02 -2.619566503226882e+02 -2.619566503225998e+02 -2.604529062294565e-12 -1.997610932314251e-11 7.359480776207538e-13
-6.110935005481954e+02 -2.619566503224078e+02 -2.619566503230967e+02 3.716314202111861e-10 -4.776695325159075e-12 -4.679148623400090e-10
-6.110935005478825e+02 -2.619566503222927e+02 -2.619566503235051e+02 -5.656118945874838e-10 9.105341744381074e-11 -1.986199630847800e-10
-6.110935005469496e+02 -2.619566503211068e+02 -2.619566503219772e+02 -1.079578941149043e-10 -4.153496969042217e-11 8.612421651134762e-11
-6.107041703440991e+02 -2.617897188414215e+02 -2.617897188409638e+02 -3.520867023088359e-11 -5.528956690321366e-12 9.075476592864930e-13
-6.107041703431977e+02 -2.617897188408142e+02 -2.617897188402690e+02 -3.810924889975515e-10 -9.548437325496593e-11 -2.661099594139921e-10
-6.107041703439597e+02 -2.617897188422443e+02 -2.617897188417066e+02 5.226318053619839e-10 3.301339796344337e-10 -1.805386701227423e-10
-6.107041703438866e+02 -2.617897188421505e+02 -2.617897188418940e+02 1.028642528396874e-10 -1.362229078793799e-10 -7.635377686579985e-11
-6.107041703466277e+02 -2.617897188422401e+02 -2.617897188441433e+02 3.704562928195530e-10 -3.712397036182701e-10 1.675744839563839e-10
-6.107041703429232e+02 -2.617897188421205e+02 -2.617897188415932e+02 1.412243282008967e-10 1.377013788515490e-10 8.371183435363359e-11
-6.107041703444368e+02 -2.617897188421862e+02 -2.617897188418505e+02 -3.602663526118835e-10 9.470654364383903e-11 1.480024666752855e-10
-6.107041703433979e+02 -2.617897188405049e+02 -2.617897188407916e+02 3.024332157436924e-10 3.720357445140512e-10 -3.809506142491527e-10
-6.104116836918304e+02 -2.616643105574483e+02 -2.616643105564203e+02 1.137776470866784e-09 2.993435240188207e-10 -6.741977565448468e-10
-6.104116836903247e+02 -2.616643105528702e+02 -2.616643105542267e+02 -3.508473598595052e-10 -5.853537370226959e-11 1.114354356385895e-10
-6.104116836917510e+02 -2.616643105564389e+02 -2.616643105558753e+02 1.360016784178735e-10 1.325032419548910e-10 -1.409904898416342e-10
-6.104116836903329e+02 -2.616643105543055e+02 -2.616643105531002e+02 2.026583420560932e-11 -1.139871801763702e-10 4.604046902336139e-10
-6.107041703429232e+02 -2.617897188421205e+02 -2.617897188415932e+02 1.412243282008967e-10 1.377013788515490e-10 8.371183435363359e-11
-6.107041703464877e+02 -2.617897188431513e+02 -2.617897188429926e+02 -3.735591160694619e-10 4.518489123034260e-11 4.625703030471045e-11
-6.107041703424221e+02 -2.617897188404883e+02 -2.617897188408511e+02 -5.955589841217071e-10 -1.834447154848325e-10 2.680287151406834e-10
-6.107041703444368e+02 -2.617897188421862e+02 -2.617897188418505e+02 -3.602663526118835e-10 9.470654364383903e-11 1.480024666752855e-10
-6.104116836903247e+02 -2.616643105528702e+02 -2.616643105542267e+02 -3.508473598595052e-10 -5.853537370226959e-11 1.114354356385895e-10
-6.104116836915770e+02 -2.616643105557939e+02 -2.616643105560213e+02 5.457627454162483e-10 5.495570917629619e-12 3.835179471868378e-10
-6.104116836908073e+02 -2.616643105544983e+02 -2.616643105552834e+02 -6.685999946399447e-11 2.244494215117544e-11 1.546342666345701e-10
-6.104116836917510e+02 -2.616643105564389e+02 -2.616643105558753e+02 1.360016784178735e-10 1.325032419548910e-10 -1.409904898416342e-10
-6.107041703464877e+02 -2.617897188431513e+02 -2.617897188429926e+02 -3.735591160694619e-10 4.518489123034260e-11 4.625703030471045e-11
-6.107041703445632e+02 -2.617897188412693e+02 -2.617897188413290e+02 2.516027808228445e-11 -6.469235589738808e-11 2.564615118589560e-10
-6.107041703446079e+02 -2.617897188417732e+02 -2.617897188417858e+02 -9.921385101035015e-11 6.749860760147340e-11 -9.284392024789289e-11
-6.107041703424221e+02 -2.617897188404883e+02 -2.617897188408511e+02 -5.955589841217071e-10 -1.834447154848325e-10 2.680287151406834e-10
-6.104116836915770e+02 -2.616643105557939e+02 -2.616643105560213e+02 5.457627454162483e-10 5.495570917629619e-12 3.835179471868378e-10
-6.104116836902906e+02 -2.616643105541442e+02 -2.616643105544833e+02 6.079353133022744e-10 1.267597423197880e-10 -2.571900130692366e-10
-6.104116836915915e+02 -2.616643105556312e+02 -2.616643105557609e+02 2.871973629268254e-10 1.822297903047432e-12 8.351616680419433e-11
-6.104116836908073e+02 -2.616643105544983e+02 -2.616643105552834e+02 -6.685999946399447e-11 2.244494215117544e-11 1.546342666345701e-10
-6.107041703433979e+02 -2.617897188405049e+02 -2.617897188407916e+02 3.024332157436924e-10 3.720357445140512e-10 -3.809506142491527e-10
-6.107041703444368e+02 -2.617897188421862e+02 -2.617897188418505e+02 -3.602663526118835e-10 9.470654364383903e-11 1.480024666752855e-10
-6.107041703439528e+02 -2.617897188415583e+02 -2.617897188420148e+02 -7.865996410600185e-11 -4.954365137845471e-11 9.183994360195090e-11
-6.107041703445690e+02 -2.617897188411617e+02 -2.617897188414267e+02 -2.975981341655297e-10 -8.688970570289830e-11 7.864842804492923e-10
-6.104116836903329e+02 -2.616643105543055e+02 -2.616643105531002e+02 2.026583420560932e-11 -1.139871801763702e-10 4.604046902336139e-10
-6.104116836917510e+02 -2.616643105564389e+02 -2.616643105558753e+02 1.360016784178735e-10 1.325032419548910e-10 -1.409904898416342e-10
-6.104116836912107e+02 -2.616643105550310e+02 -2.616643105550091e+02 -5.877348109621137e-11 4.391115947432009e-11 -1.982544205185000e-10
-6.104116836918757e+02 -2.616643105550741e+02 -2.616643105557944e+02 8.933823341019455e-11 4.331494184729537e-10 -5.171534695631872e-11
-6.107041703444368e+02 -2.617897188421862e+02 -2.617897188418505e+02 -3.602663526118835e-10 9.470654364383903e-11 1.480024666752855e-10
-6.107041703424221e+02 -2.617897188404883e+02 -2.617897188408511e+02 -5.955589841217071e-10 -1.834447154848325e-10 2.680287151406834e-10
-6.107041703437436e+02 -2.617897188411349e+02 -2.617897188411577e+02 1.233870198007476e-10 -1.157118688622400e-10 -2.113412192756177e-11
-6.107041703439528e+02 -2.617897188415583e+02 -2.617897188420148e+02 -7.865996410600185e-11 -4.954365137845471e-11 9.183994360195090e-11
-6.104116836917510e+02 -2.616643105564389e+02 -2.616643105558753e+02 1.360016784178735e-10 1.325032419548910e-10 -1.409904898416342e-10
-6.104116836908073e+02 -2.616643105544983e+02 -2.616643105552834e+02 -6.685999946399447e-11 2.244494215117544e-11 1.546342666345701e-10
-6.104116836917749e+02 -2.616643105555921e+02 -2.616643105559824e+02 2.068940849147773e-10 -3.483810078868770e-10 -1.326702191802083e-10
-6.104116836912107e+02 -2.616643105550310e+02 -2.616643105550091e+02 -5.877348109621137e-11 4.391115947432009e-11 -1.982544205185000e-10
-6.107041703424221e+02 -2.617897188404883e+02 -2.617897188408511e+02 -5.955589841217071e-10 -1.834447154848325e-10 2.680287151406834e-10
-6.107041703446079e+02 -2.617897188417732e+02 -2.617897188417858e+02 -9.921385101035015e-11 6.749860760147340e-11 -9.284392024789289e-11
-6.107041703425753e+02 -2.617897188411119e+02 -2.617897188413604e+02 3.200279402742122e-10 -2.971355900624060e-11 1.665078455755621e-10
-6.107041703437436e+02 -2.617897188411349e+02 -2.617897188411577e+02 1.233870198007476e-10 -1.157118688622400e-10 -2.113412192756177e-11
-6.104116836908073e+02 -2.616643105544983e+02 -2.616643105552834e+02 -6.685999946399447e-11 2.244494215117544e-11 1.546342666345701e-10
-6.104116836915915e+02 -2.616643105556312e+02 -2.616643105557609e+02 2.871973629268254e-10 1.822297903047432e-12 8.351616680419433e-11
-6.104116836918249e+02 -2.616643105558136e+02 -2.616643105555237e+02 1.853948342960975e-10 -1.651610848301141e-10 1.409266648136788e-10
-6.104116836917749e+02 -2.616643105555921e+02 -2.616643105559824e+02 2.068940849147773e-10 -3.483810078868770e-10 -1.326702191802083e-10
-6.107041703445690e+02 -2.617897188411617e+02 -2.617897188414267e+02 -2.975981341655297e-10 -8.688970570289830e-11 7.864842804492923e-10
-6.107041703439528e+02 -2.617897188415583e+02 -2.617897188420148e+02 -7.865996410600185e-11 -4.954365137845471e-11 9.183994360195090e-11
-6.107041703445108e+02 -2.617897188415918e+02 -2.617897188415239e+02 1.033253369069171e-10 -2.631214962327528e-10 5.302512429392735e-11
-6.107041703441114e+02 -2.617897188419748e+02 -2.617897188415586e+02 -3.355340254483715e-10 5.241065554575576e-11 -1.156051786965256e-10
-6.104116836918757e+02 -2.616643105550741e+02 -2.616643105557944e+02 8.933823341019455e-11 4.331494184729537e-10 -5.171534695631872e-11
-6.104116836912107e+02 -2.616643105550310e+02 -2.616643105550091e+02 -5.877348109621137e-11 4.391115947432009e-11 -1.982544205185000e-10
-6.104116836911525e+02 -2.616643105550523e+02 -2.616643105549708e+02 -1.544163894645129e-10 -1.336844105845336e-10 -7.063533747881527e-11
-6.104116836911655e+02 -2.616643105546392e+02 -2.616643105547194e+02 -3.951918907330137e-11 -8.021837104073683e-11 2.756415902807016e-10
-6.107041703439528e+02 -2.617897188415583e+02 -2.617897188420148e+02 -7.865996410600185e-11 -4.954365137845471e-11 9.183994360195090e-11
-6.107041703437436e+02 -2.617897188411349e+02 -2.617897188411577e+02 1.233870198007476e-10 -1.157118688622400e-10 -2.113412192756177e-11
-6.107041703435839e+02 -2.617897188411486e+02 -2.617897188413493e+02 5.749804085247512e-11 6.218163111368778e-11 -5.994476671233303e-11
-6.107041703445108e+02 -2.617897188415918e+02 -2.617897188415239e+02 1.033253369069171e-10 -2.631214962327528e-10 5.302512429392735e-11
-6.104116836912107e+02 -2.616643105550310e+02 -2.616643105550091e+02 -5.877348109621137e-11 4.391115947432009e-11 -1.982544205185000e-10
-6.104116836917749e+02 -2.616643105555921e+02 -2.616643105559824e+02 2.068940849147773e-10 -3.483810078868770e-10 -1.326702191802083e-10
-6.104116836914530e+02 -2.616643105550759e+02 -2.616643105552635e+02 1.446303932395749e-10 4.828216619081385e-12 2.863203904718247e-10
-6.104116836911525e+02 -2.616643105550523e+02 -2.616643105549708e+02 -1.544163894645129e-10 -1.336844105845336e-10 -7.063533747881527e-11
-6.107041703437436e+02 -2.617897188411349e+02 -2.617897188411577e+02 1.233870198007476e-10 -1.157118688622400e-10 -2.113412192756177e-11
-6.107041703425753e+02 -2.617897188411119e+02 -2.617897188413604e+02 3.200279402742122e-10 -2.971355900624060e-11 1.665078455755621e-10
-6.107041703446758e+02 -2.617897188419272e+02 -2.617897188425052e+02 -1.547371907160727e-10 -1.536823093485711e-10 1.958673553867462e-10
-6.107041703435839e+02 -2.617897188411486e+02 -2.617897188413493e+02 5.749804085247512e-11 6.218163111368778e-11 -5.994476671233303e-11
-6.104116836917749e+02 -2.616643105555921e+02 -2.616643105559824e+02 2.068940849147773e-10 -3.483810078868770e-10 -1.326702191802083e-10
-6.104116836918249e+02 -2.616643105558136e+02 -2.616643105555237e+02 1.853948342960975e-10 -1.651610848301141e-10 1.409266648136788e-10
-6.104116836910374e+02 -2.616643105552984e+02 -2.616643105549699e+02 -9.662628872228952e-11 -2.691284191954069e-10 -3.943355263290161e-11
-6.104116836914530e+02 -2.616643105550759e+02 -2.616643105552635e+02 1.446303932395749e-10 4.828216619081385e-12 2.863203904718247e-10
-6.107041703441114e+02 -2.617897188419748e+02 -2.617897188415586e+02 -3.355340254483715e-10 5.241065554575576e-11 -1.156051786965256e-10
-6.107041703445108e+02 -2.617897188415918e+02 -2.617897188415239e+02 1.033253369069171e-10 -2.631214962327528e-10 5.302512429392735e-11
-6.107041703442098e+02 -2.617897188422730e+02 -2.617897188422234e+02 -1.285281453954357e-10 6.593357974635110e-11 -2.589695303368779e-10
-6.107041703458036e+02 -2.617897188424595e+02 -2.617897188430522e+02 -1.380545849379801e-10 -3.095069438161308e-10 3.788811267581163e-10
-6.104116836911655e+02 -2.616643105546392e+02 -2.616643105547194e+02 -3.951918907330137e-11 -8.021837104073683e-11 2.756415902807016e-10
-6.104116836911525e+02 -2.616643105550523e+02 -2.616643105549708e+02 -1.544163894645129e-10 -1.336844105845336e-10 -7.063533747881527e-11
-6.104116836906926e+02 -2.616643105549439e+02 -2.616643105549902e+02 -1.545370834621856e-10 -3.889936272568989e-11 -9.118437620519556e-11
-6.104116836912979e+02 -2.616643105551084e+02 -2.616643105553258e+02 -4.823778096561268e-11 -5.844643632063612e-11 4.944625572314128e-10
-6.107041703445108e+02 -2.617897188415918e+02 -2.617897188415239e+02 1.033253369069171e-10 -2.631214962327528e-10 5.302512429392735e-11
-6.107041703435839e+02 -2.617897188411486e+02 -2.617897188413493e+02 5.749804085247512e-11 6.218163111368778e-11 -5.994476671233303e-11
-6.107041703440991e+02 -2.617897188414215e+02 -2.617897188409638e+02 -3.520867023088359e-11 -5.528956690321366e-12 9.075476592864930e-13
-6.107041703442098e+02 -2.617897188422730e+02 -2.617897188422234e+02 -1.285281453954357e-10 6.593357974635110e-11 -2.589695303368779e-10
-6.104116836911525e+02 -2.616643105550523e+02 -2.616643105549708e+02 -1.544163894645129e-10 -1.336844105845336e-10 -7.063533747881527e-11
-6.104116836914530e+02 -2.616643105550759e+02 -2.616643105552635e+02 1.446303932395749e-10 4.828216619081385e-12 2.863203904718247e-10
-6.104116836911979e+02 -2.616643105546426e+02 -2.616643105549423e+02 -1.240280387582673e-10 1.617144734751222e-10 -1.712466984393640e-10
-6.104116836906926e+02 -2.616643105549439e+02 -2.616643105549902e+02 -1.545370834621856e-10 -3.889936272568989e-11 -9.118437620519556e-11
-6.107041703435839e+02 -2.617897188411486e+02 -2.617897188413493e+02 5.749804085247512e-11 6.218163111368778e-11 -5.994476671233303e-11
-6.107041703446758e+02 -2.617897188419272e+02 -2.617897188425052e+02 -1.547371907160727e-10 -1.536823093485711e-10 1.958673553867462e-10
-6.107041703431977e+02 -2.617897188408142e+02 -2.617897188402690e+02 -3.810924889975515e-10 -9.548437325496593e-11 -2.661099594139921e-10
-6.107041703440991e+02 -2.617897188414215e+02 -2.617897188409638e+02 -3.520867023088359e-11 -5.528956690321366e-12 9.075476592864930e-13
-6.104116836914530e+02 -2.616643105550759e+02 -2.616643105552635e+02 1.446303932395749e-10 4.828216619081385e-12 2.863203904718247e-10
-6.104116836910374e+02 -2.616643105552984e+02 -2.616643105549699e+02 -9.662628872228952e-11 -2.691284191954069e-10 -3.943355263290161e-11
-6.104116836915470e+02 -2.616643105555964e+02 -2.616643105556112e+02 -5.216464145690470e-11 -5.543398368839232e-12 2.025868891022898e-10
-6.104116836911979e+02 -2.616643105546426e+02 -2.616643105549423e+02 -1.240280387582673e-10 1.617144734751222e-10 -1.712466984393640e-10
-6.107041703458036e+02 -2.617897188424595e+02 -2.617897188430522e+02 -1.380545849379801e-10 -3.095069438161308e-10 3.788811267581163e-10
-6.107041703442098e+02 -2.617897188422730e+02 -2.617897188422234e+02 -1.285281453954357e-10 6.593357974635110e-11 -2.589695303368779e-10
-6.107041703441839e+02 -2.617897188407137e+02 -2.617897188415179e+02 -1.684100003426559e-10 -1.763658681758590e-10 2.246344676505956e-10
-6.107041703447154e+02 -2.617897188413162e+02 -2.617897188405142e+02 6.727378858324531e-10 4.487415155540410e-10 1.111092992375446e-10
-6.104116836912979e+02 -2.616643105551084e+02 -2.616643105553258e+02 -4.823778096561268e-11 -5.844643632063612e-11 4.944625572314128e-10
-6.104116836906926e+02 -2.616643105549439e+02 -2.616643105549902e+02 -1.545370834621856e-10 -3.889936272568989e-11 -9.118437620519556e-11
-6.104116836910421e+02 -2.616643105545795e+02 -2.616643105546534e+02 2.766385257661705e-10 1.331504785383727e-10 -2.828786036260408e-10
-6.104116836907330e+02 -2.616643105537453e+02 -2.616643105542486e+02 2.220210230578414e-10 -1.550550450813667e-10 -4.783936652623089e-11
-6.107041703442098e+02 -2.617897188422730e+02 -2.617897188422234e+02 -1.285281453954357e-10 6.593357974635110e-11 -2.589695303368779e-10
-6.107041703440991e+02 -2.617897188414215e+02 -2.617897188409638e+02 -3.520867023088359e-11 -5.528956690321366e-12 9.075476592864930e-13
-6.107041703438866e+02 -2.617897188421505e+02 -2.617897188418940e+02 1.028642528396874e-10 -1.362229078793799e-10 -7.635377686579985e-11
-6.107041703441839e+02 -2.617897188407137e+02 -2.617897188415179e+02 -1.684100003426559e-10 -1.763658681758590e-10 2.246344676505956e-10
-6.104116836906926e+02 -2.616643105549439e+02 -2.616643105549902e+02 -1.545370834621856e-10 -3.889936272568989e-11 -9.118437620519556e-11
-6.104116836911979e+02 -2.616643105546426e+02 -2.616643105549423e+02 -1.240280387582673e-10 1.617144734751222e-10 -1.712466984393640e-10
-6.104116836908975e+02 -2.616643105552174e+02 -2.616643105546667e+02 -1.263348597495513e-10 5.005895544793919e-11 5.769856313972725e-11
-6.104116836910421e+02 -2.616643105545795e+02 -2.616643105546534e+02 2.766385257661705e-10 1.331504785383727e-10 -2.828786036260408e-10
-6.107041703440991e+02 -2.617897188414215e+02 -2.617897188409638e+02 -3.520867023088359e-11 -5.528956690321366e-12 9.075476592864930e-13
-6.107041703431977e+02 -2.617897188408142e+02 -2.617897188402690e+02 -3.810924889975515e-10 -9.548437325496593e-11 -2.661099594139921e-10
-6.107041703439597e+02 -2.617897188422443e+02 -2.617897188417066e+02 5.226318053619839e-10 3.301339796344337e-10 -1.805386701227423e-10
-6.107041703438866e+02 -2.617897188421505e+02 -2.617897188418940e+02 1.028642528396874e-10 -1.362229078793799e-10 -7.635377686579985e-11
-6.104116836911979e+02 -2.616643105546426e+02 -2.616643105549423e+02 -1.240280387582673e-10 1.617144734751222e-10 -1.712466984393640e-10
-6.104116836915470e+02 -2.616643105555964e+02 -2.616643105556112e+02 -5.216464145690470e-11 -5.543398368839232e-12 2.025868891022898e-10
-6.104116836910172e+02 -2.616643105545234e+02 -2.616643105548520e+02 6.107780029064477e-10 -2.707099596497606e-11 -2.293808583671123e-10
-6.104116836908975e+02 -2.616643105552174e+02 -2.616643105546667e+02 -1.263348597495513e-10 5.005895544793919e-11 5.769856313972725e-11
-6.104116836918304e+02 -2.616643105574483e+02 -2.616643105564203e+02 1.137776470866784e-09 2.993435240188207e-10 -6.741977565448468e-10
-6.104116836903247e+02 -2.616643105528702e+02 -2.616643105542267e+02 -3.508473598595052e-10 -5.853537370226959e-11 1.114354356385895e-10
-6.104116836917510e+02 -2.616643105564389e+02 -2.616643105558753e+02 1.360016784178735e-10 1.325032419548910e-10 -1.409904898416342e-10
-6.104116836903329e+02 -2.616643105543055e+02 -2.616643105531002e+02 2.026583420560932e-11 -1.139871801763702e-10 4.604046902336139e-10
-6.111432657491118e+02 -2.619779880091118e+02 -2.619779880104641e+02 1.341355968606236e-10 2.044699551633844e-10 2.628639916745578e-11
-6.111432657495978e+02 -2.619779880096412e+02 -2.619779880100962e+02 4.360419294677994e-11 -2.830396424514657e-10 3.091337351344257e-10
-6.111432657496688e+02 -2.619779880102834e+02 -2.619779880105688e+02 -2.857828324985750e-10 -6.774097957857270e-11 4.239877718936505e-11
-6.111432657491687e+02 -2.619779880107394e+02 -2.619779880095879e+02 -5.679148312005182e-10 -2.314113983964741e-10 1.745789326312117e-10
-6.104116836903247e+02 -2.616643105528702e+02 -2.616643105542267e+02 -3.508473598595052e-10 -5.853537370226959e-11 1.114354356385895e-10
-6.104116836915770e+02 -2.616643105557939e+02 -2.616643105560213e+02 5.457627454162483e-10 5.495570917629619e-12 3.835179471868378e-10
-6.104116836908073e+02 -2.616643105544983e+02 -2.616643105552834e+02 -6.685999946399447e-11 2.244494215117544e-11 1.546342666345701e-10
-6.104116836917510e+02 -2.616643105564389e+02 -2.616643105558753e+02 1.360016784178735e-10 1.325032419548910e-10 -1.409904898416342e-10
-6.111432657495978e+02 -2.619779880096412e+02 -2.619779880100962e+02 4.360419294677994e-11 -2.830396424514657e-10 3.091337351344257e-10
-6.111432657496980e+02 -2.619779880111798e+02 -2.619779880106947e+02 5.868029213236338e-10 -5.688861821629914e-11 1.139150691463383e-10
-6.111432657493203e+02 -2.619779880111727e+02 -2.619779880112874e+02 -3.893818883466761e-10 -2.375581864859932e-10 3.082903030323955e-11
-6.111432657496688e+02 -2.619779880102834e+02 -2.619779880105688e+02 -2.857828324985750e-10 -6.774097957857270e-11 4.239877718936505e-11
-6.104116836915770e+02 -2.616643105557939e+02 -2.616643105560213e+02 5.457627454162483e-10 5.495570917629619e-12 3.835179471868378e-10
-6.104116836902906e+02 -2.616643105541442e+02 -2.616643105544833e+02 6.079353133022744e-10 1.267597423197880e-10 -2.571900130692366e-10
-6.104116836915915e+02 -2.616643105556312e+02 -2.616643105557609e+02 2.871973629268254e-10 1.822297903047432e-12 8.351616680419433e-11
-6.104116836908073e+02 -2.616643105544983e+02 -2.616643105552834e+02 -6.685999946399447e-11 2.244494215117544e-11 1.546342666345701e-10
-6.111432657496980e+02 -2.619779880111798e+02 -2.619779880106947e+02 5.868029213236338e-10 -5.688861821629914e-11 1.139150691463383e-10
-6.111432657491014e+02 -2.619779880098384e+02 -2.619779880104602e+02 1.481563701362495e-10 -4.533802065857517e-11 1.377559508126814e-10
-6.111432657480883e+02 -2.619779880092121e+02 -2.619779880095098e+02 -2.255504559578537e-10 7.071787591727375e-11 1.784913989605341e-10
-6.111432657493203e+02 -2.619779880111727e+02 -2.619779880112874e+02 -3.893818883466761e-10 -2.375581864859932e-10 3.082903030323955e-11
-6.104116836903329e+02 -2.616643105543055e+02 -2.616643105531002e+02 2.026583420560932e-11 -1.139871801763702e-10 4.604046902336139e-10
-6.104116836917510e+02 -2.616643105564389e+02 -2.616643105558753e+02 1.360016784178735e-10 1.325032419548910e-10 -1.409904898416342e-10
-6.104116836912107e+02 -2.616643105550310e+02 -2.616643105550091e+02 -5.877348109621137e-11 4.391115947432009e-11 -1.982544205185000e-10
-6.104116836918757e+02 -2.616643105550741e+02 -2.616643105557944e+02 8.933823341019455e-11 4.331494184729537e-10 -5.171534695631872e-11
-6.111432657491687e+02 -2.619779880107394e+02 -2.619779880095879e+02 -5.679148312005182e-10 -2.314113983964741e-10 1.745789326312117e-10
-6.111432657496688e+02 -2.619779880102834e+02 -2.619779880105688e+02 -2.857828324985750e-10 -6.774097957857270e-11 4.239877718936505e-11
-6.111432657494473e+02 -2.619779880103707e+02 -2.619779880105285e+02 -1.722261117880202e-11 1.743269032422205e-11 -3.551571992168990e-11
-6.111432657512521e+02 -2.619779880119452e+02 -2.619779880116957e+02 2.272403696188443e-11 1.297196267349044e-10 5.284260867172386e-10
-6.104116836917510e+02 -2.616643105564389e+02 -2.616643105558753e+02 1.360016784178735e-10 1.325032419548910e-10 -1.409904898416342e-10
-6.104116836908073e+02 -2.616643105544983e+02 -2.616643105552834e+02 -6.685999946399447e-11 2.244494215117544e-11 1.546342666345701e-10
-6.104116836917749e+02 -2.616643105555921e+02 -2.616643105559824e+02 2.068940849147773e-10 -3.483810078868770e-10 -1.326702191802083e-10
-6.104116836912107e+02 -2.616643105550310e+02 -2.616643105550091e+02 -5.877348109621137e-11 4.391115947432009e-11 -1.982544205185000e-10
-6.111432657496688e+02 -2.619779880102834e+02 -2.619779880105688e+02 -2.857828324985750e-10 -6.774097957857270e-11 4.239877718936505e-11
-6.111432657493203e+02 -2.619779880111727e+02 -2.619779880112874e+02 -3.893818883466761e-10 -2.375581864859932e-10 3.082903030323955e-11
-6.111432657493109e+02 -2.619779880107771e+02 -2.619779880111197e+02 5.735812964229871e-12 -6.897667090235647e-11 -3.407469564866593e-10
-6.111432657494473e+02 -2.619779880103707e+02 -2.619779880105285e+02 -1.722261117880202e-11 1.743269032422205e-11 -3.551571992168990e-11
-6.104116836908073e+02 -2.616643105544983e+02 -2.616643105552834e+02 -6.685999946399447e-11 2.244494215117544e-11 1.546342666345701e-10
-6.104116836915915e+02 -2.616643105556312e+02 -2.616643105557609e+02 2.871973629268254e-10 1.822297903047432e-12 8.351616680419433e-11
-6.104116836918249e+02 -2.616643105558136e+02 -2.616643105555237e+02 1.853948342960975e-10 -1.651610848301141e-10 1.409266648136788e-10
-6.104116836917749e+02 -2.616643105555921e+02 -2.616643105559824e+02 2.068940849147773e-10 -3.483810078868770e-10 -1.326702191802083e-10
-6.111432657493203e+02 -2.619779880111727e+02 -2.619779880112874e+02 -3.893818883466761e-10 -2.375581864859932e-10 3.082903030323955e-11
-6.111432657480883e+02 -2.619779880092121e+02 -2.619779880095098e+02 -2.255504559578537e-10 7.071787591727375e-11 1.784913989605341e-10
-6.111432657507434e+02 -2.619779880116280e+02 -2.619779880116736e+02 -4.988983085094711e-12 -3.340819033282631e-11 -1.992863794534479e-10
-6.111432657493109e+02 -2.619779880107771e+02 -2.619779880111197e+02 5.735812964229871e-12 -6.897667090235647e-11 -3.407469564866593e-10
-6.104116836918757e+02 -2.616643105550741e+02 -2.616643105557944e+02 8.933823341019455e-11 4.331494184729537e-10 -5.171534695631872e-11
-6.104116836912107e+02 -2.616643105550310e+02 -2.616643105550091e+02 -5.877348109621137e-11 4.391115947432009e-11 -1.982544205185000e-10
-6.104116836911525e+02 -2.616643105550523e+02 -2.616643105549708e+02 -1.544163894645129e-10 -1.336844105845336e-10 -7.063533747881527e-11
-6.104116836911655e+02 -2.616643105546392e+02 -2.616643105547194e+02 -3.951918907330137e-11 -8.021837104073683e-11 2.756415902807016e-10
-6.111432657512521e+02 -2.619779880119452e+02 -2.619779880116957e+02 2.272403696188443e-11 1.297196267349044e-10 5.284260867172386e-10
-6.111432657494473e+02 -2.619779880103707e+02 -2.619779880105285e+02 -1.722261117880202e-11 1.743269032422205e-11 -3.551571992168990e-11
-6.111432657500387e+02 -2.619779880104797e+02 -2.619779880107461e+02 3.700090251276082e-10 -1.628900634111928e-11 4.718553949245942e-12
-6.111432657484941e+02 -2.619779880100612e+02 -2.619779880097788e+02 -8.428069758409599e-11 -6.833820024451151e-11 6.609951293533170e-11
-6.104116836912107e+02 -2.616643105550310e+02 -2.616643105550091e+02 -5.877348109621137e-11 4.391115947432009e-11 -1.982544205185000e-10
-6.104116836917749e+02 -2.616643105555921e+02 -2.616643105559824e+02 2.068940849147773e-10 -3.483810078868770e-10 -1.326702191802083e-10
-6.104116836914530e+02 -2.616643105550759e+02 -2.616643105552635e+02 1.446303932395749e-10 4.828216619081385e-12 2.863203904718247e-10
-6.104116836911525e+02 -2.616643105550523e+02 -2.616643105549708e+02 -1.544163894645129e-10 -1.336844105845336e-10 -7.063533747881527e-11
-6.111432657494473e+02 -2.619779880103707e+02 -2.619779880105285e+02 -1.722261117880202e-11 1.743269032422205e-11 -3.551571992168990e-11
-6.111432657493109e+02 -2.619779880107771e+02 -2.619779880111197e+02 5.735812964229871e-12 -6.897667090235647e-11 -3.407469564866593e-10
-6.111432657499259e+02 -2.619779880112238e+02 -2.619779880107254e+02 -1.638843339033555e-10 -7.204919876735379e-11 -5.542962912095748e-11
-6.111432657500387e+02 -2.619779880104797e+02 -2.619779880107461e+02 3.700090251276082e-10 -1.628900634111928e-11 4.718553949245942e-12
-6.104116836917749e+02 -2.616643105555921e+02 -2.616643105559824e+02 2.068940849147773e-10 -3.483810078868770e-10 -1.326702191802083e-10
-6.104116836918249e+02 -2.616643105558136e+02 -2.616643105555237e+02 1.853948342960975e-10 -1.651610848301141e-10 1.409266648136788e-10
-6.104116836910374e+02 -2.616643105552984e+02 -2.616643105549699e+02 -9.662628872228952e-11 -2.691284191954069e-10 -3.943355263290161e-11
-6.104116836914530e+02 -2.616643105550759e+02 -2.616643105552635e+02 1.446303932395749e-10 4.828216619081385e-12 2.863203904718247e-10
-6.111432657493109e+02 -2.619779880107771e+02 -2.619779880111197e+02 5.735812964229871e-12 -6.897667090235647e-11 -3.407469564866593e-10
-6.111432657507434e+02 -2.619779880116280e+02 -2.619779880116736e+02 -4.988983085094711e-12 -3.340819033282631e-11 -1.992863794534479e-10
-6.111432657484482e+02 -2.619779880099742e+02 -2.619779880099373e+02 1.474399619458926e-11 1.973043313715288e-11 -1.911498619966894e-10
-6.111432657499259e+02 -2.619779880112238e+02 -2.619779880107254e+02 -1.638843339033555e-10 -7.204919876735379e-11 -5.542962912095748e-11
-6.104116836911655e+02 -2.616643105546392e+02 -2.616643105547194e+02 -3.951918907330137e-11 -8.021837104073683e-11 2.756415902807016e-10
-6.104116836911525e+02 -2.616643105550523e+02 -2.616643105549708e+02 -1.544163894645129e-10 -1.336844105845336e-10 -7.063533747881527e-11
-6.104116836906926e+02 -2.616643105549439e+02 -2.616643105549902e+02 -1.545370834621856e-10 -3.889936272568989e-11 -9.118437620519556e-11
-6.104116836912979e+02 -2.616643105551084e+02 -2.616643105553258e+02 -4.823778096561268e-11 -5.844643632063612e-11 4.944625572314128e-10
-6.111432657484941e+02 -2.619779880100612e+02 -2.619779880097788e+02 -8.428069758409599e-11 -6.833820024451151e-11 6.609951293533170e-11
-6.111432657500387e+02 -2.619779880104797e+02 -2.619779880107461e+02 3.700090251276082e-10 -1.628900634111928e-11 4.718553949245942e-12
-6.111432657490651e+02 -2.619779880104679e+02 -2.619779880101427e+02 -2.405155160389793e-10 -5.256898036091458e-11 -2.003535128221598e-10
-6.111432657493444e+02 -2.619779880102888e+02 -2.619779880105199e+02 4.635243833135477e-11 -8.701768670670419e-11 2.892940081184850e-11
-6.104116836911525e+02 -2.616643105550523e+02 -2.616643105549708e+02 -1.544163894645129e-10 -1.336844105845336e-10 -7.063533747881527e-11
-6.104116836914530e+02 -2.616643105550759e+02 -2.616643105552635e+02 1.446303932395749e-10 4.828216619081385e-12 2.863203904718247e-10
-6.104116836911979e+02 -2.616643105546426e+02 -2.616643105549423e+02 -1.240280387582673e-10 1.617144734751222e-10 -1.712466984393640e-10
-6.104116836906926e+02 -2.616643105549439e+02 -2.616643105549902e+02 -1.545370834621856e-10 -3.889936272568989e-11 -9.118437620519556e-11
-6.111432657500387e+02 -2.619779880104797e+02 -2.619779880107461e+02 3.700090251276082e-10 -1.628900634111928e-11 4.718553949245942e-12
-6.111432657499259e+02 -2.619779880112238e+02 -2.619779880107254e+02 -1.638843339033555e-10 -7.204919876735379e-11 -5.542962912095748e-11
-6.111432657491039e+02 -2.619779880109145e+02 -2.619779880104032e+02 8.940770184680451e-11 -1.223652085467173e-10 -4.214843626107051e-11
-6.111432657490651e+02 -2.619779880104679e+02 -2.619779880101427e+02 -2.405155160389793e-10 -5.256898036091458e-11 -2.003535128221598e-10
-6.104116836914530e+02 -2.616643105550759e+02 -2.616643105552635e+02 1.446303932395749e-10 4.828216619081385e-12 2.863203904718247e-10
-6.104116836910374e+02 -2.616643105552984e+02 -2.616643105549699e+02 -9.662628872228952e-11 -2.691284191954069e-10 -3.943355263290161e-11
-6.104116836915470e+02 -2.616643105555964e+02 -2.616643105556112e+02 -5.216464145690470e-11 -5.543398368839232e-12 2.025868891022898e-10
-6.104116836911979e+02 -2.616643105546426e+02 -2.616643105549423e+02 -1.240280387582673e-10 1.617144734751222e-10 -1.712466984393640e-10
-6.111432657499259e+02 -2.619779880112238e+02 -2.619779880107254e+02 -1.638843339033555e-10 -7.204919876735379e-11 -5.542962912095748e-11
-6.111432657484482e+02 -2.619779880099742e+02 -2.619779880099373e+02 1.474399619458926e-11 1.973043313715288e-11 -1.911498619966894e-10
-6.111432657493466e+02 -2.619779880107316e+02 -2.619779880113690e+02 -1.136178924345098e-10 1.761501676422366e-11 -1.008428620231406e-10
-6.111432657491039e+02 -2.619779880109145e+02 -2.619779880104032e+02 8.940770184680451e-11 -1.223652085467173e-10 -4.214843626107051e-11
-6.104116836912979e+02 -2.616643105551084e+02 -2.616643105553258e+02 -4.823778096561268e-11 -5.844643632063612e-11 4.944625572314128e-10
-6.104116836906926e+02 -2.616643105549439e+02 -2.616643105549902e+02 -1.545370834621856e-10 -3.889936272568989e-11 -9.118437620519556e-11
-6.104116836910421e+02 -2.616643105545795e+02 -2.616643105546534e+02 2.766385257661705e-10 1.331504785383727e-10 -2.828786036260408e-10
-6.104116836907330e+02 -2.616643105537453e+02 -2.616643105542486e+02 2.220210230578414e-10 -1.550550450813667e-10 -4.783936652623089e-11
-6.111432657493444e+02 -2.619779880102888e+02 -2.619779880105199e+02 4.635243833135477e-11 -8.701768670670419e-11 2.892940081184850e-11
-6.111432657490651e+02 -2.619779880104679e+02 -2.619779880101427e+02 -2.405155160389793e-10 -5.256898036091458e-11 -2.003535128221598e-10
-6.111432657498557e+02 -2.619779880113884e+02 -2.619779880111498e+02 2.144001770626350e-11 -2.502538768211867e-10 -1.028499523037804e-10
-6.111432657490357e+02 -2.619779880096809e+02 -2.619779880103299e+02 3.695862531139430e-11 1.842971410730294e-10 3.509626005757675e-10
-6.104116836906926e+02 -2.616643105549439e+02 -2.616643105549902e+02 -1.545370834621856e-10 -3.889936272568989e-11 -9.118437620519556e-11
-6.104116836911979e+02 -2.616643105546426e+02 -2.616643105549423e+02 -1.240280387582673e-10 1.617144734751222e-10 -1.712466984393640e-10
-6.104116836908975e+02 -2.616643105552174e+02 -2.616643105546667e+02 -1.263348597495513e-10 5.005895544793919e-11 5.769856313972725e-11
-6.104116836910421e+02 -2.616643105545795e+02 -2.616643105546534e+02 2.766385257661705e-10 1.331504785383727e-10 -2.828786036260408e-10
-6.111432657490651e+02 -2.619779880104679e+02 -2.619779880101427e+02 -2.405155160389793e-10 -5.256898036091458e-11 -2.003535128221598e-10
-6.111432657491039e+02 -2.619779880109145e+02 -2.619779880104032e+02 8.940770184680451e-11 -1.223652085467173e-10 -4.214843626107051e-11
-6.111432657497757e+02 -2.619779880109982e+02 -2.619779880111097e+02 -7.261528820357529e-11 1.292649247974844e-10 -1.135146380724556e-10
-6.111432657498557e+02 -2.619779880113884e+02 -2.619779880111498e+02 2.144001770626350e-11 -2.502538768211867e-10 -1.028499523037804e-10
-6.104116836911979e+02 -2.616643105546426e+02 -2.616643105549423e+02 -1.240280387582673e-10 1.617144734751222e-10 -1.712466984393640e-10
-6.104116836915470e+02 -2.616643105555964e+02 -2.616643105556112e+02 -5.216464145690470e-11 -5.543398368839232e-12 2.025868891022898e-10
-6.104116836910172e+02 -2.616643105545234e+02 -2.616643105548520e+02 6.107780029064477e-10 -2.707099596497606e-11 -2.293808583671123e-10
-6.104116836908975e+02 -2.616643105552174e+02 -2.616643105546667e+02 -1.263348597495513e-10 5.005895544793919e-11 5.769856313972725e-11
-6.111432657491039e+02 -2.619779880109145e+02 -2.619779880104032e+02 8.940770184680451e-11 -1.223652085467173e-10 -4.214843626107051e-11
-6.111432657493466e+02 -2.619779880107316e+02 -2.619779880113690e+02 -1.136178924345098e-10 1.761501676422366e-11 -1.008428620231406e-10
-6.111432657508783e+02 -2.619779880123272e+02 -2.619779880115913e+02 3.401617253109006e-10 1.386147296942677e-10 -6.636874156695411e-11
-6.111432657497757e+02 -2.619779880109982e+02 -2.619779880111097e+02 -7.261528820357529e-11 1.292649247974844e-10 -1.135146380724556e-10
-6.111432657491118e+02 -2.619779880091118e+02 -2.619779880104641e+02 1.341355968606236e-10 2.044699551633844e-10 2.628639916745578e-11
-6.111432657495978e+02 -2.619779880096412e+02 -2.619779880100962e+02 4.360419294677994e-11 -2.830396424514657e-10 3.091337351344257e-10
-6.111432657496688e+02 -2.619779880102834e+02 -2.619779880105688e+02 -2.857828324985750e-10 -6.774097957857270e-11 4.239877718936505e-11
-6.111432657491687e+02 -2.619779880107394e+02 -2.619779880095879e+02 -5.679148312005182e-10 -2.314113983964741e-10 1.745789326312117e-10
-6.129302362202717e+02 -2.627441807621673e+02 -2.627441807609259e+02 5.169820557444516e-10 -2.923638603204993e-10 -2.115023629994482e-10
-6.129302362202421e+02 -2.627441807612096e+02 -2.627441807613376e+02 6.263635960790038e-11 -1.055821161820421e-10 -1.223778843571399e-10
-6.129302362208015e+02 -2.627441807612972e+02 -2.627441807622798e+02 -1.424699893919421e-10 -2.647087996072190e-10 1.035788350513841e-10
-6.129302362204996e+02 -2.627441807625238e+02 -2.627441807616124e+02 3.219912156988468e-10 1.479568655105326e-10 -2.093679675095547e-11
-6.111432657495978e+02 -2.619779880096412e+02 -2.619779880100962e+02 4.360419294677994e-11 -2.830396424514657e-10 3.091337351344257e-10
-6.111432657496980e+02 -2.619779880111798e+02 -2.619779880106947e+02 5.868029213236338e-10 -5.688861821629914e-11 1.139150691463383e-10
-6.111432657493203e+02 -2.619779880111727e+02 -2.619779880112874e+02 -3.893818883466761e-10 -2.375581864859932e-10 3.082903030323955e-11
-6.111432657496688e+02 -2.619779880102834e+02 -2.619779880105688e+02 -2.857828324985750e-10 -6.774097957857270e-11 4.239877718936505e-11
-6.129302362202421e+02 -2.627441807612096e+02 -2.627441807613376e+02 6.263635960790038e-11 -1.055821161820421e-10 -1.223778843571399e-10
-6.129302362208248e+02 -2.627441807627578e+02 -2.627441807625100e+02 6.042305594846214e-10 3.005604226886948e-10 -5.105446393772747e-12
-6.129302362204132e+02 -2.627441807616165e+02 -2.627441807615928e+02 1.730387241658249e-10 7.993486912569665e-11 -8.827483179118014e-11
-6.129302362208015e+02 -2.627441807612972e+02 -2.627441807622798e+02 -1.424699893919421e-10 -2.647087996072190e-10 1.035788350513841e-10
-6.111432657496980e+02 -2.619779880111798e+02 -2.619779880106947e+02 5.868029213236338e-10 -5.688861821629914e-11 1.139150691463383e-10
-6.111432657491014e+02 -2.619779880098384e+02 -2.619779880104602e+02 1.481563701362495e-10 -4.533802065857517e-11 1.377559508126814e-10
-6.111432657480883e+02 -2.619779880092121e+02 -2.619779880095098e+02 -2.255504559578537e-10 7.071787591727375e-11 1.784913989605341e-10
-6.111432657493203e+02 -2.619779880111727e+02 -2.619779880112874e+02 -3.893818883466761e-10 -2.375581864859932e-10 3.082903030323955e-11
-6.129302362208248e+02 -2.627441807627578e+02 -2.627441807625100e+02 6.042305594846214e-10 3.005604226886948e-10 -5.105446393772747e-12
-6.129302362205202e+02 -2.627441807629397e+02 -2.627441807622420e+02 1.060140597633664e-09 3.320920396303296e-10 -1.696973355370858e-10
-6.129302362208658e+02 -2.627441807615692e+02 -2.627441807617112e+02 -3.495330965728704e-10 1.494316943075551e-10 4.838956857097380e-11
-6.129302362204132e+02 -2.627441807616165e+02 -2.627441807615928e+02 1.730387241658249e-10 7.993486912569665e-11 -8.827483179118014e-11
-6.111432657491687e+02 -2.619779880107394e+02 -2.619779880095879e+02 -5.679148312005182e-10 -2.314113983964741e-10 1.745789326312117e-10
-6.111432657496688e+02 -2.619779880102834e+02 -2.619779880105688e+02 -2.857828324985750e-10 -6.774097957857270e-11 4.239877718936505e-11
-6.111432657494473e+02 -2.619779880103707e+02 -2.619779880105285e+02 -1.722261117880202e-11 1.743269032422205e-11 -3.551571992168990e-11
-6.111432657512521e+02 -2.619779880119452e+02 -2.619779880116957e+02 2.272403696188443e-11 1.297196267349044e-10 5.284260867172386e-10
-6.129302362204996e+02 -2.627441807625238e+02 -2.627441807616124e+02 3.219912156988468e-10 1.479568655105326e-10 -2.093679675095547e-11
-6.129302362208015e+02 -2.627441807612972e+02 -2.627441807622798e+02 -1.424699893919421e-10 -2.647087996072190e-10 1.035788350513841e-10
-6.129302362208889e+02 -2.627441807621620e+02 -2.627441807620847e+02 -1.332689335197222e-10 -1.531029841868671e-10 -1.731455476670044e-11
-6.129302362206604e+02 -2.627441807620305e+02 -2.627441807616410e+02 2.705719359916592e-10 5.392896553734958e-11 -3.094836851809033e-10
-6.111432657496688e+02 -2.619779880102834e+02 -2.619779880105688e+02 -2.857828324985750e-10 -6.774097957857270e-11 4.239877718936505e-11
-6.111432657493203e+02 -2.619779880111727e+02 -2.619779880112874e+02 -3.893818883466761e-10 -2.375581864859932e-10 3.082903030323955e-11
-6.111432657493109e+02 -2.619779880107771e+02 -2.619779880111197e+02 5.735812964229871e-12 -6.897667090235647e-11 -3.407469564866593e-10
-6.111432657494473e+02 -2.619779880103707e+02 -2.619779880105285e+02 -1.722261117880202e-11 1.743269032422205e-11 -3.551571992168990e-11
-6.129302362208015e+02 -2.627441807612972e+02 -2.627441807622798e+02 -1.424699893919421e-10 -2.647087996072190e-10 1.035788350513841e-10
-6.129302362204132e+02 -2.627441807616165e+02 -2.627441807615928e+02 1.730387241658249e-10 7.993486912569665e-11 -8.827483179118014e-11
-6.129302362211849e+02 -2.627441807625713e+02 -2.627441807622115e+02 -1.627877028508499e-11 -2.404401461506098e-10 -1.458431979129846e-10
-6.129302362208889e+02 -2.627441807621620e+02 -2.627441807620847e+02 -1.332689335197222e-10 -1.531029841868671e-10 -1.731455476670044e-11
-6.111432657493203e+02 -2.619779880111727e+02 -2.619779880112874e+02 -3.893818883466761e-10 -2.375581864859932e-10 3.082903030323955e-11
-6.111432657480883e+02 -2.619779880092121e+02 -2.619779880095098e+02 -2.255504559578537e-10 7.071787591727375e-11 1.784913989605341e-10
-6.111432657507434e+02 -2.619779880116280e+02 -2.619779880116736e+02 -4.988983085094711e-12 -3.340819033282631e-11 -1.992863794534479e-10
-6.111432657493109e+02 -2.619779880107771e+02 -2.619779880111197e+02 5.735812964229871e-12 -6.897667090235647e-11 -3.407469564866593e-10
-6.129302362204132e+02 -2.627441807616165e+02 -2.627441807615928e+02 1.730387241658249e-10 7.993486912569665e-11 -8.827483179118014e-11
-6.129302362208658e+02 -2.627441807615692e+02 -2.627441807617112e+02 -3.495330965728704e-10 1.494316943075551e-10 4.838956857097380e-11
-6.129302362200052e+02 -2.627441807615297e+02 -2.627441807615279e+02 -1.381299319193626e-10 2.910524726948643e-11 3.931776774255834e-11
-6.129302362211849e+02 -2.627441807625713e+02 -2.627441807622115e+02 -1.627877028508499e-11 -2.404401461506098e-10 -1.458431979129846e-10
-6.111432657512521e+02 -2.619779880119452e+02 -2.619779880116957e+02 2.272403696188443e-11 1.297196267349044e-10 5.284260867172386e-10
-6.111432657494473e+02 -2.619779880103707e+02 -2.619779880105285e+02 -1.722261117880202e-11 1.743269032422205e-11 -3.551571992168990e-11
-6.111432657500387e+02 -2.619779880104797e+02 -2.619779880107461e+02 3.700090251276082e-10 -1.628900634111928e-11 4.718553949245942e-12
-6.111432657484941e+02 -2.619779880100612e+02 -2.619779880097788e+02 -8.428069758409599e-11 -6.833820024451151e-11 6.609951293533170e-11
-6.129302362206604e+02 -2.627441807620305e+02 -2.627441807616410e+02 2.705719359916592e-10 5.392896553734958e-11 -3.094836851809033e-10
-6.129302362208889e+02 -2.627441807621620e+02 -2.627441807620847e+02 -1.332689335197222e-10 -1.531029841868671e-10 -1.731455476670044e-11
-6.129302362209731e+02 -2.627441807622562e+02 -2.627441807623202e+02 1.262260337494184e-10 -2.384485276705629e-10 7.730417643706521e-11
-6.129302362212469e+02 -2.627441807619762e+02 -2.627441807624305e+02 3.417930423354964e-10 2.449103594254246e-11 1.069559127331163e-10
-6.111432657494473e+02 -2.619779880103707e+02 -2.619779880105285e+02 -1.722261117880202e-11 1.743269032422205e-11 -3.551571992168990e-11
-6.111432657493109e+02 -2.619779880107771e+02 -2.619779880111197e+02 5.735812964229871e-12 -6.897667090235647e-11 -3.407469564866593e-10
-6.111432657499259e+02 -2.619779880112238e+02 -2.619779880107254e+02 -1.638843339033555e-10 -7.204919876735379e-11 -5.542962912095748e-11
-6.111432657500387e+02 -2.619779880104797e+02 -2.619779880107461e+02 3.700090251276082e-10 -1.628900634111928e-11 4.718553949245942e-12
-6.129302362208889e+02 -2.627441807621620e+02 -2.627441807620847e+02 -1.332689335197222e-10 -1.531029841868671e-10 -1.731455476670044e-11
-6.129302362211849e+02 -2.627441807625713e+02 -2.627441807622115e+02 -1.627877028508499e-11 -2.404401461506098e-10 -1.458431979129846e-10
-6.129302362199148e+02 -2.627441807616503e+02 -2.627441807618514e+02 -3.269642897800102e-11 -5.931345587803063e-11 -1.769206591810718e-10
-6.129302362209731e+02 -2.627441807622562e+02 -2.627441807623202e+02 1.262260337494184e-10 -2.384485276705629e-10 7.730417643706521e-11
-6.111432657493109e+02 -2.619779880107771e+02 -2.619779880111197e+02 5.735812964229871e-12 -6.897667090235647e-11 -3.407469564866593e-10
-6.111432657507434e+02 -2.619779880116280e+02 -2.619779880116736e+02 -4.988983085094711e-12 -3.340819033282631e-11 -1.992863794534479e-10
-6.111432657484482e+02 -2.619779880099742e+02 -2.619779880099373e+02 1.474399619458926e-11 1.973043313715288e-11 -1.911498619966894e-10
-6.111432657499259e+02 -2.619779880112238e+02 -2.619779880107254e+02 -1.638843339033555e-10 -7.204919876735379e-11 -5.542962912095748e-11
-6.129302362211849e+02 -2.627441807625713e+02 -2.627441807622115e+02 -1.627877028508499e-11 -2.404401461506098e-10 -1.458431979129846e-10
-6.129302362200052e+02 -2.627441807615297e+02 -2.627441807615279e+02 -1.381299319193626e-10 2.910524726948643e-11 3.931776774255834e-11
-6.129302362205233e+02 -2.627441807623376e+02 -2.627441807620130e+02 -5.004983979431849e-11 -1.181569790910021e-10 3.445856592556893e-11
-6.129302362199148e+02 -2.627441807616503e+02 -2.627441807618514e+02 -3.269642897800102e-11 -5.931345587803063e-11 -1.769206591810718e-10
-6.111432657484941e+02 -2.619779880100612e+02 -2.619779880097788e+02 -8.428069758409599e-11 -6.833820024451151e-11 6.609951293533170e-11
-6.111432657500387e+02 -2.619779880104797e+02 -2.619779880107461e+02 3.700090251276082e-10 -1.628900634111928e-11 4.718553949245942e-12
-6.111432657490651e+02 -2.619779880104679e+02 -2.619779880101427e+02 -2.405155160389793e-10 -5.256898036091458e-11 -2.003535128221598e-10
-6.111432657493444e+02 -2.619779880102888e+02 -2.619779880105199e+02 4.635243833135477e-11 -8.701768670670419e-11 2.892940081184850e-11
-6.129302362212469e+02 -2.627441807619762e+02 -2.627441807624305e+02 3.417930423354964e-10 2.449103594254246e-11 1.069559127331163e-10
-6.129302362209731e+02 -2.627441807622562e+02 -2.627441807623202e+02 1.262260337494184e-10 -2.384485276705629e-10 7.730417643706521e-11
-6.129302362201888e+02 -2.627441807619020e+02 -2.627441807618480e+02 -1.772140957940770e-11 -2.951116526294759e-10 -1.262044678886373e-10
-6.129302362210497e+02 -2.627441807615612e+02 -2.627441807618807e+02 -2.855773450105076e-10 1.166713060710709e-10 3.877658422849102e-10
-6.111432657500387e+02 -2.619779880104797e+02 -2.619779880107461e+02 3.700090251276082e-10 -1.628900634111928e-11 4.718553949245942e-12
-6.111432657499259e+02 -2.619779880112238e+02 -2.619779880107254e+02 -1.638843339033555e-10 -7.204919876735379e-11 -5.542962912095748e-11
-6.111432657491039e+02 -2.619779880109145e+02 -2.619779880104032e+02 8.940770184680451e-11 -1.223652085467173e-10 -4.214843626107051e-11
-6.111432657490651e+02 -2.619779880104679e+02 -2.619779880101427e+02 -2.405155160389793e-10 -5.256898036091458e-11 -2.003535128221598e-10
-6.129302362209731e+02 -2.627441807622562e+02 -2.627441807623202e+02 1.262260337494184e-10 -2.384485276705629e-10 7.730417643706521e-11
-6.129302362199148e+02 -2.627441807616503e+02 -2.627441807618514e+02 -3.269642897800102e-11 -5.931345587803063e-11 -1.769206591810718e-10
-6.129302362209302e+02 -2.627441807617681e+02 -2.627441807617818e+02 -2.757627060279112e-10 8.834750340860843e-11 -4.284962385305577e-11
-6.129302362201888e+02 -2.627441807619020e+02 -2.627441807618480e+02 -1.772140957940770e-11 -2.951116526294759e-10 -1.262044678886373e-10
-6.111432657499259e+02 -2.619779880112238e+02 -2.619779880107254e+02 -1.638843339033555e-10 -7.204919876735379e-11 -5.542962912095748e-11
-6.111432657484482e+02 -2.619779880099742e+02 -2.619779880099373e+02 1.474399619458926e-11 1.973043313715288e-11 -1.911498619966894e-10
-6.111432657493466e+02 -2.619779880107316e+02 -2.619779880113690e+02 -1.136178924345098e-10 1.761501676422366e-11 -1.008428620231406e-10
-6.111432657491039e+02 -2.619779880109145e+02 -2.619779880104032e+02 8.940770184680451e-11 -1.223652085467173e-10 -4.214843626107051e-11
-6.129302362199148e+02 -2.627441807616503e+02 -2.627441807618514e+02 -3.269642897800102e-11 -5.931345587803063e-11 -1.769206591810718e-10
-6.129302362205233e+02 -2.627441807623376e+02 -2.627441807620130e+02 -5.004983979431849e-11 -1.181569790910021e-10 3.445856592556893e-11
-6.129302362216723e+02 -2.627441807628408e+02 -2.627441807624244e+02 -2.212620140377299e-10 1.979474172135833e-10 1.958309129466462e-10
-6.129302362209302e+02 -2.627441807617681e+02 -2.627441807617818e+02 -2.757627060279112e-10 8.834750340860843e-11 -4.284962385305577e-11
-6.111432657493444e+02 -2.619779880102888e+02 -2.619779880105199e+02 4.635243833135477e-11 -8.701768670670419e-11 2.892940081184850e-11
-6.111432657490651e+02 -2.619779880104679e+02 -2.619779880101427e+02 -2.405155160389793e-10 -5.256898036091458e-11 -2.003535128221598e-10
-6.111432657498557e+02 -2.619779880113884e+02 -2.619779880111498e+02 2.144001770626350e-11 -2.502538768211867e-10 -1.028499523037804e-10
-6.111432657490357e+02 -2.619779880096809e+02 -2.619779880103299e+02 3.695862531139430e-11 1.842971410730294e-10 3.509626005757675e-10
-6.129302362210497e+02 -2.627441807615612e+02 -2.627441807618807e+02 -2.855773450105076e-10 1.166713060710709e-10 3.877658422849102e-10
-6.129302362201888e+02 -2.627441807619020e+02 -2.627441807618480e+02 -1.772140957940770e-11 -2.951116526294759e-10 -1.262044678886373e-10
-6.129302362211824e+02 -2.627441807624841e+02 -2.627441807623013e+02 2.895332833143626e-10 1.112785670286940e-10 -1.480569126554505e-10
-6.129302362203649e+02 -2.627441807613048e+02 -2.627441807621247e+02 -2.350964506829372e-11 4.063500954001807e-11 2.075096787740492e-10
-6.111432657490651e+02 -2.619779880104679e+02 -2.619779880101427e+02 -2.405155160389793e-10 -5.256898036091458e-11 -2.003535128221598e-10
-6.111432657491039e+02 -2.619779880109145e+02 -2.619779880104032e+02 8.940770184680451e-11 -1.223652085467173e-10 -4.214843626107051e-11
-6.111432657497757e+02 -2.619779880109982e+02 -2.619779880111097e+02 -7.261528820357529e-11 1.292649247974844e-10 -1.135146380724556e-10
-6.111432657498557e+02 -2.619779880113884e+02 -2.619779880111498e+02 2.144001770626350e-11 -2.502538768211867e-10 -1.028499523037804e-10
-6.129302362201888e+02 -2.627441807619020e+02 -2.627441807618480e+02 -1.772140957940770e-11 -2.951116526294759e-10 -1.262044678886373e-10
-6.129302362209302e+02 -2.627441807617681e+02 -2.627441807617818e+02 -2.757627060279112e-10 8.834750340860843e-11 -4.284962385305577e-11
-6.129302362208452e+02 -2.627441807628195e+02 -2.627441807623858e+02 1.622972324345256e-10 1.215530397341182e-10 -1.432228906351661e-10
-6.129302362211824e+02 -2.627441807624841e+02 -2.627441807623013e+02 2.895332833143626e-10 1.112785670286940e-10 -1.480569126554505e-10
-6.111432657491039e+02 -2.619779880109145e+02 -2.619779880104032e+02 8.940770184680451e-11 -1.223652085467173e-10 -4.214843626107051e-11
-6.111432657493466e+02 -2.619779880107316e+02 -2.619779880113690e+02 -1.136178924345098e-10 1.761501676422366e-11 -1.008428620231406e-10
-6.111432657508783e+02 -2.619779880123272e+02 -2.619779880115913e+02 3.401617253109006e-10 1.386147296942677e-10 -6.636874156695411e-11
-6.111432657497757e+02 -2.619779880109982e+02 -2.619779880111097e+02 -7.261528820357529e-11 1.292649247974844e-10 -1.135146380724556e-10
-6.129302362209302e+02 -2.627441807617681e+02 -2.627441807617818e+02 -2.757627060279112e-10 8.834750340860843e-11 -4.284962385305577e-11
-6.129302362216723e+02 -2.627441807628408e+02 -2.627441807624244e+02 -2.212620140377299e-10 1.979474172135833e-10 1.958309129466462e-10
-6.129302362197080e+02 -2.627441807602252e+02 -2.627441807614059e+02 2.044598344596106e-11 -8.365639029279497e-11 -2.230647935604539e-10
-6.129302362208452e+02 -2.627441807628195e+02 -2.627441807623858e+02 1.622972324345256e-10 1.215530397341182e-10 -1.432228906351661e-10
-6.129302362202717e+02 -2.627441807621673e+02 -2.627441807609259e+02 5.169820557444516e-10 -2.923638603204993e-10 -2.115023629994482e-10
-6.129302362202421e+02 -2.627441807612096e+02 -2.627441807613376e+02 6.263635960790038e-11 -1.055821161820421e-10 -1.223778843571399e-10
-6.129302362208015e+02 -2.627441807612972e+02 -2.627441807622798e+02 -1.424699893919421e-10 -2.647087996072190e-10 1.035788350513841e-10
-6.129302362204996e+02 -2.627441807625238e+02 -2.627441807616124e+02 3.219912156988468e-10 1.479568655105326e-10 -2.093679675095547e-11
-6.140824681860340e+02 -2.632382192531074e+02 -2.632382192532806e+02 5.066897107837981e-11 1.247471923011279e-10 -1.230771811699081e-10
-6.140824681823246e+02 -2.632382192508015e+02 -2.632382192508015e+02 -3.801570449890330e-10 -7.242493249139543e-11 -3.625169824147123e-10
-6.140824681850488e+02 -2.632382192521495e+02 -2.632382192527795e+02 -3.616057276181859e-10 1.022693451651575e-10 5.786707210792486e-11
-6.140824681830436e+02 -2.632382192524976e+02 -2.632382192518594e+02 1.980074778958006e-10 1.127501859127186e-10 1.046710068786669e-09
-6.129302362202421e+02 -2.627441807612096e+02 -2.627441807613376e+02 6.263635960790038e-11 -1.055821161820421e-10 -1.223778843571399e-10
-6.129302362208248e+02 -2.627441807627578e+02 -2.627441807625100e+02 6.042305594846214e-10 3.005604226886948e-10 -5.105446393772747e-12
-6.129302362204132e+02 -2.627441807616165e+02 -2.627441807615928e+02 1.730387241658249e-10 7.993486912569665e-11 -8.827483179118014e-11
-6.129302362208015e+02 -2.627441807612972e+02 -2.627441807622798e+02 -1.424699893919421e-10 -2.647087996072190e-10 1.035788350513841e-10
-6.140824681823246e+02 -2.632382192508015e+02 -2.632382192508015e+02 -3.801570449890330e-10 -7.242493249139543e-11 -3.625169824147123e-10
-6.140824681821612e+02 -2.632382192511024e+02 -2.632382192510520e+02 -5.737287378425577e-10 -1.246757824422184e-10 -2.372188623262955e-10
-6.140824681852469e+02 -2.632382192533898e+02 -2.632382192531538e+02 -4.021090451328864e-10 -1.751622974763837e-10 -6.319655177717944e-12
-6.140824681850488e+02 -2.632382192521495e+02 -2.632382192527795e+02 -3.616057276181859e-10 1.022693451651575e-10 5.786707210792486e-11
-6.129302362208248e+02 -2.627441807627578e+02 -2.627441807625100e+02 6.042305594846214e-10 3.005604226886948e-10 -5.105446393772747e-12
-6.129302362205202e+02 -2.627441807629397e+02 -2.627441807622420e+02 1.060140597633664e-09 3.320920396303296e-10 -1.696973355370858e-10
-6.129302362208658e+02 -2.627441807615692e+02 -2.627441807617112e+02 -3.495330965728704e-10 1.494316943075551e-10 4.838956857097380e-11
-6.129302362204132e+02 -2.627441807616165e+02 -2.627441807615928e+02 1.730387241658249e-10 7.993486912569665e-11 -8.827483179118014e-11
-6.140824681821612e+02 -2.632382192511024e+02 -2.632382192510520e+02 -5.737287378425577e-10 -1.246757824422184e-10 -2.372188623262955e-10
-6.140824681829206e+02 -2.632382192512034e+02 -2.632382192515000e+02 -3.502761765846042e-10 -1.038140434331207e-10 3.072713045843347e-10
-6.140824681849415e+02 -2.632382192525024e+02 -2.632382192525740e+02 -2.624128164730606e-10 -8.708321365012394e-12 -2.269109941080589e-10
-6.140824681852469e+02 -2.632382192533898e+02 -2.632382192531538e+02 -4.021090451328864e-10 -1.751622974763837e-10 -6.319655177717944e-12
-6.129302362204996e+02 -2.627441807625238e+02 -2.627441807616124e+02 3.219912156988468e-10 1.479568655105326e-10 -2.093679675095547e-11
-6.129302362208015e+02 -2.627441807612972e+02 -2.627441807622798e+02 -1.424699893919421e-10 -2.647087996072190e-10 1.035788350513841e-10
-6.129302362208889e+02 -2.627441807621620e+02 -2.627441807620847e+02 -1.332689335197222e-10 -1.531029841868671e-10 -1.731455476670044e-11
-6.129302362206604e+02 -2.627441807620305e+02 -2.627441807616410e+02 2.705719359916592e-10 5.392896553734958e-11 -3.094836851809033e-10
-6.140824681830436e+02 -2.632382192524976e+02 -2.632382192518594e+02 1.980074778958006e-10 1.127501859127186e-10 1.046710068786669e-09
-6.140824681850488e+02 -2.632382192521495e+02 -2.632382192527795e+02 -3.616057276181859e-10 1.022693451651575e-10 5.786707210792486e-11
-6.140824681869137e+02 -2.632382192529828e+02 -2.632382192530148e+02 6.727716293506084e-11 7.168616912378385e-11 -1.605956308967677e-10
-6.140824681858014e+02 -2.632382192537359e+02 -2.632382192543461e+02 -4.459472945877989e-10 -2.415177777950390e-10 7.492799895204322e-10
-6.129302362208015e+02 -2.627441807612972e+02 -2.627441807622798e+02 -1.424699893919421e-10 -2.647087996072190e-10 1.035788350513841e-10
-6.129302362204132e+02 -2.627441807616165e+02 -2.627441807615928e+02 1.730387241658249e-10 7.993486912569665e-11 -8.827483179118014e-11
-6.129302362211849e+02 -2.627441807625713e+02 -2.627441807622115e+02 -1.627877028508499e-11 -2.404401461506098e-10 -1.458431979129846e-10
-6.129302362208889e+02 -2.627441807621620e+02 -2.627441807620847e+02 -1.332689335197222e-10 -1.531029841868671e-10 -1.731455476670044e-11
-6.140824681850488e+02 -2.632382192521495e+02 -2.632382192527795e+02 -3.616057276181859e-10 1.022693451651575e-10 5.786707210792486e-11
-6.140824681852469e+02 -2.632382192533898e+02 -2.632382192531538e+02 -4.021090451328864e-10 -1.751622974763837e-10 -6.319655177717944e-12
-6.140824681856705e+02 -2.632382192538792e+02 -2.632382192535295e+02 -1.314688753615697e-10 -1.651736021556727e-10 -5.374358202432380e-10
-6.140824681869137e+02 -2.632382192529828e+02 -2.632382192530148e+02 6.727716293506084e-11 7.168616912378385e-11 -1.605956308967677e-10
-6.129302362204132e+02 -2.627441807616165e+02 -2.627441807615928e+02 1.730387241658249e-10 7.993486912569665e-11 -8.827483179118014e-11
-6.129302362208658e+02 -2.627441807615692e+02 -2.627441807617112e+02 -3.495330965728704e-10 1.494316943075551e-10 4.838956857097380e-11
-6.129302362200052e+02 -2.627441807615297e+02 -2.627441807615279e+02 -1.381299319193626e-10 2.910524726948643e-11 3.931776774255834e-11
-6.129302362211849e+02 -2.627441807625713e+02 -2.627441807622115e+02 -1.627877028508499e-11 -2.404401461506098e-10 -1.458431979129846e-10
-6.140824681852469e+02 -2.632382192533898e+02 -2.632382192531538e+02 -4.021090451328864e-10 -1.751622974763837e-10 -6.319655177717944e-12
-6.140824681849415e+02 -2.632382192525024e+02 -2.632382192525740e+02 -2.624128164730606e-10 -8.708321365012394e-12 -2.269109941080589e-10
-6.140824681847450e+02 -2.632382192526326e+02 -2.632382192523668e+02 1.041435198738459e-10 -9.242783138095972e-11 -1.245222356643924e-10
-6.140824681856705e+02 -2.632382192538792e+02 -2.632382192535295e+02 -1.314688753615697e-10 -1.651736021556727e-10 -5.374358202432380e-10
-6.129302362206604e+02 -2.627441807620305e+02 -2.627441807616410e+02 2.705719359916592e-10 5.392896553734958e-11 -3.094836851809033e-10
-6.129302362208889e+02 -2.627441807621620e+02 -2.627441807620847e+02 -1.332689335197222e-10 -1.531029841868671e-10 -1.731455476670044e-11
-6.129302362209731e+02 -2.627441807622562e+02 -2.627441807623202e+02 1.262260337494184e-10 -2.384485276705629e-10 7.730417643706521e-11
-6.129302362212469e+02 -2.627441807619762e+02 -2.627441807624305e+02 3.417930423354964e-10 2.449103594254246e-11 1.069559127331163e-10
-6.140824681858014e+02 -2.632382192537359e+02 -2.632382192543461e+02 -4.459472945877989e-10 -2.415177777950390e-10 7.492799895204322e-10
-6.140824681869137e+02 -2.632382192529828e+02 -2.632382192530148e+02 6.727716293506084e-11 7.168616912378385e-11 -1.605956308967677e-10
-6.140824681830629e+02 -2.632382192520668e+02 -2.632382192521917e+02 1.018465536735104e-09 -1.186220244255571e-11 -2.436522510960155e-10
-6.140824681861836e+02 -2.632382192532583e+02 -2.632382192526466e+02 -5.406351082764413e-10 -3.779325380563955e-10 1.015450163856820e-10
-6.129302362208889e+02 -2.627441807621620e+02 -2.627441807620847e+02 -1.332689335197222e-10 -1.531029841868671e-10 -1.731455476670044e-11
-6.129302362211849e+02 -2.627441807625713e+02 -2.627441807622115e+02 -1.627877028508499e-11 -2.404401461506098e-10 -1.458431979129846e-10
-6.129302362199148e+02 -2.627441807616503e+02 -2.627441807618514e+02 -3.269642897800102e-11 -5.931345587803063e-11 -1.769206591810718e-10
-6.129302362209731e+02 -2.627441807622562e+02 -2.627441807623202e+02 1.262260337494184e-10 -2.384485276705629e-10 7.730417643706521e-11
-6.140824681869137e+02 -2.632382192529828e+02 -2.632382192530148e+02 6.727716293506084e-11 7.168616912378385e-11 -1.605956308967677e-10
-6.140824681856705e+02 -2.632382192538792e+02 -2.632382192535295e+02 -1.314688753615697e-10 -1.651736021556727e-10 -5.374358202432380e-10
-6.140824681837614e+02 -2.632382192522074e+02 -2.632382192516918e+02 1.656813357805814e-11 3.084911464611599e-10 -2.257671065206413e-10
-6.140824681830629e+02 -2.632382192520668e+02 -2.632382192521917e+02 1.018465536735104e-09 -1.186220244255571e-11 -2.436522510960155e-10
-6.129302362211849e+02 -2.627441807625713e+02 -2.627441807622115e+02 -1.627877028508499e-11 -2.404401461506098e-10 -1.458431979129846e-10
-6.129302362200052e+02 -2.627441807615297e+02 -2.627441807615279e+02 -1.381299319193626e-10 2.910524726948643e-11 3.931776774255834e-11
-6.129302362205233e+02 -2.627441807623376e+02 -2.627441807620130e+02 -5.004983979431849e-11 -1.181569790910021e-10 3.445856592556893e-11
-6.129302362199148e+02 -2.627441807616503e+02 -2.627441807618514e+02 -3.269642897800102e-11 -5.931345587803063e-11 -1.769206591810718e-10
-6.140824681856705e+02 -2.632382192538792e+02 -2.632382192535295e+02 -1.314688753615697e-10 -1.651736021556727e-10 -5.374358202432380e-10
-6.140824681847450e+02 -2.632382192526326e+02 -2.632382192523668e+02 1.041435198738459e-10 -9.242783138095972e-11 -1.245222356643924e-10
-6.140824681856426e+02 -2.632382192535142e+02 -2.632382192540043e+02 -3.248302844559576e-10 -7.743352386460771e-11 -2.807911765668855e-10
-6.140824681837614e+02 -2.632382192522074e+02 -2.632382192516918e+02 1.656813357805814e-11 3.084911464611599e-10 -2.257671065206413e-10
-6.129302362212469e+02 -2.627441807619762e+02 -2.627441807624305e+02 3.417930423354964e-10 2.449103594254246e-11 1.069559127331163e-10
-6.129302362209731e+02 -2.627441807622562e+02 -2.627441807623202e+02 1.262260337494184e-10 -2.384485276705629e-10 7.730417643706521e-11
-6.129302362201888e+02 -2.627441807619020e+02 -2.627441807618480e+02 -1.772140957940770e-11 -2.951116526294759e-10 -1.262044678886373e-10
-6.129302362210497e+02 -2.627441807615612e+02 -2.627441807618807e+02 -2.855773450105076e-10 1.166713060710709e-10 3.877658422849102e-10
-6.140824681861836e+02 -2.632382192532583e+02 -2.632382192526466e+02 -5.406351082764413e-10 -3.779325380563955e-10 1.015450163856820e-10
-6.140824681830629e+02 -2.632382192520668e+02 -2.632382192521917e+02 1.018465536735104e-09 -1.186220244255571e-11 -2.436522510960155e-10
-6.140824681832099e+02 -2.632382192521684e+02 -2.632382192518602e+02 -4.420627092989575e-10 -8.834558904787092e-11 -1.669447702839591e-10
-6.140824681861013e+02 -2.632382192535545e+02 -2.632382192529959e+02 -2.884004876790597e-10 -1.842922761700850e-10 -2.352813604252046e-10
-6.129302362209731e+02 -2.627441807622562e+02 -2.627441807623202e+02 1.262260337494184e-10 -2.384485276705629e-10 7.730417643706521e-11
-6.129302362199148e+02 -2.627441807616503e+02 -2.627441807618514e+02 -3.269642897800102e-11 -5.931345587803063e-11 -1.769206591810718e-10
-6.129302362209302e+02 -2.627441807617681e+02 -2.627441807617818e+02 -2.757627060279112e-10 8.834750340860843e-11 -4.284962385305577e-11
-6.129302362201888e+02 -2.627441807619020e+02 -2.627441807618480e+02 -1.772140957940770e-11 -2.951116526294759e-10 -1.262044678886373e-10
-6.140824681830629e+02 -2.632382192520668e+02 -2.632382192521917e+02 1.018465536735104e-09 -1.186220244255571e-11 -2.436522510960155e-10
-6.140824681837614e+02 -2.632382192522074e+02 -2.632382192516918e+02 1.656813357805814e-11 3.084911464611599e-10 -2.257671065206413e-10
-6.140824681863684e+02 -2.632382192534546e+02 -2.632382192537918e+02 -3.454047129226337e-10 -1.463923371400062e-10 2.683361785063848e-10
-6.140824681832099e+02 -2.632382192521684e+02 -2.632382192518602e+02 -4.420627092989575e-10 -8.834558904787092e-11 -1.669447702839591e-10
-6.129302362199148e+02 -2.627441807616503e+02 -2.627441807618514e+02 -3.269642897800102e-11 -5.931345587803063e-11 -1.769206591810718e-10
-6.129302362205233e+02 -2.627441807623376e+02 -2.627441807620130e+02 -5.004983979431849e-11 -1.181569790910021e-10 3.445856592556893e-11
-6.129302362216723e+02 -2.627441807628408e+02 -2.627441807624244e+02 -2.212620140377299e-10 1.979474172135833e-10 1.958309129466462e-10
-6.129302362209302e+02 -2.627441807617681e+02 -2.627441807617818e+02 -2.757627060279112e-10 8.834750340860843e-11 -4.284962385305577e-11
-6.140824681837614e+02 -2.632382192522074e+02 -2.632382192516918e+02 1.656813357805814e-11 3.084911464611599e-10 -2.257671065206413e-10
-6.140824681856426e+02 -2.632382192535142e+02 -2.632382192540043e+02 -3.248302844559576e-10 -7.743352386460771e-11 -2.807911765668855e-10
-6.140824681853117e+02 -2.632382192530357e+02 -2.632382192534261e+02 -1.803823515117817e-10 4.609249544299679e-11 -1.784926672036502e-11
-6.140824681863684e+02 -2.632382192534546e+02 -2.632382192537918e+02 -3.454047129226337e-10 -1.463923371400062e-10 2.683361785063848e-10
-6.129302362210497e+02 -2.627441807615612e+02 -2.627441807618807e+02 -2.855773450105076e-10 1.166713060710709e-10 3.877658422849102e-10
-6.129302362201888e+02 -2.627441807619020e+02 -2.627441807618480e+02 -1.772140957940770e-11 -2.951116526294759e-10 -1.262044678886373e-10
-6.129302362211824e+02 -2.627441807624841e+02 -2.627441807623013e+02 2.895332833143626e-10 1.112785670286940e-10 -1.480569126554505e-10
-6.129302362203649e+02 -2.627441807613048e+02 -2.627441807621247e+02 -2.350964506829372e-11 4.063500954001807e-11 2.075096787740492e-10
-6.140824681861013e+02 -2.632382192535545e+02 -2.632382192529959e+02 -2.884004876790597e-10 -1.842922761700850e-10 -2.352813604252046e-10
-6.140824681832099e+02 -2.632382192521684e+02 -2.632382192518602e+02 -4.420627092989575e-10 -8.834558904787092e-11 -1.669447702839591e-10
-6.140824681854156e+02 -2.632382192525024e+02 -2.632382192528126e+02 -3.162537386984653e-10 -4.553410024415551e-12 3.650961500441544e-11
-6.140824681848280e+02 -2.632382192537202e+02 -2.632382192530049e+02 9.326165286832257e-10 -3.193026064943770e-11 1.105595563133644e-10
-6.129302362201888e+02 -2.627441807619020e+02 -2.627441807618480e+02 -1.772140957940770e-11 -2.951116526294759e-10 -1.262044678886373e-10
-6.129302362209302e+02 -2.627441807617681e+02 -2.627441807617818e+02 -2.757627060279112e-10 8.834750340860843e-11 -4.284962385305577e-11
-6.129302362208452e+02 -2.627441807628195e+02 -2.627441807623858e+02 1.622972324345256e-10 1.215530397341182e-10 -1.432228906351661e-10
-6.129302362211824e+02 -2.627441807624841e+02 -2.627441807623013e+02 2.895332833143626e-10 1.112785670286940e-10 -1.480569126554505e-10
-6.140824681832099e+02 -2.632382192521684e+02 -2.632382192518602e+02 -4.420627092989575e-10 -8.834558904787092e-11 -1.669447702839591e-10
-6.140824681863684e+02 -2.632382192534546e+02 -2.632382192537918e+02 -3.454047129226337e-10 -1.463923371400062e-10 2.683361785063848e-10
-6.140824681843418e+02 -2.632382192527743e+02 -2.632382192525300e+02 5.070376519013553e-10 5.329245304380024e-11 -2.851612612692321e-10
-6.140824681854156e+02 -2.632382192525024e+02 -2.632382192528126e+02 -3.162537386984653e-10 -4.553410024415551e-12 3.650961500441544e-11
-6.129302362209302e+02 -2.627441807617681e+02 -2.627441807617818e+02 -2.757627060279112e-10 8.834750340860843e-11 -4.284962385305577e-11
-6.129302362216723e+02 -2.627441807628408e+02 -2.627441807624244e+02 -2.212620140377299e-10 1.979474172135833e-10 1.958309129466462e-10
-6.129302362197080e+02 -2.627441807602252e+02 -2.627441807614059e+02 2.044598344596106e-11 -8.365639029279497e-11 -2.230647935604539e-10
-6.129302362208452e+02 -2.627441807628195e+02 -2.627441807623858e+02 1.622972324345256e-10 1.215530397341182e-10 -1.432228906351661e-10
-6.140824681863684e+02 -2.632382192534546e+02 -2.632382192537918e+02 -3.454047129226337e-10 -1.463923371400062e-10 2.683361785063848e-10
-6.140824681853117e+02 -2.632382192530357e+02 -2.632382192534261e+02 -1.803823515117817e-10 4.609249544299679e-11 -1.784926672036502e-11
-6.140824681856110e+02 -2.632382192546934e+02 -2.632382192533155e+02 7.441730708644835e-11 1.924408196951336e-10 -8.262353099247433e-11
-6.140824681843418e+02 -2.632382192527743e+02 -2.632382192525300e+02 5.070376519013553e-10 5.329245304380024e-11 -2.851612612692321e-10
        </DataArray>
  </PointData>
  <CellData>
        <DataArray type="Float64" Name="element_GL_strains_xyz" NumberOfComponents="6" format="ascii">
-2.268874572018409e-04 -1.249000902703301e-16 6.938893903907228e-17 -1.769410072863173e-16 2.775557561562890e-17 -6.069839549787176e-17
-2.268874572018964e-04 -4.163336342344337e-17 -1.110223024625157e-16 -1.795348262354535e-16 -6.418476861114186e-17 8.672279032245059e-17
-2.268874572019797e-04 -1.387778780781446e-17 0.000000000000000e+00 -1.812614802624306e-16 -3.014082039509703e-17 7.371000246267339e-17
-2.268874572019242e-04 -5.551115123125783e-17 -6.938893903907228e-17 -1.611022084082244e-16 1.817122841085705e-16 2.774179850758060e-17
-2.268874572021462e-04 -1.249000902703301e-16 -6.938893903907228e-17 -1.370270157041683e-16 1.170938346284343e-17 8.585405087365733e-17
-2.268874572022711e-04 -8.326672684688674e-17 2.775557561562891e-17 -3.906670505874541e-18 -5.984795992119984e-17 -2.471469232110869e-17
-2.268874572019797e-04 0.000000000000000e+00 -1.387778780781446e-17 -3.771488396781314e-17 -5.160802341031002e-17 3.207959127666894e-17
-2.268874572020768e-04 -2.775557561562891e-17 6.938893903907228e-17 6.179302890930812e-17 -4.597017211338539e-17 -7.808223800188257e-18
-2.268874572020491e-04 -2.775557561562891e-17 -8.326672684688674e-17 2.731579345592760e-17 8.890457814381133e-18 -1.213991527856947e-17
-2.268874572021601e-04 -9.714451465470120e-17 -2.775557561562891e-17 4.944394901358275e-17 -8.847089727481716e-17 -3.989863994746655e-17
-2.268874572019935e-04 4.163336342344337e-17 2.775557561562891e-17 -2.253723444799167e-17 3.295974604355933e-17 -3.990513486983220e-17
-2.268874572020352e-04 2.775557561562891e-17 1.387778780781446e-17 -6.850110845484068e-17 -4.857225732735060e-17 -9.237402509576498e-17
-2.268874572021323e-04 -5.551115123125783e-17 -4.163336342344337e-17 -5.118064064785219e-17 7.806255641895629e-17 -1.734428252232914e-17
-2.268874572021046e-04 -1.249000902703301e-16 -8.326672684688674e-17 -9.800223241705577e-17 -4.770489558936218e-17 5.897036376008986e-17
-2.268874572019242e-04 4.163336342344337e-17 1.665334536937735e-16 -1.215192104415442e-17 5.290906601729263e-17 -1.027756742134310e-16
-2.265984699809237e-04 1.110223024625157e-16 4.163336342344337e-17 1.647806462271293e-16 -4.510281037539697e-17 -8.758093054849460e-17
-2.265984699809931e-04 -4.163336342344337e-17 -9.714451465470120e-17 -3.013025502011475e-17 -8.413408858487517e-17 1.786322908745226e-16
-2.265984699810902e-04 4.163336342344337e-17 2.775557561562891e-17 -5.659451800200051e-17 -1.019150042136374e-17 1.248781732599018e-16
-2.265984699809098e-04 -9.714451465470120e-17 2.775557561562891e-17 3.774094840131474e-17 2.511012231476428e-16 8.063535343064512e-17
-2.265984699806878e-04 1.110223024625157e-16 -1.804112415015879e-16 -2.752792409975462e-17 1.179611963664228e-16 1.209624652715332e-16
-2.265984699807988e-04 1.387778780781446e-16 -8.326672684688674e-17 1.352796343367044e-16 -9.454242944073601e-17 7.199927998790733e-17
-2.265984699807294e-04 2.775557561562891e-17 -8.326672684688674e-17 -1.008158139510607e-16 -7.372574772901430e-17 -8.952739844531622e-19
-2.265984699807017e-04 1.110223024625157e-16 6.938893903907228e-17 3.099289919532038e-17 -1.266348137463069e-16 8.668506686869362e-18
-2.265984699808682e-04 -2.775557561562891e-17 -3.608224830031759e-16 4.076516628371218e-17 -1.043002489931055e-16 5.702962396808534e-17
-2.265984699807155e-04 -1.110223024625157e-16 1.387778780781446e-17 -4.920670943261307e-17 -6.852157730108388e-17 6.547588467976903e-17
-2.265984699809376e-04 0.000000000000000e+00 -1.387778780781446e-17 -9.387161278902291e-17 -3.035766082959412e-17 2.515290070631586e-17
-2.265984699809098e-04 2.775557561562891e-17 5.551115123125783e-17 -9.582076877682648e-17 -3.989863994746658e-17 1.456955429495293e-16
-2.265984699810208e-04 8.326672684688674e-17 5.551115123125783e-17 8.844809572136704e-17 6.591949208711868e-17 2.687583027533571e-17
-2.265984699808404e-04 -5.551115123125783e-17 -8.326672684688674e-17 2.253587654353851e-17 -8.413408858487514e-17 -2.168345375436224e-17
-2.265984699808404e-04 -6.938893903907228e-17 2.775557561562891e-16 8.149721134538694e-17 8.673617379884037e-17 5.681337322893615e-17
-2.266703538448267e-04 0.000000000000000e+00 1.110223024625157e-16 -1.170849863918613e-17 -5.204170427930423e-17 -4.465133471951728e-17
-2.266703538447573e-04 2.498001805406602e-16 -9.714451465470120e-17 4.489034490231653e-17 -7.892991815694472e-17 1.612956599668660e-16
-2.266703538444104e-04 -1.942890293094024e-16 -1.665334536937735e-16 3.555612906062202e-17 -7.892991815694471e-17 4.291415340004807e-17
-2.266703538451320e-04 -1.942890293094024e-16 1.387778780781446e-16 -3.510794691502222e-17 4.423544863740857e-17 2.469532941148446e-17
-2.266703538449377e-04 8.326672684688674e-17 -1.665334536937735e-16 4.801310916331842e-18 5.551115123125783e-17 -6.158995861391433e-17
-2.266703538447434e-04 2.775557561562891e-17 -2.220446049250313e-16 1.589350919360623e-16 -1.452830911130576e-16 -1.029965519151511e-16
-2.266703538451875e-04 9.714451465470120e-17 -2.220446049250313e-16 4.943278626042993e-17 4.336808689942164e-19 5.678102838275586e-17
-2.266703538450904e-04 8.326672684688674e-17 -1.387778780781446e-17 1.946988199396497e-16 -9.063930161978818e-17 -1.240232904133306e-16
-2.266703538448545e-04 -1.110223024625157e-16 -1.942890293094024e-16 4.011685677431945e-17 -1.040834085586084e-16 -9.735083551905051e-17
-2.266703538449516e-04 -2.775557561562891e-17 -8.326672684688674e-17 -8.448567748122070e-18 -5.637851296924623e-17 9.096188796292262e-18
-2.266703538448545e-04 -2.775557561562891e-17 5.551115123125783e-17 -7.609255868228887e-17 -4.857225732735059e-17 -4.423603851984678e-17
-2.266703538448267e-04 6.938893903907228e-17 -2.775557561562891e-17 -2.101597314368253e-17 -4.662069341687670e-17 6.063175498044418e-18
-2.266703538448406e-04 -2.775557561562891e-17 -2.775557561562891e-17 9.752658081035352e-18 -5.030698080332741e-17 2.470693043276896e-17
-2.266703538448267e-04 0.000000000000000e+00 1.387778780781446e-17 -2.994020172765023e-17 5.117434254131581e-17 -8.152551466408981e-17
-2.266703538448406e-04 -1.804112415015879e-16 -8.326672684688674e-17 4.788767031305366e-17 2.016616040823038e-17 -2.298774052766455e-17
-2.271414994449439e-04 1.942890293094024e-16 3.053113317719180e-16 -5.637299595492320e-17 -1.890848588814720e-16 7.630044490759027e-17
-2.271414994447357e-04 -5.551115123125783e-17 -1.804112415015879e-16 -1.648302560139283e-17 8.760353553682876e-17 -5.028550385471289e-17
-2.271414994446663e-04 8.326672684688674e-17 -2.775557561562891e-17 -1.130249952056097e-17 -6.505213034912926e-19 7.696495578311497e-17
-2.271414994446247e-04 -1.526556658859590e-16 1.665334536937735e-16 -1.105663565000036e-16 -3.816391647148976e-17 1.092607820598271e-16
-2.271414994443333e-04 4.163336342344337e-17 -2.081668171172169e-16 -1.638937345606764e-16 -4.250072516143172e-17 -4.159927615637636e-17
-2.271414994445553e-04 -2.775557561562891e-17 -1.665334536937735e-16 -1.287772093094695e-16 -9.194034422677078e-17 6.287623862757804e-17
-2.271414994445969e-04 1.387778780781446e-17 4.163336342344337e-17 8.520213378684330e-17 -2.862293735361729e-17 1.656249113845884e-16
-2.271414994444582e-04 -1.249000902703301e-16 -6.938893903907228e-17 2.557337873485042e-17 -2.732189474663472e-17 -8.583295146775246e-17
-2.271414994444720e-04 -2.359223927328458e-16 -8.326672684688674e-17 8.232843206760268e-18 -3.339342691255352e-17 -2.948123542521794e-17
-2.271414994446525e-04 0.000000000000000e+00 0.000000000000000e+00 5.984224587065102e-17 -8.847089727481716e-17 1.005836180278783e-16
-2.271414994446386e-04 -6.938893903907228e-17 5.551115123125783e-17 -2.516058370579329e-17 -1.578598363138894e-16 -5.201963622201219e-17
-2.271414994444443e-04 5.551115123125783e-17 -8.326672684688674e-17 -1.457061320258574e-16 -7.329206686002010e-17 2.168640788441994e-17
-2.271414994446386e-04 -2.775557561562891e-17 0.000000000000000e+00 -1.457116490401804e-16 -4.423544863740859e-17 7.803063655037323e-17
-2.271414994445969e-04 -1.387778780781446e-16 1.110223024625157e-16 -5.378095958847491e-17 3.469446951953618e-18 -1.439558426880407e-16
-2.271414994446108e-04 -2.081668171172169e-16 -2.081668171172169e-16 -7.547406670457276e-17 7.307522642552297e-17 5.441946168219109e-17
-2.279967614977479e-04 4.163336342344337e-17 -2.775557561562891e-17 2.098882894527032e-16 1.301042606982606e-17 2.772333776637598e-17
-2.279967614977618e-04 1.249000902703301e-16 -2.775557561562891e-17 -1.040023194899354e-17 -6.938893903907185e-18 -1.569552922712412e-16
-2.279967614978035e-04 -5.551115123125783e-17 8.326672684688674e-17 -3.381425219748981e-17 2.818925648462293e-18 -2.611974124779012e-18
-2.279967614979839e-04 -5.551115123125783e-17 -1.387778780781446e-17 -1.680127699830794e-16 -5.637851296924746e-18 1.525947501953461e-16
-2.279967614983447e-04 -8.326672684688674e-17 -8.326672684688674e-17 -1.964210424625786e-16 -7.546047120499100e-17 -2.679586080249942e-16
-2.279967614982059e-04 2.775557561562891e-17 0.000000000000000e+00 7.817529000223380e-18 -1.056012916000881e-16 -4.381086556636308e-17
-2.279967614981088e-04 1.387778780781446e-16 -1.665334536937735e-16 1.747441190286545e-16 -8.760353553682873e-17 4.853626169198837e-17
-2.279967614982059e-04 -1.249000902703301e-16 1.665334536937735e-16 2.616726087631737e-16 1.175275154974286e-16 -2.783839578074549e-16
-2.279967614979422e-04 -2.914335439641036e-16 0.000000000000000e+00 4.095001093605031e-17 -1.149254302834634e-16 -1.437493858142758e-16
-2.279967614981504e-04 -1.665334536937735e-16 -1.249000902703301e-16 5.117770477099250e-17 -1.613292832658430e-16 -6.419861308628119e-17
-2.279967614977896e-04 -9.714451465470120e-17 8.326672684688674e-17 4.342346479997740e-18 -4.250072516143179e-17 -1.040685751923878e-16
-2.279967614982059e-04 2.220446049250313e-16 -5.551115123125783e-17 -8.238987175451709e-17 -2.450296909817242e-17 6.410279491100469e-19
-2.279967614979977e-04 6.938893903907228e-17 4.163336342344337e-17 -4.337955803596420e-17 1.214306433183767e-17 6.675303375012390e-17
-2.279967614980116e-04 1.526556658859590e-16 -2.775557561562891e-17 -5.985606882806716e-17 3.556183125752451e-17 -1.404805614830847e-16
-2.279967614980810e-04 -8.326672684688674e-17 0.000000000000000e+00 2.511828587916660e-17 2.168404344971009e-17 7.197836644719582e-17
        </DataArray>
        <DataArray type="Float64" Name="element_cauchy_stresses_xyz" NumberOfComponents="6" format="ascii">
-6.110935005478243e+02 -2.619566503229962e+02 -2.619566503226907e+02 -2.722193569102035e-10 4.271057715632789e-11 -9.343423332637838e-11
-6.110935005480569e+02 -2.619566503230109e+02 -2.619566503231418e+02 -2.762352851485798e-10 -9.876820967400839e-11 1.334608620197029e-10
-6.110935005481878e+02 -2.619566503229963e+02 -2.619566503229818e+02 -2.789165078508208e-10 -4.638101738069988e-11 1.134484562599614e-10
-6.110935005481588e+02 -2.619566503230836e+02 -2.619566503230981e+02 -2.478810455035698e-10 2.796208098203345e-10 4.272208592399146e-11
-6.110935005487261e+02 -2.619566503234621e+02 -2.619566503233748e+02 -2.108604571740422e-10 1.801852473782587e-11 1.321285793820232e-10
-6.110935005489297e+02 -2.619566503233893e+02 -2.619566503232001e+02 -5.999360510702547e-12 -9.209468199333215e-11 -3.803835062408726e-11
-6.110935005481442e+02 -2.619566503229381e+02 -2.619566503229381e+02 -5.807013957147257e-11 -7.941497940004728e-11 4.939258498159836e-11
-6.110935005483188e+02 -2.619566503229817e+02 -2.619566503228363e+02 9.508618496639614e-11 -7.073939341516816e-11 -1.200659544138546e-11
-6.110935005484642e+02 -2.619566503231710e+02 -2.619566503232292e+02 4.204307295710686e-11 1.368073174538629e-11 -1.868648323050735e-11
-6.110935005487262e+02 -2.619566503233748e+02 -2.619566503232438e+02 7.605428943746128e-11 -1.361399646857953e-10 -6.138252299610242e-11
-6.110935005480713e+02 -2.619566503227489e+02 -2.619566503227780e+02 -3.471627560563545e-11 5.071881037313940e-11 -6.137252853997354e-11
-6.110935005482169e+02 -2.619566503228799e+02 -2.619566503228944e+02 -1.054493089123580e-10 -7.474351002357389e-11 -1.421138847627153e-10
-6.110935005486534e+02 -2.619566503232584e+02 -2.619566503232584e+02 -7.872006616204855e-11 1.201234982521724e-10 -2.669259641117031e-11
-6.110935005487116e+02 -2.619566503234912e+02 -2.619566503234184e+02 -1.508023423956393e-10 -7.340880448743867e-11 9.075513066028591e-11
-6.110935005476930e+02 -2.619566503224723e+02 -2.619566503222831e+02 -1.866800862978431e-11 8.141703770425013e-11 -1.581370141670908e-10
-6.103148401396127e+02 -2.616227873597350e+02 -2.616227873598223e+02 2.535643358579415e-10 -6.940466781286822e-11 -1.348094548448622e-10
-6.103148401401655e+02 -2.616227873603755e+02 -2.616227873604627e+02 -4.638675102306327e-11 -1.294663995740042e-10 2.749550080029418e-10
-6.103148401401654e+02 -2.616227873601280e+02 -2.616227873601426e+02 -8.707105999207889e-11 -1.568278551540774e-11 1.921877111520126e-10
-6.103148401398745e+02 -2.616227873602880e+02 -2.616227873601280e+02 5.803003134668785e-11 3.863971409966412e-10 1.241445176524868e-10
-6.103148401392200e+02 -2.616227873597204e+02 -2.616227873601425e+02 -4.238392109710230e-11 1.815199004336553e-10 1.862022576106108e-10
-6.103148401393800e+02 -2.616227873596914e+02 -2.616227873599532e+02 2.082111299126227e-10 -1.454828613769737e-10 1.107427179181456e-10
-6.103148401393655e+02 -2.616227873598951e+02 -2.616227873600260e+02 -1.551473746595018e-10 -1.134499377710345e-10 -1.291451022308754e-12
-6.103148401389871e+02 -2.616227873594730e+02 -2.616227873595312e+02 4.772841313095127e-11 -1.948669519361299e-10 1.335189112518106e-11
-6.103148401401222e+02 -2.616227873604774e+02 -2.616227873610012e+02 6.271821119471214e-11 -1.604982943172578e-10 8.773606837495418e-11
-6.103148401393511e+02 -2.616227873600988e+02 -2.616227873599387e+02 -7.575207918702246e-11 -1.054417068695498e-10 1.007626769332049e-10
-6.103148401399183e+02 -2.616227873601425e+02 -2.616227873601716e+02 -1.444803201321924e-10 -4.671468025866130e-11 3.869858497027852e-11
-6.103148401396563e+02 -2.616227873598951e+02 -2.616227873598660e+02 -1.474864314844407e-10 -6.139643691138344e-11 2.242123166564251e-10
-6.103148401399328e+02 -2.616227873599389e+02 -2.616227873599533e+02 1.361441599951096e-10 1.014375914188074e-10 4.138553890308432e-11
-6.103148401397874e+02 -2.616227873602444e+02 -2.616227873602881e+02 3.471836515664917e-11 -1.294663995740042e-10 -3.336097427496529e-11
-6.103148401393072e+02 -2.616227873598077e+02 -2.616227873593421e+02 1.254873896660514e-10 1.334705150247465e-10 8.740156027723961e-11
-6.105085272422647e+02 -2.617058337498652e+02 -2.617058337496907e+02 -1.801579767251117e-11 -8.008231477408443e-11 -6.874912050493977e-11
-6.105085272420174e+02 -2.617058337493269e+02 -2.617058337499089e+02 6.904860613457215e-11 -1.214581774073614e-10 2.482506372135652e-10
-6.105085272416688e+02 -2.617058337502581e+02 -2.617058337502436e+02 5.471928422674721e-11 -1.214581774073613e-10 6.608409731236346e-11
-6.105085272431955e+02 -2.617058337506950e+02 -2.617058337500983e+02 -5.407439760480709e-11 6.806996755797177e-11 3.806814646870719e-11
-6.105085272426866e+02 -2.617058337499964e+02 -2.617058337504329e+02 7.291786481348262e-12 8.542113575902334e-11 -9.473139466277245e-11
-6.105085272423812e+02 -2.617058337500400e+02 -2.617058337505348e+02 2.445430570235308e-10 -2.235631287443190e-10 -1.584644022445990e-10
-6.105085272434429e+02 -2.617058337503603e+02 -2.617058337509569e+02 7.607146679933722e-11 6.673526231173469e-13 8.745133286217322e-11
-6.105085272429773e+02 -2.617058337500400e+02 -2.617058337502147e+02 2.996101628218373e-10 -1.394766982315304e-10 -1.908341058329573e-10
-6.105085272427741e+02 -2.617058337505203e+02 -2.617058337506658e+02 6.171400565771453e-11 -1.601646295481689e-10 -1.498028877609721e-10
-6.105085272428030e+02 -2.617058337502583e+02 -2.617058337503747e+02 -1.302305846779441e-11 -8.675584100525813e-11 1.402832341616040e-11
-6.105085272423520e+02 -2.617058337499672e+02 -2.617058337498216e+02 -1.171222007915370e-10 -7.474349378914546e-11 -6.805362864802471e-11
-6.105085272423664e+02 -2.617058337498216e+02 -2.617058337499672e+02 -3.238626942761025e-11 -7.174040698511730e-11 9.353678044071339e-12
-6.105085272424539e+02 -2.617058337500981e+02 -2.617058337500691e+02 1.501997260623724e-11 -7.741290428161495e-11 3.805029469672787e-11
-6.105085272423520e+02 -2.617058337499526e+02 -2.617058337499090e+02 -4.601193002354656e-11 7.874760952784970e-11 -1.254438362292736e-10
-6.105085272427449e+02 -2.617058337506222e+02 -2.617058337504766e+02 7.377816839842778e-11 3.103189697495773e-11 -3.535758612896353e-11
-6.117780042568188e+02 -2.622501422706567e+02 -2.622501422705258e+02 -8.674466344175276e-11 -2.909658808286756e-10 1.174695803099208e-10
-6.117780042570959e+02 -2.622501422716174e+02 -2.622501422717775e+02 -2.534879957821665e-11 1.348052934114506e-10 -7.742840404909387e-11
-6.117780042565865e+02 -2.622501422710061e+02 -2.622501422711516e+02 -1.730599935133664e-11 -1.001029406520658e-12 1.184488550064785e-10
-6.117780042565574e+02 -2.622501422713698e+02 -2.622501422709188e+02 -1.701706026862919e-10 -5.872705851587952e-11 1.681759723107989e-10
-6.117780042558885e+02 -2.622501422709041e+02 -2.622501422712388e+02 -2.522600168462747e-10 -6.540058789268398e-11 -6.410378220889595e-11
-6.117780042565576e+02 -2.622501422713263e+02 -2.622501422715155e+02 -1.981988196658057e-10 -1.414788227882551e-10 9.675571551079093e-11
-6.117780042564120e+02 -2.622501422710206e+02 -2.622501422709915e+02 1.311299252293037e-10 -4.404529388690962e-11 2.549342798215179e-10
-6.117780042563395e+02 -2.622501422713553e+02 -2.622501422712971e+02 3.938610298521612e-11 -4.204323507386824e-11 -1.321610473879333e-10
-6.117780042564560e+02 -2.622501422716027e+02 -2.622501422713844e+02 1.268774065654200e-11 -5.138617620139456e-11 -4.538363818066151e-11
-6.117780042566449e+02 -2.622501422711662e+02 -2.622501422711662e+02 9.208257733859854e-11 -1.361399992868115e-10 1.548374032001023e-10
-6.117780042565721e+02 -2.622501422712535e+02 -2.622501422710789e+02 -3.868676228584805e-11 -2.429164693156833e-10 -8.009811900134826e-11
-6.117780042560776e+02 -2.622501422708896e+02 -2.622501422710496e+02 -2.241960220859162e-10 -1.127826464679958e-10 3.335642842731683e-11
-6.117780042566593e+02 -2.622501422712534e+02 -2.622501422712098e+02 -2.241875324430038e-10 -6.806999964340572e-11 1.201453592928268e-10
-6.117780042564993e+02 -2.622501422713261e+02 -2.622501422710061e+02 -8.272599214210593e-11 5.338823501443594e-12 -2.215511696593337e-10
-6.117780042570232e+02 -2.622501422719375e+02 -2.622501422719521e+02 -1.160721117173150e-10 1.124489699991557e-10 8.374528944096490e-11
-6.140824681839590e+02 -2.632382192522537e+02 -2.632382192523264e+02 3.229458380860537e-10 2.002060526106686e-11 4.275049356541807e-11
-6.140824681839154e+02 -2.632382192520645e+02 -2.632382192522536e+02 -1.602531017256179e-11 -1.067765613923571e-11 -2.415841005552404e-10
-6.140824681841627e+02 -2.632382192524865e+02 -2.632382192522974e+02 -5.206148661175381e-11 4.337797806564502e-12 -3.987990842677515e-12
-6.140824681847009e+02 -2.632382192527632e+02 -2.632382192526904e+02 -2.585998650515845e-10 -8.675595613128985e-12 2.349486084152367e-10
-6.140824681857920e+02 -2.632382192533309e+02 -2.632382192533163e+02 -3.022982048401242e-10 -1.161195105141881e-10 -4.124168597885749e-10
-6.140824681851955e+02 -2.632382192528215e+02 -2.632382192528797e+02 1.199227648061436e-11 -1.625005793689932e-10 -6.737333522382697e-11
-6.140824681849917e+02 -2.632382192526177e+02 -2.632382192530251e+02 2.689271816256750e-10 -1.348054087578506e-10 7.478194026524448e-11
-6.140824681851809e+02 -2.632382192530106e+02 -2.632382192526032e+02 4.027387882804057e-10 1.808528008583045e-10 -4.284035183269658e-10
-6.140824681848321e+02 -2.632382192533016e+02 -2.632382192528651e+02 6.310104737202832e-11 -1.768486798060911e-10 -2.212015906731348e-10
-6.140824681853412e+02 -2.632382192533017e+02 -2.632382192532290e+02 7.872458391507597e-11 -2.482555052372298e-10 -9.872449381296481e-11
-6.140824681841192e+02 -2.632382192525301e+02 -2.632382192522828e+02 6.663491749009431e-12 -6.540064385281855e-11 -1.601511466276086e-10
-6.140824681850354e+02 -2.632382192523994e+02 -2.632382192527778e+02 -1.267828625053448e-10 -3.770547324167602e-11 1.015410497026330e-12
-6.140824681845118e+02 -2.632382192523702e+02 -2.632382192524138e+02 -6.670248176399900e-11 1.868589824366249e-11 1.028010486363014e-10
-6.140824681845407e+02 -2.632382192522247e+02 -2.632382192524720e+02 -9.206130640753151e-11 5.472298771358292e-11 -2.162225368195227e-10
-6.140824681849338e+02 -2.632382192528796e+02 -2.632382192527486e+02 3.875185069757545e-11 3.336767543511153e-11 1.107748999166235e-10
        </DataArray>
      </CellData>

    </Piece>
  </UnstructuredGrid>
</VTKFile>
