<?xml version="1.0" ?> 
<!-- 
# vtk DataFile Version 3.0
-->
<VTKFile type="UnstructuredGrid" version="0.1" compressor="vtkZLibDataCompressor" byte_order="LittleEndian">
  <UnstructuredGrid>
    <FieldData>
      <DataArray type="Float64" Name="TIME" NumberOfTuples="1" format="ascii">
9.999999999999999e-02 
      </DataArray>
    </FieldData>

    <Piece NumberOfPoints="600" NumberOfCells="75" >
      <Points>
        <DataArray type="Float64" NumberOfComponents="3" format="ascii">
-5.000000000000000e+00 -5.000000000000000e+00 5.000000000000000e+00
-5.000000000000000e+00 -5.000000000000000e+00 3.000000000000000e+00
-5.000000000000000e+00 -3.000000000000000e+00 3.000000000000000e+00
-5.000000000000000e+00 -3.000000000000000e+00 5.000000000000000e+00
-3.000000000000000e+00 -5.000000000000000e+00 5.000000000000000e+00
-3.000000000000000e+00 -5.000000000000000e+00 3.000000000000000e+00
-3.000000000000000e+00 -3.000000000000000e+00 3.000000000000000e+00
-3.000000000000000e+00 -3.000000000000000e+00 4.999999999999999e+00
-5.000000000000000e+00 -5.000000000000000e+00 3.000000000000000e+00
-5.000000000000000e+00 -5.000000000000000e+00 1.000000000000000e+00
-5.000000000000000e+00 -3.000000000000000e+00 1.000000000000000e+00
-5.000000000000000e+00 -3.000000000000000e+00 3.000000000000000e+00
-3.000000000000000e+00 -5.000000000000000e+00 3.000000000000000e+00
-3.000000000000000e+00 -5.000000000000000e+00 1.000000000000000e+00
-3.000000000000000e+00 -3.000000000000000e+00 1.000000000000000e+00
-3.000000000000000e+00 -3.000000000000000e+00 3.000000000000000e+00
-5.000000000000000e+00 -5.000000000000000e+00 1.000000000000000e+00
-5.000000000000000e+00 -5.000000000000000e+00 -1.000000000000000e+00
-5.000000000000000e+00 -3.000000000000000e+00 -1.000000000000000e+00
-5.000000000000000e+00 -3.000000000000000e+00 1.000000000000000e+00
-3.000000000000000e+00 -5.000000000000000e+00 1.000000000000000e+00
-3.000000000000000e+00 -5.000000000000000e+00 -1.000000000000000e+00
-3.000000000000000e+00 -3.000000000000000e+00 -1.000000000000000e+00
-3.000000000000000e+00 -3.000000000000000e+00 1.000000000000000e+00
-5.000000000000000e+00 -3.000000000000000e+00 5.000000000000000e+00
-5.000000000000000e+00 -3.000000000000000e+00 3.000000000000000e+00
-5.000000000000000e+00 -1.000000000000000e+00 3.000000000000000e+00
-5.000000000000000e+00 -1.000000000000000e+00 5.000000000000000e+00
-3.000000000000000e+00 -3.000000000000000e+00 4.999999999999999e+00
-3.000000000000000e+00 -3.000000000000000e+00 3.000000000000000e+00
-3.000000000000000e+00 -1.000000000000001e+00 3.000000000000000e+00
-3.000000000000000e+00 -1.000000000000000e+00 5.000000000000000e+00
-5.000000000000000e+00 -3.000000000000000e+00 3.000000000000000e+00
-5.000000000000000e+00 -3.000000000000000e+00 1.000000000000000e+00
-5.000000000000000e+00 -1.000000000000000e+00 1.000000000000000e+00
-5.000000000000000e+00 -1.000000000000000e+00 3.000000000000000e+00
-3.000000000000000e+00 -3.000000000000000e+00 3.000000000000000e+00
-3.000000000000000e+00 -3.000000000000000e+00 1.000000000000000e+00
-3.000000000000000e+00 -1.000000000000000e+00 1.000000000000000e+00
-3.000000000000000e+00 -1.000000000000001e+00 3.000000000000000e+00
-5.000000000000000e+00 -3.000000000000000e+00 1.000000000000000e+00
-5.000000000000000e+00 -3.000000000000000e+00 -1.000000000000000e+00
-5.000000000000000e+00 -1.000000000000000e+00 -1.000000000000000e+00
-5.000000000000000e+00 -1.000000000000000e+00 1.000000000000000e+00
-3.000000000000000e+00 -3.000000000000000e+00 1.000000000000000e+00
-3.000000000000000e+00 -3.000000000000000e+00 -1.000000000000000e+00
-3.000000000000000e+00 -1.000000000000000e+00 -1.000000000000000e+00
-3.000000000000000e+00 -1.000000000000000e+00 1.000000000000000e+00
-5.000000000000000e+00 -1.000000000000000e+00 5.000000000000000e+00
-5.000000000000000e+00 -1.000000000000000e+00 3.000000000000000e+00
-5.000000000000000e+00 1.000000000000000e+00 3.000000000000000e+00
-5.000000000000000e+00 1.000000000000000e+00 5.000000000000000e+00
-3.000000000000000e+00 -1.000000000000000e+00 5.000000000000000e+00
-3.000000000000000e+00 -1.000000000000001e+00 3.000000000000000e+00
-3.000000000000000e+00 1.000000000000000e+00 3.000000000000000e+00
-3.000000000000000e+00 1.000000000000000e+00 5.000000000000000e+00
-5.000000000000000e+00 -1.000000000000000e+00 3.000000000000000e+00
-5.000000000000000e+00 -1.000000000000000e+00 1.000000000000000e+00
-5.000000000000000e+00 1.000000000000000e+00 1.000000000000000e+00
-5.000000000000000e+00 1.000000000000000e+00 3.000000000000000e+00
-3.000000000000000e+00 -1.000000000000001e+00 3.000000000000000e+00
-3.000000000000000e+00 -1.000000000000000e+00 1.000000000000000e+00
-3.000000000000000e+00 1.000000000000000e+00 1.000000000000000e+00
-3.000000000000000e+00 1.000000000000000e+00 3.000000000000000e+00
-5.000000000000000e+00 -1.000000000000000e+00 1.000000000000000e+00
-5.000000000000000e+00 -1.000000000000000e+00 -1.000000000000000e+00
-5.000000000000000e+00 1.000000000000000e+00 -1.000000000000000e+00
-5.000000000000000e+00 1.000000000000000e+00 1.000000000000000e+00
-3.000000000000000e+00 -1.000000000000000e+00 1.000000000000000e+00
-3.000000000000000e+00 -1.000000000000000e+00 -1.000000000000000e+00
-3.000000000000000e+00 1.000000000000000e+00 -1.000000000000000e+00
-3.000000000000000e+00 1.000000000000000e+00 1.000000000000000e+00
-5.000000000000000e+00 1.000000000000000e+00 5.000000000000000e+00
-5.000000000000000e+00 1.000000000000000e+00 3.000000000000000e+00
-5.000000000000000e+00 3.000000000000000e+00 3.000000000000000e+00
-5.000000000000000e+00 3.000000000000000e+00 5.000000000000000e+00
-3.000000000000000e+00 1.000000000000000e+00 5.000000000000000e+00
-3.000000000000000e+00 1.000000000000000e+00 3.000000000000000e+00
-3.000000000000000e+00 3.000000000000000e+00 3.000000000000000e+00
-3.000000000000000e+00 3.000000000000000e+00 5.000000000000000e+00
-5.000000000000000e+00 1.000000000000000e+00 3.000000000000000e+00
-5.000000000000000e+00 1.000000000000000e+00 1.000000000000000e+00
-5.000000000000000e+00 3.000000000000000e+00 1.000000000000000e+00
-5.000000000000000e+00 3.000000000000000e+00 3.000000000000000e+00
-3.000000000000000e+00 1.000000000000000e+00 3.000000000000000e+00
-3.000000000000000e+00 1.000000000000000e+00 1.000000000000000e+00
-3.000000000000000e+00 3.000000000000000e+00 1.000000000000000e+00
-3.000000000000000e+00 3.000000000000000e+00 3.000000000000000e+00
-5.000000000000000e+00 1.000000000000000e+00 1.000000000000000e+00
-5.000000000000000e+00 1.000000000000000e+00 -1.000000000000000e+00
-5.000000000000000e+00 3.000000000000000e+00 -1.000000000000000e+00
-5.000000000000000e+00 3.000000000000000e+00 1.000000000000000e+00
-3.000000000000000e+00 1.000000000000000e+00 1.000000000000000e+00
-3.000000000000000e+00 1.000000000000000e+00 -1.000000000000000e+00
-3.000000000000000e+00 3.000000000000000e+00 -9.999999999999999e-01
-3.000000000000000e+00 3.000000000000000e+00 1.000000000000000e+00
-5.000000000000000e+00 3.000000000000000e+00 5.000000000000000e+00
-5.000000000000000e+00 3.000000000000000e+00 3.000000000000000e+00
-5.000000000000000e+00 5.000000000000000e+00 3.000000000000000e+00
-5.000000000000000e+00 5.000000000000000e+00 5.000000000000000e+00
-3.000000000000000e+00 3.000000000000000e+00 5.000000000000000e+00
-3.000000000000000e+00 3.000000000000000e+00 3.000000000000000e+00
-3.000000000000000e+00 4.999999999999999e+00 3.000000000000000e+00
-3.000000000000000e+00 5.000000000000000e+00 5.000000000000000e+00
-5.000000000000000e+00 3.000000000000000e+00 3.000000000000000e+00
-5.000000000000000e+00 3.000000000000000e+00 1.000000000000000e+00
-5.000000000000000e+00 5.000000000000000e+00 1.000000000000000e+00
-5.000000000000000e+00 5.000000000000000e+00 3.000000000000000e+00
-3.000000000000000e+00 3.000000000000000e+00 3.000000000000000e+00
-3.000000000000000e+00 3.000000000000000e+00 1.000000000000000e+00
-3.000000000000000e+00 5.000000000000000e+00 1.000000000000000e+00
-3.000000000000000e+00 4.999999999999999e+00 3.000000000000000e+00
-5.000000000000000e+00 3.000000000000000e+00 1.000000000000000e+00
-5.000000000000000e+00 3.000000000000000e+00 -1.000000000000000e+00
-5.000000000000000e+00 5.000000000000000e+00 -1.000000000000000e+00
-5.000000000000000e+00 5.000000000000000e+00 1.000000000000000e+00
-3.000000000000000e+00 3.000000000000000e+00 1.000000000000000e+00
-3.000000000000000e+00 3.000000000000000e+00 -9.999999999999999e-01
-3.000000000000000e+00 5.000000000000000e+00 -1.000000000000000e+00
-3.000000000000000e+00 5.000000000000000e+00 1.000000000000000e+00
-3.000000000000000e+00 -5.000000000000000e+00 5.000000000000000e+00
-3.000000000000000e+00 -5.000000000000000e+00 3.000000000000000e+00
-3.000000000000000e+00 -3.000000000000000e+00 3.000000000000000e+00
-3.000000000000000e+00 -3.000000000000000e+00 4.999999999999999e+00
-1.000000000000000e+00 -5.000000000000000e+00 5.000000000000000e+00
-1.000000000000000e+00 -5.000000000000000e+00 3.000000000000000e+00
-1.000000000000000e+00 -3.000000000000000e+00 3.000000000000000e+00
-1.000000000000000e+00 -3.000000000000000e+00 5.000000000000000e+00
-3.000000000000000e+00 -5.000000000000000e+00 3.000000000000000e+00
-3.000000000000000e+00 -5.000000000000000e+00 1.000000000000000e+00
-3.000000000000000e+00 -3.000000000000000e+00 1.000000000000000e+00
-3.000000000000000e+00 -3.000000000000000e+00 3.000000000000000e+00
-1.000000000000000e+00 -5.000000000000000e+00 3.000000000000000e+00
-1.000000000000000e+00 -5.000000000000000e+00 1.000000000000000e+00
-1.000000000000000e+00 -3.000000000000000e+00 1.000000000000000e+00
-1.000000000000000e+00 -3.000000000000000e+00 3.000000000000000e+00
-3.000000000000000e+00 -5.000000000000000e+00 1.000000000000000e+00
-3.000000000000000e+00 -5.000000000000000e+00 -1.000000000000000e+00
-3.000000000000000e+00 -3.000000000000000e+00 -1.000000000000000e+00
-3.000000000000000e+00 -3.000000000000000e+00 1.000000000000000e+00
-1.000000000000000e+00 -5.000000000000000e+00 1.000000000000000e+00
-1.000000000000000e+00 -5.000000000000000e+00 -1.000000000000000e+00
-1.000000000000000e+00 -3.000000000000000e+00 -1.000000000000000e+00
-1.000000000000000e+00 -3.000000000000000e+00 1.000000000000000e+00
-3.000000000000000e+00 -3.000000000000000e+00 4.999999999999999e+00
-3.000000000000000e+00 -3.000000000000000e+00 3.000000000000000e+00
-3.000000000000000e+00 -1.000000000000001e+00 3.000000000000000e+00
-3.000000000000000e+00 -1.000000000000000e+00 5.000000000000000e+00
-1.000000000000000e+00 -3.000000000000000e+00 5.000000000000000e+00
-1.000000000000000e+00 -3.000000000000000e+00 3.000000000000000e+00
-1.000000000000000e+00 -1.000000000000000e+00 3.000000000000000e+00
-1.000000000000000e+00 -1.000000000000000e+00 5.000000000000000e+00
-3.000000000000000e+00 -3.000000000000000e+00 3.000000000000000e+00
-3.000000000000000e+00 -3.000000000000000e+00 1.000000000000000e+00
-3.000000000000000e+00 -1.000000000000000e+00 1.000000000000000e+00
-3.000000000000000e+00 -1.000000000000001e+00 3.000000000000000e+00
-1.000000000000000e+00 -3.000000000000000e+00 3.000000000000000e+00
-1.000000000000000e+00 -3.000000000000000e+00 1.000000000000000e+00
-1.000000000000000e+00 -1.000000000000000e+00 1.000000000000000e+00
-1.000000000000000e+00 -1.000000000000000e+00 3.000000000000000e+00
-3.000000000000000e+00 -3.000000000000000e+00 1.000000000000000e+00
-3.000000000000000e+00 -3.000000000000000e+00 -1.000000000000000e+00
-3.000000000000000e+00 -1.000000000000000e+00 -1.000000000000000e+00
-3.000000000000000e+00 -1.000000000000000e+00 1.000000000000000e+00
-1.000000000000000e+00 -3.000000000000000e+00 1.000000000000000e+00
-1.000000000000000e+00 -3.000000000000000e+00 -1.000000000000000e+00
-1.000000000000000e+00 -1.000000000000000e+00 -1.000000000000000e+00
-1.000000000000000e+00 -1.000000000000000e+00 1.000000000000000e+00
-3.000000000000000e+00 -1.000000000000000e+00 5.000000000000000e+00
-3.000000000000000e+00 -1.000000000000001e+00 3.000000000000000e+00
-3.000000000000000e+00 1.000000000000000e+00 3.000000000000000e+00
-3.000000000000000e+00 1.000000000000000e+00 5.000000000000000e+00
-1.000000000000000e+00 -1.000000000000000e+00 5.000000000000000e+00
-1.000000000000000e+00 -1.000000000000000e+00 3.000000000000000e+00
-1.000000000000000e+00 1.000000000000000e+00 3.000000000000000e+00
-1.000000000000000e+00 1.000000000000000e+00 5.000000000000000e+00
-3.000000000000000e+00 -1.000000000000001e+00 3.000000000000000e+00
-3.000000000000000e+00 -1.000000000000000e+00 1.000000000000000e+00
-3.000000000000000e+00 1.000000000000000e+00 1.000000000000000e+00
-3.000000000000000e+00 1.000000000000000e+00 3.000000000000000e+00
-1.000000000000000e+00 -1.000000000000000e+00 3.000000000000000e+00
-1.000000000000000e+00 -1.000000000000000e+00 1.000000000000000e+00
-1.000000000000000e+00 1.000000000000000e+00 1.000000000000000e+00
-1.000000000000000e+00 1.000000000000000e+00 3.000000000000000e+00
-3.000000000000000e+00 -1.000000000000000e+00 1.000000000000000e+00
-3.000000000000000e+00 -1.000000000000000e+00 -1.000000000000000e+00
-3.000000000000000e+00 1.000000000000000e+00 -1.000000000000000e+00
-3.000000000000000e+00 1.000000000000000e+00 1.000000000000000e+00
-1.000000000000000e+00 -1.000000000000000e+00 1.000000000000000e+00
-1.000000000000000e+00 -1.000000000000000e+00 -1.000000000000000e+00
-1.000000000000000e+00 1.000000000000000e+00 -1.000000000000000e+00
-1.000000000000000e+00 1.000000000000000e+00 1.000000000000000e+00
-3.000000000000000e+00 1.000000000000000e+00 5.000000000000000e+00
-3.000000000000000e+00 1.000000000000000e+00 3.000000000000000e+00
-3.000000000000000e+00 3.000000000000000e+00 3.000000000000000e+00
-3.000000000000000e+00 3.000000000000000e+00 5.000000000000000e+00
-1.000000000000000e+00 1.000000000000000e+00 5.000000000000000e+00
-1.000000000000000e+00 1.000000000000000e+00 3.000000000000000e+00
-1.000000000000000e+00 3.000000000000000e+00 3.000000000000000e+00
-1.000000000000000e+00 3.000000000000000e+00 5.000000000000000e+00
-3.000000000000000e+00 1.000000000000000e+00 3.000000000000000e+00
-3.000000000000000e+00 1.000000000000000e+00 1.000000000000000e+00
-3.000000000000000e+00 3.000000000000000e+00 1.000000000000000e+00
-3.000000000000000e+00 3.000000000000000e+00 3.000000000000000e+00
-1.000000000000000e+00 1.000000000000000e+00 3.000000000000000e+00
-1.000000000000000e+00 1.000000000000000e+00 1.000000000000000e+00
-1.000000000000000e+00 3.000000000000000e+00 1.000000000000000e+00
-1.000000000000000e+00 3.000000000000000e+00 3.000000000000000e+00
-3.000000000000000e+00 1.000000000000000e+00 1.000000000000000e+00
-3.000000000000000e+00 1.000000000000000e+00 -1.000000000000000e+00
-3.000000000000000e+00 3.000000000000000e+00 -9.999999999999999e-01
-3.000000000000000e+00 3.000000000000000e+00 1.000000000000000e+00
-1.000000000000000e+00 1.000000000000000e+00 1.000000000000000e+00
-1.000000000000000e+00 1.000000000000000e+00 -1.000000000000000e+00
-1.000000000000000e+00 3.000000000000000e+00 -1.000000000000000e+00
-1.000000000000000e+00 3.000000000000000e+00 1.000000000000000e+00
-3.000000000000000e+00 3.000000000000000e+00 5.000000000000000e+00
-3.000000000000000e+00 3.000000000000000e+00 3.000000000000000e+00
-3.000000000000000e+00 4.999999999999999e+00 3.000000000000000e+00
-3.000000000000000e+00 5.000000000000000e+00 5.000000000000000e+00
-1.000000000000000e+00 3.000000000000000e+00 5.000000000000000e+00
-1.000000000000000e+00 3.000000000000000e+00 3.000000000000000e+00
-1.000000000000000e+00 5.000000000000000e+00 3.000000000000000e+00
-1.000000000000000e+00 5.000000000000000e+00 5.000000000000000e+00
-3.000000000000000e+00 3.000000000000000e+00 3.000000000000000e+00
-3.000000000000000e+00 3.000000000000000e+00 1.000000000000000e+00
-3.000000000000000e+00 5.000000000000000e+00 1.000000000000000e+00
-3.000000000000000e+00 4.999999999999999e+00 3.000000000000000e+00
-1.000000000000000e+00 3.000000000000000e+00 3.000000000000000e+00
-1.000000000000000e+00 3.000000000000000e+00 1.000000000000000e+00
-1.000000000000000e+00 5.000000000000000e+00 1.000000000000000e+00
-1.000000000000000e+00 5.000000000000000e+00 3.000000000000000e+00
-3.000000000000000e+00 3.000000000000000e+00 1.000000000000000e+00
-3.000000000000000e+00 3.000000000000000e+00 -9.999999999999999e-01
-3.000000000000000e+00 5.000000000000000e+00 -1.000000000000000e+00
-3.000000000000000e+00 5.000000000000000e+00 1.000000000000000e+00
-1.000000000000000e+00 3.000000000000000e+00 1.000000000000000e+00
-1.000000000000000e+00 3.000000000000000e+00 -1.000000000000000e+00
-1.000000000000000e+00 5.000000000000000e+00 -1.000000000000000e+00
-1.000000000000000e+00 5.000000000000000e+00 1.000000000000000e+00
-1.000000000000000e+00 -5.000000000000000e+00 5.000000000000000e+00
-1.000000000000000e+00 -5.000000000000000e+00 3.000000000000000e+00
-1.000000000000000e+00 -3.000000000000000e+00 3.000000000000000e+00
-1.000000000000000e+00 -3.000000000000000e+00 5.000000000000000e+00
1.000000000000000e+00 -5.000000000000000e+00 5.000000000000000e+00
1.000000000000000e+00 -5.000000000000000e+00 3.000000000000000e+00
1.000000000000000e+00 -3.000000000000000e+00 3.000000000000000e+00
1.000000000000000e+00 -3.000000000000000e+00 5.000000000000000e+00
-1.000000000000000e+00 -5.000000000000000e+00 3.000000000000000e+00
-1.000000000000000e+00 -5.000000000000000e+00 1.000000000000000e+00
-1.000000000000000e+00 -3.000000000000000e+00 1.000000000000000e+00
-1.000000000000000e+00 -3.000000000000000e+00 3.000000000000000e+00
1.000000000000000e+00 -5.000000000000000e+00 3.000000000000000e+00
1.000000000000000e+00 -5.000000000000000e+00 1.000000000000000e+00
1.000000000000000e+00 -3.000000000000000e+00 1.000000000000000e+00
1.000000000000000e+00 -3.000000000000000e+00 3.000000000000000e+00
-1.000000000000000e+00 -5.000000000000000e+00 1.000000000000000e+00
-1.000000000000000e+00 -5.000000000000000e+00 -1.000000000000000e+00
-1.000000000000000e+00 -3.000000000000000e+00 -1.000000000000000e+00
-1.000000000000000e+00 -3.000000000000000e+00 1.000000000000000e+00
1.000000000000000e+00 -5.000000000000000e+00 1.000000000000000e+00
1.000000000000000e+00 -5.000000000000000e+00 -1.000000000000000e+00
1.000000000000000e+00 -3.000000000000000e+00 -1.000000000000000e+00
1.000000000000000e+00 -3.000000000000000e+00 1.000000000000000e+00
-1.000000000000000e+00 -3.000000000000000e+00 5.000000000000000e+00
-1.000000000000000e+00 -3.000000000000000e+00 3.000000000000000e+00
-1.000000000000000e+00 -1.000000000000000e+00 3.000000000000000e+00
-1.000000000000000e+00 -1.000000000000000e+00 5.000000000000000e+00
1.000000000000000e+00 -3.000000000000000e+00 5.000000000000000e+00
1.000000000000000e+00 -3.000000000000000e+00 3.000000000000000e+00
1.000000000000000e+00 -1.000000000000000e+00 3.000000000000000e+00
1.000000000000000e+00 -1.000000000000000e+00 5.000000000000000e+00
-1.000000000000000e+00 -3.000000000000000e+00 3.000000000000000e+00
-1.000000000000000e+00 -3.000000000000000e+00 1.000000000000000e+00
-1.000000000000000e+00 -1.000000000000000e+00 1.000000000000000e+00
-1.000000000000000e+00 -1.000000000000000e+00 3.000000000000000e+00
1.000000000000000e+00 -3.000000000000000e+00 3.000000000000000e+00
1.000000000000000e+00 -3.000000000000000e+00 1.000000000000000e+00
1.000000000000000e+00 -1.000000000000000e+00 1.000000000000000e+00
1.000000000000000e+00 -1.000000000000000e+00 3.000000000000000e+00
-1.000000000000000e+00 -3.000000000000000e+00 1.000000000000000e+00
-1.000000000000000e+00 -3.000000000000000e+00 -1.000000000000000e+00
-1.000000000000000e+00 -1.000000000000000e+00 -1.000000000000000e+00
-1.000000000000000e+00 -1.000000000000000e+00 1.000000000000000e+00
1.000000000000000e+00 -3.000000000000000e+00 1.000000000000000e+00
1.000000000000000e+00 -3.000000000000000e+00 -1.000000000000000e+00
1.000000000000000e+00 -1.000000000000000e+00 -1.000000000000000e+00
1.000000000000000e+00 -1.000000000000000e+00 1.000000000000000e+00
-1.000000000000000e+00 -1.000000000000000e+00 5.000000000000000e+00
-1.000000000000000e+00 -1.000000000000000e+00 3.000000000000000e+00
-1.000000000000000e+00 1.000000000000000e+00 3.000000000000000e+00
-1.000000000000000e+00 1.000000000000000e+00 5.000000000000000e+00
1.000000000000000e+00 -1.000000000000000e+00 5.000000000000000e+00
1.000000000000000e+00 -1.000000000000000e+00 3.000000000000000e+00
1.000000000000000e+00 1.000000000000000e+00 3.000000000000000e+00
1.000000000000000e+00 1.000000000000000e+00 5.000000000000000e+00
-1.000000000000000e+00 -1.000000000000000e+00 3.000000000000000e+00
-1.000000000000000e+00 -1.000000000000000e+00 1.000000000000000e+00
-1.000000000000000e+00 1.000000000000000e+00 1.000000000000000e+00
-1.000000000000000e+00 1.000000000000000e+00 3.000000000000000e+00
1.000000000000000e+00 -1.000000000000000e+00 3.000000000000000e+00
1.000000000000000e+00 -1.000000000000000e+00 1.000000000000000e+00
1.000000000000000e+00 1.000000000000000e+00 1.000000000000000e+00
1.000000000000000e+00 1.000000000000000e+00 3.000000000000000e+00
-1.000000000000000e+00 -1.000000000000000e+00 1.000000000000000e+00
-1.000000000000000e+00 -1.000000000000000e+00 -1.000000000000000e+00
-1.000000000000000e+00 1.000000000000000e+00 -1.000000000000000e+00
-1.000000000000000e+00 1.000000000000000e+00 1.000000000000000e+00
1.000000000000000e+00 -1.000000000000000e+00 1.000000000000000e+00
1.000000000000000e+00 -1.000000000000000e+00 -1.000000000000000e+00
1.000000000000000e+00 1.000000000000000e+00 -1.000000000000000e+00
1.000000000000000e+00 1.000000000000000e+00 1.000000000000000e+00
-1.000000000000000e+00 1.000000000000000e+00 5.000000000000000e+00
-1.000000000000000e+00 1.000000000000000e+00 3.000000000000000e+00
-1.000000000000000e+00 3.000000000000000e+00 3.000000000000000e+00
-1.000000000000000e+00 3.000000000000000e+00 5.000000000000000e+00
1.000000000000000e+00 1.000000000000000e+00 5.000000000000000e+00
1.000000000000000e+00 1.000000000000000e+00 3.000000000000000e+00
1.000000000000000e+00 3.000000000000000e+00 3.000000000000000e+00
1.000000000000000e+00 3.000000000000000e+00 5.000000000000000e+00
-1.000000000000000e+00 1.000000000000000e+00 3.000000000000000e+00
-1.000000000000000e+00 1.000000000000000e+00 1.000000000000000e+00
-1.000000000000000e+00 3.000000000000000e+00 1.000000000000000e+00
-1.000000000000000e+00 3.000000000000000e+00 3.000000000000000e+00
1.000000000000000e+00 1.000000000000000e+00 3.000000000000000e+00
1.000000000000000e+00 1.000000000000000e+00 1.000000000000000e+00
1.000000000000000e+00 3.000000000000000e+00 1.000000000000000e+00
1.000000000000000e+00 3.000000000000000e+00 3.000000000000000e+00
-1.000000000000000e+00 1.000000000000000e+00 1.000000000000000e+00
-1.000000000000000e+00 1.000000000000000e+00 -1.000000000000000e+00
-1.000000000000000e+00 3.000000000000000e+00 -1.000000000000000e+00
-1.000000000000000e+00 3.000000000000000e+00 1.000000000000000e+00
1.000000000000000e+00 1.000000000000000e+00 1.000000000000000e+00
1.000000000000000e+00 1.000000000000000e+00 -1.000000000000000e+00
1.000000000000000e+00 3.000000000000000e+00 -1.000000000000000e+00
1.000000000000000e+00 3.000000000000000e+00 1.000000000000000e+00
-1.000000000000000e+00 3.000000000000000e+00 5.000000000000000e+00
-1.000000000000000e+00 3.000000000000000e+00 3.000000000000000e+00
-1.000000000000000e+00 5.000000000000000e+00 3.000000000000000e+00
-1.000000000000000e+00 5.000000000000000e+00 5.000000000000000e+00
1.000000000000000e+00 3.000000000000000e+00 5.000000000000000e+00
1.000000000000000e+00 3.000000000000000e+00 3.000000000000000e+00
1.000000000000000e+00 5.000000000000000e+00 3.000000000000000e+00
1.000000000000000e+00 5.000000000000000e+00 5.000000000000000e+00
-1.000000000000000e+00 3.000000000000000e+00 3.000000000000000e+00
-1.000000000000000e+00 3.000000000000000e+00 1.000000000000000e+00
-1.000000000000000e+00 5.000000000000000e+00 1.000000000000000e+00
-1.000000000000000e+00 5.000000000000000e+00 3.000000000000000e+00
1.000000000000000e+00 3.000000000000000e+00 3.000000000000000e+00
1.000000000000000e+00 3.000000000000000e+00 1.000000000000000e+00
1.000000000000000e+00 5.000000000000000e+00 1.000000000000000e+00
1.000000000000000e+00 5.000000000000000e+00 3.000000000000000e+00
-1.000000000000000e+00 3.000000000000000e+00 1.000000000000000e+00
-1.000000000000000e+00 3.000000000000000e+00 -1.000000000000000e+00
-1.000000000000000e+00 5.000000000000000e+00 -1.000000000000000e+00
-1.000000000000000e+00 5.000000000000000e+00 1.000000000000000e+00
1.000000000000000e+00 3.000000000000000e+00 1.000000000000000e+00
1.000000000000000e+00 3.000000000000000e+00 -1.000000000000000e+00
1.000000000000000e+00 5.000000000000000e+00 -1.000000000000000e+00
1.000000000000000e+00 5.000000000000000e+00 1.000000000000000e+00
1.000000000000000e+00 -5.000000000000000e+00 5.000000000000000e+00
1.000000000000000e+00 -5.000000000000000e+00 3.000000000000000e+00
1.000000000000000e+00 -3.000000000000000e+00 3.000000000000000e+00
1.000000000000000e+00 -3.000000000000000e+00 5.000000000000000e+00
3.000000000000000e+00 -5.000000000000000e+00 5.000000000000000e+00
3.000000000000000e+00 -4.999999999999999e+00 3.000000000000000e+00
3.000000000000000e+00 -3.000000000000000e+00 3.000000000000000e+00
3.000000000000000e+00 -3.000000000000000e+00 5.000000000000000e+00
1.000000000000000e+00 -5.000000000000000e+00 3.000000000000000e+00
1.000000000000000e+00 -5.000000000000000e+00 1.000000000000000e+00
1.000000000000000e+00 -3.000000000000000e+00 1.000000000000000e+00
1.000000000000000e+00 -3.000000000000000e+00 3.000000000000000e+00
3.000000000000000e+00 -4.999999999999999e+00 3.000000000000000e+00
3.000000000000000e+00 -5.000000000000000e+00 1.000000000000000e+00
3.000000000000000e+00 -3.000000000000000e+00 1.000000000000000e+00
3.000000000000000e+00 -3.000000000000000e+00 3.000000000000000e+00
1.000000000000000e+00 -5.000000000000000e+00 1.000000000000000e+00
1.000000000000000e+00 -5.000000000000000e+00 -1.000000000000000e+00
1.000000000000000e+00 -3.000000000000000e+00 -1.000000000000000e+00
1.000000000000000e+00 -3.000000000000000e+00 1.000000000000000e+00
3.000000000000000e+00 -5.000000000000000e+00 1.000000000000000e+00
3.000000000000000e+00 -5.000000000000000e+00 -1.000000000000000e+00
3.000000000000000e+00 -3.000000000000000e+00 -1.000000000000000e+00
3.000000000000000e+00 -3.000000000000000e+00 1.000000000000000e+00
1.000000000000000e+00 -3.000000000000000e+00 5.000000000000000e+00
1.000000000000000e+00 -3.000000000000000e+00 3.000000000000000e+00
1.000000000000000e+00 -1.000000000000000e+00 3.000000000000000e+00
1.000000000000000e+00 -1.000000000000000e+00 5.000000000000000e+00
3.000000000000000e+00 -3.000000000000000e+00 5.000000000000000e+00
3.000000000000000e+00 -3.000000000000000e+00 3.000000000000000e+00
3.000000000000000e+00 -1.000000000000000e+00 3.000000000000000e+00
3.000000000000000e+00 -1.000000000000000e+00 5.000000000000000e+00
1.000000000000000e+00 -3.000000000000000e+00 3.000000000000000e+00
1.000000000000000e+00 -3.000000000000000e+00 1.000000000000000e+00
1.000000000000000e+00 -1.000000000000000e+00 1.000000000000000e+00
1.000000000000000e+00 -1.000000000000000e+00 3.000000000000000e+00
3.000000000000000e+00 -3.000000000000000e+00 3.000000000000000e+00
3.000000000000000e+00 -3.000000000000000e+00 1.000000000000000e+00
3.000000000000000e+00 -1.000000000000000e+00 1.000000000000000e+00
3.000000000000000e+00 -1.000000000000000e+00 3.000000000000000e+00
1.000000000000000e+00 -3.000000000000000e+00 1.000000000000000e+00
1.000000000000000e+00 -3.000000000000000e+00 -1.000000000000000e+00
1.000000000000000e+00 -1.000000000000000e+00 -1.000000000000000e+00
1.000000000000000e+00 -1.000000000000000e+00 1.000000000000000e+00
3.000000000000000e+00 -3.000000000000000e+00 1.000000000000000e+00
3.000000000000000e+00 -3.000000000000000e+00 -1.000000000000000e+00
3.000000000000000e+00 -1.000000000000000e+00 -1.000000000000000e+00
3.000000000000000e+00 -1.000000000000000e+00 1.000000000000000e+00
1.000000000000000e+00 -1.000000000000000e+00 5.000000000000000e+00
1.000000000000000e+00 -1.000000000000000e+00 3.000000000000000e+00
1.000000000000000e+00 1.000000000000000e+00 3.000000000000000e+00
1.000000000000000e+00 1.000000000000000e+00 5.000000000000000e+00
3.000000000000000e+00 -1.000000000000000e+00 5.000000000000000e+00
3.000000000000000e+00 -1.000000000000000e+00 3.000000000000000e+00
3.000000000000000e+00 1.000000000000000e+00 3.000000000000000e+00
3.000000000000000e+00 1.000000000000000e+00 5.000000000000000e+00
1.000000000000000e+00 -1.000000000000000e+00 3.000000000000000e+00
1.000000000000000e+00 -1.000000000000000e+00 1.000000000000000e+00
1.000000000000000e+00 1.000000000000000e+00 1.000000000000000e+00
1.000000000000000e+00 1.000000000000000e+00 3.000000000000000e+00
3.000000000000000e+00 -1.000000000000000e+00 3.000000000000000e+00
3.000000000000000e+00 -1.000000000000000e+00 1.000000000000000e+00
3.000000000000000e+00 1.000000000000000e+00 1.000000000000000e+00
3.000000000000000e+00 1.000000000000000e+00 3.000000000000000e+00
1.000000000000000e+00 -1.000000000000000e+00 1.000000000000000e+00
1.000000000000000e+00 -1.000000000000000e+00 -1.000000000000000e+00
1.000000000000000e+00 1.000000000000000e+00 -1.000000000000000e+00
1.000000000000000e+00 1.000000000000000e+00 1.000000000000000e+00
3.000000000000000e+00 -1.000000000000000e+00 1.000000000000000e+00
3.000000000000000e+00 -1.000000000000000e+00 -1.000000000000000e+00
3.000000000000000e+00 1.000000000000000e+00 -1.000000000000000e+00
3.000000000000000e+00 1.000000000000000e+00 1.000000000000000e+00
1.000000000000000e+00 1.000000000000000e+00 5.000000000000000e+00
1.000000000000000e+00 1.000000000000000e+00 3.000000000000000e+00
1.000000000000000e+00 3.000000000000000e+00 3.000000000000000e+00
1.000000000000000e+00 3.000000000000000e+00 5.000000000000000e+00
3.000000000000000e+00 1.000000000000000e+00 5.000000000000000e+00
3.000000000000000e+00 1.000000000000000e+00 3.000000000000000e+00
3.000000000000000e+00 3.000000000000000e+00 3.000000000000000e+00
3.000000000000000e+00 3.000000000000000e+00 5.000000000000000e+00
1.000000000000000e+00 1.000000000000000e+00 3.000000000000000e+00
1.000000000000000e+00 1.000000000000000e+00 1.000000000000000e+00
1.000000000000000e+00 3.000000000000000e+00 1.000000000000000e+00
1.000000000000000e+00 3.000000000000000e+00 3.000000000000000e+00
3.000000000000000e+00 1.000000000000000e+00 3.000000000000000e+00
3.000000000000000e+00 1.000000000000000e+00 1.000000000000000e+00
3.000000000000000e+00 3.000000000000000e+00 1.000000000000000e+00
3.000000000000000e+00 3.000000000000000e+00 3.000000000000000e+00
1.000000000000000e+00 1.000000000000000e+00 1.000000000000000e+00
1.000000000000000e+00 1.000000000000000e+00 -1.000000000000000e+00
1.000000000000000e+00 3.000000000000000e+00 -1.000000000000000e+00
1.000000000000000e+00 3.000000000000000e+00 1.000000000000000e+00
3.000000000000000e+00 1.000000000000000e+00 1.000000000000000e+00
3.000000000000000e+00 1.000000000000000e+00 -1.000000000000000e+00
3.000000000000000e+00 3.000000000000000e+00 -1.000000000000000e+00
3.000000000000000e+00 3.000000000000000e+00 1.000000000000000e+00
1.000000000000000e+00 3.000000000000000e+00 5.000000000000000e+00
1.000000000000000e+00 3.000000000000000e+00 3.000000000000000e+00
1.000000000000000e+00 5.000000000000000e+00 3.000000000000000e+00
1.000000000000000e+00 5.000000000000000e+00 5.000000000000000e+00
3.000000000000000e+00 3.000000000000000e+00 5.000000000000000e+00
3.000000000000000e+00 3.000000000000000e+00 3.000000000000000e+00
3.000000000000000e+00 5.000000000000000e+00 3.000000000000000e+00
3.000000000000000e+00 5.000000000000000e+00 5.000000000000000e+00
1.000000000000000e+00 3.000000000000000e+00 3.000000000000000e+00
1.000000000000000e+00 3.000000000000000e+00 1.000000000000000e+00
1.000000000000000e+00 5.000000000000000e+00 1.000000000000000e+00
1.000000000000000e+00 5.000000000000000e+00 3.000000000000000e+00
3.000000000000000e+00 3.000000000000000e+00 3.000000000000000e+00
3.000000000000000e+00 3.000000000000000e+00 1.000000000000000e+00
3.000000000000000e+00 5.000000000000000e+00 1.000000000000000e+00
3.000000000000000e+00 5.000000000000000e+00 3.000000000000000e+00
1.000000000000000e+00 3.000000000000000e+00 1.000000000000000e+00
1.000000000000000e+00 3.000000000000000e+00 -1.000000000000000e+00
1.000000000000000e+00 5.000000000000000e+00 -1.000000000000000e+00
1.000000000000000e+00 5.000000000000000e+00 1.000000000000000e+00
3.000000000000000e+00 3.000000000000000e+00 1.000000000000000e+00
3.000000000000000e+00 3.000000000000000e+00 -1.000000000000000e+00
3.000000000000000e+00 5.000000000000000e+00 -1.000000000000000e+00
3.000000000000000e+00 5.000000000000000e+00 1.000000000000000e+00
3.000000000000000e+00 -5.000000000000000e+00 5.000000000000000e+00
3.000000000000000e+00 -4.999999999999999e+00 3.000000000000000e+00
3.000000000000000e+00 -3.000000000000000e+00 3.000000000000000e+00
3.000000000000000e+00 -3.000000000000000e+00 5.000000000000000e+00
5.000000000000000e+00 -5.000000000000000e+00 5.000000000000000e+00
5.000000000000000e+00 -5.000000000000000e+00 3.000000000000000e+00
5.000000000000000e+00 -3.000000000000000e+00 3.000000000000000e+00
5.000000000000000e+00 -3.000000000000000e+00 5.000000000000000e+00
3.000000000000000e+00 -4.999999999999999e+00 3.000000000000000e+00
3.000000000000000e+00 -5.000000000000000e+00 1.000000000000000e+00
3.000000000000000e+00 -3.000000000000000e+00 1.000000000000000e+00
3.000000000000000e+00 -3.000000000000000e+00 3.000000000000000e+00
5.000000000000000e+00 -5.000000000000000e+00 3.000000000000000e+00
5.000000000000000e+00 -5.000000000000000e+00 1.000000000000000e+00
5.000000000000000e+00 -3.000000000000000e+00 1.000000000000000e+00
5.000000000000000e+00 -3.000000000000000e+00 3.000000000000000e+00
3.000000000000000e+00 -5.000000000000000e+00 1.000000000000000e+00
3.000000000000000e+00 -5.000000000000000e+00 -1.000000000000000e+00
3.000000000000000e+00 -3.000000000000000e+00 -1.000000000000000e+00
3.000000000000000e+00 -3.000000000000000e+00 1.000000000000000e+00
5.000000000000000e+00 -5.000000000000000e+00 1.000000000000000e+00
5.000000000000000e+00 -5.000000000000000e+00 -1.000000000000000e+00
5.000000000000000e+00 -3.000000000000000e+00 -1.000000000000000e+00
5.000000000000000e+00 -3.000000000000000e+00 1.000000000000000e+00
3.000000000000000e+00 -3.000000000000000e+00 5.000000000000000e+00
3.000000000000000e+00 -3.000000000000000e+00 3.000000000000000e+00
3.000000000000000e+00 -1.000000000000000e+00 3.000000000000000e+00
3.000000000000000e+00 -1.000000000000000e+00 5.000000000000000e+00
5.000000000000000e+00 -3.000000000000000e+00 5.000000000000000e+00
5.000000000000000e+00 -3.000000000000000e+00 3.000000000000000e+00
5.000000000000000e+00 -1.000000000000000e+00 3.000000000000000e+00
5.000000000000000e+00 -1.000000000000000e+00 5.000000000000000e+00
3.000000000000000e+00 -3.000000000000000e+00 3.000000000000000e+00
3.000000000000000e+00 -3.000000000000000e+00 1.000000000000000e+00
3.000000000000000e+00 -1.000000000000000e+00 1.000000000000000e+00
3.000000000000000e+00 -1.000000000000000e+00 3.000000000000000e+00
5.000000000000000e+00 -3.000000000000000e+00 3.000000000000000e+00
5.000000000000000e+00 -3.000000000000000e+00 1.000000000000000e+00
5.000000000000000e+00 -1.000000000000000e+00 1.000000000000000e+00
5.000000000000000e+00 -1.000000000000000e+00 3.000000000000000e+00
3.000000000000000e+00 -3.000000000000000e+00 1.000000000000000e+00
3.000000000000000e+00 -3.000000000000000e+00 -1.000000000000000e+00
3.000000000000000e+00 -1.000000000000000e+00 -1.000000000000000e+00
3.000000000000000e+00 -1.000000000000000e+00 1.000000000000000e+00
5.000000000000000e+00 -3.000000000000000e+00 1.000000000000000e+00
5.000000000000000e+00 -3.000000000000000e+00 -1.000000000000000e+00
5.000000000000000e+00 -1.000000000000000e+00 -1.000000000000000e+00
5.000000000000000e+00 -1.000000000000000e+00 1.000000000000000e+00
3.000000000000000e+00 -1.000000000000000e+00 5.000000000000000e+00
3.000000000000000e+00 -1.000000000000000e+00 3.000000000000000e+00
3.000000000000000e+00 1.000000000000000e+00 3.000000000000000e+00
3.000000000000000e+00 1.000000000000000e+00 5.000000000000000e+00
5.000000000000000e+00 -1.000000000000000e+00 5.000000000000000e+00
5.000000000000000e+00 -1.000000000000000e+00 3.000000000000000e+00
5.000000000000000e+00 1.000000000000000e+00 3.000000000000000e+00
5.000000000000000e+00 1.000000000000000e+00 5.000000000000000e+00
3.000000000000000e+00 -1.000000000000000e+00 3.000000000000000e+00
3.000000000000000e+00 -1.000000000000000e+00 1.000000000000000e+00
3.000000000000000e+00 1.000000000000000e+00 1.000000000000000e+00
3.000000000000000e+00 1.000000000000000e+00 3.000000000000000e+00
5.000000000000000e+00 -1.000000000000000e+00 3.000000000000000e+00
5.000000000000000e+00 -1.000000000000000e+00 1.000000000000000e+00
5.000000000000000e+00 1.000000000000000e+00 1.000000000000000e+00
5.000000000000000e+00 1.000000000000000e+00 3.000000000000000e+00
3.000000000000000e+00 -1.000000000000000e+00 1.000000000000000e+00
3.000000000000000e+00 -1.000000000000000e+00 -1.000000000000000e+00
3.000000000000000e+00 1.000000000000000e+00 -1.000000000000000e+00
3.000000000000000e+00 1.000000000000000e+00 1.000000000000000e+00
5.000000000000000e+00 -1.000000000000000e+00 1.000000000000000e+00
5.000000000000000e+00 -1.000000000000000e+00 -1.000000000000000e+00
5.000000000000000e+00 1.000000000000000e+00 -1.000000000000000e+00
5.000000000000000e+00 1.000000000000000e+00 1.000000000000000e+00
3.000000000000000e+00 1.000000000000000e+00 5.000000000000000e+00
3.000000000000000e+00 1.000000000000000e+00 3.000000000000000e+00
3.000000000000000e+00 3.000000000000000e+00 3.000000000000000e+00
3.000000000000000e+00 3.000000000000000e+00 5.000000000000000e+00
5.000000000000000e+00 1.000000000000000e+00 5.000000000000000e+00
5.000000000000000e+00 1.000000000000000e+00 3.000000000000000e+00
5.000000000000000e+00 3.000000000000000e+00 3.000000000000000e+00
5.000000000000000e+00 3.000000000000000e+00 5.000000000000000e+00
3.000000000000000e+00 1.000000000000000e+00 3.000000000000000e+00
3.000000000000000e+00 1.000000000000000e+00 1.000000000000000e+00
3.000000000000000e+00 3.000000000000000e+00 1.000000000000000e+00
3.000000000000000e+00 3.000000000000000e+00 3.000000000000000e+00
5.000000000000000e+00 1.000000000000000e+00 3.000000000000000e+00
5.000000000000000e+00 1.000000000000000e+00 1.000000000000000e+00
5.000000000000000e+00 3.000000000000000e+00 1.000000000000000e+00
5.000000000000000e+00 3.000000000000000e+00 3.000000000000000e+00
3.000000000000000e+00 1.000000000000000e+00 1.000000000000000e+00
3.000000000000000e+00 1.000000000000000e+00 -1.000000000000000e+00
3.000000000000000e+00 3.000000000000000e+00 -1.000000000000000e+00
3.000000000000000e+00 3.000000000000000e+00 1.000000000000000e+00
5.000000000000000e+00 1.000000000000000e+00 1.000000000000000e+00
5.000000000000000e+00 1.000000000000000e+00 -1.000000000000000e+00
5.000000000000000e+00 3.000000000000000e+00 -1.000000000000000e+00
5.000000000000000e+00 3.000000000000000e+00 1.000000000000000e+00
3.000000000000000e+00 3.000000000000000e+00 5.000000000000000e+00
3.000000000000000e+00 3.000000000000000e+00 3.000000000000000e+00
3.000000000000000e+00 5.000000000000000e+00 3.000000000000000e+00
3.000000000000000e+00 5.000000000000000e+00 5.000000000000000e+00
5.000000000000000e+00 3.000000000000000e+00 5.000000000000000e+00
5.000000000000000e+00 3.000000000000000e+00 3.000000000000000e+00
5.000000000000000e+00 5.000000000000000e+00 3.000000000000000e+00
5.000000000000000e+00 5.000000000000000e+00 5.000000000000000e+00
3.000000000000000e+00 3.000000000000000e+00 3.000000000000000e+00
3.000000000000000e+00 3.000000000000000e+00 1.000000000000000e+00
3.000000000000000e+00 5.000000000000000e+00 1.000000000000000e+00
3.000000000000000e+00 5.000000000000000e+00 3.000000000000000e+00
5.000000000000000e+00 3.000000000000000e+00 3.000000000000000e+00
5.000000000000000e+00 3.000000000000000e+00 1.000000000000000e+00
5.000000000000000e+00 5.000000000000000e+00 1.000000000000000e+00
5.000000000000000e+00 5.000000000000000e+00 3.000000000000000e+00
3.000000000000000e+00 3.000000000000000e+00 1.000000000000000e+00
3.000000000000000e+00 3.000000000000000e+00 -1.000000000000000e+00
3.000000000000000e+00 5.000000000000000e+00 -1.000000000000000e+00
3.000000000000000e+00 5.000000000000000e+00 1.000000000000000e+00
5.000000000000000e+00 3.000000000000000e+00 1.000000000000000e+00
5.000000000000000e+00 3.000000000000000e+00 -1.000000000000000e+00
5.000000000000000e+00 5.000000000000000e+00 -1.000000000000000e+00
5.000000000000000e+00 5.000000000000000e+00 1.000000000000000e+00
        </DataArray>
      </Points>

      <Cells>
        <DataArray type="Int32" Name="connectivity" format="ascii">
0 1 2 3 4 5 6 7 8 9 10 11 12 13 14 15 16 17 18 19 20 21 22 23 24 25 26 27 28 29 30 31 32 33 34 35 36 37 38 39 40 41 42 43 44 45 46 47 48 49 50 51 52 53 54 55 56 57 58 59 60 61 62 63 64 65 66 67 68 69 70 71 72 73 74 75 76 77 78 79 80 81 82 83 84 85 86 87 88 89 90 91 92 93 94 95 96 97 98 99 100 101 102 103 104 105 106 107 108 109 110 111 112 113 114 115 116 117 118 119 120 121 122 123 124 125 126 127 128 129 130 131 132 133 134 135 136 137 138 139 140 141 142 143 144 145 146 147 148 149 150 151 152 153 154 155 156 157 158 159 160 161 162 163 164 165 166 167 168 169 170 171 172 173 174 175 176 177 178 179 180 181 182 183 184 185 186 187 188 189 190 191 192 193 194 195 196 197 198 199 200 201 202 203 204 205 206 207 208 209 210 211 212 213 214 215 216 217 218 219 220 221 222 223 224 225 226 227 228 229 230 231 232 233 234 235 236 237 238 239 240 241 242 243 244 245 246 247 248 249 250 251 252 253 254 255 256 257 258 259 260 261 262 263 264 265 266 267 268 269 270 271 272 273 274 275 276 277 278 279 280 281 282 283 284 285 286 287 288 289 290 291 292 293 294 295 296 297 298 299 300 301 302 303 304 305 306 307 308 309 310 311 312 313 314 315 316 317 318 319 320 321 322 323 324 325 326 327 328 329 330 331 332 333 334 335 336 337 338 339 340 341 342 343 344 345 346 347 348 349 350 351 352 353 354 355 356 357 358 359 360 361 362 363 364 365 366 367 368 369 370 371 372 373 374 375 376 377 378 379 380 381 382 383 384 385 386 387 388 389 390 391 392 393 394 395 396 397 398 399 400 401 402 403 404 405 406 407 408 409 410 411 412 413 414 415 416 417 418 419 420 421 422 423 424 425 426 427 428 429 430 431 432 433 434 435 436 437 438 439 440 441 442 443 444 445 446 447 448 449 450 451 452 453 454 455 456 457 458 459 460 461 462 463 464 465 466 467 468 469 470 471 472 473 474 475 476 477 478 479 480 481 482 483 484 485 486 487 488 489 490 491 492 493 494 495 496 497 498 499 500 501 502 503 504 505 506 507 508 509 510 511 512 513 514 515 516 517 518 519 520 521 522 523 524 525 526 527 528 529 530 531 532 533 534 535 536 537 538 539 540 541 542 543 544 545 546 547 548 549 550 551 552 553 554 555 556 557 558 559 560 561 562 563 564 565 566 567 568 569 570 571 572 573 574 575 576 577 578 579 580 581 582 583 584 585 586 587 588 589 590 591 592 593 594 595 596 597 598 599 
        </DataArray>
        <DataArray type="Int32" Name="offsets" format="ascii">
8 16 24 32 40 48 56 64 72 80 88 96 104 112 120 128 136 144 152 160 168 176 184 192 200 208 216 224 232 240 248 256 264 272 280 288 296 304 312 320 328 336 344 352 360 368 376 384 392 400 408 416 424 432 440 448 456 464 472 480 488 496 504 512 520 528 536 544 552 560 568 576 584 592 600 
        </DataArray>
        <DataArray type="UInt8" Name="types" format="ascii">
12 12 12 12 12 12 12 12 12 12 12 12 12 12 12 12 12 12 12 12 12 12 12 12 12 12 12 12 12 12 12 12 12 12 12 12 12 12 12 12 12 12 12 12 12 12 12 12 12 12 12 12 12 12 12 12 12 12 12 12 12 12 12 12 12 12 12 12 12 12 12 12 12 12 12 
        </DataArray>
      </Cells>

  <PointData>
        <DataArray type="Float64" Name="displacement" NumberOfComponents="3" format="ascii">
0.000000000000000e+00 0.000000000000000e+00 0.000000000000000e+00
0.000000000000000e+00 0.000000000000000e+00 0.000000000000000e+00
0.000000000000000e+00 0.000000000000000e+00 0.000000000000000e+00
0.000000000000000e+00 0.000000000000000e+00 0.000000000000000e+00
-4.538264040059928e-04 0.000000000000000e+00 0.000000000000000e+00
-4.538264040056105e-04 0.000000000000000e+00 0.000000000000000e+00
-4.538264040055615e-04 -7.038780167309721e-16 -6.446883262916366e-16
-4.538264040056755e-04 0.000000000000000e+00 0.000000000000000e+00
0.000000000000000e+00 0.000000000000000e+00 0.000000000000000e+00
0.000000000000000e+00 0.000000000000000e+00 0.000000000000000e+00
0.000000000000000e+00 0.000000000000000e+00 0.000000000000000e+00
0.000000000000000e+00 0.000000000000000e+00 0.000000000000000e+00
-4.538264040056105e-04 0.000000000000000e+00 0.000000000000000e+00
-4.538264040055727e-04 0.000000000000000e+00 0.000000000000000e+00
-4.538264040064304e-04 -3.708210080115590e-16 -2.275105378866358e-17
-4.538264040055615e-04 -7.038780167309721e-16 -6.446883262916366e-16
0.000000000000000e+00 0.000000000000000e+00 0.000000000000000e+00
0.000000000000000e+00 0.000000000000000e+00 0.000000000000000e+00
0.000000000000000e+00 0.000000000000000e+00 0.000000000000000e+00
0.000000000000000e+00 0.000000000000000e+00 0.000000000000000e+00
-4.538264040055727e-04 0.000000000000000e+00 0.000000000000000e+00
-4.538264040063111e-04 0.000000000000000e+00 0.000000000000000e+00
-4.538264040062028e-04 1.823932529588109e-16 -6.745627683353668e-17
-4.538264040064304e-04 -3.708210080115590e-16 -2.275105378866358e-17
0.000000000000000e+00 0.000000000000000e+00 0.000000000000000e+00
0.000000000000000e+00 0.000000000000000e+00 0.000000000000000e+00
0.000000000000000e+00 0.000000000000000e+00 0.000000000000000e+00
0.000000000000000e+00 0.000000000000000e+00 0.000000000000000e+00
-4.538264040056755e-04 0.000000000000000e+00 0.000000000000000e+00
-4.538264040055615e-04 -7.038780167309721e-16 -6.446883262916366e-16
-4.538264040060266e-04 1.115746403685555e-16 6.602890454639140e-16
-4.538264040052284e-04 0.000000000000000e+00 0.000000000000000e+00
0.000000000000000e+00 0.000000000000000e+00 0.000000000000000e+00
0.000000000000000e+00 0.000000000000000e+00 0.000000000000000e+00
0.000000000000000e+00 0.000000000000000e+00 0.000000000000000e+00
0.000000000000000e+00 0.000000000000000e+00 0.000000000000000e+00
-4.538264040055615e-04 -7.038780167309721e-16 -6.446883262916366e-16
-4.538264040064304e-04 -3.708210080115590e-16 -2.275105378866358e-17
-4.538264040062686e-04 -5.807818955387890e-17 -2.062774584216430e-16
-4.538264040060266e-04 1.115746403685555e-16 6.602890454639140e-16
0.000000000000000e+00 0.000000000000000e+00 0.000000000000000e+00
0.000000000000000e+00 0.000000000000000e+00 0.000000000000000e+00
0.000000000000000e+00 0.000000000000000e+00 0.000000000000000e+00
0.000000000000000e+00 0.000000000000000e+00 0.000000000000000e+00
-4.538264040064304e-04 -3.708210080115590e-16 -2.275105378866358e-17
-4.538264040062028e-04 1.823932529588109e-16 -6.745627683353668e-17
-4.538264040060482e-04 1.894379161536975e-16 1.368739941782975e-17
-4.538264040062686e-04 -5.807818955387890e-17 -2.062774584216430e-16
0.000000000000000e+00 0.000000000000000e+00 0.000000000000000e+00
0.000000000000000e+00 0.000000000000000e+00 0.000000000000000e+00
0.000000000000000e+00 0.000000000000000e+00 0.000000000000000e+00
0.000000000000000e+00 0.000000000000000e+00 0.000000000000000e+00
-4.538264040052284e-04 0.000000000000000e+00 0.000000000000000e+00
-4.538264040060266e-04 1.115746403685555e-16 6.602890454639140e-16
-4.538264040058723e-04 1.419136244863900e-16 -1.242300971299485e-16
-4.538264040058556e-04 0.000000000000000e+00 0.000000000000000e+00
0.000000000000000e+00 0.000000000000000e+00 0.000000000000000e+00
0.000000000000000e+00 0.000000000000000e+00 0.000000000000000e+00
0.000000000000000e+00 0.000000000000000e+00 0.000000000000000e+00
0.000000000000000e+00 0.000000000000000e+00 0.000000000000000e+00
-4.538264040060266e-04 1.115746403685555e-16 6.602890454639140e-16
-4.538264040062686e-04 -5.807818955387890e-17 -2.062774584216430e-16
-4.538264040059284e-04 1.413181906694520e-16 -5.053471276361005e-16
-4.538264040058723e-04 1.419136244863900e-16 -1.242300971299485e-16
0.000000000000000e+00 0.000000000000000e+00 0.000000000000000e+00
0.000000000000000e+00 0.000000000000000e+00 0.000000000000000e+00
0.000000000000000e+00 0.000000000000000e+00 0.000000000000000e+00
0.000000000000000e+00 0.000000000000000e+00 0.000000000000000e+00
-4.538264040062686e-04 -5.807818955387890e-17 -2.062774584216430e-16
-4.538264040060482e-04 1.894379161536975e-16 1.368739941782975e-17
-4.538264040060357e-04 4.390270872949656e-17 4.230361471732551e-16
-4.538264040059284e-04 1.413181906694520e-16 -5.053471276361005e-16
0.000000000000000e+00 0.000000000000000e+00 0.000000000000000e+00
0.000000000000000e+00 0.000000000000000e+00 0.000000000000000e+00
0.000000000000000e+00 0.000000000000000e+00 0.000000000000000e+00
0.000000000000000e+00 0.000000000000000e+00 0.000000000000000e+00
-4.538264040058556e-04 0.000000000000000e+00 0.000000000000000e+00
-4.538264040058723e-04 1.419136244863900e-16 -1.242300971299485e-16
-4.538264040058712e-04 -2.582774361853690e-17 8.476369417384357e-17
-4.538264040062725e-04 0.000000000000000e+00 0.000000000000000e+00
0.000000000000000e+00 0.000000000000000e+00 0.000000000000000e+00
0.000000000000000e+00 0.000000000000000e+00 0.000000000000000e+00
0.000000000000000e+00 0.000000000000000e+00 0.000000000000000e+00
0.000000000000000e+00 0.000000000000000e+00 0.000000000000000e+00
-4.538264040058723e-04 1.419136244863900e-16 -1.242300971299485e-16
-4.538264040059284e-04 1.413181906694520e-16 -5.053471276361005e-16
-4.538264040061086e-04 3.189042633767079e-16 -1.714197561504715e-18
-4.538264040058712e-04 -2.582774361853690e-17 8.476369417384357e-17
0.000000000000000e+00 0.000000000000000e+00 0.000000000000000e+00
0.000000000000000e+00 0.000000000000000e+00 0.000000000000000e+00
0.000000000000000e+00 0.000000000000000e+00 0.000000000000000e+00
0.000000000000000e+00 0.000000000000000e+00 0.000000000000000e+00
-4.538264040059284e-04 1.413181906694520e-16 -5.053471276361005e-16
-4.538264040060357e-04 4.390270872949656e-17 4.230361471732551e-16
-4.538264040064198e-04 5.175150813686785e-16 -8.581640785169329e-16
-4.538264040061086e-04 3.189042633767079e-16 -1.714197561504715e-18
0.000000000000000e+00 0.000000000000000e+00 0.000000000000000e+00
0.000000000000000e+00 0.000000000000000e+00 0.000000000000000e+00
0.000000000000000e+00 0.000000000000000e+00 0.000000000000000e+00
0.000000000000000e+00 0.000000000000000e+00 0.000000000000000e+00
-4.538264040062725e-04 0.000000000000000e+00 0.000000000000000e+00
-4.538264040058712e-04 -2.582774361853690e-17 8.476369417384357e-17
-4.538264040060135e-04 0.000000000000000e+00 0.000000000000000e+00
-4.538264040050014e-04 0.000000000000000e+00 0.000000000000000e+00
0.000000000000000e+00 0.000000000000000e+00 0.000000000000000e+00
0.000000000000000e+00 0.000000000000000e+00 0.000000000000000e+00
0.000000000000000e+00 0.000000000000000e+00 0.000000000000000e+00
0.000000000000000e+00 0.000000000000000e+00 0.000000000000000e+00
-4.538264040058712e-04 -2.582774361853690e-17 8.476369417384357e-17
-4.538264040061086e-04 3.189042633767079e-16 -1.714197561504715e-18
-4.538264040062118e-04 0.000000000000000e+00 0.000000000000000e+00
-4.538264040060135e-04 0.000000000000000e+00 0.000000000000000e+00
0.000000000000000e+00 0.000000000000000e+00 0.000000000000000e+00
0.000000000000000e+00 0.000000000000000e+00 0.000000000000000e+00
0.000000000000000e+00 0.000000000000000e+00 0.000000000000000e+00
0.000000000000000e+00 0.000000000000000e+00 0.000000000000000e+00
-4.538264040061086e-04 3.189042633767079e-16 -1.714197561504715e-18
-4.538264040064198e-04 5.175150813686785e-16 -8.581640785169329e-16
-4.538264040053545e-04 0.000000000000000e+00 0.000000000000000e+00
-4.538264040062118e-04 0.000000000000000e+00 0.000000000000000e+00
-4.538264040059928e-04 0.000000000000000e+00 0.000000000000000e+00
-4.538264040056105e-04 0.000000000000000e+00 0.000000000000000e+00
-4.538264040055615e-04 -7.038780167309721e-16 -6.446883262916366e-16
-4.538264040056755e-04 0.000000000000000e+00 0.000000000000000e+00
-9.070747024732383e-04 0.000000000000000e+00 0.000000000000000e+00
-9.070747024710812e-04 0.000000000000000e+00 0.000000000000000e+00
-9.070747024717077e-04 3.615863306054235e-16 -1.077055660546968e-15
-9.070747024716158e-04 0.000000000000000e+00 0.000000000000000e+00
-4.538264040056105e-04 0.000000000000000e+00 0.000000000000000e+00
-4.538264040055727e-04 0.000000000000000e+00 0.000000000000000e+00
-4.538264040064304e-04 -3.708210080115590e-16 -2.275105378866358e-17
-4.538264040055615e-04 -7.038780167309721e-16 -6.446883262916366e-16
-9.070747024710812e-04 0.000000000000000e+00 0.000000000000000e+00
-9.070747024728404e-04 0.000000000000000e+00 0.000000000000000e+00
-9.070747024725137e-04 -8.517989818089328e-16 3.936043444939145e-16
-9.070747024717077e-04 3.615863306054235e-16 -1.077055660546968e-15
-4.538264040055727e-04 0.000000000000000e+00 0.000000000000000e+00
-4.538264040063111e-04 0.000000000000000e+00 0.000000000000000e+00
-4.538264040062028e-04 1.823932529588109e-16 -6.745627683353668e-17
-4.538264040064304e-04 -3.708210080115590e-16 -2.275105378866358e-17
-9.070747024728404e-04 0.000000000000000e+00 0.000000000000000e+00
-9.070747024729855e-04 0.000000000000000e+00 0.000000000000000e+00
-9.070747024727610e-04 -5.122285212265228e-17 1.525577720731473e-16
-9.070747024725137e-04 -8.517989818089328e-16 3.936043444939145e-16
-4.538264040056755e-04 0.000000000000000e+00 0.000000000000000e+00
-4.538264040055615e-04 -7.038780167309721e-16 -6.446883262916366e-16
-4.538264040060266e-04 1.115746403685555e-16 6.602890454639140e-16
-4.538264040052284e-04 0.000000000000000e+00 0.000000000000000e+00
-9.070747024716158e-04 0.000000000000000e+00 0.000000000000000e+00
-9.070747024717077e-04 3.615863306054235e-16 -1.077055660546968e-15
-9.070747024720362e-04 -2.510414479976052e-16 5.385316267530211e-16
-9.070747024716053e-04 0.000000000000000e+00 0.000000000000000e+00
-4.538264040055615e-04 -7.038780167309721e-16 -6.446883262916366e-16
-4.538264040064304e-04 -3.708210080115590e-16 -2.275105378866358e-17
-4.538264040062686e-04 -5.807818955387890e-17 -2.062774584216430e-16
-4.538264040060266e-04 1.115746403685555e-16 6.602890454639140e-16
-9.070747024717077e-04 3.615863306054235e-16 -1.077055660546968e-15
-9.070747024725137e-04 -8.517989818089328e-16 3.936043444939145e-16
-9.070747024724188e-04 2.495111244316308e-16 6.954843784517399e-17
-9.070747024720362e-04 -2.510414479976052e-16 5.385316267530211e-16
-4.538264040064304e-04 -3.708210080115590e-16 -2.275105378866358e-17
-4.538264040062028e-04 1.823932529588109e-16 -6.745627683353668e-17
-4.538264040060482e-04 1.894379161536975e-16 1.368739941782975e-17
-4.538264040062686e-04 -5.807818955387890e-17 -2.062774584216430e-16
-9.070747024725137e-04 -8.517989818089328e-16 3.936043444939145e-16
-9.070747024727610e-04 -5.122285212265228e-17 1.525577720731473e-16
-9.070747024717430e-04 8.677548232725138e-16 8.488301227283881e-16
-9.070747024724188e-04 2.495111244316308e-16 6.954843784517399e-17
-4.538264040052284e-04 0.000000000000000e+00 0.000000000000000e+00
-4.538264040060266e-04 1.115746403685555e-16 6.602890454639140e-16
-4.538264040058723e-04 1.419136244863900e-16 -1.242300971299485e-16
-4.538264040058556e-04 0.000000000000000e+00 0.000000000000000e+00
-9.070747024716053e-04 0.000000000000000e+00 0.000000000000000e+00
-9.070747024720362e-04 -2.510414479976052e-16 5.385316267530211e-16
-9.070747024719595e-04 -9.229754806924821e-17 2.573849800144117e-17
-9.070747024716527e-04 0.000000000000000e+00 0.000000000000000e+00
-4.538264040060266e-04 1.115746403685555e-16 6.602890454639140e-16
-4.538264040062686e-04 -5.807818955387890e-17 -2.062774584216430e-16
-4.538264040059284e-04 1.413181906694520e-16 -5.053471276361005e-16
-4.538264040058723e-04 1.419136244863900e-16 -1.242300971299485e-16
-9.070747024720362e-04 -2.510414479976052e-16 5.385316267530211e-16
-9.070747024724188e-04 2.495111244316308e-16 6.954843784517399e-17
-9.070747024719001e-04 3.034810172347377e-17 -2.025745515208202e-16
-9.070747024719595e-04 -9.229754806924821e-17 2.573849800144117e-17
-4.538264040062686e-04 -5.807818955387890e-17 -2.062774584216430e-16
-4.538264040060482e-04 1.894379161536975e-16 1.368739941782975e-17
-4.538264040060357e-04 4.390270872949656e-17 4.230361471732551e-16
-4.538264040059284e-04 1.413181906694520e-16 -5.053471276361005e-16
-9.070747024724188e-04 2.495111244316308e-16 6.954843784517399e-17
-9.070747024717430e-04 8.677548232725138e-16 8.488301227283881e-16
-9.070747024724965e-04 2.103426443755520e-16 1.594631120217480e-16
-9.070747024719001e-04 3.034810172347377e-17 -2.025745515208202e-16
-4.538264040058556e-04 0.000000000000000e+00 0.000000000000000e+00
-4.538264040058723e-04 1.419136244863900e-16 -1.242300971299485e-16
-4.538264040058712e-04 -2.582774361853690e-17 8.476369417384357e-17
-4.538264040062725e-04 0.000000000000000e+00 0.000000000000000e+00
-9.070747024716527e-04 0.000000000000000e+00 0.000000000000000e+00
-9.070747024719595e-04 -9.229754806924821e-17 2.573849800144117e-17
-9.070747024725580e-04 -8.852741053867211e-17 8.097295642224966e-17
-9.070747024719357e-04 0.000000000000000e+00 0.000000000000000e+00
-4.538264040058723e-04 1.419136244863900e-16 -1.242300971299485e-16
-4.538264040059284e-04 1.413181906694520e-16 -5.053471276361005e-16
-4.538264040061086e-04 3.189042633767079e-16 -1.714197561504715e-18
-4.538264040058712e-04 -2.582774361853690e-17 8.476369417384357e-17
-9.070747024719595e-04 -9.229754806924821e-17 2.573849800144117e-17
-9.070747024719001e-04 3.034810172347377e-17 -2.025745515208202e-16
-9.070747024720623e-04 5.167523041537589e-16 2.284649612679737e-17
-9.070747024725580e-04 -8.852741053867211e-17 8.097295642224966e-17
-4.538264040059284e-04 1.413181906694520e-16 -5.053471276361005e-16
-4.538264040060357e-04 4.390270872949656e-17 4.230361471732551e-16
-4.538264040064198e-04 5.175150813686785e-16 -8.581640785169329e-16
-4.538264040061086e-04 3.189042633767079e-16 -1.714197561504715e-18
-9.070747024719001e-04 3.034810172347377e-17 -2.025745515208202e-16
-9.070747024724965e-04 2.103426443755520e-16 1.594631120217480e-16
-9.070747024726748e-04 1.525233715870849e-16 -4.628327717678566e-16
-9.070747024720623e-04 5.167523041537589e-16 2.284649612679737e-17
-4.538264040062725e-04 0.000000000000000e+00 0.000000000000000e+00
-4.538264040058712e-04 -2.582774361853690e-17 8.476369417384357e-17
-4.538264040060135e-04 0.000000000000000e+00 0.000000000000000e+00
-4.538264040050014e-04 0.000000000000000e+00 0.000000000000000e+00
-9.070747024719357e-04 0.000000000000000e+00 0.000000000000000e+00
-9.070747024725580e-04 -8.852741053867211e-17 8.097295642224966e-17
-9.070747024718610e-04 0.000000000000000e+00 0.000000000000000e+00
-9.070747024721859e-04 0.000000000000000e+00 0.000000000000000e+00
-4.538264040058712e-04 -2.582774361853690e-17 8.476369417384357e-17
-4.538264040061086e-04 3.189042633767079e-16 -1.714197561504715e-18
-4.538264040062118e-04 0.000000000000000e+00 0.000000000000000e+00
-4.538264040060135e-04 0.000000000000000e+00 0.000000000000000e+00
-9.070747024725580e-04 -8.852741053867211e-17 8.097295642224966e-17
-9.070747024720623e-04 5.167523041537589e-16 2.284649612679737e-17
-9.070747024718845e-04 0.000000000000000e+00 0.000000000000000e+00
-9.070747024718610e-04 0.000000000000000e+00 0.000000000000000e+00
-4.538264040061086e-04 3.189042633767079e-16 -1.714197561504715e-18
-4.538264040064198e-04 5.175150813686785e-16 -8.581640785169329e-16
-4.538264040053545e-04 0.000000000000000e+00 0.000000000000000e+00
-4.538264040062118e-04 0.000000000000000e+00 0.000000000000000e+00
-9.070747024720623e-04 5.167523041537589e-16 2.284649612679737e-17
-9.070747024726748e-04 1.525233715870849e-16 -4.628327717678566e-16
-9.070747024720198e-04 0.000000000000000e+00 0.000000000000000e+00
-9.070747024718845e-04 0.000000000000000e+00 0.000000000000000e+00
-9.070747024732383e-04 0.000000000000000e+00 0.000000000000000e+00
-9.070747024710812e-04 0.000000000000000e+00 0.000000000000000e+00
-9.070747024717077e-04 3.615863306054235e-16 -1.077055660546968e-15
-9.070747024716158e-04 0.000000000000000e+00 0.000000000000000e+00
-1.360466801259559e-03 0.000000000000000e+00 0.000000000000000e+00
-1.360466801260546e-03 0.000000000000000e+00 0.000000000000000e+00
-1.360466801260618e-03 5.549851444550154e-16 -2.039446772280215e-16
-1.360466801260840e-03 0.000000000000000e+00 0.000000000000000e+00
-9.070747024710812e-04 0.000000000000000e+00 0.000000000000000e+00
-9.070747024728404e-04 0.000000000000000e+00 0.000000000000000e+00
-9.070747024725137e-04 -8.517989818089328e-16 3.936043444939145e-16
-9.070747024717077e-04 3.615863306054235e-16 -1.077055660546968e-15
-1.360466801260546e-03 0.000000000000000e+00 0.000000000000000e+00
-1.360466801260389e-03 0.000000000000000e+00 0.000000000000000e+00
-1.360466801260524e-03 -1.753684754519210e-16 -7.161238305535952e-17
-1.360466801260618e-03 5.549851444550154e-16 -2.039446772280215e-16
-9.070747024728404e-04 0.000000000000000e+00 0.000000000000000e+00
-9.070747024729855e-04 0.000000000000000e+00 0.000000000000000e+00
-9.070747024727610e-04 -5.122285212265228e-17 1.525577720731473e-16
-9.070747024725137e-04 -8.517989818089328e-16 3.936043444939145e-16
-1.360466801260389e-03 0.000000000000000e+00 0.000000000000000e+00
-1.360466801260901e-03 0.000000000000000e+00 0.000000000000000e+00
-1.360466801260829e-03 7.118117803271960e-16 2.094068962193142e-16
-1.360466801260524e-03 -1.753684754519210e-16 -7.161238305535952e-17
-9.070747024716158e-04 0.000000000000000e+00 0.000000000000000e+00
-9.070747024717077e-04 3.615863306054235e-16 -1.077055660546968e-15
-9.070747024720362e-04 -2.510414479976052e-16 5.385316267530211e-16
-9.070747024716053e-04 0.000000000000000e+00 0.000000000000000e+00
-1.360466801260840e-03 0.000000000000000e+00 0.000000000000000e+00
-1.360466801260618e-03 5.549851444550154e-16 -2.039446772280215e-16
-1.360466801261932e-03 2.689946501320449e-16 -4.134037275748009e-16
-1.360466801260687e-03 0.000000000000000e+00 0.000000000000000e+00
-9.070747024717077e-04 3.615863306054235e-16 -1.077055660546968e-15
-9.070747024725137e-04 -8.517989818089328e-16 3.936043444939145e-16
-9.070747024724188e-04 2.495111244316308e-16 6.954843784517399e-17
-9.070747024720362e-04 -2.510414479976052e-16 5.385316267530211e-16
-1.360466801260618e-03 5.549851444550154e-16 -2.039446772280215e-16
-1.360466801260524e-03 -1.753684754519210e-16 -7.161238305535952e-17
-1.360466801261220e-03 5.215148968647959e-16 -9.496397803734444e-17
-1.360466801261932e-03 2.689946501320449e-16 -4.134037275748009e-16
-9.070747024725137e-04 -8.517989818089328e-16 3.936043444939145e-16
-9.070747024727610e-04 -5.122285212265228e-17 1.525577720731473e-16
-9.070747024717430e-04 8.677548232725138e-16 8.488301227283881e-16
-9.070747024724188e-04 2.495111244316308e-16 6.954843784517399e-17
-1.360466801260524e-03 -1.753684754519210e-16 -7.161238305535952e-17
-1.360466801260829e-03 7.118117803271960e-16 2.094068962193142e-16
-1.360466801260584e-03 7.934016365456994e-16 -1.601358238054714e-17
-1.360466801261220e-03 5.215148968647959e-16 -9.496397803734444e-17
-9.070747024716053e-04 0.000000000000000e+00 0.000000000000000e+00
-9.070747024720362e-04 -2.510414479976052e-16 5.385316267530211e-16
-9.070747024719595e-04 -9.229754806924821e-17 2.573849800144117e-17
-9.070747024716527e-04 0.000000000000000e+00 0.000000000000000e+00
-1.360466801260687e-03 0.000000000000000e+00 0.000000000000000e+00
-1.360466801261932e-03 2.689946501320449e-16 -4.134037275748009e-16
-1.360466801261053e-03 6.123813083380924e-17 1.929027960871220e-16
-1.360466801260958e-03 0.000000000000000e+00 0.000000000000000e+00
-9.070747024720362e-04 -2.510414479976052e-16 5.385316267530211e-16
-9.070747024724188e-04 2.495111244316308e-16 6.954843784517399e-17
-9.070747024719001e-04 3.034810172347377e-17 -2.025745515208202e-16
-9.070747024719595e-04 -9.229754806924821e-17 2.573849800144117e-17
-1.360466801261932e-03 2.689946501320449e-16 -4.134037275748009e-16
-1.360466801261220e-03 5.215148968647959e-16 -9.496397803734444e-17
-1.360466801260929e-03 7.607398215970035e-16 -1.832814563524343e-16
-1.360466801261053e-03 6.123813083380924e-17 1.929027960871220e-16
-9.070747024724188e-04 2.495111244316308e-16 6.954843784517399e-17
-9.070747024717430e-04 8.677548232725138e-16 8.488301227283881e-16
-9.070747024724965e-04 2.103426443755520e-16 1.594631120217480e-16
-9.070747024719001e-04 3.034810172347377e-17 -2.025745515208202e-16
-1.360466801261220e-03 5.215148968647959e-16 -9.496397803734444e-17
-1.360466801260584e-03 7.934016365456994e-16 -1.601358238054714e-17
-1.360466801260627e-03 2.741931737658875e-16 -3.338805058761979e-16
-1.360466801260929e-03 7.607398215970035e-16 -1.832814563524343e-16
-9.070747024716527e-04 0.000000000000000e+00 0.000000000000000e+00
-9.070747024719595e-04 -9.229754806924821e-17 2.573849800144117e-17
-9.070747024725580e-04 -8.852741053867211e-17 8.097295642224966e-17
-9.070747024719357e-04 0.000000000000000e+00 0.000000000000000e+00
-1.360466801260958e-03 0.000000000000000e+00 0.000000000000000e+00
-1.360466801261053e-03 6.123813083380924e-17 1.929027960871220e-16
-1.360466801260955e-03 3.964499644545213e-16 1.413044358658252e-16
-1.360466801260981e-03 0.000000000000000e+00 0.000000000000000e+00
-9.070747024719595e-04 -9.229754806924821e-17 2.573849800144117e-17
-9.070747024719001e-04 3.034810172347377e-17 -2.025745515208202e-16
-9.070747024720623e-04 5.167523041537589e-16 2.284649612679737e-17
-9.070747024725580e-04 -8.852741053867211e-17 8.097295642224966e-17
-1.360466801261053e-03 6.123813083380924e-17 1.929027960871220e-16
-1.360466801260929e-03 7.607398215970035e-16 -1.832814563524343e-16
-1.360466801261236e-03 -2.296188010570970e-16 -6.060468416828429e-16
-1.360466801260955e-03 3.964499644545213e-16 1.413044358658252e-16
-9.070747024719001e-04 3.034810172347377e-17 -2.025745515208202e-16
-9.070747024724965e-04 2.103426443755520e-16 1.594631120217480e-16
-9.070747024726748e-04 1.525233715870849e-16 -4.628327717678566e-16
-9.070747024720623e-04 5.167523041537589e-16 2.284649612679737e-17
-1.360466801260929e-03 7.607398215970035e-16 -1.832814563524343e-16
-1.360466801260627e-03 2.741931737658875e-16 -3.338805058761979e-16
-1.360466801261260e-03 9.388907328534361e-16 3.541765224128366e-17
-1.360466801261236e-03 -2.296188010570970e-16 -6.060468416828429e-16
-9.070747024719357e-04 0.000000000000000e+00 0.000000000000000e+00
-9.070747024725580e-04 -8.852741053867211e-17 8.097295642224966e-17
-9.070747024718610e-04 0.000000000000000e+00 0.000000000000000e+00
-9.070747024721859e-04 0.000000000000000e+00 0.000000000000000e+00
-1.360466801260981e-03 0.000000000000000e+00 0.000000000000000e+00
-1.360466801260955e-03 3.964499644545213e-16 1.413044358658252e-16
-1.360466801261179e-03 0.000000000000000e+00 0.000000000000000e+00
-1.360466801260878e-03 0.000000000000000e+00 0.000000000000000e+00
-9.070747024725580e-04 -8.852741053867211e-17 8.097295642224966e-17
-9.070747024720623e-04 5.167523041537589e-16 2.284649612679737e-17
-9.070747024718845e-04 0.000000000000000e+00 0.000000000000000e+00
-9.070747024718610e-04 0.000000000000000e+00 0.000000000000000e+00
-1.360466801260955e-03 3.964499644545213e-16 1.413044358658252e-16
-1.360466801261236e-03 -2.296188010570970e-16 -6.060468416828429e-16
-1.360466801260568e-03 0.000000000000000e+00 0.000000000000000e+00
-1.360466801261179e-03 0.000000000000000e+00 0.000000000000000e+00
-9.070747024720623e-04 5.167523041537589e-16 2.284649612679737e-17
-9.070747024726748e-04 1.525233715870849e-16 -4.628327717678566e-16
-9.070747024720198e-04 0.000000000000000e+00 0.000000000000000e+00
-9.070747024718845e-04 0.000000000000000e+00 0.000000000000000e+00
-1.360466801261236e-03 -2.296188010570970e-16 -6.060468416828429e-16
-1.360466801261260e-03 9.388907328534361e-16 3.541765224128366e-17
-1.360466801260123e-03 0.000000000000000e+00 0.000000000000000e+00
-1.360466801260568e-03 0.000000000000000e+00 0.000000000000000e+00
-1.360466801259559e-03 0.000000000000000e+00 0.000000000000000e+00
-1.360466801260546e-03 0.000000000000000e+00 0.000000000000000e+00
-1.360466801260618e-03 5.549851444550154e-16 -2.039446772280215e-16
-1.360466801260840e-03 0.000000000000000e+00 0.000000000000000e+00
-1.814801405133443e-03 0.000000000000000e+00 0.000000000000000e+00
-1.814801405133492e-03 0.000000000000000e+00 0.000000000000000e+00
-1.814801405133282e-03 3.763217260797384e-17 4.897787384170500e-17
-1.814801405133093e-03 0.000000000000000e+00 0.000000000000000e+00
-1.360466801260546e-03 0.000000000000000e+00 0.000000000000000e+00
-1.360466801260389e-03 0.000000000000000e+00 0.000000000000000e+00
-1.360466801260524e-03 -1.753684754519210e-16 -7.161238305535952e-17
-1.360466801260618e-03 5.549851444550154e-16 -2.039446772280215e-16
-1.814801405133492e-03 0.000000000000000e+00 0.000000000000000e+00
-1.814801405133205e-03 0.000000000000000e+00 0.000000000000000e+00
-1.814801405132672e-03 2.010770452909559e-16 2.127362171162497e-16
-1.814801405133282e-03 3.763217260797384e-17 4.897787384170500e-17
-1.360466801260389e-03 0.000000000000000e+00 0.000000000000000e+00
-1.360466801260901e-03 0.000000000000000e+00 0.000000000000000e+00
-1.360466801260829e-03 7.118117803271960e-16 2.094068962193142e-16
-1.360466801260524e-03 -1.753684754519210e-16 -7.161238305535952e-17
-1.814801405133205e-03 0.000000000000000e+00 0.000000000000000e+00
-1.814801405133484e-03 0.000000000000000e+00 0.000000000000000e+00
-1.814801405132657e-03 -4.414575878696909e-16 4.940948551467608e-16
-1.814801405132672e-03 2.010770452909559e-16 2.127362171162497e-16
-1.360466801260840e-03 0.000000000000000e+00 0.000000000000000e+00
-1.360466801260618e-03 5.549851444550154e-16 -2.039446772280215e-16
-1.360466801261932e-03 2.689946501320449e-16 -4.134037275748009e-16
-1.360466801260687e-03 0.000000000000000e+00 0.000000000000000e+00
-1.814801405133093e-03 0.000000000000000e+00 0.000000000000000e+00
-1.814801405133282e-03 3.763217260797384e-17 4.897787384170500e-17
-1.814801405133460e-03 1.294320308072440e-17 3.303335331047128e-16
-1.814801405133213e-03 0.000000000000000e+00 0.000000000000000e+00
-1.360466801260618e-03 5.549851444550154e-16 -2.039446772280215e-16
-1.360466801260524e-03 -1.753684754519210e-16 -7.161238305535952e-17
-1.360466801261220e-03 5.215148968647959e-16 -9.496397803734444e-17
-1.360466801261932e-03 2.689946501320449e-16 -4.134037275748009e-16
-1.814801405133282e-03 3.763217260797384e-17 4.897787384170500e-17
-1.814801405132672e-03 2.010770452909559e-16 2.127362171162497e-16
-1.814801405132936e-03 8.640381010384263e-16 -1.231299122648224e-16
-1.814801405133460e-03 1.294320308072440e-17 3.303335331047128e-16
-1.360466801260524e-03 -1.753684754519210e-16 -7.161238305535952e-17
-1.360466801260829e-03 7.118117803271960e-16 2.094068962193142e-16
-1.360466801260584e-03 7.934016365456994e-16 -1.601358238054714e-17
-1.360466801261220e-03 5.215148968647959e-16 -9.496397803734444e-17
-1.814801405132672e-03 2.010770452909559e-16 2.127362171162497e-16
-1.814801405132657e-03 -4.414575878696909e-16 4.940948551467608e-16
-1.814801405133478e-03 1.370775223061082e-15 -4.362447599894634e-17
-1.814801405132936e-03 8.640381010384263e-16 -1.231299122648224e-16
-1.360466801260687e-03 0.000000000000000e+00 0.000000000000000e+00
-1.360466801261932e-03 2.689946501320449e-16 -4.134037275748009e-16
-1.360466801261053e-03 6.123813083380924e-17 1.929027960871220e-16
-1.360466801260958e-03 0.000000000000000e+00 0.000000000000000e+00
-1.814801405133213e-03 0.000000000000000e+00 0.000000000000000e+00
-1.814801405133460e-03 1.294320308072440e-17 3.303335331047128e-16
-1.814801405133666e-03 2.114837830143031e-16 5.418738545476785e-16
-1.814801405132325e-03 0.000000000000000e+00 0.000000000000000e+00
-1.360466801261932e-03 2.689946501320449e-16 -4.134037275748009e-16
-1.360466801261220e-03 5.215148968647959e-16 -9.496397803734444e-17
-1.360466801260929e-03 7.607398215970035e-16 -1.832814563524343e-16
-1.360466801261053e-03 6.123813083380924e-17 1.929027960871220e-16
-1.814801405133460e-03 1.294320308072440e-17 3.303335331047128e-16
-1.814801405132936e-03 8.640381010384263e-16 -1.231299122648224e-16
-1.814801405132981e-03 -4.515052109110203e-16 -9.593115168565719e-17
-1.814801405133666e-03 2.114837830143031e-16 5.418738545476785e-16
-1.360466801261220e-03 5.215148968647959e-16 -9.496397803734444e-17
-1.360466801260584e-03 7.934016365456994e-16 -1.601358238054714e-17
-1.360466801260627e-03 2.741931737658875e-16 -3.338805058761979e-16
-1.360466801260929e-03 7.607398215970035e-16 -1.832814563524343e-16
-1.814801405132936e-03 8.640381010384263e-16 -1.231299122648224e-16
-1.814801405133478e-03 1.370775223061082e-15 -4.362447599894634e-17
-1.814801405132341e-03 2.841406894615928e-16 1.098620738598776e-16
-1.814801405132981e-03 -4.515052109110203e-16 -9.593115168565719e-17
-1.360466801260958e-03 0.000000000000000e+00 0.000000000000000e+00
-1.360466801261053e-03 6.123813083380924e-17 1.929027960871220e-16
-1.360466801260955e-03 3.964499644545213e-16 1.413044358658252e-16
-1.360466801260981e-03 0.000000000000000e+00 0.000000000000000e+00
-1.814801405132325e-03 0.000000000000000e+00 0.000000000000000e+00
-1.814801405133666e-03 2.114837830143031e-16 5.418738545476785e-16
-1.814801405133712e-03 1.730863959633064e-16 -5.729465243050840e-17
-1.814801405132324e-03 0.000000000000000e+00 0.000000000000000e+00
-1.360466801261053e-03 6.123813083380924e-17 1.929027960871220e-16
-1.360466801260929e-03 7.607398215970035e-16 -1.832814563524343e-16
-1.360466801261236e-03 -2.296188010570970e-16 -6.060468416828429e-16
-1.360466801260955e-03 3.964499644545213e-16 1.413044358658252e-16
-1.814801405133666e-03 2.114837830143031e-16 5.418738545476785e-16
-1.814801405132981e-03 -4.515052109110203e-16 -9.593115168565719e-17
-1.814801405132593e-03 7.645009944828193e-16 -3.609487659874433e-16
-1.814801405133712e-03 1.730863959633064e-16 -5.729465243050840e-17
-1.360466801260929e-03 7.607398215970035e-16 -1.832814563524343e-16
-1.360466801260627e-03 2.741931737658875e-16 -3.338805058761979e-16
-1.360466801261260e-03 9.388907328534361e-16 3.541765224128366e-17
-1.360466801261236e-03 -2.296188010570970e-16 -6.060468416828429e-16
-1.814801405132981e-03 -4.515052109110203e-16 -9.593115168565719e-17
-1.814801405132341e-03 2.841406894615928e-16 1.098620738598776e-16
-1.814801405133617e-03 9.824916984407964e-18 1.193484416787816e-16
-1.814801405132593e-03 7.645009944828193e-16 -3.609487659874433e-16
-1.360466801260981e-03 0.000000000000000e+00 0.000000000000000e+00
-1.360466801260955e-03 3.964499644545213e-16 1.413044358658252e-16
-1.360466801261179e-03 0.000000000000000e+00 0.000000000000000e+00
-1.360466801260878e-03 0.000000000000000e+00 0.000000000000000e+00
-1.814801405132324e-03 0.000000000000000e+00 0.000000000000000e+00
-1.814801405133712e-03 1.730863959633064e-16 -5.729465243050840e-17
-1.814801405133520e-03 0.000000000000000e+00 0.000000000000000e+00
-1.814801405133011e-03 0.000000000000000e+00 0.000000000000000e+00
-1.360466801260955e-03 3.964499644545213e-16 1.413044358658252e-16
-1.360466801261236e-03 -2.296188010570970e-16 -6.060468416828429e-16
-1.360466801260568e-03 0.000000000000000e+00 0.000000000000000e+00
-1.360466801261179e-03 0.000000000000000e+00 0.000000000000000e+00
-1.814801405133712e-03 1.730863959633064e-16 -5.729465243050840e-17
-1.814801405132593e-03 7.645009944828193e-16 -3.609487659874433e-16
-1.814801405132798e-03 0.000000000000000e+00 0.000000000000000e+00
-1.814801405133520e-03 0.000000000000000e+00 0.000000000000000e+00
-1.360466801261236e-03 -2.296188010570970e-16 -6.060468416828429e-16
-1.360466801261260e-03 9.388907328534361e-16 3.541765224128366e-17
-1.360466801260123e-03 0.000000000000000e+00 0.000000000000000e+00
-1.360466801260568e-03 0.000000000000000e+00 0.000000000000000e+00
-1.814801405132593e-03 7.645009944828193e-16 -3.609487659874433e-16
-1.814801405133617e-03 9.824916984407964e-18 1.193484416787816e-16
-1.814801405132238e-03 0.000000000000000e+00 0.000000000000000e+00
-1.814801405132798e-03 0.000000000000000e+00 0.000000000000000e+00
-1.814801405133443e-03 0.000000000000000e+00 0.000000000000000e+00
-1.814801405133492e-03 0.000000000000000e+00 0.000000000000000e+00
-1.814801405133282e-03 3.763217260797384e-17 4.897787384170500e-17
-1.814801405133093e-03 0.000000000000000e+00 0.000000000000000e+00
-2.270846922507608e-03 0.000000000000000e+00 0.000000000000000e+00
-2.270846922507548e-03 0.000000000000000e+00 0.000000000000000e+00
-2.270846922508261e-03 8.336848451849628e-17 -2.321065242069154e-18
-2.270846922506583e-03 0.000000000000000e+00 0.000000000000000e+00
-1.814801405133492e-03 0.000000000000000e+00 0.000000000000000e+00
-1.814801405133205e-03 0.000000000000000e+00 0.000000000000000e+00
-1.814801405132672e-03 2.010770452909559e-16 2.127362171162497e-16
-1.814801405133282e-03 3.763217260797384e-17 4.897787384170500e-17
-2.270846922507548e-03 0.000000000000000e+00 0.000000000000000e+00
-2.270846922506672e-03 0.000000000000000e+00 0.000000000000000e+00
-2.270846922507840e-03 -6.261388332471432e-17 6.932058678396851e-17
-2.270846922508261e-03 8.336848451849628e-17 -2.321065242069154e-18
-1.814801405133205e-03 0.000000000000000e+00 0.000000000000000e+00
-1.814801405133484e-03 0.000000000000000e+00 0.000000000000000e+00
-1.814801405132657e-03 -4.414575878696909e-16 4.940948551467608e-16
-1.814801405132672e-03 2.010770452909559e-16 2.127362171162497e-16
-2.270846922506672e-03 0.000000000000000e+00 0.000000000000000e+00
-2.270846922506334e-03 0.000000000000000e+00 0.000000000000000e+00
-2.270846922508692e-03 4.354526682976234e-16 -2.745719598829636e-16
-2.270846922507840e-03 -6.261388332471432e-17 6.932058678396851e-17
-1.814801405133093e-03 0.000000000000000e+00 0.000000000000000e+00
-1.814801405133282e-03 3.763217260797384e-17 4.897787384170500e-17
-1.814801405133460e-03 1.294320308072440e-17 3.303335331047128e-16
-1.814801405133213e-03 0.000000000000000e+00 0.000000000000000e+00
-2.270846922506583e-03 0.000000000000000e+00 0.000000000000000e+00
-2.270846922508261e-03 8.336848451849628e-17 -2.321065242069154e-18
-2.270846922509626e-03 2.655873686103688e-17 -6.491274586907924e-17
-2.270846922507459e-03 0.000000000000000e+00 0.000000000000000e+00
-1.814801405133282e-03 3.763217260797384e-17 4.897787384170500e-17
-1.814801405132672e-03 2.010770452909559e-16 2.127362171162497e-16
-1.814801405132936e-03 8.640381010384263e-16 -1.231299122648224e-16
-1.814801405133460e-03 1.294320308072440e-17 3.303335331047128e-16
-2.270846922508261e-03 8.336848451849628e-17 -2.321065242069154e-18
-2.270846922507840e-03 -6.261388332471432e-17 6.932058678396851e-17
-2.270846922508410e-03 5.023300462409172e-17 -3.431334380614758e-16
-2.270846922509626e-03 2.655873686103688e-17 -6.491274586907924e-17
-1.814801405132672e-03 2.010770452909559e-16 2.127362171162497e-16
-1.814801405132657e-03 -4.414575878696909e-16 4.940948551467608e-16
-1.814801405133478e-03 1.370775223061082e-15 -4.362447599894634e-17
-1.814801405132936e-03 8.640381010384263e-16 -1.231299122648224e-16
-2.270846922507840e-03 -6.261388332471432e-17 6.932058678396851e-17
-2.270846922508692e-03 4.354526682976234e-16 -2.745719598829636e-16
-2.270846922507243e-03 7.985723961129643e-16 2.505126937725962e-17
-2.270846922508410e-03 5.023300462409172e-17 -3.431334380614758e-16
-1.814801405133213e-03 0.000000000000000e+00 0.000000000000000e+00
-1.814801405133460e-03 1.294320308072440e-17 3.303335331047128e-16
-1.814801405133666e-03 2.114837830143031e-16 5.418738545476785e-16
-1.814801405132325e-03 0.000000000000000e+00 0.000000000000000e+00
-2.270846922507459e-03 0.000000000000000e+00 0.000000000000000e+00
-2.270846922509626e-03 2.655873686103688e-17 -6.491274586907924e-17
-2.270846922507447e-03 9.504582732762001e-16 5.288053529976538e-16
-2.270846922507547e-03 0.000000000000000e+00 0.000000000000000e+00
-1.814801405133460e-03 1.294320308072440e-17 3.303335331047128e-16
-1.814801405132936e-03 8.640381010384263e-16 -1.231299122648224e-16
-1.814801405132981e-03 -4.515052109110203e-16 -9.593115168565719e-17
-1.814801405133666e-03 2.114837830143031e-16 5.418738545476785e-16
-2.270846922509626e-03 2.655873686103688e-17 -6.491274586907924e-17
-2.270846922508410e-03 5.023300462409172e-17 -3.431334380614758e-16
-2.270846922507799e-03 2.334398016977240e-16 -1.901793261033574e-16
-2.270846922507447e-03 9.504582732762001e-16 5.288053529976538e-16
-1.814801405132936e-03 8.640381010384263e-16 -1.231299122648224e-16
-1.814801405133478e-03 1.370775223061082e-15 -4.362447599894634e-17
-1.814801405132341e-03 2.841406894615928e-16 1.098620738598776e-16
-1.814801405132981e-03 -4.515052109110203e-16 -9.593115168565719e-17
-2.270846922508410e-03 5.023300462409172e-17 -3.431334380614758e-16
-2.270846922507243e-03 7.985723961129643e-16 2.505126937725962e-17
-2.270846922507000e-03 -7.822074885473799e-17 -4.331715127262151e-16
-2.270846922507799e-03 2.334398016977240e-16 -1.901793261033574e-16
-1.814801405132325e-03 0.000000000000000e+00 0.000000000000000e+00
-1.814801405133666e-03 2.114837830143031e-16 5.418738545476785e-16
-1.814801405133712e-03 1.730863959633064e-16 -5.729465243050840e-17
-1.814801405132324e-03 0.000000000000000e+00 0.000000000000000e+00
-2.270846922507547e-03 0.000000000000000e+00 0.000000000000000e+00
-2.270846922507447e-03 9.504582732762001e-16 5.288053529976538e-16
-2.270846922507512e-03 3.440322233719537e-17 -3.240932469467611e-16
-2.270846922508457e-03 0.000000000000000e+00 0.000000000000000e+00
-1.814801405133666e-03 2.114837830143031e-16 5.418738545476785e-16
-1.814801405132981e-03 -4.515052109110203e-16 -9.593115168565719e-17
-1.814801405132593e-03 7.645009944828193e-16 -3.609487659874433e-16
-1.814801405133712e-03 1.730863959633064e-16 -5.729465243050840e-17
-2.270846922507447e-03 9.504582732762001e-16 5.288053529976538e-16
-2.270846922507799e-03 2.334398016977240e-16 -1.901793261033574e-16
-2.270846922508131e-03 1.460920895483765e-16 -1.116775283610046e-16
-2.270846922507512e-03 3.440322233719537e-17 -3.240932469467611e-16
-1.814801405132981e-03 -4.515052109110203e-16 -9.593115168565719e-17
-1.814801405132341e-03 2.841406894615928e-16 1.098620738598776e-16
-1.814801405133617e-03 9.824916984407964e-18 1.193484416787816e-16
-1.814801405132593e-03 7.645009944828193e-16 -3.609487659874433e-16
-2.270846922507799e-03 2.334398016977240e-16 -1.901793261033574e-16
-2.270846922507000e-03 -7.822074885473799e-17 -4.331715127262151e-16
-2.270846922508075e-03 7.027246735768056e-16 2.694290929612168e-16
-2.270846922508131e-03 1.460920895483765e-16 -1.116775283610046e-16
-1.814801405132324e-03 0.000000000000000e+00 0.000000000000000e+00
-1.814801405133712e-03 1.730863959633064e-16 -5.729465243050840e-17
-1.814801405133520e-03 0.000000000000000e+00 0.000000000000000e+00
-1.814801405133011e-03 0.000000000000000e+00 0.000000000000000e+00
-2.270846922508457e-03 0.000000000000000e+00 0.000000000000000e+00
-2.270846922507512e-03 3.440322233719537e-17 -3.240932469467611e-16
-2.270846922508767e-03 0.000000000000000e+00 0.000000000000000e+00
-2.270846922507762e-03 0.000000000000000e+00 0.000000000000000e+00
-1.814801405133712e-03 1.730863959633064e-16 -5.729465243050840e-17
-1.814801405132593e-03 7.645009944828193e-16 -3.609487659874433e-16
-1.814801405132798e-03 0.000000000000000e+00 0.000000000000000e+00
-1.814801405133520e-03 0.000000000000000e+00 0.000000000000000e+00
-2.270846922507512e-03 3.440322233719537e-17 -3.240932469467611e-16
-2.270846922508131e-03 1.460920895483765e-16 -1.116775283610046e-16
-2.270846922507837e-03 0.000000000000000e+00 0.000000000000000e+00
-2.270846922508767e-03 0.000000000000000e+00 0.000000000000000e+00
-1.814801405132593e-03 7.645009944828193e-16 -3.609487659874433e-16
-1.814801405133617e-03 9.824916984407964e-18 1.193484416787816e-16
-1.814801405132238e-03 0.000000000000000e+00 0.000000000000000e+00
-1.814801405132798e-03 0.000000000000000e+00 0.000000000000000e+00
-2.270846922508131e-03 1.460920895483765e-16 -1.116775283610046e-16
-2.270846922508075e-03 7.027246735768056e-16 2.694290929612168e-16
-2.270846922508060e-03 0.000000000000000e+00 0.000000000000000e+00
-2.270846922507837e-03 0.000000000000000e+00 0.000000000000000e+00
        </DataArray>
        <DataArray type="Float64" Name="nodal_GL_strains_xyz" NumberOfComponents="6" format="ascii">
-2.268874572014633e-04 2.017261133810714e-16 1.908374665798256e-16 -2.296213520271956e-17 -2.978075028736849e-16 3.527574059940317e-18
-2.268874572014782e-04 4.678592641235994e-16 1.583669685928393e-16 -4.504219626201493e-17 2.169226675145706e-16 8.153309749658032e-18
-2.268874572020945e-04 -2.542481236057599e-16 -2.003650325309154e-16 -3.380728032817097e-16 -5.144399587956400e-17 -1.883506940560211e-17
-2.268874572014950e-04 -4.081671491334998e-16 -5.124817685536119e-16 -2.916529229716092e-16 1.850761052530219e-16 2.700188415098996e-16
-2.267429635923341e-04 4.096259511920302e-16 -8.544445620713583e-16 2.407324902964088e-16 -2.412511107027162e-16 1.089199467326920e-16
-2.267429635908432e-04 -5.016908429607413e-16 -9.342597261886687e-17 9.185878593070370e-17 9.047750961683910e-17 6.424245829549768e-17
-2.267429635914969e-04 -1.396407687605388e-16 5.577813053751506e-18 -2.309070606789191e-16 6.356635220506727e-17 8.817027189146841e-17
-2.267429635914303e-04 2.914335439641035e-16 9.106851143318814e-17 1.956251021624848e-16 2.435498706612174e-16 -2.475866559456876e-16
-2.268874572014782e-04 4.678592641235994e-16 1.583669685928393e-16 -4.504219626201493e-17 2.169226675145706e-16 8.153309749658032e-18
-2.268874572015857e-04 -2.775557561562891e-17 1.110223024625156e-16 5.511791592911520e-16 -6.469435566998561e-17 1.405913965518647e-17
-2.268874572021087e-04 5.079622885990046e-17 -4.770936664495641e-17 -2.512815249378226e-16 -2.873761489835629e-17 -3.455276600348585e-17
-2.268874572020945e-04 -2.542481236057599e-16 -2.003650325309154e-16 -3.380728032817097e-16 -5.144399587956400e-17 -1.883506940560211e-17
-2.267429635908432e-04 -5.016908429607413e-16 -9.342597261886687e-17 9.185878593070370e-17 9.047750961683910e-17 6.424245829549768e-17
-2.267429635922379e-04 -2.091631974527397e-16 -9.714451465470112e-17 -2.427017809220388e-16 1.749122279217726e-17 2.494701358837206e-17
-2.267429635909841e-04 2.423630964689915e-16 -7.787126405045156e-17 -3.875225917962167e-16 -1.267008098130365e-16 2.185712117934456e-16
-2.267429635914969e-04 -1.396407687605388e-16 5.577813053751506e-18 -2.309070606789191e-16 6.356635220506727e-17 8.817027189146841e-17
-2.268874572015857e-04 -2.775557561562891e-17 1.110223024625156e-16 5.511791592911520e-16 -6.469435566998561e-17 1.405913965518647e-17
-2.268874572022499e-04 4.373815268076591e-16 -1.110223024625156e-16 3.714222365453490e-16 -7.542709879170907e-18 2.849589893044035e-18
-2.268874572023697e-04 -7.855180447552936e-17 -1.759632984364885e-17 -2.074417051978749e-16 -3.064135571670398e-17 -3.637078092784897e-17
-2.268874572021087e-04 5.079622885990046e-17 -4.770936664495641e-17 -2.512815249378226e-16 -2.873761489835629e-17 -3.455276600348585e-17
-2.267429635922379e-04 -2.091631974527397e-16 -9.714451465470112e-17 -2.427017809220388e-16 1.749122279217726e-17 2.494701358837206e-17
-2.267429635918446e-04 1.475760429999691e-16 1.221779285700187e-16 1.634611174307126e-17 -3.947259354787665e-17 1.667664201722286e-16
-2.267429635916631e-04 2.979719689086242e-17 -1.573705882573166e-17 -6.400284850100680e-17 4.059236353552289e-17 -8.920267368784864e-17
-2.267429635909841e-04 2.423630964689915e-16 -7.787126405045156e-17 -3.875225917962167e-16 -1.267008098130365e-16 2.185712117934456e-16
-2.268874572014950e-04 -4.081671491334998e-16 -5.124817685536119e-16 -2.916529229716092e-16 1.850761052530219e-16 2.700188415098996e-16
-2.268874572020945e-04 -2.542481236057599e-16 -2.003650325309154e-16 -3.380728032817097e-16 -5.144399587956400e-17 -1.883506940560211e-17
-2.268874572019932e-04 -1.608221509868931e-16 -7.855180447552936e-17 -9.169676661814130e-17 8.659076849859859e-17 1.286863585629995e-16
-2.268874572014489e-04 -3.161999785731634e-16 6.695853775046707e-16 1.437805352246972e-17 1.351299529166009e-16 -1.169503327255190e-16
-2.267429635914303e-04 2.914335439641035e-16 9.106851143318814e-17 1.956251021624848e-16 2.435498706612174e-16 -2.475866559456876e-16
-2.267429635914969e-04 -1.396407687605388e-16 5.577813053751506e-18 -2.309070606789191e-16 6.356635220506727e-17 8.817027189146841e-17
-2.267429635913294e-04 -6.598623691368308e-17 -2.726584835276154e-16 -5.251285841360357e-17 -3.548704283157356e-17 6.062366221082894e-17
-2.267429635918087e-04 2.464463390194586e-16 4.535190545927772e-17 -1.817084230434012e-16 -1.551370756057102e-16 5.110954265000995e-16
-2.268874572020945e-04 -2.542481236057599e-16 -2.003650325309154e-16 -3.380728032817097e-16 -5.144399587956400e-17 -1.883506940560211e-17
-2.268874572021087e-04 5.079622885990046e-17 -4.770936664495641e-17 -2.512815249378226e-16 -2.873761489835629e-17 -3.455276600348585e-17
-2.268874572024547e-04 -1.424964201139789e-16 2.616852076774286e-16 5.989701357961137e-17 -7.284862561987284e-18 5.496271244446767e-18
-2.268874572019932e-04 -1.608221509868931e-16 -7.855180447552936e-17 -9.169676661814130e-17 8.659076849859859e-17 1.286863585629995e-16
-2.267429635914969e-04 -1.396407687605388e-16 5.577813053751506e-18 -2.309070606789191e-16 6.356635220506727e-17 8.817027189146841e-17
-2.267429635909841e-04 2.423630964689915e-16 -7.787126405045156e-17 -3.875225917962167e-16 -1.267008098130365e-16 2.185712117934456e-16
-2.267429635914087e-04 2.015926237279423e-16 7.923234490060718e-17 8.832600819622396e-17 -2.027234509768184e-17 -2.224771360189958e-17
-2.267429635913294e-04 -6.598623691368308e-17 -2.726584835276154e-16 -5.251285841360357e-17 -3.548704283157356e-17 6.062366221082894e-17
-2.268874572021087e-04 5.079622885990046e-17 -4.770936664495641e-17 -2.512815249378226e-16 -2.873761489835629e-17 -3.455276600348585e-17
-2.268874572023697e-04 -7.855180447552936e-17 -1.759632984364885e-17 -2.074417051978749e-16 -3.064135571670398e-17 -3.637078092784897e-17
-2.268874572023663e-04 -1.401389589283003e-16 2.366517937621111e-16 8.663078631658464e-17 2.539964132383108e-17 1.547370549533663e-16
-2.268874572024547e-04 -1.424964201139789e-16 2.616852076774286e-16 5.989701357961137e-17 -7.284862561987284e-18 5.496271244446767e-18
-2.267429635909841e-04 2.423630964689915e-16 -7.787126405045156e-17 -3.875225917962167e-16 -1.267008098130365e-16 2.185712117934456e-16
-2.267429635916631e-04 2.979719689086242e-17 -1.573705882573166e-17 -6.400284850100680e-17 4.059236353552289e-17 -8.920267368784864e-17
-2.267429635908678e-04 -3.927590223776469e-17 -2.303445796790942e-16 2.032756837260502e-16 -1.150164957860731e-17 1.180315606889868e-16
-2.267429635914087e-04 2.015926237279423e-16 7.923234490060718e-17 8.832600819622396e-17 -2.027234509768184e-17 -2.224771360189958e-17
-2.268874572014489e-04 -3.161999785731634e-16 6.695853775046707e-16 1.437805352246972e-17 1.351299529166009e-16 -1.169503327255190e-16
-2.268874572019932e-04 -1.608221509868931e-16 -7.855180447552936e-17 -9.169676661814130e-17 8.659076849859859e-17 1.286863585629995e-16
-2.268874572020017e-04 -1.127480838273040e-16 3.199185206089978e-16 6.891545061545387e-17 2.664857966097886e-17 -5.767839732935235e-17
-2.268874572023359e-04 1.801442621953302e-16 -3.154705775438980e-16 1.520827548874867e-16 -5.306475044471812e-17 -1.132074076004512e-17
-2.267429635918087e-04 2.464463390194586e-16 4.535190545927772e-17 -1.817084230434012e-16 -1.551370756057102e-16 5.110954265000995e-16
-2.267429635913294e-04 -6.598623691368308e-17 -2.726584835276154e-16 -5.251285841360357e-17 -3.548704283157356e-17 6.062366221082894e-17
-2.267429635916201e-04 -4.262974375896644e-17 1.006807064332192e-16 4.904707789535797e-17 -1.645472498541519e-16 1.966936921470019e-17
-2.267429635914458e-04 -1.631796121725718e-16 6.839255870354923e-17 -2.166556716110104e-16 4.770459608542822e-17 -7.515423830710047e-17
-2.268874572019932e-04 -1.608221509868931e-16 -7.855180447552936e-17 -9.169676661814130e-17 8.659076849859859e-17 1.286863585629995e-16
-2.268874572024547e-04 -1.424964201139789e-16 2.616852076774286e-16 5.989701357961137e-17 -7.284862561987284e-18 5.496271244446767e-18
-2.268874572023539e-04 -3.110941713683062e-17 -2.894407832930575e-16 1.212809412986202e-16 5.312713384173662e-17 -1.043413064803815e-16
-2.268874572020017e-04 -1.127480838273040e-16 3.199185206089978e-16 6.891545061545387e-17 2.664857966097886e-17 -5.767839732935235e-17
-2.267429635913294e-04 -6.598623691368308e-17 -2.726584835276154e-16 -5.251285841360357e-17 -3.548704283157356e-17 6.062366221082894e-17
-2.267429635914087e-04 2.015926237279423e-16 7.923234490060718e-17 8.832600819622396e-17 -2.027234509768184e-17 -2.224771360189958e-17
-2.267429635915827e-04 7.242694064982884e-17 -3.197230781922481e-17 8.298270693666210e-17 4.018996930398073e-17 -8.646866414716391e-18
-2.267429635916201e-04 -4.262974375896644e-17 1.006807064332192e-16 4.904707789535797e-17 -1.645472498541519e-16 1.966936921470019e-17
-2.268874572024547e-04 -1.424964201139789e-16 2.616852076774286e-16 5.989701357961137e-17 -7.284862561987284e-18 5.496271244446767e-18
-2.268874572023663e-04 -1.401389589283003e-16 2.366517937621111e-16 8.663078631658464e-17 2.539964132383108e-17 1.547370549533663e-16
-2.268874572022462e-04 -2.044482750813824e-16 -2.224093054396640e-16 -2.219992451887334e-17 9.654948028695126e-18 5.559953094651507e-17
-2.268874572023539e-04 -3.110941713683062e-17 -2.894407832930575e-16 1.212809412986202e-16 5.312713384173662e-17 -1.043413064803815e-16
-2.267429635914087e-04 2.015926237279423e-16 7.923234490060718e-17 8.832600819622396e-17 -2.027234509768184e-17 -2.224771360189958e-17
-2.267429635908678e-04 -3.927590223776469e-17 -2.303445796790942e-16 2.032756837260502e-16 -1.150164957860731e-17 1.180315606889868e-16
-2.267429635914345e-04 7.582964277521798e-17 -3.479899361350719e-16 -8.918506072655980e-17 -8.058400500946240e-17 1.064113736448664e-16
-2.267429635915827e-04 7.242694064982884e-17 -3.197230781922481e-17 8.298270693666210e-17 4.018996930398073e-17 -8.646866414716391e-18
-2.268874572023359e-04 1.801442621953302e-16 -3.154705775438980e-16 1.520827548874867e-16 -5.306475044471812e-17 -1.132074076004512e-17
-2.268874572020017e-04 -1.127480838273040e-16 3.199185206089978e-16 6.891545061545387e-17 2.664857966097886e-17 -5.767839732935235e-17
-2.268874572020231e-04 3.767907526904111e-16 -1.178277067132941e-16 -2.406860149020503e-17 -6.645269118809161e-17 6.271862730941989e-17
-2.268874572014802e-04 -2.782851571855544e-16 2.247667666253427e-16 2.308753371294369e-16 -1.979587107410490e-17 -3.976939268635786e-17
-2.267429635914458e-04 -1.631796121725718e-16 6.839255870354923e-17 -2.166556716110104e-16 4.770459608542822e-17 -7.515423830710047e-17
-2.267429635916201e-04 -4.262974375896644e-17 1.006807064332192e-16 4.904707789535797e-17 -1.645472498541519e-16 1.966936921470019e-17
-2.267429635914160e-04 -2.161509519608344e-16 -2.347436621400064e-16 -6.961062351227438e-17 4.278482917852391e-17 -2.087344312056707e-16
-2.267429635919949e-04 2.539811442995016e-17 -3.957481633842158e-16 -8.643452850061144e-17 -2.011339135489864e-16 2.453804852326039e-16
-2.268874572020017e-04 -1.127480838273040e-16 3.199185206089978e-16 6.891545061545387e-17 2.664857966097886e-17 -5.767839732935235e-17
-2.268874572023539e-04 -3.110941713683062e-17 -2.894407832930575e-16 1.212809412986202e-16 5.312713384173662e-17 -1.043413064803815e-16
-2.268874572015549e-04 1.723162932901640e-17 4.571660597391047e-17 -1.797467961089955e-17 -1.393395400326119e-17 -3.714776500827479e-17
-2.268874572020231e-04 3.767907526904111e-16 -1.178277067132941e-16 -2.406860149020503e-17 -6.645269118809161e-17 6.271862730941989e-17
-2.267429635916201e-04 -4.262974375896644e-17 1.006807064332192e-16 4.904707789535797e-17 -1.645472498541519e-16 1.966936921470019e-17
-2.267429635915827e-04 7.242694064982884e-17 -3.197230781922481e-17 8.298270693666210e-17 4.018996930398073e-17 -8.646866414716391e-18
-2.267429635919717e-04 -2.503341391531762e-17 2.779204566709218e-16 -7.597683882114348e-17 -1.445889025275051e-18 -3.563714091328595e-18
-2.267429635914160e-04 -2.161509519608344e-16 -2.347436621400064e-16 -6.961062351227438e-17 4.278482917852391e-17 -2.087344312056707e-16
-2.268874572023539e-04 -3.110941713683062e-17 -2.894407832930575e-16 1.212809412986202e-16 5.312713384173662e-17 -1.043413064803815e-16
-2.268874572022462e-04 -2.044482750813824e-16 -2.224093054396640e-16 -2.219992451887334e-17 9.654948028695126e-18 5.559953094651507e-17
-2.268874572017323e-04 2.603241268272730e-16 -1.780537803159092e-16 2.377044320016075e-16 6.025944601589722e-18 -2.719376763664403e-16
-2.268874572015549e-04 1.723162932901640e-17 4.571660597391047e-17 -1.797467961089955e-17 -1.393395400326119e-17 -3.714776500827479e-17
-2.267429635915827e-04 7.242694064982884e-17 -3.197230781922481e-17 8.298270693666210e-17 4.018996930398073e-17 -8.646866414716391e-18
-2.267429635914345e-04 7.582964277521798e-17 -3.479899361350719e-16 -8.918506072655980e-17 -8.058400500946240e-17 1.064113736448664e-16
-2.267429635913435e-04 4.925279775242838e-17 4.108046817848696e-16 -2.166770714900231e-16 -7.206225482230168e-17 -1.698638778039328e-16
-2.267429635919717e-04 -2.503341391531762e-17 2.779204566709218e-16 -7.597683882114348e-17 -1.445889025275051e-18 -3.563714091328595e-18
-2.268874572014802e-04 -2.782851571855544e-16 2.247667666253427e-16 2.308753371294369e-16 -1.979587107410490e-17 -3.976939268635786e-17
-2.268874572020231e-04 3.767907526904111e-16 -1.178277067132941e-16 -2.406860149020503e-17 -6.645269118809161e-17 6.271862730941989e-17
-2.268874572013811e-04 -6.445519635893528e-16 -4.714922371357341e-18 -1.532868956019052e-16 -7.457195220476732e-17 -4.191236821926214e-17
-2.268874572032153e-04 -1.516592855504360e-16 -1.502004834919052e-16 -1.756880256970531e-16 6.877514344055880e-17 -1.832339734178238e-16
-2.267429635919949e-04 2.539811442995016e-17 -3.957481633842158e-16 -8.643452850061144e-17 -2.011339135489864e-16 2.453804852326039e-16
-2.267429635914160e-04 -2.161509519608344e-16 -2.347436621400064e-16 -6.961062351227438e-17 4.278482917852391e-17 -2.087344312056707e-16
-2.267429635915145e-04 4.600574795372981e-16 -8.462780769704241e-17 -1.039852046616610e-16 -1.146118259008154e-16 1.836420561472367e-16
-2.267429635920997e-04 5.551115123125778e-17 6.539818083320676e-16 4.437325581512165e-16 2.916158942214199e-16 7.949661929620410e-17
-2.268874572020231e-04 3.767907526904111e-16 -1.178277067132941e-16 -2.406860149020503e-17 -6.645269118809161e-17 6.271862730941989e-17
-2.268874572015549e-04 1.723162932901640e-17 4.571660597391047e-17 -1.797467961089955e-17 -1.393395400326119e-17 -3.714776500827479e-17
-2.268874572022370e-04 5.511259909704859e-16 5.750391190230380e-17 -2.746427528506619e-17 -2.665133394480667e-17 4.822701678101923e-17
-2.268874572013811e-04 -6.445519635893528e-16 -4.714922371357341e-18 -1.532868956019052e-16 -7.457195220476732e-17 -4.191236821926214e-17
-2.267429635914160e-04 -2.161509519608344e-16 -2.347436621400064e-16 -6.961062351227438e-17 4.278482917852391e-17 -2.087344312056707e-16
-2.267429635919717e-04 -2.503341391531762e-17 2.779204566709218e-16 -7.597683882114348e-17 -1.445889025275051e-18 -3.563714091328595e-18
-2.267429635909323e-04 -3.131131163582193e-16 -1.100259221269927e-16 -1.908980199934466e-16 -9.800353328936900e-17 -1.799255760034849e-17
-2.267429635915145e-04 4.600574795372981e-16 -8.462780769704241e-17 -1.039852046616610e-16 -1.146118259008154e-16 1.836420561472367e-16
-2.268874572015549e-04 1.723162932901640e-17 4.571660597391047e-17 -1.797467961089955e-17 -1.393395400326119e-17 -3.714776500827479e-17
-2.268874572017323e-04 2.603241268272730e-16 -1.780537803159092e-16 2.377044320016075e-16 6.025944601589722e-18 -2.719376763664403e-16
-2.268874572020000e-04 3.724405308336866e-16 -4.529850959802620e-16 -3.682794886474645e-16 5.570184459189472e-17 -1.518471505783787e-16
-2.268874572022370e-04 5.511259909704859e-16 5.750391190230380e-17 -2.746427528506619e-17 -2.665133394480667e-17 4.822701678101923e-17
-2.267429635919717e-04 -2.503341391531762e-17 2.779204566709218e-16 -7.597683882114348e-17 -1.445889025275051e-18 -3.563714091328595e-18
-2.267429635913435e-04 4.925279775242838e-17 4.108046817848696e-16 -2.166770714900231e-16 -7.206225482230168e-17 -1.698638778039328e-16
-2.267429635914610e-04 -3.943870825340601e-16 -1.127480838273039e-16 3.349511862849112e-16 1.553754824324249e-16 -1.936669502794842e-16
-2.267429635909323e-04 -3.131131163582193e-16 -1.100259221269927e-16 -1.908980199934466e-16 -9.800353328936900e-17 -1.799255760034849e-17
-2.267429635923341e-04 4.096259511920302e-16 -8.544445620713583e-16 2.407324902964088e-16 -2.412511107027162e-16 1.089199467326920e-16
-2.267429635908432e-04 -5.016908429607413e-16 -9.342597261886687e-17 9.185878593070370e-17 9.047750961683910e-17 6.424245829549768e-17
-2.267429635914969e-04 -1.396407687605388e-16 5.577813053751506e-18 -2.309070606789191e-16 6.356635220506727e-17 8.817027189146841e-17
-2.267429635914303e-04 2.914335439641035e-16 9.106851143318814e-17 1.956251021624848e-16 2.435498706612174e-16 -2.475866559456876e-16
-2.266344119127249e-04 -8.415631545990668e-16 -1.970111910097138e-16 7.393724437947150e-16 1.792903136241241e-16 -4.391244064195641e-16
-2.266344119129282e-04 8.022872523613021e-16 -7.075001988922795e-17 -2.279602692939565e-16 -2.278381406493811e-17 7.639846392886045e-17
-2.266344119128608e-04 -4.356557454428707e-16 -3.959174214820983e-17 9.640024424656978e-17 8.808306334816730e-17 -5.522050804848797e-17
-2.266344119128791e-04 -9.750921516933392e-17 7.477724814655674e-16 1.124236309300908e-17 -8.803162758633010e-17 2.836500653984833e-16
-2.267429635908432e-04 -5.016908429607413e-16 -9.342597261886687e-17 9.185878593070370e-17 9.047750961683910e-17 6.424245829549768e-17
-2.267429635922379e-04 -2.091631974527397e-16 -9.714451465470112e-17 -2.427017809220388e-16 1.749122279217726e-17 2.494701358837206e-17
-2.267429635909841e-04 2.423630964689915e-16 -7.787126405045156e-17 -3.875225917962167e-16 -1.267008098130365e-16 2.185712117934456e-16
-2.267429635914969e-04 -1.396407687605388e-16 5.577813053751506e-18 -2.309070606789191e-16 6.356635220506727e-17 8.817027189146841e-17
-2.266344119129282e-04 8.022872523613021e-16 -7.075001988922795e-17 -2.279602692939565e-16 -2.278381406493811e-17 7.639846392886045e-17
-2.266344119128717e-04 -1.513923062441783e-16 -2.386445544331571e-16 3.547351732857313e-16 1.107847138957656e-16 2.414294844033758e-16
-2.266344119128296e-04 2.410020156188357e-16 -1.858555649022106e-16 -5.138340255539872e-17 2.975848034899718e-17 1.476368048317125e-16
-2.266344119128608e-04 -4.356557454428707e-16 -3.959174214820983e-17 9.640024424656978e-17 8.808306334816730e-17 -5.522050804848797e-17
-2.267429635922379e-04 -2.091631974527397e-16 -9.714451465470112e-17 -2.427017809220388e-16 1.749122279217726e-17 2.494701358837206e-17
-2.267429635918446e-04 1.475760429999691e-16 1.221779285700187e-16 1.634611174307126e-17 -3.947259354787665e-17 1.667664201722286e-16
-2.267429635916631e-04 2.979719689086242e-17 -1.573705882573166e-17 -6.400284850100680e-17 4.059236353552289e-17 -8.920267368784864e-17
-2.267429635909841e-04 2.423630964689915e-16 -7.787126405045156e-17 -3.875225917962167e-16 -1.267008098130365e-16 2.185712117934456e-16
-2.266344119128717e-04 -1.513923062441783e-16 -2.386445544331571e-16 3.547351732857313e-16 1.107847138957656e-16 2.414294844033758e-16
-2.266344119127102e-04 2.579666656415943e-16 8.798164921824411e-17 3.935443183122338e-16 2.352022118152875e-17 -1.781945504420204e-16
-2.266344119128316e-04 -1.357398764673880e-16 -6.059077411724786e-17 1.932279275660880e-16 7.421720193917378e-18 6.103392043784155e-17
-2.266344119128296e-04 2.410020156188357e-16 -1.858555649022106e-16 -5.138340255539872e-17 2.975848034899718e-17 1.476368048317125e-16
-2.267429635914303e-04 2.914335439641035e-16 9.106851143318814e-17 1.956251021624848e-16 2.435498706612174e-16 -2.475866559456876e-16
-2.267429635914969e-04 -1.396407687605388e-16 5.577813053751506e-18 -2.309070606789191e-16 6.356635220506727e-17 8.817027189146841e-17
-2.267429635913294e-04 -6.598623691368308e-17 -2.726584835276154e-16 -5.251285841360357e-17 -3.548704283157356e-17 6.062366221082894e-17
-2.267429635918087e-04 2.464463390194586e-16 4.535190545927772e-17 -1.817084230434012e-16 -1.551370756057102e-16 5.110954265000995e-16
-2.266344119128791e-04 -9.750921516933392e-17 7.477724814655674e-16 1.124236309300908e-17 -8.803162758633010e-17 2.836500653984833e-16
-2.266344119128608e-04 -4.356557454428707e-16 -3.959174214820983e-17 9.640024424656978e-17 8.808306334816730e-17 -5.522050804848797e-17
-2.266344119129575e-04 -1.474067849020861e-17 -6.802785818891658e-17 -7.839415265609908e-17 3.376274823474743e-17 -1.401783251374640e-16
-2.266344119131611e-04 1.977405920389790e-16 -1.942890293094024e-16 3.691422179050890e-17 3.038645843607598e-16 -3.055473558927443e-17
-2.267429635914969e-04 -1.396407687605388e-16 5.577813053751506e-18 -2.309070606789191e-16 6.356635220506727e-17 8.817027189146841e-17
-2.267429635909841e-04 2.423630964689915e-16 -7.787126405045156e-17 -3.875225917962167e-16 -1.267008098130365e-16 2.185712117934456e-16
-2.267429635914087e-04 2.015926237279423e-16 7.923234490060718e-17 8.832600819622396e-17 -2.027234509768184e-17 -2.224771360189958e-17
-2.267429635913294e-04 -6.598623691368308e-17 -2.726584835276154e-16 -5.251285841360357e-17 -3.548704283157356e-17 6.062366221082894e-17
-2.266344119128608e-04 -4.356557454428707e-16 -3.959174214820983e-17 9.640024424656978e-17 8.808306334816730e-17 -5.522050804848797e-17
-2.266344119128296e-04 2.410020156188357e-16 -1.858555649022106e-16 -5.138340255539872e-17 2.975848034899718e-17 1.476368048317125e-16
-2.266344119129838e-04 -2.911665646578460e-17 -2.418649063012300e-16 8.207710212327682e-17 -2.354927884765690e-16 -7.368187727462340e-17
-2.266344119129575e-04 -1.474067849020861e-17 -6.802785818891658e-17 -7.839415265609908e-17 3.376274823474743e-17 -1.401783251374640e-16
-2.267429635909841e-04 2.423630964689915e-16 -7.787126405045156e-17 -3.875225917962167e-16 -1.267008098130365e-16 2.185712117934456e-16
-2.267429635916631e-04 2.979719689086242e-17 -1.573705882573166e-17 -6.400284850100680e-17 4.059236353552289e-17 -8.920267368784864e-17
-2.267429635908678e-04 -3.927590223776469e-17 -2.303445796790942e-16 2.032756837260502e-16 -1.150164957860731e-17 1.180315606889868e-16
-2.267429635914087e-04 2.015926237279423e-16 7.923234490060718e-17 8.832600819622396e-17 -2.027234509768184e-17 -2.224771360189958e-17
-2.266344119128296e-04 2.410020156188357e-16 -1.858555649022106e-16 -5.138340255539872e-17 2.975848034899718e-17 1.476368048317125e-16
-2.266344119128316e-04 -1.357398764673880e-16 -6.059077411724786e-17 1.932279275660880e-16 7.421720193917378e-18 6.103392043784155e-17
-2.266344119129819e-04 -2.136111405178396e-16 4.113517325568192e-17 1.463305077468678e-16 -1.171100167661505e-16 4.297501303627754e-17
-2.266344119129838e-04 -2.911665646578460e-17 -2.418649063012300e-16 8.207710212327682e-17 -2.354927884765690e-16 -7.368187727462340e-17
-2.267429635918087e-04 2.464463390194586e-16 4.535190545927772e-17 -1.817084230434012e-16 -1.551370756057102e-16 5.110954265000995e-16
-2.267429635913294e-04 -6.598623691368308e-17 -2.726584835276154e-16 -5.251285841360357e-17 -3.548704283157356e-17 6.062366221082894e-17
-2.267429635916201e-04 -4.262974375896644e-17 1.006807064332192e-16 4.904707789535797e-17 -1.645472498541519e-16 1.966936921470019e-17
-2.267429635914458e-04 -1.631796121725718e-16 6.839255870354923e-17 -2.166556716110104e-16 4.770459608542822e-17 -7.515423830710047e-17
-2.266344119131611e-04 1.977405920389790e-16 -1.942890293094024e-16 3.691422179050890e-17 3.038645843607598e-16 -3.055473558927443e-17
-2.266344119129575e-04 -1.474067849020861e-17 -6.802785818891658e-17 -7.839415265609908e-17 3.376274823474743e-17 -1.401783251374640e-16
-2.266344119129132e-04 -2.929900672310090e-17 2.675919528010587e-17 -7.268966691975659e-17 -8.279356598908691e-17 1.900350788633451e-17
-2.266344119130586e-04 1.327018748566315e-16 1.242684104494398e-16 -1.913984014407674e-17 -5.398939614205184e-17 1.785576819895924e-16
-2.267429635913294e-04 -6.598623691368308e-17 -2.726584835276154e-16 -5.251285841360357e-17 -3.548704283157356e-17 6.062366221082894e-17
-2.267429635914087e-04 2.015926237279423e-16 7.923234490060718e-17 8.832600819622396e-17 -2.027234509768184e-17 -2.224771360189958e-17
-2.267429635915827e-04 7.242694064982884e-17 -3.197230781922481e-17 8.298270693666210e-17 4.018996930398073e-17 -8.646866414716391e-18
-2.267429635916201e-04 -4.262974375896644e-17 1.006807064332192e-16 4.904707789535797e-17 -1.645472498541519e-16 1.966936921470019e-17
-2.266344119129575e-04 -1.474067849020861e-17 -6.802785818891658e-17 -7.839415265609908e-17 3.376274823474743e-17 -1.401783251374640e-16
-2.266344119129838e-04 -2.911665646578460e-17 -2.418649063012300e-16 8.207710212327682e-17 -2.354927884765690e-16 -7.368187727462340e-17
-2.266344119129030e-04 9.410651304394465e-17 -4.367498469867681e-17 1.235001653534079e-16 -2.363210508846174e-19 1.355598960282050e-16
-2.266344119129132e-04 -2.929900672310090e-17 2.675919528010587e-17 -7.268966691975659e-17 -8.279356598908691e-17 1.900350788633451e-17
-2.267429635914087e-04 2.015926237279423e-16 7.923234490060718e-17 8.832600819622396e-17 -2.027234509768184e-17 -2.224771360189958e-17
-2.267429635908678e-04 -3.927590223776469e-17 -2.303445796790942e-16 2.032756837260502e-16 -1.150164957860731e-17 1.180315606889868e-16
-2.267429635914345e-04 7.582964277521798e-17 -3.479899361350719e-16 -8.918506072655980e-17 -8.058400500946240e-17 1.064113736448664e-16
-2.267429635915827e-04 7.242694064982884e-17 -3.197230781922481e-17 8.298270693666210e-17 4.018996930398073e-17 -8.646866414716391e-18
-2.266344119129838e-04 -2.911665646578460e-17 -2.418649063012300e-16 8.207710212327682e-17 -2.354927884765690e-16 -7.368187727462340e-17
-2.266344119129819e-04 -2.136111405178396e-16 4.113517325568192e-17 1.463305077468678e-16 -1.171100167661505e-16 4.297501303627754e-17
-2.266344119128293e-04 -1.812741321839821e-16 9.342597261886678e-17 -6.650428510340502e-17 -1.940374941327333e-16 -7.454784246684973e-17
-2.266344119129030e-04 9.410651304394465e-17 -4.367498469867681e-17 1.235001653534079e-16 -2.363210508846174e-19 1.355598960282050e-16
-2.267429635914458e-04 -1.631796121725718e-16 6.839255870354923e-17 -2.166556716110104e-16 4.770459608542822e-17 -7.515423830710047e-17
-2.267429635916201e-04 -4.262974375896644e-17 1.006807064332192e-16 4.904707789535797e-17 -1.645472498541519e-16 1.966936921470019e-17
-2.267429635914160e-04 -2.161509519608344e-16 -2.347436621400064e-16 -6.961062351227438e-17 4.278482917852391e-17 -2.087344312056707e-16
-2.267429635919949e-04 2.539811442995016e-17 -3.957481633842158e-16 -8.643452850061144e-17 -2.011339135489864e-16 2.453804852326039e-16
-2.266344119130586e-04 1.327018748566315e-16 1.242684104494398e-16 -1.913984014407674e-17 -5.398939614205184e-17 1.785576819895924e-16
-2.266344119129132e-04 -2.929900672310090e-17 2.675919528010587e-17 -7.268966691975659e-17 -8.279356598908691e-17 1.900350788633451e-17
-2.266344119126378e-04 -3.383157883714196e-17 -1.728048993320368e-17 -7.206021560866237e-17 -2.519378865043396e-17 -7.949082295051608e-17
-2.266344119128706e-04 3.047773731594038e-17 -9.206489176871114e-17 -4.718389709581281e-17 -3.798156621417347e-17 3.251662912210813e-16
-2.267429635916201e-04 -4.262974375896644e-17 1.006807064332192e-16 4.904707789535797e-17 -1.645472498541519e-16 1.966936921470019e-17
-2.267429635915827e-04 7.242694064982884e-17 -3.197230781922481e-17 8.298270693666210e-17 4.018996930398073e-17 -8.646866414716391e-18
-2.267429635919717e-04 -2.503341391531762e-17 2.779204566709218e-16 -7.597683882114348e-17 -1.445889025275051e-18 -3.563714091328595e-18
-2.267429635914160e-04 -2.161509519608344e-16 -2.347436621400064e-16 -6.961062351227438e-17 4.278482917852391e-17 -2.087344312056707e-16
-2.266344119129132e-04 -2.929900672310090e-17 2.675919528010587e-17 -7.268966691975659e-17 -8.279356598908691e-17 1.900350788633451e-17
-2.266344119129030e-04 9.410651304394465e-17 -4.367498469867681e-17 1.235001653534079e-16 -2.363210508846174e-19 1.355598960282050e-16
-2.266344119130533e-04 1.623167214901776e-16 6.440703736145781e-18 -9.321717284740525e-17 5.922425419956637e-17 -1.132160127478611e-16
-2.266344119126378e-04 -3.383157883714196e-17 -1.728048993320368e-17 -7.206021560866237e-17 -2.519378865043396e-17 -7.949082295051608e-17
-2.267429635915827e-04 7.242694064982884e-17 -3.197230781922481e-17 8.298270693666210e-17 4.018996930398073e-17 -8.646866414716391e-18
-2.267429635914345e-04 7.582964277521798e-17 -3.479899361350719e-16 -8.918506072655980e-17 -8.058400500946240e-17 1.064113736448664e-16
-2.267429635913435e-04 4.925279775242838e-17 4.108046817848696e-16 -2.166770714900231e-16 -7.206225482230168e-17 -1.698638778039328e-16
-2.267429635919717e-04 -2.503341391531762e-17 2.779204566709218e-16 -7.597683882114348e-17 -1.445889025275051e-18 -3.563714091328595e-18
-2.266344119129030e-04 9.410651304394465e-17 -4.367498469867681e-17 1.235001653534079e-16 -2.363210508846174e-19 1.355598960282050e-16
-2.266344119128293e-04 -1.812741321839821e-16 9.342597261886678e-17 -6.650428510340502e-17 -1.940374941327333e-16 -7.454784246684973e-17
-2.266344119127884e-04 -1.249000902703300e-16 -1.540167467361147e-16 -2.264436325697198e-17 8.956781866727469e-17 2.031617496965149e-16
-2.266344119130533e-04 1.623167214901776e-16 6.440703736145781e-18 -9.321717284740525e-17 5.922425419956637e-17 -1.132160127478611e-16
-2.267429635919949e-04 2.539811442995016e-17 -3.957481633842158e-16 -8.643452850061144e-17 -2.011339135489864e-16 2.453804852326039e-16
-2.267429635914160e-04 -2.161509519608344e-16 -2.347436621400064e-16 -6.961062351227438e-17 4.278482917852391e-17 -2.087344312056707e-16
-2.267429635915145e-04 4.600574795372981e-16 -8.462780769704241e-17 -1.039852046616610e-16 -1.146118259008154e-16 1.836420561472367e-16
-2.267429635920997e-04 5.551115123125778e-17 6.539818083320676e-16 4.437325581512165e-16 2.916158942214199e-16 7.949661929620410e-17
-2.266344119128706e-04 3.047773731594038e-17 -9.206489176871114e-17 -4.718389709581281e-17 -3.798156621417347e-17 3.251662912210813e-16
-2.266344119126378e-04 -3.383157883714196e-17 -1.728048993320368e-17 -7.206021560866237e-17 -2.519378865043396e-17 -7.949082295051608e-17
-2.266344119129211e-04 1.533850669152244e-16 6.802785818891656e-17 2.092340107865920e-16 8.851201378355202e-17 -2.354108506899825e-16
-2.266344119131181e-04 4.569706173223539e-16 1.387778780781446e-16 1.234872782254504e-16 -1.007629394506889e-16 -1.072986735045986e-16
-2.267429635914160e-04 -2.161509519608344e-16 -2.347436621400064e-16 -6.961062351227438e-17 4.278482917852391e-17 -2.087344312056707e-16
-2.267429635919717e-04 -2.503341391531762e-17 2.779204566709218e-16 -7.597683882114348e-17 -1.445889025275051e-18 -3.563714091328595e-18
-2.267429635909323e-04 -3.131131163582193e-16 -1.100259221269927e-16 -1.908980199934466e-16 -9.800353328936900e-17 -1.799255760034849e-17
-2.267429635915145e-04 4.600574795372981e-16 -8.462780769704241e-17 -1.039852046616610e-16 -1.146118259008154e-16 1.836420561472367e-16
-2.266344119126378e-04 -3.383157883714196e-17 -1.728048993320368e-17 -7.206021560866237e-17 -2.519378865043396e-17 -7.949082295051608e-17
-2.266344119130533e-04 1.623167214901776e-16 6.440703736145781e-18 -9.321717284740525e-17 5.922425419956637e-17 -1.132160127478611e-16
-2.266344119125620e-04 -1.882130260878893e-16 1.096612216123599e-16 -4.918038077412987e-17 4.635785628806820e-17 1.119105370004399e-16
-2.266344119129211e-04 1.533850669152244e-16 6.802785818891656e-17 2.092340107865920e-16 8.851201378355202e-17 -2.354108506899825e-16
-2.267429635919717e-04 -2.503341391531762e-17 2.779204566709218e-16 -7.597683882114348e-17 -1.445889025275051e-18 -3.563714091328595e-18
-2.267429635913435e-04 4.925279775242838e-17 4.108046817848696e-16 -2.166770714900231e-16 -7.206225482230168e-17 -1.698638778039328e-16
-2.267429635914610e-04 -3.943870825340601e-16 -1.127480838273039e-16 3.349511862849112e-16 1.553754824324249e-16 -1.936669502794842e-16
-2.267429635909323e-04 -3.131131163582193e-16 -1.100259221269927e-16 -1.908980199934466e-16 -9.800353328936900e-17 -1.799255760034849e-17
-2.266344119130533e-04 1.623167214901776e-16 6.440703736145781e-18 -9.321717284740525e-17 5.922425419956637e-17 -1.132160127478611e-16
-2.266344119127884e-04 -1.249000902703300e-16 -1.540167467361147e-16 -2.264436325697198e-17 8.956781866727469e-17 2.031617496965149e-16
-2.266344119128736e-04 1.973758915243463e-16 3.691844105208600e-17 2.356327206594319e-16 1.104604800043735e-17 -1.378937904696650e-16
-2.266344119125620e-04 -1.882130260878893e-16 1.096612216123599e-16 -4.918038077412987e-17 4.635785628806820e-17 1.119105370004399e-16
-2.266344119127249e-04 -8.415631545990668e-16 -1.970111910097138e-16 7.393724437947150e-16 1.792903136241241e-16 -4.391244064195641e-16
-2.266344119129282e-04 8.022872523613021e-16 -7.075001988922795e-17 -2.279602692939565e-16 -2.278381406493811e-17 7.639846392886045e-17
-2.266344119128608e-04 -4.356557454428707e-16 -3.959174214820983e-17 9.640024424656978e-17 8.808306334816730e-17 -5.522050804848797e-17
-2.266344119128791e-04 -9.750921516933392e-17 7.477724814655674e-16 1.124236309300908e-17 -8.803162758633010e-17 2.836500653984833e-16
-2.269059266447348e-04 6.066371422017442e-16 -1.422294408077212e-16 8.727938160155322e-17 1.203585760451005e-16 2.507430260978368e-17
-2.269059266450435e-04 4.671298630943342e-16 -5.687223208141353e-17 2.835080828670535e-17 -1.242850966560809e-16 2.075153677048799e-16
-2.269059266448570e-04 1.352416862996266e-16 -1.856732146448943e-16 -1.857277205551753e-16 -1.442350156376825e-17 4.246180309159225e-18
-2.269059266447249e-04 -2.417314166481011e-16 1.766926994657536e-16 -3.691680619817606e-16 -1.696767816080982e-16 1.221563127091277e-16
-2.266344119129282e-04 8.022872523613021e-16 -7.075001988922795e-17 -2.279602692939565e-16 -2.278381406493811e-17 7.639846392886045e-17
-2.266344119128717e-04 -1.513923062441783e-16 -2.386445544331571e-16 3.547351732857313e-16 1.107847138957656e-16 2.414294844033758e-16
-2.266344119128296e-04 2.410020156188357e-16 -1.858555649022106e-16 -5.138340255539872e-17 2.975848034899718e-17 1.476368048317125e-16
-2.266344119128608e-04 -4.356557454428707e-16 -3.959174214820983e-17 9.640024424656978e-17 8.808306334816730e-17 -5.522050804848797e-17
-2.269059266450435e-04 4.671298630943342e-16 -5.687223208141353e-17 2.835080828670535e-17 -1.242850966560809e-16 2.075153677048799e-16
-2.269059266447594e-04 -2.721114327556664e-16 5.079622885989907e-18 3.747267863845553e-16 1.759144965807228e-17 6.758602384165164e-17
-2.269059266444591e-04 -2.061740564461708e-16 -9.324362236155051e-17 -2.450210260296364e-16 -1.480800960523441e-16 -1.064589157010017e-17
-2.269059266448570e-04 1.352416862996266e-16 -1.856732146448943e-16 -1.857277205551753e-16 -1.442350156376825e-17 4.246180309159225e-18
-2.266344119128717e-04 -1.513923062441783e-16 -2.386445544331571e-16 3.547351732857313e-16 1.107847138957656e-16 2.414294844033758e-16
-2.266344119127102e-04 2.579666656415943e-16 8.798164921824411e-17 3.935443183122338e-16 2.352022118152875e-17 -1.781945504420204e-16
-2.266344119128316e-04 -1.357398764673880e-16 -6.059077411724786e-17 1.932279275660880e-16 7.421720193917378e-18 6.103392043784155e-17
-2.266344119128296e-04 2.410020156188357e-16 -1.858555649022106e-16 -5.138340255539872e-17 2.975848034899718e-17 1.476368048317125e-16
-2.269059266447594e-04 -2.721114327556664e-16 5.079622885989907e-18 3.747267863845553e-16 1.759144965807228e-17 6.758602384165164e-17
-2.269059266447211e-04 3.240017631594651e-16 -5.179260919542343e-17 1.569355232781051e-16 -1.927153383248315e-17 9.085333493439510e-17
-2.269059266443728e-04 3.722093199721827e-16 6.703147785339359e-17 -1.236881786729074e-16 2.047438053637680e-17 1.447564764678103e-16
-2.269059266444591e-04 -2.061740564461708e-16 -9.324362236155051e-17 -2.450210260296364e-16 -1.480800960523441e-16 -1.064589157010017e-17
-2.266344119128791e-04 -9.750921516933392e-17 7.477724814655674e-16 1.124236309300908e-17 -8.803162758633010e-17 2.836500653984833e-16
-2.266344119128608e-04 -4.356557454428707e-16 -3.959174214820983e-17 9.640024424656978e-17 8.808306334816730e-17 -5.522050804848797e-17
-2.266344119129575e-04 -1.474067849020861e-17 -6.802785818891658e-17 -7.839415265609908e-17 3.376274823474743e-17 -1.401783251374640e-16
-2.266344119131611e-04 1.977405920389790e-16 -1.942890293094024e-16 3.691422179050890e-17 3.038645843607598e-16 -3.055473558927443e-17
-2.269059266447249e-04 -2.417314166481011e-16 1.766926994657536e-16 -3.691680619817606e-16 -1.696767816080982e-16 1.221563127091277e-16
-2.269059266448570e-04 1.352416862996266e-16 -1.856732146448943e-16 -1.857277205551753e-16 -1.442350156376825e-17 4.246180309159225e-18
-2.269059266447877e-04 8.685177922959224e-17 -1.337959764005304e-17 -1.953898001114185e-17 -1.003886283168702e-16 -4.146718518571891e-17
-2.269059266452729e-04 -2.362870932474784e-16 -8.798164921824451e-18 1.255492276215657e-17 4.633710815581517e-17 3.353742545795968e-16
-2.266344119128608e-04 -4.356557454428707e-16 -3.959174214820983e-17 9.640024424656978e-17 8.808306334816730e-17 -5.522050804848797e-17
-2.266344119128296e-04 2.410020156188357e-16 -1.858555649022106e-16 -5.138340255539872e-17 2.975848034899718e-17 1.476368048317125e-16
-2.266344119129838e-04 -2.911665646578460e-17 -2.418649063012300e-16 8.207710212327682e-17 -2.354927884765690e-16 -7.368187727462340e-17
-2.266344119129575e-04 -1.474067849020861e-17 -6.802785818891658e-17 -7.839415265609908e-17 3.376274823474743e-17 -1.401783251374640e-16
-2.269059266448570e-04 1.352416862996266e-16 -1.856732146448943e-16 -1.857277205551753e-16 -1.442350156376825e-17 4.246180309159225e-18
-2.269059266444591e-04 -2.061740564461708e-16 -9.324362236155051e-17 -2.450210260296364e-16 -1.480800960523441e-16 -1.064589157010017e-17
-2.269059266445781e-04 -6.449166641039858e-17 -2.804602681139168e-16 4.145253758189940e-17 -9.120918629982036e-17 -2.301272921593647e-16
-2.269059266447877e-04 8.685177922959224e-17 -1.337959764005304e-17 -1.953898001114185e-17 -1.003886283168702e-16 -4.146718518571891e-17
-2.266344119128296e-04 2.410020156188357e-16 -1.858555649022106e-16 -5.138340255539872e-17 2.975848034899718e-17 1.476368048317125e-16
-2.266344119128316e-04 -1.357398764673880e-16 -6.059077411724786e-17 1.932279275660880e-16 7.421720193917378e-18 6.103392043784155e-17
-2.266344119129819e-04 -2.136111405178396e-16 4.113517325568192e-17 1.463305077468678e-16 -1.171100167661505e-16 4.297501303627754e-17
-2.266344119129838e-04 -2.911665646578460e-17 -2.418649063012300e-16 8.207710212327682e-17 -2.354927884765690e-16 -7.368187727462340e-17
-2.269059266444591e-04 -2.061740564461708e-16 -9.324362236155051e-17 -2.450210260296364e-16 -1.480800960523441e-16 -1.064589157010017e-17
-2.269059266443728e-04 3.722093199721827e-16 6.703147785339359e-17 -1.236881786729074e-16 2.047438053637680e-17 1.447564764678103e-16
-2.269059266450436e-04 -2.344278222295612e-16 -2.020908138957038e-16 1.893925191768743e-18 -2.330500257985534e-17 -8.923889003840409e-17
-2.269059266445781e-04 -6.449166641039858e-17 -2.804602681139168e-16 4.145253758189940e-17 -9.120918629982036e-17 -2.301272921593647e-16
-2.266344119131611e-04 1.977405920389790e-16 -1.942890293094024e-16 3.691422179050890e-17 3.038645843607598e-16 -3.055473558927443e-17
-2.266344119129575e-04 -1.474067849020861e-17 -6.802785818891658e-17 -7.839415265609908e-17 3.376274823474743e-17 -1.401783251374640e-16
-2.266344119129132e-04 -2.929900672310090e-17 2.675919528010587e-17 -7.268966691975659e-17 -8.279356598908691e-17 1.900350788633451e-17
-2.266344119130586e-04 1.327018748566315e-16 1.242684104494398e-16 -1.913984014407674e-17 -5.398939614205184e-17 1.785576819895924e-16
-2.269059266452729e-04 -2.362870932474784e-16 -8.798164921824451e-18 1.255492276215657e-17 4.633710815581517e-17 3.353742545795968e-16
-2.269059266447877e-04 8.685177922959224e-17 -1.337959764005304e-17 -1.953898001114185e-17 -1.003886283168702e-16 -4.146718518571891e-17
-2.269059266450674e-04 2.122500596676839e-16 1.169648160308999e-16 1.796356433567525e-16 3.249611478116550e-19 -3.983455610453341e-17
-2.269059266444723e-04 -7.483326243969497e-17 2.704833725992530e-16 -3.558024163183824e-17 -4.111044344965417e-17 3.921585686162717e-17
-2.266344119129575e-04 -1.474067849020861e-17 -6.802785818891658e-17 -7.839415265609908e-17 3.376274823474743e-17 -1.401783251374640e-16
-2.266344119129838e-04 -2.911665646578460e-17 -2.418649063012300e-16 8.207710212327682e-17 -2.354927884765690e-16 -7.368187727462340e-17
-2.266344119129030e-04 9.410651304394465e-17 -4.367498469867681e-17 1.235001653534079e-16 -2.363210508846174e-19 1.355598960282050e-16
-2.266344119129132e-04 -2.929900672310090e-17 2.675919528010587e-17 -7.268966691975659e-17 -8.279356598908691e-17 1.900350788633451e-17
-2.269059266447877e-04 8.685177922959224e-17 -1.337959764005304e-17 -1.953898001114185e-17 -1.003886283168702e-16 -4.146718518571891e-17
-2.269059266445781e-04 -6.449166641039858e-17 -2.804602681139168e-16 4.145253758189940e-17 -9.120918629982036e-17 -2.301272921593647e-16
-2.269059266446309e-04 -4.551113463044369e-16 3.487681977685245e-17 -9.978234306026012e-17 -8.845873693679445e-17 -9.110840026850695e-17
-2.269059266450674e-04 2.122500596676839e-16 1.169648160308999e-16 1.796356433567525e-16 3.249611478116550e-19 -3.983455610453341e-17
-2.266344119129838e-04 -2.911665646578460e-17 -2.418649063012300e-16 8.207710212327682e-17 -2.354927884765690e-16 -7.368187727462340e-17
-2.266344119129819e-04 -2.136111405178396e-16 4.113517325568192e-17 1.463305077468678e-16 -1.171100167661505e-16 4.297501303627754e-17
-2.266344119128293e-04 -1.812741321839821e-16 9.342597261886678e-17 -6.650428510340502e-17 -1.940374941327333e-16 -7.454784246684973e-17
-2.266344119129030e-04 9.410651304394465e-17 -4.367498469867681e-17 1.235001653534079e-16 -2.363210508846174e-19 1.355598960282050e-16
-2.269059266445781e-04 -6.449166641039858e-17 -2.804602681139168e-16 4.145253758189940e-17 -9.120918629982036e-17 -2.301272921593647e-16
-2.269059266450436e-04 -2.344278222295612e-16 -2.020908138957038e-16 1.893925191768743e-18 -2.330500257985534e-17 -8.923889003840409e-17
-2.269059266445003e-04 9.174905185826594e-17 1.065743593974158e-17 -4.899720660767552e-17 1.548623228297886e-17 -3.633103115478195e-17
-2.269059266446309e-04 -4.551113463044369e-16 3.487681977685245e-17 -9.978234306026012e-17 -8.845873693679445e-17 -9.110840026850695e-17
-2.266344119130586e-04 1.327018748566315e-16 1.242684104494398e-16 -1.913984014407674e-17 -5.398939614205184e-17 1.785576819895924e-16
-2.266344119129132e-04 -2.929900672310090e-17 2.675919528010587e-17 -7.268966691975659e-17 -8.279356598908691e-17 1.900350788633451e-17
-2.266344119126378e-04 -3.383157883714196e-17 -1.728048993320368e-17 -7.206021560866237e-17 -2.519378865043396e-17 -7.949082295051608e-17
-2.266344119128706e-04 3.047773731594038e-17 -9.206489176871114e-17 -4.718389709581281e-17 -3.798156621417347e-17 3.251662912210813e-16
-2.269059266444723e-04 -7.483326243969497e-17 2.704833725992530e-16 -3.558024163183824e-17 -4.111044344965417e-17 3.921585686162717e-17
-2.269059266450674e-04 2.122500596676839e-16 1.169648160308999e-16 1.796356433567525e-16 3.249611478116550e-19 -3.983455610453341e-17
-2.269059266446612e-04 -2.979719689086246e-17 1.509787451253582e-16 -1.510881679522644e-16 6.868031551627111e-17 -1.455442208392136e-16
-2.269059266446981e-04 1.090295417914697e-16 -9.342597261886683e-17 1.964930890549157e-17 -5.654864807551572e-17 1.106207489037266e-16
-2.266344119129132e-04 -2.929900672310090e-17 2.675919528010587e-17 -7.268966691975659e-17 -8.279356598908691e-17 1.900350788633451e-17
-2.266344119129030e-04 9.410651304394465e-17 -4.367498469867681e-17 1.235001653534079e-16 -2.363210508846174e-19 1.355598960282050e-16
-2.266344119130533e-04 1.623167214901776e-16 6.440703736145781e-18 -9.321717284740525e-17 5.922425419956637e-17 -1.132160127478611e-16
-2.266344119126378e-04 -3.383157883714196e-17 -1.728048993320368e-17 -7.206021560866237e-17 -2.519378865043396e-17 -7.949082295051608e-17
-2.269059266450674e-04 2.122500596676839e-16 1.169648160308999e-16 1.796356433567525e-16 3.249611478116550e-19 -3.983455610453341e-17
-2.269059266446309e-04 -4.551113463044369e-16 3.487681977685245e-17 -9.978234306026012e-17 -8.845873693679445e-17 -9.110840026850695e-17
-2.269059266446860e-04 -3.347926887523352e-16 -4.045463283060403e-17 2.108855279979147e-17 -7.732605436342289e-17 -2.944021730247495e-17
-2.269059266446612e-04 -2.979719689086246e-17 1.509787451253582e-16 -1.510881679522644e-16 6.868031551627111e-17 -1.455442208392136e-16
-2.266344119129030e-04 9.410651304394465e-17 -4.367498469867681e-17 1.235001653534079e-16 -2.363210508846174e-19 1.355598960282050e-16
-2.266344119128293e-04 -1.812741321839821e-16 9.342597261886678e-17 -6.650428510340502e-17 -1.940374941327333e-16 -7.454784246684973e-17
-2.266344119127884e-04 -1.249000902703300e-16 -1.540167467361147e-16 -2.264436325697198e-17 8.956781866727469e-17 2.031617496965149e-16
-2.266344119130533e-04 1.623167214901776e-16 6.440703736145781e-18 -9.321717284740525e-17 5.922425419956637e-17 -1.132160127478611e-16
-2.269059266446309e-04 -4.551113463044369e-16 3.487681977685245e-17 -9.978234306026012e-17 -8.845873693679445e-17 -9.110840026850695e-17
-2.269059266445003e-04 9.174905185826594e-17 1.065743593974158e-17 -4.899720660767552e-17 1.548623228297886e-17 -3.633103115478195e-17
-2.269059266446608e-04 -3.220351868072869e-18 -2.723426436171702e-16 -9.673187432966522e-17 -9.281249121139288e-17 3.183514386933547e-17
-2.269059266446860e-04 -3.347926887523352e-16 -4.045463283060403e-17 2.108855279979147e-17 -7.732605436342289e-17 -2.944021730247495e-17
-2.266344119128706e-04 3.047773731594038e-17 -9.206489176871114e-17 -4.718389709581281e-17 -3.798156621417347e-17 3.251662912210813e-16
-2.266344119126378e-04 -3.383157883714196e-17 -1.728048993320368e-17 -7.206021560866237e-17 -2.519378865043396e-17 -7.949082295051608e-17
-2.266344119129211e-04 1.533850669152244e-16 6.802785818891656e-17 2.092340107865920e-16 8.851201378355202e-17 -2.354108506899825e-16
-2.266344119131181e-04 4.569706173223539e-16 1.387778780781446e-16 1.234872782254504e-16 -1.007629394506889e-16 -1.072986735045986e-16
-2.269059266446981e-04 1.090295417914697e-16 -9.342597261886683e-17 1.964930890549157e-17 -5.654864807551572e-17 1.106207489037266e-16
-2.269059266446612e-04 -2.979719689086246e-17 1.509787451253582e-16 -1.510881679522644e-16 6.868031551627111e-17 -1.455442208392136e-16
-2.269059266448867e-04 -2.867186215927462e-16 -1.262611711204858e-16 1.562561286848056e-16 -1.924586596491731e-16 -9.541607619289590e-17
-2.269059266446392e-04 3.439555541887924e-16 -1.258964706058531e-16 -2.662875334497807e-17 1.197659377088225e-16 7.673014909047208e-17
-2.266344119126378e-04 -3.383157883714196e-17 -1.728048993320368e-17 -7.206021560866237e-17 -2.519378865043396e-17 -7.949082295051608e-17
-2.266344119130533e-04 1.623167214901776e-16 6.440703736145781e-18 -9.321717284740525e-17 5.922425419956637e-17 -1.132160127478611e-16
-2.266344119125620e-04 -1.882130260878893e-16 1.096612216123599e-16 -4.918038077412987e-17 4.635785628806820e-17 1.119105370004399e-16
-2.266344119129211e-04 1.533850669152244e-16 6.802785818891656e-17 2.092340107865920e-16 8.851201378355202e-17 -2.354108506899825e-16
-2.269059266446612e-04 -2.979719689086246e-17 1.509787451253582e-16 -1.510881679522644e-16 6.868031551627111e-17 -1.455442208392136e-16
-2.269059266446860e-04 -3.347926887523352e-16 -4.045463283060403e-17 2.108855279979147e-17 -7.732605436342289e-17 -2.944021730247495e-17
-2.269059266446619e-04 3.767907526904112e-16 -2.357461185678671e-18 3.940599309626944e-17 9.238512248291327e-17 -8.531346444242213e-17
-2.269059266448867e-04 -2.867186215927462e-16 -1.262611711204858e-16 1.562561286848056e-16 -1.924586596491731e-16 -9.541607619289590e-17
-2.266344119130533e-04 1.623167214901776e-16 6.440703736145781e-18 -9.321717284740525e-17 5.922425419956637e-17 -1.132160127478611e-16
-2.266344119127884e-04 -1.249000902703300e-16 -1.540167467361147e-16 -2.264436325697198e-17 8.956781866727469e-17 2.031617496965149e-16
-2.266344119128736e-04 1.973758915243463e-16 3.691844105208600e-17 2.356327206594319e-16 1.104604800043735e-17 -1.378937904696650e-16
-2.266344119125620e-04 -1.882130260878893e-16 1.096612216123599e-16 -4.918038077412987e-17 4.635785628806820e-17 1.119105370004399e-16
-2.269059266446860e-04 -3.347926887523352e-16 -4.045463283060403e-17 2.108855279979147e-17 -7.732605436342289e-17 -2.944021730247495e-17
-2.269059266446608e-04 -3.220351868072869e-18 -2.723426436171702e-16 -9.673187432966522e-17 -9.281249121139288e-17 3.183514386933547e-17
-2.269059266447706e-04 -5.169297116187115e-16 1.659994950812582e-17 2.703996863195264e-16 9.552100580571927e-17 -1.073014541527499e-16
-2.269059266446619e-04 3.767907526904112e-16 -2.357461185678671e-18 3.940599309626944e-17 9.238512248291327e-17 -8.531346444242213e-17
-2.269059266447348e-04 6.066371422017442e-16 -1.422294408077212e-16 8.727938160155322e-17 1.203585760451005e-16 2.507430260978368e-17
-2.269059266450435e-04 4.671298630943342e-16 -5.687223208141353e-17 2.835080828670535e-17 -1.242850966560809e-16 2.075153677048799e-16
-2.269059266448570e-04 1.352416862996266e-16 -1.856732146448943e-16 -1.857277205551753e-16 -1.442350156376825e-17 4.246180309159225e-18
-2.269059266447249e-04 -2.417314166481011e-16 1.766926994657536e-16 -3.691680619817606e-16 -1.696767816080982e-16 1.221563127091277e-16
-2.275691304712530e-04 -3.561075606318185e-16 5.585630750421551e-16 3.359778002547528e-16 -2.241896164799697e-16 -1.476986473827976e-16
-2.275691304713390e-04 2.108889788175284e-16 1.076684609413139e-16 4.067594216306476e-17 -6.810234711093367e-17 -1.200086497024393e-16
-2.275691304715133e-04 4.362027962148198e-16 -2.330667413794056e-16 -8.238642597240004e-17 -1.880117540961348e-16 -1.521676110709807e-17
-2.275691304712016e-04 -4.197851969640103e-16 2.927946248142593e-16 1.823847756316850e-16 1.790503799035290e-16 5.223940987187705e-18
-2.269059266450435e-04 4.671298630943342e-16 -5.687223208141353e-17 2.835080828670535e-17 -1.242850966560809e-16 2.075153677048799e-16
-2.269059266447594e-04 -2.721114327556664e-16 5.079622885989907e-18 3.747267863845553e-16 1.759144965807228e-17 6.758602384165164e-17
-2.269059266444591e-04 -2.061740564461708e-16 -9.324362236155051e-17 -2.450210260296364e-16 -1.480800960523441e-16 -1.064589157010017e-17
-2.269059266448570e-04 1.352416862996266e-16 -1.856732146448943e-16 -1.857277205551753e-16 -1.442350156376825e-17 4.246180309159225e-18
-2.275691304713390e-04 2.108889788175284e-16 1.076684609413139e-16 4.067594216306476e-17 -6.810234711093367e-17 -1.200086497024393e-16
-2.275691304711620e-04 -3.297130658663453e-16 -1.577352887719491e-16 3.935543108758738e-16 1.762089599768360e-16 1.794857262088905e-17
-2.275691304712447e-04 5.768626215962019e-17 6.313058556024285e-17 1.163977551913596e-16 3.928556766997492e-17 -1.026858651028278e-16
-2.275691304715133e-04 4.362027962148198e-16 -2.330667413794056e-16 -8.238642597240004e-17 -1.880117540961348e-16 -1.521676110709807e-17
-2.269059266447594e-04 -2.721114327556664e-16 5.079622885989907e-18 3.747267863845553e-16 1.759144965807228e-17 6.758602384165164e-17
-2.269059266447211e-04 3.240017631594651e-16 -5.179260919542343e-17 1.569355232781051e-16 -1.927153383248315e-17 9.085333493439510e-17
-2.269059266443728e-04 3.722093199721827e-16 6.703147785339359e-17 -1.236881786729074e-16 2.047438053637680e-17 1.447564764678103e-16
-2.269059266444591e-04 -2.061740564461708e-16 -9.324362236155051e-17 -2.450210260296364e-16 -1.480800960523441e-16 -1.064589157010017e-17
-2.275691304711620e-04 -3.297130658663453e-16 -1.577352887719491e-16 3.935543108758738e-16 1.762089599768360e-16 1.794857262088905e-17
-2.275691304709954e-04 -4.884447349738173e-16 -1.638112919934621e-16 6.810603732423693e-16 2.113432179408898e-16 -9.983801671475690e-17
-2.275691304715678e-04 1.240860601921235e-16 1.535185565683532e-16 -2.287064799216271e-16 7.567660300557200e-17 3.737531645056323e-17
-2.275691304712447e-04 5.768626215962019e-17 6.313058556024285e-17 1.163977551913596e-16 3.928556766997492e-17 -1.026858651028278e-16
-2.269059266447249e-04 -2.417314166481011e-16 1.766926994657536e-16 -3.691680619817606e-16 -1.696767816080982e-16 1.221563127091277e-16
-2.269059266448570e-04 1.352416862996266e-16 -1.856732146448943e-16 -1.857277205551753e-16 -1.442350156376825e-17 4.246180309159225e-18
-2.269059266447877e-04 8.685177922959224e-17 -1.337959764005304e-17 -1.953898001114185e-17 -1.003886283168702e-16 -4.146718518571891e-17
-2.269059266452729e-04 -2.362870932474784e-16 -8.798164921824451e-18 1.255492276215657e-17 4.633710815581517e-17 3.353742545795968e-16
-2.275691304712016e-04 -4.197851969640103e-16 2.927946248142593e-16 1.823847756316850e-16 1.790503799035290e-16 5.223940987187705e-18
-2.275691304715133e-04 4.362027962148198e-16 -2.330667413794056e-16 -8.238642597240004e-17 -1.880117540961348e-16 -1.521676110709807e-17
-2.275691304711950e-04 -1.218620886595735e-16 -2.898316681265571e-17 -1.679631063775252e-16 -8.692228647783469e-17 9.607669883417379e-18
-2.275691304713187e-04 -1.432258211432443e-16 1.571036089510587e-16 2.106406749869464e-16 8.895709154362850e-17 -2.234821336807309e-16
-2.269059266448570e-04 1.352416862996266e-16 -1.856732146448943e-16 -1.857277205551753e-16 -1.442350156376825e-17 4.246180309159225e-18
-2.269059266444591e-04 -2.061740564461708e-16 -9.324362236155051e-17 -2.450210260296364e-16 -1.480800960523441e-16 -1.064589157010017e-17
-2.269059266445781e-04 -6.449166641039858e-17 -2.804602681139168e-16 4.145253758189940e-17 -9.120918629982036e-17 -2.301272921593647e-16
-2.269059266447877e-04 8.685177922959224e-17 -1.337959764005304e-17 -1.953898001114185e-17 -1.003886283168702e-16 -4.146718518571891e-17
-2.275691304715133e-04 4.362027962148198e-16 -2.330667413794056e-16 -8.238642597240004e-17 -1.880117540961348e-16 -1.521676110709807e-17
-2.275691304712447e-04 5.768626215962019e-17 6.313058556024285e-17 1.163977551913596e-16 3.928556766997492e-17 -1.026858651028278e-16
-2.275691304715232e-04 -1.387778780781447e-16 -1.759632984364885e-17 -2.373832239424875e-17 -2.333382759284927e-16 -9.409313881190529e-17
-2.275691304711950e-04 -1.218620886595735e-16 -2.898316681265571e-17 -1.679631063775252e-16 -8.692228647783469e-17 9.607669883417379e-18
-2.269059266444591e-04 -2.061740564461708e-16 -9.324362236155051e-17 -2.450210260296364e-16 -1.480800960523441e-16 -1.064589157010017e-17
-2.269059266443728e-04 3.722093199721827e-16 6.703147785339359e-17 -1.236881786729074e-16 2.047438053637680e-17 1.447564764678103e-16
-2.269059266450436e-04 -2.344278222295612e-16 -2.020908138957038e-16 1.893925191768743e-18 -2.330500257985534e-17 -8.923889003840409e-17
-2.269059266445781e-04 -6.449166641039858e-17 -2.804602681139168e-16 4.145253758189940e-17 -9.120918629982036e-17 -2.301272921593647e-16
-2.275691304712447e-04 5.768626215962019e-17 6.313058556024285e-17 1.163977551913596e-16 3.928556766997492e-17 -1.026858651028278e-16
-2.275691304715678e-04 1.240860601921235e-16 1.535185565683532e-16 -2.287064799216271e-16 7.567660300557200e-17 3.737531645056323e-17
-2.275691304711684e-04 7.121244161223517e-18 -3.519265968729764e-17 -1.055922456625159e-16 4.228602531578898e-17 1.251686293972263e-17
-2.275691304715232e-04 -1.387778780781447e-16 -1.759632984364885e-17 -2.373832239424875e-17 -2.333382759284927e-16 -9.409313881190529e-17
-2.269059266452729e-04 -2.362870932474784e-16 -8.798164921824451e-18 1.255492276215657e-17 4.633710815581517e-17 3.353742545795968e-16
-2.269059266447877e-04 8.685177922959224e-17 -1.337959764005304e-17 -1.953898001114185e-17 -1.003886283168702e-16 -4.146718518571891e-17
-2.269059266450674e-04 2.122500596676839e-16 1.169648160308999e-16 1.796356433567525e-16 3.249611478116550e-19 -3.983455610453341e-17
-2.269059266444723e-04 -7.483326243969497e-17 2.704833725992530e-16 -3.558024163183824e-17 -4.111044344965417e-17 3.921585686162717e-17
-2.275691304713187e-04 -1.432258211432443e-16 1.571036089510587e-16 2.106406749869464e-16 8.895709154362850e-17 -2.234821336807309e-16
-2.275691304711950e-04 -1.218620886595735e-16 -2.898316681265571e-17 -1.679631063775252e-16 -8.692228647783469e-17 9.607669883417379e-18
-2.275691304714582e-04 1.913976095112086e-17 -1.304779033240817e-16 7.995427300362201e-17 -1.460574513245730e-16 2.316643143587866e-17
-2.275691304710815e-04 1.289833328207971e-16 -2.386445544331570e-16 2.322901870720240e-16 2.268429583295941e-17 1.300947931572557e-16
-2.269059266447877e-04 8.685177922959224e-17 -1.337959764005304e-17 -1.953898001114185e-17 -1.003886283168702e-16 -4.146718518571891e-17
-2.269059266445781e-04 -6.449166641039858e-17 -2.804602681139168e-16 4.145253758189940e-17 -9.120918629982036e-17 -2.301272921593647e-16
-2.269059266446309e-04 -4.551113463044369e-16 3.487681977685245e-17 -9.978234306026012e-17 -8.845873693679445e-17 -9.110840026850695e-17
-2.269059266450674e-04 2.122500596676839e-16 1.169648160308999e-16 1.796356433567525e-16 3.249611478116550e-19 -3.983455610453341e-17
-2.275691304711950e-04 -1.218620886595735e-16 -2.898316681265571e-17 -1.679631063775252e-16 -8.692228647783469e-17 9.607669883417379e-18
-2.275691304715232e-04 -1.387778780781447e-16 -1.759632984364885e-17 -2.373832239424875e-17 -2.333382759284927e-16 -9.409313881190529e-17
-2.275691304710061e-04 6.381112598532082e-17 -4.216732203595863e-18 3.694665937461782e-17 2.245290978067550e-17 -7.523365556615593e-17
-2.275691304714582e-04 1.913976095112086e-17 -1.304779033240817e-16 7.995427300362201e-17 -1.460574513245730e-16 2.316643143587866e-17
-2.269059266445781e-04 -6.449166641039858e-17 -2.804602681139168e-16 4.145253758189940e-17 -9.120918629982036e-17 -2.301272921593647e-16
-2.269059266450436e-04 -2.344278222295612e-16 -2.020908138957038e-16 1.893925191768743e-18 -2.330500257985534e-17 -8.923889003840409e-17
-2.269059266445003e-04 9.174905185826594e-17 1.065743593974158e-17 -4.899720660767552e-17 1.548623228297886e-17 -3.633103115478195e-17
-2.269059266446309e-04 -4.551113463044369e-16 3.487681977685245e-17 -9.978234306026012e-17 -8.845873693679445e-17 -9.110840026850695e-17
-2.275691304715232e-04 -1.387778780781447e-16 -1.759632984364885e-17 -2.373832239424875e-17 -2.333382759284927e-16 -9.409313881190529e-17
-2.275691304711684e-04 7.121244161223517e-18 -3.519265968729764e-17 -1.055922456625159e-16 4.228602531578898e-17 1.251686293972263e-17
-2.275691304709471e-04 -2.774222665031603e-16 -9.020562075079396e-17 -1.088672984778372e-16 -7.532743080776319e-17 -1.736225021726828e-17
-2.275691304710061e-04 6.381112598532082e-17 -4.216732203595863e-18 3.694665937461782e-17 2.245290978067550e-17 -7.523365556615593e-17
-2.269059266444723e-04 -7.483326243969497e-17 2.704833725992530e-16 -3.558024163183824e-17 -4.111044344965417e-17 3.921585686162717e-17
-2.269059266450674e-04 2.122500596676839e-16 1.169648160308999e-16 1.796356433567525e-16 3.249611478116550e-19 -3.983455610453341e-17
-2.269059266446612e-04 -2.979719689086246e-17 1.509787451253582e-16 -1.510881679522644e-16 6.868031551627111e-17 -1.455442208392136e-16
-2.269059266446981e-04 1.090295417914697e-16 -9.342597261886683e-17 1.964930890549157e-17 -5.654864807551572e-17 1.106207489037266e-16
-2.275691304710815e-04 1.289833328207971e-16 -2.386445544331570e-16 2.322901870720240e-16 2.268429583295941e-17 1.300947931572557e-16
-2.275691304714582e-04 1.913976095112086e-17 -1.304779033240817e-16 7.995427300362201e-17 -1.460574513245730e-16 2.316643143587866e-17
-2.275691304709866e-04 -1.311584437491594e-16 -3.977409240552618e-17 -7.751716912880794e-19 -1.896811500133797e-16 -9.729307021281495e-17
-2.275691304717232e-04 2.298463895113327e-16 3.519265968729768e-17 -1.856544068924985e-16 7.581906414410038e-17 2.400302986520365e-16
-2.269059266450674e-04 2.122500596676839e-16 1.169648160308999e-16 1.796356433567525e-16 3.249611478116550e-19 -3.983455610453341e-17
-2.269059266446309e-04 -4.551113463044369e-16 3.487681977685245e-17 -9.978234306026012e-17 -8.845873693679445e-17 -9.110840026850695e-17
-2.269059266446860e-04 -3.347926887523352e-16 -4.045463283060403e-17 2.108855279979147e-17 -7.732605436342289e-17 -2.944021730247495e-17
-2.269059266446612e-04 -2.979719689086246e-17 1.509787451253582e-16 -1.510881679522644e-16 6.868031551627111e-17 -1.455442208392136e-16
-2.275691304714582e-04 1.913976095112086e-17 -1.304779033240817e-16 7.995427300362201e-17 -1.460574513245730e-16 2.316643143587866e-17
-2.275691304710061e-04 6.381112598532082e-17 -4.216732203595863e-18 3.694665937461782e-17 2.245290978067550e-17 -7.523365556615593e-17
-2.275691304714337e-04 1.345611458745486e-16 -2.539811442995025e-17 -1.569566918874336e-17 5.764633291491360e-17 -1.494941768301736e-17
-2.275691304709866e-04 -1.311584437491594e-16 -3.977409240552618e-17 -7.751716912880794e-19 -1.896811500133797e-16 -9.729307021281495e-17
-2.269059266446309e-04 -4.551113463044369e-16 3.487681977685245e-17 -9.978234306026012e-17 -8.845873693679445e-17 -9.110840026850695e-17
-2.269059266445003e-04 9.174905185826594e-17 1.065743593974158e-17 -4.899720660767552e-17 1.548623228297886e-17 -3.633103115478195e-17
-2.269059266446608e-04 -3.220351868072869e-18 -2.723426436171702e-16 -9.673187432966522e-17 -9.281249121139288e-17 3.183514386933547e-17
-2.269059266446860e-04 -3.347926887523352e-16 -4.045463283060403e-17 2.108855279979147e-17 -7.732605436342289e-17 -2.944021730247495e-17
-2.275691304710061e-04 6.381112598532082e-17 -4.216732203595863e-18 3.694665937461782e-17 2.245290978067550e-17 -7.523365556615593e-17
-2.275691304709471e-04 -2.774222665031603e-16 -9.020562075079396e-17 -1.088672984778372e-16 -7.532743080776319e-17 -1.736225021726828e-17
-2.275691304714516e-04 -1.771908896335150e-16 7.801784586301386e-18 -1.579314719867883e-17 1.552010260225282e-16 7.600255867129001e-17
-2.275691304714337e-04 1.345611458745486e-16 -2.539811442995025e-17 -1.569566918874336e-17 5.764633291491360e-17 -1.494941768301736e-17
-2.269059266446981e-04 1.090295417914697e-16 -9.342597261886683e-17 1.964930890549157e-17 -5.654864807551572e-17 1.106207489037266e-16
-2.269059266446612e-04 -2.979719689086246e-17 1.509787451253582e-16 -1.510881679522644e-16 6.868031551627111e-17 -1.455442208392136e-16
-2.269059266448867e-04 -2.867186215927462e-16 -1.262611711204858e-16 1.562561286848056e-16 -1.924586596491731e-16 -9.541607619289590e-17
-2.269059266446392e-04 3.439555541887924e-16 -1.258964706058531e-16 -2.662875334497807e-17 1.197659377088225e-16 7.673014909047208e-17
-2.275691304717232e-04 2.298463895113327e-16 3.519265968729768e-17 -1.856544068924985e-16 7.581906414410038e-17 2.400302986520365e-16
-2.275691304709866e-04 -1.311584437491594e-16 -3.977409240552618e-17 -7.751716912880794e-19 -1.896811500133797e-16 -9.729307021281495e-17
-2.275691304714551e-04 -1.340629557067872e-16 -8.090926566120808e-17 1.772904014855300e-16 7.671369071984750e-17 -1.096393344485599e-16
-2.275691304711149e-04 3.541147999607724e-16 -2.837294805861771e-16 -1.151454474709532e-17 2.640670991652006e-17 1.082416818186538e-16
-2.269059266446612e-04 -2.979719689086246e-17 1.509787451253582e-16 -1.510881679522644e-16 6.868031551627111e-17 -1.455442208392136e-16
-2.269059266446860e-04 -3.347926887523352e-16 -4.045463283060403e-17 2.108855279979147e-17 -7.732605436342289e-17 -2.944021730247495e-17
-2.269059266446619e-04 3.767907526904112e-16 -2.357461185678671e-18 3.940599309626944e-17 9.238512248291327e-17 -8.531346444242213e-17
-2.269059266448867e-04 -2.867186215927462e-16 -1.262611711204858e-16 1.562561286848056e-16 -1.924586596491731e-16 -9.541607619289590e-17
-2.275691304709866e-04 -1.311584437491594e-16 -3.977409240552618e-17 -7.751716912880794e-19 -1.896811500133797e-16 -9.729307021281495e-17
-2.275691304714337e-04 1.345611458745486e-16 -2.539811442995025e-17 -1.569566918874336e-17 5.764633291491360e-17 -1.494941768301736e-17
-2.275691304711545e-04 -4.245001193353677e-16 1.659994950812582e-17 -2.552951567604545e-17 9.786382643466843e-17 -2.116593513408780e-16
-2.275691304714551e-04 -1.340629557067872e-16 -8.090926566120808e-17 1.772904014855300e-16 7.671369071984750e-17 -1.096393344485599e-16
-2.269059266446860e-04 -3.347926887523352e-16 -4.045463283060403e-17 2.108855279979147e-17 -7.732605436342289e-17 -2.944021730247495e-17
-2.269059266446608e-04 -3.220351868072869e-18 -2.723426436171702e-16 -9.673187432966522e-17 -9.281249121139288e-17 3.183514386933547e-17
-2.269059266447706e-04 -5.169297116187115e-16 1.659994950812582e-17 2.703996863195264e-16 9.552100580571927e-17 -1.073014541527499e-16
-2.269059266446619e-04 3.767907526904112e-16 -2.357461185678671e-18 3.940599309626944e-17 9.238512248291327e-17 -8.531346444242213e-17
-2.275691304714337e-04 1.345611458745486e-16 -2.539811442995025e-17 -1.569566918874336e-17 5.764633291491360e-17 -1.494941768301736e-17
-2.275691304714516e-04 -1.771908896335150e-16 7.801784586301386e-18 -1.579314719867883e-17 1.552010260225282e-16 7.600255867129001e-17
-2.275691304718786e-04 5.189224722897573e-16 -6.022607360261516e-17 4.778899407979425e-16 -1.057938113585398e-16 -8.617180330718150e-17
-2.275691304711545e-04 -4.245001193353677e-16 1.659994950812582e-17 -2.552951567604545e-17 9.786382643466843e-17 -2.116593513408780e-16
-2.275691304712530e-04 -3.561075606318185e-16 5.585630750421551e-16 3.359778002547528e-16 -2.241896164799697e-16 -1.476986473827976e-16
-2.275691304713390e-04 2.108889788175284e-16 1.076684609413139e-16 4.067594216306476e-17 -6.810234711093367e-17 -1.200086497024393e-16
-2.275691304715133e-04 4.362027962148198e-16 -2.330667413794056e-16 -8.238642597240004e-17 -1.880117540961348e-16 -1.521676110709807e-17
-2.275691304712016e-04 -4.197851969640103e-16 2.927946248142593e-16 1.823847756316850e-16 1.790503799035290e-16 5.223940987187705e-18
-2.279967614984334e-04 9.429844742714769e-18 -8.525948751793273e-17 3.286906295460314e-17 8.106718561643058e-17 -7.995909722710058e-17
-2.279967614974538e-04 3.107556551725407e-16 2.830000795569119e-16 -2.470003173740295e-16 -4.706547167301909e-17 -2.355526462818982e-16
-2.279967614980614e-04 2.745666151497201e-16 -1.391425785927773e-16 -1.984338597717675e-16 6.277362914106281e-17 2.021666270461481e-17
-2.279967614974233e-04 -2.545151029120176e-16 1.746999387947075e-16 2.249170225956299e-16 6.478411353081135e-17 6.527761149509660e-16
-2.275691304713390e-04 2.108889788175284e-16 1.076684609413139e-16 4.067594216306476e-17 -6.810234711093367e-17 -1.200086497024393e-16
-2.275691304711620e-04 -3.297130658663453e-16 -1.577352887719491e-16 3.935543108758738e-16 1.762089599768360e-16 1.794857262088905e-17
-2.275691304712447e-04 5.768626215962019e-17 6.313058556024285e-17 1.163977551913596e-16 3.928556766997492e-17 -1.026858651028278e-16
-2.275691304715133e-04 4.362027962148198e-16 -2.330667413794056e-16 -8.238642597240004e-17 -1.880117540961348e-16 -1.521676110709807e-17
-2.279967614974538e-04 3.107556551725407e-16 2.830000795569119e-16 -2.470003173740295e-16 -4.706547167301909e-17 -2.355526462818982e-16
-2.279967614972154e-04 8.598888854719807e-17 2.071704367816939e-16 -3.727827663581221e-16 -8.102077979213687e-17 -1.541314514864644e-16
-2.279967614981535e-04 -3.195538200943651e-16 -1.045815987263699e-16 -2.521503556232842e-16 -1.164327346938255e-16 1.302821682183172e-17
-2.279967614980614e-04 2.745666151497201e-16 -1.391425785927773e-16 -1.984338597717675e-16 6.277362914106281e-17 2.021666270461481e-17
-2.275691304711620e-04 -3.297130658663453e-16 -1.577352887719491e-16 3.935543108758738e-16 1.762089599768360e-16 1.794857262088905e-17
-2.275691304709954e-04 -4.884447349738173e-16 -1.638112919934621e-16 6.810603732423693e-16 2.113432179408898e-16 -9.983801671475690e-17
-2.275691304715678e-04 1.240860601921235e-16 1.535185565683532e-16 -2.287064799216271e-16 7.567660300557200e-17 3.737531645056323e-17
-2.275691304712447e-04 5.768626215962019e-17 6.313058556024285e-17 1.163977551913596e-16 3.928556766997492e-17 -1.026858651028278e-16
-2.279967614972154e-04 8.598888854719807e-17 2.071704367816939e-16 -3.727827663581221e-16 -8.102077979213687e-17 -1.541314514864644e-16
-2.279967614975296e-04 3.337963084168122e-16 2.274889283256539e-16 -2.274074322463925e-16 -5.388063629495076e-17 1.892953827143279e-16
-2.279967614981514e-04 1.014947365114258e-16 -1.970111910097137e-16 -1.393627257471666e-16 1.888221313787113e-17 -1.301350436464250e-16
-2.279967614981535e-04 -3.195538200943651e-16 -1.045815987263699e-16 -2.521503556232842e-16 -1.164327346938255e-16 1.302821682183172e-17
-2.275691304712016e-04 -4.197851969640103e-16 2.927946248142593e-16 1.823847756316850e-16 1.790503799035290e-16 5.223940987187705e-18
-2.275691304715133e-04 4.362027962148198e-16 -2.330667413794056e-16 -8.238642597240004e-17 -1.880117540961348e-16 -1.521676110709807e-17
-2.275691304711950e-04 -1.218620886595735e-16 -2.898316681265571e-17 -1.679631063775252e-16 -8.692228647783469e-17 9.607669883417379e-18
-2.275691304713187e-04 -1.432258211432443e-16 1.571036089510587e-16 2.106406749869464e-16 8.895709154362850e-17 -2.234821336807309e-16
-2.279967614974233e-04 -2.545151029120176e-16 1.746999387947075e-16 2.249170225956299e-16 6.478411353081135e-17 6.527761149509660e-16
-2.279967614980614e-04 2.745666151497201e-16 -1.391425785927773e-16 -1.984338597717675e-16 6.277362914106281e-17 2.021666270461481e-17
-2.279967614985349e-04 3.033185711008719e-16 2.020908138957037e-16 2.077455368220411e-16 8.073414074331373e-17 -5.983179585479351e-17
-2.279967614980171e-04 -1.828664238956416e-16 -6.411004008597762e-16 -2.173062231001461e-16 -7.048036655097984e-17 4.673048754835875e-16
-2.275691304715133e-04 4.362027962148198e-16 -2.330667413794056e-16 -8.238642597240004e-17 -1.880117540961348e-16 -1.521676110709807e-17
-2.275691304712447e-04 5.768626215962019e-17 6.313058556024285e-17 1.163977551913596e-16 3.928556766997492e-17 -1.026858651028278e-16
-2.275691304715232e-04 -1.387778780781447e-16 -1.759632984364885e-17 -2.373832239424875e-17 -2.333382759284927e-16 -9.409313881190529e-17
-2.275691304711950e-04 -1.218620886595735e-16 -2.898316681265571e-17 -1.679631063775252e-16 -8.692228647783469e-17 9.607669883417379e-18
-2.279967614980614e-04 2.745666151497201e-16 -1.391425785927773e-16 -1.984338597717675e-16 6.277362914106281e-17 2.021666270461481e-17
-2.279967614981535e-04 -3.195538200943651e-16 -1.045815987263699e-16 -2.521503556232842e-16 -1.164327346938255e-16 1.302821682183172e-17
-2.279967614981957e-04 -2.048129755960150e-16 -8.227034651136373e-17 -2.113858976607541e-16 -1.286935303581638e-16 -2.021448769029274e-16
-2.279967614985349e-04 3.033185711008719e-16 2.020908138957037e-16 2.077455368220411e-16 8.073414074331373e-17 -5.983179585479351e-17
-2.275691304712447e-04 5.768626215962019e-17 6.313058556024285e-17 1.163977551913596e-16 3.928556766997492e-17 -1.026858651028278e-16
-2.275691304715678e-04 1.240860601921235e-16 1.535185565683532e-16 -2.287064799216271e-16 7.567660300557200e-17 3.737531645056323e-17
-2.275691304711684e-04 7.121244161223517e-18 -3.519265968729764e-17 -1.055922456625159e-16 4.228602531578898e-17 1.251686293972263e-17
-2.275691304715232e-04 -1.387778780781447e-16 -1.759632984364885e-17 -2.373832239424875e-17 -2.333382759284927e-16 -9.409313881190529e-17
-2.279967614981535e-04 -3.195538200943651e-16 -1.045815987263699e-16 -2.521503556232842e-16 -1.164327346938255e-16 1.302821682183172e-17
-2.279967614981514e-04 1.014947365114258e-16 -1.970111910097137e-16 -1.393627257471666e-16 1.888221313787113e-17 -1.301350436464250e-16
-2.279967614980703e-04 -1.804112415015879e-16 1.905704872735680e-16 1.045866275140482e-16 -7.633775381780752e-18 -9.358424100353422e-17
-2.279967614981957e-04 -2.048129755960150e-16 -8.227034651136373e-17 -2.113858976607541e-16 -1.286935303581638e-16 -2.021448769029274e-16
-2.275691304713187e-04 -1.432258211432443e-16 1.571036089510587e-16 2.106406749869464e-16 8.895709154362850e-17 -2.234821336807309e-16
-2.275691304711950e-04 -1.218620886595735e-16 -2.898316681265571e-17 -1.679631063775252e-16 -8.692228647783469e-17 9.607669883417379e-18
-2.275691304714582e-04 1.913976095112086e-17 -1.304779033240817e-16 7.995427300362201e-17 -1.460574513245730e-16 2.316643143587866e-17
-2.275691304710815e-04 1.289833328207971e-16 -2.386445544331570e-16 2.322901870720240e-16 2.268429583295941e-17 1.300947931572557e-16
-2.279967614980171e-04 -1.828664238956416e-16 -6.411004008597762e-16 -2.173062231001461e-16 -7.048036655097984e-17 4.673048754835875e-16
-2.279967614985349e-04 3.033185711008719e-16 2.020908138957037e-16 2.077455368220411e-16 8.073414074331373e-17 -5.983179585479351e-17
-2.279967614973982e-04 -3.147411765146322e-17 -1.151055450129826e-16 4.150963619987044e-16 -5.587004367430098e-17 -5.144872702150247e-17
-2.279967614981864e-04 -1.536520462214820e-16 3.541147999607723e-16 -1.917677520722434e-16 -2.731066150754536e-16 1.161392078110122e-16
-2.275691304711950e-04 -1.218620886595735e-16 -2.898316681265571e-17 -1.679631063775252e-16 -8.692228647783469e-17 9.607669883417379e-18
-2.275691304715232e-04 -1.387778780781447e-16 -1.759632984364885e-17 -2.373832239424875e-17 -2.333382759284927e-16 -9.409313881190529e-17
-2.275691304710061e-04 6.381112598532082e-17 -4.216732203595863e-18 3.694665937461782e-17 2.245290978067550e-17 -7.523365556615593e-17
-2.275691304714582e-04 1.913976095112086e-17 -1.304779033240817e-16 7.995427300362201e-17 -1.460574513245730e-16 2.316643143587866e-17
-2.279967614985349e-04 3.033185711008719e-16 2.020908138957037e-16 2.077455368220411e-16 8.073414074331373e-17 -5.983179585479351e-17
-2.279967614981957e-04 -2.048129755960150e-16 -8.227034651136373e-17 -2.113858976607541e-16 -1.286935303581638e-16 -2.021448769029274e-16
-2.279967614976549e-04 -1.753316186155979e-16 7.038531937459529e-17 5.970782255932860e-17 1.800324191862563e-16 -3.404339866826667e-16
-2.279967614973982e-04 -3.147411765146322e-17 -1.151055450129826e-16 4.150963619987044e-16 -5.587004367430098e-17 -5.144872702150247e-17
-2.275691304715232e-04 -1.387778780781447e-16 -1.759632984364885e-17 -2.373832239424875e-17 -2.333382759284927e-16 -9.409313881190529e-17
-2.275691304711684e-04 7.121244161223517e-18 -3.519265968729764e-17 -1.055922456625159e-16 4.228602531578898e-17 1.251686293972263e-17
-2.275691304709471e-04 -2.774222665031603e-16 -9.020562075079396e-17 -1.088672984778372e-16 -7.532743080776319e-17 -1.736225021726828e-17
-2.275691304710061e-04 6.381112598532082e-17 -4.216732203595863e-18 3.694665937461782e-17 2.245290978067550e-17 -7.523365556615593e-17
-2.279967614981957e-04 -2.048129755960150e-16 -8.227034651136373e-17 -2.113858976607541e-16 -1.286935303581638e-16 -2.021448769029274e-16
-2.279967614980703e-04 -1.804112415015879e-16 1.905704872735680e-16 1.045866275140482e-16 -7.633775381780752e-18 -9.358424100353422e-17
-2.279967614977005e-04 8.798164921824365e-18 -4.319372034070366e-16 -1.874154845348178e-16 -1.465672870097250e-17 -7.811695267230232e-17
-2.279967614976549e-04 -1.753316186155979e-16 7.038531937459529e-17 5.970782255932860e-17 1.800324191862563e-16 -3.404339866826667e-16
-2.275691304710815e-04 1.289833328207971e-16 -2.386445544331570e-16 2.322901870720240e-16 2.268429583295941e-17 1.300947931572557e-16
-2.275691304714582e-04 1.913976095112086e-17 -1.304779033240817e-16 7.995427300362201e-17 -1.460574513245730e-16 2.316643143587866e-17
-2.275691304709866e-04 -1.311584437491594e-16 -3.977409240552618e-17 -7.751716912880794e-19 -1.896811500133797e-16 -9.729307021281495e-17
-2.275691304717232e-04 2.298463895113327e-16 3.519265968729768e-17 -1.856544068924985e-16 7.581906414410038e-17 2.400302986520365e-16
-2.279967614981864e-04 -1.536520462214820e-16 3.541147999607723e-16 -1.917677520722434e-16 -2.731066150754536e-16 1.161392078110122e-16
-2.279967614973982e-04 -3.147411765146322e-17 -1.151055450129826e-16 4.150963619987044e-16 -5.587004367430098e-17 -5.144872702150247e-17
-2.279967614975144e-04 -9.787391568396654e-17 6.567039700323790e-17 -2.854192218560402e-16 -4.238839277053831e-17 -1.230848481401928e-16
-2.279967614985695e-04 -2.822706785276465e-16 2.051776761106479e-16 -1.875134731444785e-16 -1.197626646689641e-16 -1.755051164722588e-16
-2.275691304714582e-04 1.913976095112086e-17 -1.304779033240817e-16 7.995427300362201e-17 -1.460574513245730e-16 2.316643143587866e-17
-2.275691304710061e-04 6.381112598532082e-17 -4.216732203595863e-18 3.694665937461782e-17 2.245290978067550e-17 -7.523365556615593e-17
-2.275691304714337e-04 1.345611458745486e-16 -2.539811442995025e-17 -1.569566918874336e-17 5.764633291491360e-17 -1.494941768301736e-17
-2.275691304709866e-04 -1.311584437491594e-16 -3.977409240552618e-17 -7.751716912880794e-19 -1.896811500133797e-16 -9.729307021281495e-17
-2.279967614973982e-04 -3.147411765146322e-17 -1.151055450129826e-16 4.150963619987044e-16 -5.587004367430098e-17 -5.144872702150247e-17
-2.279967614976549e-04 -1.753316186155979e-16 7.038531937459529e-17 5.970782255932860e-17 1.800324191862563e-16 -3.404339866826667e-16
-2.279967614984775e-04 -4.199806393807605e-17 -1.452185818142903e-16 -1.406762381883329e-16 -1.229633861686825e-16 1.897210519797016e-16
-2.279967614975144e-04 -9.787391568396654e-17 6.567039700323790e-17 -2.854192218560402e-16 -4.238839277053831e-17 -1.230848481401928e-16
-2.275691304710061e-04 6.381112598532082e-17 -4.216732203595863e-18 3.694665937461782e-17 2.245290978067550e-17 -7.523365556615593e-17
-2.275691304709471e-04 -2.774222665031603e-16 -9.020562075079396e-17 -1.088672984778372e-16 -7.532743080776319e-17 -1.736225021726828e-17
-2.275691304714516e-04 -1.771908896335150e-16 7.801784586301386e-18 -1.579314719867883e-17 1.552010260225282e-16 7.600255867129001e-17
-2.275691304714337e-04 1.345611458745486e-16 -2.539811442995025e-17 -1.569566918874336e-17 5.764633291491360e-17 -1.494941768301736e-17
-2.279967614976549e-04 -1.753316186155979e-16 7.038531937459529e-17 5.970782255932860e-17 1.800324191862563e-16 -3.404339866826667e-16
-2.279967614977005e-04 8.798164921824365e-18 -4.319372034070366e-16 -1.874154845348178e-16 -1.465672870097250e-17 -7.811695267230232e-17
-2.279967614977645e-04 -9.515175398365516e-17 -2.284853086611770e-16 -2.226731586584164e-16 -4.113699965349657e-17 -1.386080785907750e-16
-2.279967614984775e-04 -4.199806393807605e-17 -1.452185818142903e-16 -1.406762381883329e-16 -1.229633861686825e-16 1.897210519797016e-16
-2.275691304717232e-04 2.298463895113327e-16 3.519265968729768e-17 -1.856544068924985e-16 7.581906414410038e-17 2.400302986520365e-16
-2.275691304709866e-04 -1.311584437491594e-16 -3.977409240552618e-17 -7.751716912880794e-19 -1.896811500133797e-16 -9.729307021281495e-17
-2.275691304714551e-04 -1.340629557067872e-16 -8.090926566120808e-17 1.772904014855300e-16 7.671369071984750e-17 -1.096393344485599e-16
-2.275691304711149e-04 3.541147999607724e-16 -2.837294805861771e-16 -1.151454474709532e-17 2.640670991652006e-17 1.082416818186538e-16
-2.279967614985695e-04 -2.822706785276465e-16 2.051776761106479e-16 -1.875134731444785e-16 -1.197626646689641e-16 -1.755051164722588e-16
-2.279967614975144e-04 -9.787391568396654e-17 6.567039700323790e-17 -2.854192218560402e-16 -4.238839277053831e-17 -1.230848481401928e-16
-2.279967614983217e-04 2.423630964689914e-16 -1.560356917260278e-17 -2.054155728388417e-16 -2.959041633145233e-18 2.373556739560572e-17
-2.279967614978634e-04 -6.160669869444584e-16 -9.429844742714794e-18 6.059794644467163e-16 -2.074993688515696e-17 7.171373499574629e-17
-2.275691304709866e-04 -1.311584437491594e-16 -3.977409240552618e-17 -7.751716912880794e-19 -1.896811500133797e-16 -9.729307021281495e-17
-2.275691304714337e-04 1.345611458745486e-16 -2.539811442995025e-17 -1.569566918874336e-17 5.764633291491360e-17 -1.494941768301736e-17
-2.275691304711545e-04 -4.245001193353677e-16 1.659994950812582e-17 -2.552951567604545e-17 9.786382643466843e-17 -2.116593513408780e-16
-2.275691304714551e-04 -1.340629557067872e-16 -8.090926566120808e-17 1.772904014855300e-16 7.671369071984750e-17 -1.096393344485599e-16
-2.279967614975144e-04 -9.787391568396654e-17 6.567039700323790e-17 -2.854192218560402e-16 -4.238839277053831e-17 -1.230848481401928e-16
-2.279967614984775e-04 -4.199806393807605e-17 -1.452185818142903e-16 -1.406762381883329e-16 -1.229633861686825e-16 1.897210519797016e-16
-2.279967614980206e-04 -7.111472040386074e-17 1.288140747229144e-17 3.588552520815459e-16 4.792061825996071e-17 -3.893372074339717e-17
-2.279967614983217e-04 2.423630964689914e-16 -1.560356917260278e-17 -2.054155728388417e-16 -2.959041633145233e-18 2.373556739560572e-17
-2.275691304714337e-04 1.345611458745486e-16 -2.539811442995025e-17 -1.569566918874336e-17 5.764633291491360e-17 -1.494941768301736e-17
-2.275691304714516e-04 -1.771908896335150e-16 7.801784586301386e-18 -1.579314719867883e-17 1.552010260225282e-16 7.600255867129001e-17
-2.275691304718786e-04 5.189224722897573e-16 -6.022607360261516e-17 4.778899407979425e-16 -1.057938113585398e-16 -8.617180330718150e-17
-2.275691304711545e-04 -4.245001193353677e-16 1.659994950812582e-17 -2.552951567604545e-17 9.786382643466843e-17 -2.116593513408780e-16
-2.279967614984775e-04 -4.199806393807605e-17 -1.452185818142903e-16 -1.406762381883329e-16 -1.229633861686825e-16 1.897210519797016e-16
-2.279967614977645e-04 -9.515175398365516e-17 -2.284853086611770e-16 -2.226731586584164e-16 -4.113699965349657e-17 -1.386080785907750e-16
-2.279967614994963e-04 -6.851889466772733e-16 9.614813431917818e-17 -1.112071516353869e-16 1.468955025748910e-16 3.199694994295859e-17
-2.279967614980206e-04 -7.111472040386074e-17 1.288140747229144e-17 3.588552520815459e-16 4.792061825996071e-17 -3.893372074339717e-17
        </DataArray>
        <DataArray type="Float64" Name="nodal_cauchy_coupling_stresses_xyz" NumberOfComponents="6" format="ascii">
-4.856928558918858e-02 -4.856928558918880e-02 -4.856928558918841e-02 -5.023757360976750e-32 4.216057175517768e-34 -1.371075423072642e-32
-4.856928565590776e-02 -4.856928565590811e-02 -4.856928565590814e-02 -7.275737793234551e-32 8.422654302478905e-32 7.875965957435180e-33
-4.856928568831054e-02 -4.856928568831034e-02 -4.856928568831028e-02 2.038653784158737e-32 -1.541025826904833e-32 -7.122181911578718e-33
-4.856928588900064e-02 -4.856928588900049e-02 -4.856928588900056e-02 8.144441975771076e-32 1.479977046312486e-32 -4.576111234829342e-32
-1.689183553084443e+00 -1.689183553084444e+00 -1.689183553084443e+00 -2.516048592603033e-31 3.563647661430653e-32 1.798696991943877e-31
-1.689183552619285e+00 -1.689183552619285e+00 -1.689183552619285e+00 2.281135013398754e-31 -2.291746061505594e-31 -7.004827752304424e-32
-1.689183553083142e+00 -1.689183553083142e+00 -1.689183553083142e+00 -1.140806051157514e-31 -3.617679467902766e-32 4.680795631067884e-32
-1.689183552966838e+00 -1.689183552966838e+00 -1.689183552966838e+00 4.729764402068599e-32 1.426377694485157e-31 2.248339653949027e-32
-4.856928565590776e-02 -4.856928565590811e-02 -4.856928565590814e-02 -7.275737793234551e-32 8.422654302478905e-32 7.875965957435180e-33
-4.856928582295292e-02 -4.856928582295272e-02 -4.856928582295296e-02 9.210470309766987e-33 1.917849406977537e-33 6.899119249913397e-32
-4.856928597330323e-02 -4.856928597330323e-02 -4.856928597330321e-02 4.121080300284965e-33 9.572290197510809e-33 8.089635237912424e-33
-4.856928568831054e-02 -4.856928568831034e-02 -4.856928568831028e-02 2.038653784158737e-32 -1.541025826904833e-32 -7.122181911578718e-33
-1.689183552619285e+00 -1.689183552619285e+00 -1.689183552619285e+00 2.281135013398754e-31 -2.291746061505594e-31 -7.004827752304424e-32
-1.689183552391590e+00 -1.689183552391590e+00 -1.689183552391590e+00 -6.422299439486105e-32 -3.133362133769463e-33 -7.716705084318114e-32
-1.689183552693609e+00 -1.689183552693609e+00 -1.689183552693608e+00 1.690437186816761e-31 -1.612944453916655e-32 -7.276401903346401e-33
-1.689183553083142e+00 -1.689183553083142e+00 -1.689183553083142e+00 -1.140806051157514e-31 -3.617679467902766e-32 4.680795631067884e-32
-4.856928582295292e-02 -4.856928582295272e-02 -4.856928582295296e-02 9.210470309766987e-33 1.917849406977537e-33 6.899119249913397e-32
-4.856928566703642e-02 -4.856928566703644e-02 -4.856928566703647e-02 1.178916017320776e-32 9.049446359018344e-33 -6.894822153585617e-32
-4.856928557917839e-02 -4.856928557917838e-02 -4.856928557917829e-02 -8.298593133954947e-33 -1.081708192625653e-33 2.499729872578042e-32
-4.856928597330323e-02 -4.856928597330323e-02 -4.856928597330321e-02 4.121080300284965e-33 9.572290197510809e-33 8.089635237912424e-33
-1.689183552391590e+00 -1.689183552391590e+00 -1.689183552391590e+00 -6.422299439486105e-32 -3.133362133769463e-33 -7.716705084318114e-32
-1.689183552512336e+00 -1.689183552512336e+00 -1.689183552512336e+00 2.123441596509370e-32 -2.844569149005108e-33 1.279850304127748e-31
-1.689183552630815e+00 -1.689183552630815e+00 -1.689183552630815e+00 -1.109812252455452e-31 6.147398261080225e-32 -5.155641624284812e-32
-1.689183552693609e+00 -1.689183552693609e+00 -1.689183552693608e+00 1.690437186816761e-31 -1.612944453916655e-32 -7.276401903346401e-33
-4.856928588900064e-02 -4.856928588900049e-02 -4.856928588900056e-02 8.144441975771076e-32 1.479977046312486e-32 -4.576111234829342e-32
-4.856928568831054e-02 -4.856928568831034e-02 -4.856928568831028e-02 2.038653784158737e-32 -1.541025826904833e-32 -7.122181911578718e-33
-4.856928614812609e-02 -4.856928614812608e-02 -4.856928614812601e-02 -1.486920331391222e-33 1.324353266670574e-32 1.882630066432291e-32
-4.856928610245335e-02 -4.856928610245319e-02 -4.856928610245327e-02 6.860667337254569e-33 -5.753760779031635e-32 -4.145386079050902e-32
-1.689183552966838e+00 -1.689183552966838e+00 -1.689183552966838e+00 4.729764402068599e-32 1.426377694485157e-31 2.248339653949027e-32
-1.689183553083142e+00 -1.689183553083142e+00 -1.689183553083142e+00 -1.140806051157514e-31 -3.617679467902766e-32 4.680795631067884e-32
-1.689183553099023e+00 -1.689183553099023e+00 -1.689183553099023e+00 -3.334424724677676e-32 2.385291237735094e-32 7.791825099077529e-32
-1.689183553128558e+00 -1.689183553128558e+00 -1.689183553128558e+00 5.178363156796852e-32 -8.110614537304595e-32 -7.863026974839408e-32
-4.856928568831054e-02 -4.856928568831034e-02 -4.856928568831028e-02 2.038653784158737e-32 -1.541025826904833e-32 -7.122181911578718e-33
-4.856928597330323e-02 -4.856928597330323e-02 -4.856928597330321e-02 4.121080300284965e-33 9.572290197510809e-33 8.089635237912424e-33
-4.856928589378793e-02 -4.856928589378790e-02 -4.856928589378792e-02 -2.715504898150177e-33 4.466044086029358e-33 3.038500510983882e-32
-4.856928614812609e-02 -4.856928614812608e-02 -4.856928614812601e-02 -1.486920331391222e-33 1.324353266670574e-32 1.882630066432291e-32
-1.689183553083142e+00 -1.689183553083142e+00 -1.689183553083142e+00 -1.140806051157514e-31 -3.617679467902766e-32 4.680795631067884e-32
-1.689183552693609e+00 -1.689183552693609e+00 -1.689183552693608e+00 1.690437186816761e-31 -1.612944453916655e-32 -7.276401903346401e-33
-1.689183552992433e+00 -1.689183552992433e+00 -1.689183552992433e+00 1.164315493700968e-32 -5.172090625900439e-32 -1.261364097399161e-32
-1.689183553099023e+00 -1.689183553099023e+00 -1.689183553099023e+00 -3.334424724677676e-32 2.385291237735094e-32 7.791825099077529e-32
-4.856928597330323e-02 -4.856928597330323e-02 -4.856928597330321e-02 4.121080300284965e-33 9.572290197510809e-33 8.089635237912424e-33
-4.856928557917839e-02 -4.856928557917838e-02 -4.856928557917829e-02 -8.298593133954947e-33 -1.081708192625653e-33 2.499729872578042e-32
-4.856928596219238e-02 -4.856928596219241e-02 -4.856928596219247e-02 3.747764197628086e-33 -1.207224909608261e-32 4.266599422756923e-32
-4.856928589378793e-02 -4.856928589378790e-02 -4.856928589378792e-02 -2.715504898150177e-33 4.466044086029358e-33 3.038500510983882e-32
-1.689183552693609e+00 -1.689183552693609e+00 -1.689183552693608e+00 1.690437186816761e-31 -1.612944453916655e-32 -7.276401903346401e-33
-1.689183552630815e+00 -1.689183552630815e+00 -1.689183552630815e+00 -1.109812252455452e-31 6.147398261080225e-32 -5.155641624284812e-32
-1.689183552982200e+00 -1.689183552982200e+00 -1.689183552982200e+00 -1.157183821020541e-31 3.986429184527491e-33 1.989238739104177e-32
-1.689183552992433e+00 -1.689183552992433e+00 -1.689183552992433e+00 1.164315493700968e-32 -5.172090625900439e-32 -1.261364097399161e-32
-4.856928610245335e-02 -4.856928610245319e-02 -4.856928610245327e-02 6.860667337254569e-33 -5.753760779031635e-32 -4.145386079050902e-32
-4.856928614812609e-02 -4.856928614812608e-02 -4.856928614812601e-02 -1.486920331391222e-33 1.324353266670574e-32 1.882630066432291e-32
-4.856928602866115e-02 -4.856928602866104e-02 -4.856928602866128e-02 5.116027954139367e-33 -1.059418228620348e-32 -3.097770075875352e-32
-4.856928645314158e-02 -4.856928645314176e-02 -4.856928645314156e-02 -4.124294456280820e-33 9.822652725786999e-33 5.203474095430618e-32
-1.689183553128558e+00 -1.689183553128558e+00 -1.689183553128558e+00 5.178363156796852e-32 -8.110614537304595e-32 -7.863026974839408e-32
-1.689183553099023e+00 -1.689183553099023e+00 -1.689183553099023e+00 -3.334424724677676e-32 2.385291237735094e-32 7.791825099077529e-32
-1.689183552974507e+00 -1.689183552974507e+00 -1.689183552974507e+00 -7.578684554404652e-33 9.594013367243153e-32 1.028605417020238e-31
-1.689183553147620e+00 -1.689183553147620e+00 -1.689183553147620e+00 1.193586735902626e-32 -8.238065791733655e-32 -1.191565249991074e-31
-4.856928614812609e-02 -4.856928614812608e-02 -4.856928614812601e-02 -1.486920331391222e-33 1.324353266670574e-32 1.882630066432291e-32
-4.856928589378793e-02 -4.856928589378790e-02 -4.856928589378792e-02 -2.715504898150177e-33 4.466044086029358e-33 3.038500510983882e-32
-4.856928608383079e-02 -4.856928608383077e-02 -4.856928608383066e-02 1.440072619416961e-32 -9.693593575323278e-33 1.169150278668974e-32
-4.856928602866115e-02 -4.856928602866104e-02 -4.856928602866128e-02 5.116027954139367e-33 -1.059418228620348e-32 -3.097770075875352e-32
-1.689183553099023e+00 -1.689183553099023e+00 -1.689183553099023e+00 -3.334424724677676e-32 2.385291237735094e-32 7.791825099077529e-32
-1.689183552992433e+00 -1.689183552992433e+00 -1.689183552992433e+00 1.164315493700968e-32 -5.172090625900439e-32 -1.261364097399161e-32
-1.689183552879642e+00 -1.689183552879642e+00 -1.689183552879643e+00 7.011904464289797e-33 6.061203740507283e-32 2.295737112090082e-32
-1.689183552974507e+00 -1.689183552974507e+00 -1.689183552974507e+00 -7.578684554404652e-33 9.594013367243153e-32 1.028605417020238e-31
-4.856928589378793e-02 -4.856928589378790e-02 -4.856928589378792e-02 -2.715504898150177e-33 4.466044086029358e-33 3.038500510983882e-32
-4.856928596219238e-02 -4.856928596219241e-02 -4.856928596219247e-02 3.747764197628086e-33 -1.207224909608261e-32 4.266599422756923e-32
-4.856928608670864e-02 -4.856928608670868e-02 -4.856928608670873e-02 -1.372705942534783e-32 1.140027543853422e-32 -2.847534102388430e-32
-4.856928608383079e-02 -4.856928608383077e-02 -4.856928608383066e-02 1.440072619416961e-32 -9.693593575323278e-33 1.169150278668974e-32
-1.689183552992433e+00 -1.689183552992433e+00 -1.689183552992433e+00 1.164315493700968e-32 -5.172090625900439e-32 -1.261364097399161e-32
-1.689183552982200e+00 -1.689183552982200e+00 -1.689183552982200e+00 -1.157183821020541e-31 3.986429184527491e-33 1.989238739104177e-32
-1.689183553722303e+00 -1.689183553722303e+00 -1.689183553722303e+00 6.195772596427036e-32 -8.106143573173079e-32 3.174207567873332e-32
-1.689183552879642e+00 -1.689183552879642e+00 -1.689183552879643e+00 7.011904464289797e-33 6.061203740507283e-32 2.295737112090082e-32
-4.856928645314158e-02 -4.856928645314176e-02 -4.856928645314156e-02 -4.124294456280820e-33 9.822652725786999e-33 5.203474095430618e-32
-4.856928602866115e-02 -4.856928602866104e-02 -4.856928602866128e-02 5.116027954139367e-33 -1.059418228620348e-32 -3.097770075875352e-32
-4.856928592241188e-02 -4.856928592241175e-02 -4.856928592241205e-02 -1.352167031910564e-32 -7.192015469997176e-33 -4.417161876179432e-33
-4.856928606547055e-02 -4.856928606547040e-02 -4.856928606547059e-02 -8.799256703941612e-32 -1.231625410963079e-32 5.242212109724608e-33
-1.689183553147620e+00 -1.689183553147620e+00 -1.689183553147620e+00 1.193586735902626e-32 -8.238065791733655e-32 -1.191565249991074e-31
-1.689183552974507e+00 -1.689183552974507e+00 -1.689183552974507e+00 -7.578684554404652e-33 9.594013367243153e-32 1.028605417020238e-31
-1.689183553290745e+00 -1.689183553290745e+00 -1.689183553290744e+00 6.040644473748180e-32 7.735069180222580e-32 -4.820977550563636e-34
-1.689183553121179e+00 -1.689183553121179e+00 -1.689183553121179e+00 3.176003943977382e-32 -8.262796722972726e-32 9.699447271619612e-32
-4.856928602866115e-02 -4.856928602866104e-02 -4.856928602866128e-02 5.116027954139367e-33 -1.059418228620348e-32 -3.097770075875352e-32
-4.856928608383079e-02 -4.856928608383077e-02 -4.856928608383066e-02 1.440072619416961e-32 -9.693593575323278e-33 1.169150278668974e-32
-4.856928566517411e-02 -4.856928566517418e-02 -4.856928566517418e-02 1.586550195243766e-32 -3.843154549168954e-33 1.755012769249319e-33
-4.856928592241188e-02 -4.856928592241175e-02 -4.856928592241205e-02 -1.352167031910564e-32 -7.192015469997176e-33 -4.417161876179432e-33
-1.689183552974507e+00 -1.689183552974507e+00 -1.689183552974507e+00 -7.578684554404652e-33 9.594013367243153e-32 1.028605417020238e-31
-1.689183552879642e+00 -1.689183552879642e+00 -1.689183552879643e+00 7.011904464289797e-33 6.061203740507283e-32 2.295737112090082e-32
-1.689183552946095e+00 -1.689183552946095e+00 -1.689183552946096e+00 -4.126721753053940e-32 2.613202125256241e-32 -6.731445256588538e-32
-1.689183553290745e+00 -1.689183553290745e+00 -1.689183553290744e+00 6.040644473748180e-32 7.735069180222580e-32 -4.820977550563636e-34
-4.856928608383079e-02 -4.856928608383077e-02 -4.856928608383066e-02 1.440072619416961e-32 -9.693593575323278e-33 1.169150278668974e-32
-4.856928608670864e-02 -4.856928608670868e-02 -4.856928608670873e-02 -1.372705942534783e-32 1.140027543853422e-32 -2.847534102388430e-32
-4.856928567508781e-02 -4.856928567508775e-02 -4.856928567508779e-02 1.104308671431008e-32 2.918735565239453e-32 1.496225023742221e-32
-4.856928566517411e-02 -4.856928566517418e-02 -4.856928566517418e-02 1.586550195243766e-32 -3.843154549168954e-33 1.755012769249319e-33
-1.689183552879642e+00 -1.689183552879642e+00 -1.689183552879643e+00 7.011904464289797e-33 6.061203740507283e-32 2.295737112090082e-32
-1.689183553722303e+00 -1.689183553722303e+00 -1.689183553722303e+00 6.195772596427036e-32 -8.106143573173079e-32 3.174207567873332e-32
-1.689183553895140e+00 -1.689183553895140e+00 -1.689183553895140e+00 5.359203746378086e-32 -7.297753366720243e-32 4.683346707714713e-32
-1.689183552946095e+00 -1.689183552946095e+00 -1.689183552946096e+00 -4.126721753053940e-32 2.613202125256241e-32 -6.731445256588538e-32
-4.856928606547055e-02 -4.856928606547040e-02 -4.856928606547059e-02 -8.799256703941612e-32 -1.231625410963079e-32 5.242212109724608e-33
-4.856928592241188e-02 -4.856928592241175e-02 -4.856928592241205e-02 -1.352167031910564e-32 -7.192015469997176e-33 -4.417161876179432e-33
-4.856928583392674e-02 -4.856928583392701e-02 -4.856928583392685e-02 2.754055213448598e-32 3.250341481208216e-32 8.273501656472018e-32
-4.856928596791132e-02 -4.856928596791110e-02 -4.856928596791121e-02 1.171441173534354e-31 -3.578029359582774e-33 -3.508077138493308e-32
-1.689183553121179e+00 -1.689183553121179e+00 -1.689183553121179e+00 3.176003943977382e-32 -8.262796722972726e-32 9.699447271619612e-32
-1.689183553290745e+00 -1.689183553290745e+00 -1.689183553290744e+00 6.040644473748180e-32 7.735069180222580e-32 -4.820977550563636e-34
-1.689183553138568e+00 -1.689183553138568e+00 -1.689183553138568e+00 -1.280653664725904e-33 -1.566494727208854e-32 -3.449962508365887e-32
-1.689183553080134e+00 -1.689183553080135e+00 -1.689183553080135e+00 6.282462129045216e-32 7.569911717469134e-32 -6.627093288967384e-33
-4.856928592241188e-02 -4.856928592241175e-02 -4.856928592241205e-02 -1.352167031910564e-32 -7.192015469997176e-33 -4.417161876179432e-33
-4.856928566517411e-02 -4.856928566517418e-02 -4.856928566517418e-02 1.586550195243766e-32 -3.843154549168954e-33 1.755012769249319e-33
-4.856928563810552e-02 -4.856928563810550e-02 -4.856928563810552e-02 -1.267701812482714e-34 -4.284775040696928e-33 -5.980897233337730e-32
-4.856928583392674e-02 -4.856928583392701e-02 -4.856928583392685e-02 2.754055213448598e-32 3.250341481208216e-32 8.273501656472018e-32
-1.689183553290745e+00 -1.689183553290745e+00 -1.689183553290744e+00 6.040644473748180e-32 7.735069180222580e-32 -4.820977550563636e-34
-1.689183552946095e+00 -1.689183552946095e+00 -1.689183552946096e+00 -4.126721753053940e-32 2.613202125256241e-32 -6.731445256588538e-32
-1.689183553356719e+00 -1.689183553356719e+00 -1.689183553356719e+00 -6.214864742149755e-32 -1.389935294793476e-31 5.535055346109543e-32
-1.689183553138568e+00 -1.689183553138568e+00 -1.689183553138568e+00 -1.280653664725904e-33 -1.566494727208854e-32 -3.449962508365887e-32
-4.856928566517411e-02 -4.856928566517418e-02 -4.856928566517418e-02 1.586550195243766e-32 -3.843154549168954e-33 1.755012769249319e-33
-4.856928567508781e-02 -4.856928567508775e-02 -4.856928567508779e-02 1.104308671431008e-32 2.918735565239453e-32 1.496225023742221e-32
-4.856928566960848e-02 -4.856928566960851e-02 -4.856928566960848e-02 -3.573798670102751e-32 -3.210352593873897e-32 1.111707404296337e-32
-4.856928563810552e-02 -4.856928563810550e-02 -4.856928563810552e-02 -1.267701812482714e-34 -4.284775040696928e-33 -5.980897233337730e-32
-1.689183552946095e+00 -1.689183552946095e+00 -1.689183552946096e+00 -4.126721753053940e-32 2.613202125256241e-32 -6.731445256588538e-32
-1.689183553895140e+00 -1.689183553895140e+00 -1.689183553895140e+00 5.359203746378086e-32 -7.297753366720243e-32 4.683346707714713e-32
-1.689183553158740e+00 -1.689183553158739e+00 -1.689183553158740e+00 -1.641320387939682e-31 1.185148121100986e-31 -6.194876218636085e-32
-1.689183553356719e+00 -1.689183553356719e+00 -1.689183553356719e+00 -6.214864742149755e-32 -1.389935294793476e-31 5.535055346109543e-32
-1.689183553084443e+00 -1.689183553084444e+00 -1.689183553084443e+00 -2.516048592603033e-31 3.563647661430653e-32 1.798696991943877e-31
-1.689183552619285e+00 -1.689183552619285e+00 -1.689183552619285e+00 2.281135013398754e-31 -2.291746061505594e-31 -7.004827752304424e-32
-1.689183553083142e+00 -1.689183553083142e+00 -1.689183553083142e+00 -1.140806051157514e-31 -3.617679467902766e-32 4.680795631067884e-32
-1.689183552966838e+00 -1.689183552966838e+00 -1.689183552966838e+00 4.729764402068599e-32 1.426377694485157e-31 2.248339653949027e-32
-2.623550962296237e+00 -2.623550962296237e+00 -2.623550962296237e+00 2.298177375364547e-32 1.195012199283643e-32 4.061144600234360e-31
-2.623550961750548e+00 -2.623550961750547e+00 -2.623550961750547e+00 -1.755474729419606e-31 1.020322831129877e-31 -5.090406651038215e-31
-2.623550961451762e+00 -2.623550961451762e+00 -2.623550961451763e+00 7.459587488787116e-32 -5.447078975201343e-32 6.225158167364942e-32
-2.623550961709753e+00 -2.623550961709752e+00 -2.623550961709753e+00 8.738403558736690e-32 -1.547843195815579e-31 3.006206939212818e-33
-1.689183552619285e+00 -1.689183552619285e+00 -1.689183552619285e+00 2.281135013398754e-31 -2.291746061505594e-31 -7.004827752304424e-32
-1.689183552391590e+00 -1.689183552391590e+00 -1.689183552391590e+00 -6.422299439486105e-32 -3.133362133769463e-33 -7.716705084318114e-32
-1.689183552693609e+00 -1.689183552693609e+00 -1.689183552693608e+00 1.690437186816761e-31 -1.612944453916655e-32 -7.276401903346401e-33
-1.689183553083142e+00 -1.689183553083142e+00 -1.689183553083142e+00 -1.140806051157514e-31 -3.617679467902766e-32 4.680795631067884e-32
-2.623550961750548e+00 -2.623550961750547e+00 -2.623550961750547e+00 -1.755474729419606e-31 1.020322831129877e-31 -5.090406651038215e-31
-2.623550960319683e+00 -2.623550960319683e+00 -2.623550960319683e+00 4.713866900774844e-33 6.666657450325335e-32 1.114076187380703e-31
-2.623550960799296e+00 -2.623550960799296e+00 -2.623550960799296e+00 -1.624754547848574e-31 -4.827054073539137e-32 -1.120477797879503e-32
-2.623550961451762e+00 -2.623550961451762e+00 -2.623550961451763e+00 7.459587488787116e-32 -5.447078975201343e-32 6.225158167364942e-32
-1.689183552391590e+00 -1.689183552391590e+00 -1.689183552391590e+00 -6.422299439486105e-32 -3.133362133769463e-33 -7.716705084318114e-32
-1.689183552512336e+00 -1.689183552512336e+00 -1.689183552512336e+00 2.123441596509370e-32 -2.844569149005108e-33 1.279850304127748e-31
-1.689183552630815e+00 -1.689183552630815e+00 -1.689183552630815e+00 -1.109812252455452e-31 6.147398261080225e-32 -5.155641624284812e-32
-1.689183552693609e+00 -1.689183552693609e+00 -1.689183552693608e+00 1.690437186816761e-31 -1.612944453916655e-32 -7.276401903346401e-33
-2.623550960319683e+00 -2.623550960319683e+00 -2.623550960319683e+00 4.713866900774844e-33 6.666657450325335e-32 1.114076187380703e-31
-2.623550960758121e+00 -2.623550960758121e+00 -2.623550960758121e+00 -8.410797126105611e-32 -1.206952811762580e-31 -3.554698951002399e-31
-2.623550961595493e+00 -2.623550961595493e+00 -2.623550961595493e+00 1.871174225355156e-31 -8.922358866543848e-32 1.183818755302879e-31
-2.623550960799296e+00 -2.623550960799296e+00 -2.623550960799296e+00 -1.624754547848574e-31 -4.827054073539137e-32 -1.120477797879503e-32
-1.689183552966838e+00 -1.689183552966838e+00 -1.689183552966838e+00 4.729764402068599e-32 1.426377694485157e-31 2.248339653949027e-32
-1.689183553083142e+00 -1.689183553083142e+00 -1.689183553083142e+00 -1.140806051157514e-31 -3.617679467902766e-32 4.680795631067884e-32
-1.689183553099023e+00 -1.689183553099023e+00 -1.689183553099023e+00 -3.334424724677676e-32 2.385291237735094e-32 7.791825099077529e-32
-1.689183553128558e+00 -1.689183553128558e+00 -1.689183553128558e+00 5.178363156796852e-32 -8.110614537304595e-32 -7.863026974839408e-32
-2.623550961709753e+00 -2.623550961709752e+00 -2.623550961709753e+00 8.738403558736690e-32 -1.547843195815579e-31 3.006206939212818e-33
-2.623550961451762e+00 -2.623550961451762e+00 -2.623550961451763e+00 7.459587488787116e-32 -5.447078975201343e-32 6.225158167364942e-32
-2.623550960665469e+00 -2.623550960665469e+00 -2.623550960665469e+00 -9.616621539219694e-32 -7.435139088887076e-32 -7.636314418348545e-32
-2.623550960895941e+00 -2.623550960895940e+00 -2.623550960895940e+00 3.852175824688812e-33 3.895186440092830e-31 2.964285110186025e-31
-1.689183553083142e+00 -1.689183553083142e+00 -1.689183553083142e+00 -1.140806051157514e-31 -3.617679467902766e-32 4.680795631067884e-32
-1.689183552693609e+00 -1.689183552693609e+00 -1.689183552693608e+00 1.690437186816761e-31 -1.612944453916655e-32 -7.276401903346401e-33
-1.689183552992433e+00 -1.689183552992433e+00 -1.689183552992433e+00 1.164315493700968e-32 -5.172090625900439e-32 -1.261364097399161e-32
-1.689183553099023e+00 -1.689183553099023e+00 -1.689183553099023e+00 -3.334424724677676e-32 2.385291237735094e-32 7.791825099077529e-32
-2.623550961451762e+00 -2.623550961451762e+00 -2.623550961451763e+00 7.459587488787116e-32 -5.447078975201343e-32 6.225158167364942e-32
-2.623550960799296e+00 -2.623550960799296e+00 -2.623550960799296e+00 -1.624754547848574e-31 -4.827054073539137e-32 -1.120477797879503e-32
-2.623550961118956e+00 -2.623550961118956e+00 -2.623550961118956e+00 8.077071921811003e-32 3.989974908211304e-32 1.302574241985589e-31
-2.623550960665469e+00 -2.623550960665469e+00 -2.623550960665469e+00 -9.616621539219694e-32 -7.435139088887076e-32 -7.636314418348545e-32
-1.689183552693609e+00 -1.689183552693609e+00 -1.689183552693608e+00 1.690437186816761e-31 -1.612944453916655e-32 -7.276401903346401e-33
-1.689183552630815e+00 -1.689183552630815e+00 -1.689183552630815e+00 -1.109812252455452e-31 6.147398261080225e-32 -5.155641624284812e-32
-1.689183552982200e+00 -1.689183552982200e+00 -1.689183552982200e+00 -1.157183821020541e-31 3.986429184527491e-33 1.989238739104177e-32
-1.689183552992433e+00 -1.689183552992433e+00 -1.689183552992433e+00 1.164315493700968e-32 -5.172090625900439e-32 -1.261364097399161e-32
-2.623550960799296e+00 -2.623550960799296e+00 -2.623550960799296e+00 -1.624754547848574e-31 -4.827054073539137e-32 -1.120477797879503e-32
-2.623550961595493e+00 -2.623550961595493e+00 -2.623550961595493e+00 1.871174225355156e-31 -8.922358866543848e-32 1.183818755302879e-31
-2.623550961471926e+00 -2.623550961471926e+00 -2.623550961471926e+00 -1.504036957415565e-32 2.432179410885996e-31 -2.650659029626811e-31
-2.623550961118956e+00 -2.623550961118956e+00 -2.623550961118956e+00 8.077071921811003e-32 3.989974908211304e-32 1.302574241985589e-31
-1.689183553128558e+00 -1.689183553128558e+00 -1.689183553128558e+00 5.178363156796852e-32 -8.110614537304595e-32 -7.863026974839408e-32
-1.689183553099023e+00 -1.689183553099023e+00 -1.689183553099023e+00 -3.334424724677676e-32 2.385291237735094e-32 7.791825099077529e-32
-1.689183552974507e+00 -1.689183552974507e+00 -1.689183552974507e+00 -7.578684554404652e-33 9.594013367243153e-32 1.028605417020238e-31
-1.689183553147620e+00 -1.689183553147620e+00 -1.689183553147620e+00 1.193586735902626e-32 -8.238065791733655e-32 -1.191565249991074e-31
-2.623550960895941e+00 -2.623550960895940e+00 -2.623550960895940e+00 3.852175824688812e-33 3.895186440092830e-31 2.964285110186025e-31
-2.623550960665469e+00 -2.623550960665469e+00 -2.623550960665469e+00 -9.616621539219694e-32 -7.435139088887076e-32 -7.636314418348545e-32
-2.623550960622680e+00 -2.623550960622680e+00 -2.623550960622681e+00 -7.272158450732922e-32 -5.024781326457842e-32 -1.472691654397202e-31
-2.623550960556525e+00 -2.623550960556526e+00 -2.623550960556526e+00 1.487164991172120e-33 3.121048412420583e-32 2.622822796311907e-32
-1.689183553099023e+00 -1.689183553099023e+00 -1.689183553099023e+00 -3.334424724677676e-32 2.385291237735094e-32 7.791825099077529e-32
-1.689183552992433e+00 -1.689183552992433e+00 -1.689183552992433e+00 1.164315493700968e-32 -5.172090625900439e-32 -1.261364097399161e-32
-1.689183552879642e+00 -1.689183552879642e+00 -1.689183552879643e+00 7.011904464289797e-33 6.061203740507283e-32 2.295737112090082e-32
-1.689183552974507e+00 -1.689183552974507e+00 -1.689183552974507e+00 -7.578684554404652e-33 9.594013367243153e-32 1.028605417020238e-31
-2.623550960665469e+00 -2.623550960665469e+00 -2.623550960665469e+00 -9.616621539219694e-32 -7.435139088887076e-32 -7.636314418348545e-32
-2.623550961118956e+00 -2.623550961118956e+00 -2.623550961118956e+00 8.077071921811003e-32 3.989974908211304e-32 1.302574241985589e-31
-2.623550960753294e+00 -2.623550960753294e+00 -2.623550960753294e+00 1.759535436259993e-31 -2.536933014885707e-32 -3.059446414613706e-32
-2.623550960622680e+00 -2.623550960622680e+00 -2.623550960622681e+00 -7.272158450732922e-32 -5.024781326457842e-32 -1.472691654397202e-31
-1.689183552992433e+00 -1.689183552992433e+00 -1.689183552992433e+00 1.164315493700968e-32 -5.172090625900439e-32 -1.261364097399161e-32
-1.689183552982200e+00 -1.689183552982200e+00 -1.689183552982200e+00 -1.157183821020541e-31 3.986429184527491e-33 1.989238739104177e-32
-1.689183553722303e+00 -1.689183553722303e+00 -1.689183553722303e+00 6.195772596427036e-32 -8.106143573173079e-32 3.174207567873332e-32
-1.689183552879642e+00 -1.689183552879642e+00 -1.689183552879643e+00 7.011904464289797e-33 6.061203740507283e-32 2.295737112090082e-32
-2.623550961118956e+00 -2.623550961118956e+00 -2.623550961118956e+00 8.077071921811003e-32 3.989974908211304e-32 1.302574241985589e-31
-2.623550961471926e+00 -2.623550961471926e+00 -2.623550961471926e+00 -1.504036957415565e-32 2.432179410885996e-31 -2.650659029626811e-31
-2.623550961260482e+00 -2.623550961260481e+00 -2.623550961260481e+00 -7.641971479976416e-32 -1.194629627713256e-32 2.043892575194604e-31
-2.623550960753294e+00 -2.623550960753294e+00 -2.623550960753294e+00 1.759535436259993e-31 -2.536933014885707e-32 -3.059446414613706e-32
-1.689183553147620e+00 -1.689183553147620e+00 -1.689183553147620e+00 1.193586735902626e-32 -8.238065791733655e-32 -1.191565249991074e-31
-1.689183552974507e+00 -1.689183552974507e+00 -1.689183552974507e+00 -7.578684554404652e-33 9.594013367243153e-32 1.028605417020238e-31
-1.689183553290745e+00 -1.689183553290745e+00 -1.689183553290744e+00 6.040644473748180e-32 7.735069180222580e-32 -4.820977550563636e-34
-1.689183553121179e+00 -1.689183553121179e+00 -1.689183553121179e+00 3.176003943977382e-32 -8.262796722972726e-32 9.699447271619612e-32
-2.623550960556525e+00 -2.623550960556526e+00 -2.623550960556526e+00 1.487164991172120e-33 3.121048412420583e-32 2.622822796311907e-32
-2.623550960622680e+00 -2.623550960622680e+00 -2.623550960622681e+00 -7.272158450732922e-32 -5.024781326457842e-32 -1.472691654397202e-31
-2.623550961060757e+00 -2.623550961060756e+00 -2.623550961060756e+00 -6.459908601386212e-33 -3.838741941281390e-32 6.725798860466772e-32
-2.623550961023745e+00 -2.623550961023745e+00 -2.623550961023745e+00 1.813716045676782e-32 -2.562968918889495e-32 6.518554821917952e-32
-1.689183552974507e+00 -1.689183552974507e+00 -1.689183552974507e+00 -7.578684554404652e-33 9.594013367243153e-32 1.028605417020238e-31
-1.689183552879642e+00 -1.689183552879642e+00 -1.689183552879643e+00 7.011904464289797e-33 6.061203740507283e-32 2.295737112090082e-32
-1.689183552946095e+00 -1.689183552946095e+00 -1.689183552946096e+00 -4.126721753053940e-32 2.613202125256241e-32 -6.731445256588538e-32
-1.689183553290745e+00 -1.689183553290745e+00 -1.689183553290744e+00 6.040644473748180e-32 7.735069180222580e-32 -4.820977550563636e-34
-2.623550960622680e+00 -2.623550960622680e+00 -2.623550960622681e+00 -7.272158450732922e-32 -5.024781326457842e-32 -1.472691654397202e-31
-2.623550960753294e+00 -2.623550960753294e+00 -2.623550960753294e+00 1.759535436259993e-31 -2.536933014885707e-32 -3.059446414613706e-32
-2.623550961392468e+00 -2.623550961392468e+00 -2.623550961392468e+00 -1.203907677404407e-31 7.991448433970162e-33 -4.640413341408959e-33
-2.623550961060757e+00 -2.623550961060756e+00 -2.623550961060756e+00 -6.459908601386212e-33 -3.838741941281390e-32 6.725798860466772e-32
-1.689183552879642e+00 -1.689183552879642e+00 -1.689183552879643e+00 7.011904464289797e-33 6.061203740507283e-32 2.295737112090082e-32
-1.689183553722303e+00 -1.689183553722303e+00 -1.689183553722303e+00 6.195772596427036e-32 -8.106143573173079e-32 3.174207567873332e-32
-1.689183553895140e+00 -1.689183553895140e+00 -1.689183553895140e+00 5.359203746378086e-32 -7.297753366720243e-32 4.683346707714713e-32
-1.689183552946095e+00 -1.689183552946095e+00 -1.689183552946096e+00 -4.126721753053940e-32 2.613202125256241e-32 -6.731445256588538e-32
-2.623550960753294e+00 -2.623550960753294e+00 -2.623550960753294e+00 1.759535436259993e-31 -2.536933014885707e-32 -3.059446414613706e-32
-2.623550961260482e+00 -2.623550961260481e+00 -2.623550961260481e+00 -7.641971479976416e-32 -1.194629627713256e-32 2.043892575194604e-31
-2.623550961969312e+00 -2.623550961969311e+00 -2.623550961969312e+00 6.752120606441751e-32 -5.021802065091210e-32 -9.203595492239347e-32
-2.623550961392468e+00 -2.623550961392468e+00 -2.623550961392468e+00 -1.203907677404407e-31 7.991448433970162e-33 -4.640413341408959e-33
-1.689183553121179e+00 -1.689183553121179e+00 -1.689183553121179e+00 3.176003943977382e-32 -8.262796722972726e-32 9.699447271619612e-32
-1.689183553290745e+00 -1.689183553290745e+00 -1.689183553290744e+00 6.040644473748180e-32 7.735069180222580e-32 -4.820977550563636e-34
-1.689183553138568e+00 -1.689183553138568e+00 -1.689183553138568e+00 -1.280653664725904e-33 -1.566494727208854e-32 -3.449962508365887e-32
-1.689183553080134e+00 -1.689183553080135e+00 -1.689183553080135e+00 6.282462129045216e-32 7.569911717469134e-32 -6.627093288967384e-33
-2.623550961023745e+00 -2.623550961023745e+00 -2.623550961023745e+00 1.813716045676782e-32 -2.562968918889495e-32 6.518554821917952e-32
-2.623550961060757e+00 -2.623550961060756e+00 -2.623550961060756e+00 -6.459908601386212e-33 -3.838741941281390e-32 6.725798860466772e-32
-2.623550961461597e+00 -2.623550961461598e+00 -2.623550961461597e+00 2.525784835684950e-33 7.841120370588962e-33 -1.411372607250074e-31
-2.623550961020384e+00 -2.623550961020385e+00 -2.623550961020384e+00 -8.066412623460410e-32 3.055614656957509e-32 8.556936082374111e-32
-1.689183553290745e+00 -1.689183553290745e+00 -1.689183553290744e+00 6.040644473748180e-32 7.735069180222580e-32 -4.820977550563636e-34
-1.689183552946095e+00 -1.689183552946095e+00 -1.689183552946096e+00 -4.126721753053940e-32 2.613202125256241e-32 -6.731445256588538e-32
-1.689183553356719e+00 -1.689183553356719e+00 -1.689183553356719e+00 -6.214864742149755e-32 -1.389935294793476e-31 5.535055346109543e-32
-1.689183553138568e+00 -1.689183553138568e+00 -1.689183553138568e+00 -1.280653664725904e-33 -1.566494727208854e-32 -3.449962508365887e-32
-2.623550961060757e+00 -2.623550961060756e+00 -2.623550961060756e+00 -6.459908601386212e-33 -3.838741941281390e-32 6.725798860466772e-32
-2.623550961392468e+00 -2.623550961392468e+00 -2.623550961392468e+00 -1.203907677404407e-31 7.991448433970162e-33 -4.640413341408959e-33
-2.623550961835323e+00 -2.623550961835322e+00 -2.623550961835322e+00 3.725970714931463e-31 1.290985061068502e-31 1.778853077056809e-32
-2.623550961461597e+00 -2.623550961461598e+00 -2.623550961461597e+00 2.525784835684950e-33 7.841120370588962e-33 -1.411372607250074e-31
-1.689183552946095e+00 -1.689183552946095e+00 -1.689183552946096e+00 -4.126721753053940e-32 2.613202125256241e-32 -6.731445256588538e-32
-1.689183553895140e+00 -1.689183553895140e+00 -1.689183553895140e+00 5.359203746378086e-32 -7.297753366720243e-32 4.683346707714713e-32
-1.689183553158740e+00 -1.689183553158739e+00 -1.689183553158740e+00 -1.641320387939682e-31 1.185148121100986e-31 -6.194876218636085e-32
-1.689183553356719e+00 -1.689183553356719e+00 -1.689183553356719e+00 -6.214864742149755e-32 -1.389935294793476e-31 5.535055346109543e-32
-2.623550961392468e+00 -2.623550961392468e+00 -2.623550961392468e+00 -1.203907677404407e-31 7.991448433970162e-33 -4.640413341408959e-33
-2.623550961969312e+00 -2.623550961969311e+00 -2.623550961969312e+00 6.752120606441751e-32 -5.021802065091210e-32 -9.203595492239347e-32
-2.623550961696850e+00 -2.623550961696850e+00 -2.623550961696850e+00 1.522405219503719e-31 7.497913469248014e-32 -7.714420332790703e-32
-2.623550961835323e+00 -2.623550961835322e+00 -2.623550961835322e+00 3.725970714931463e-31 1.290985061068502e-31 1.778853077056809e-32
-2.623550962296237e+00 -2.623550962296237e+00 -2.623550962296237e+00 2.298177375364547e-32 1.195012199283643e-32 4.061144600234360e-31
-2.623550961750548e+00 -2.623550961750547e+00 -2.623550961750547e+00 -1.755474729419606e-31 1.020322831129877e-31 -5.090406651038215e-31
-2.623550961451762e+00 -2.623550961451762e+00 -2.623550961451763e+00 7.459587488787116e-32 -5.447078975201343e-32 6.225158167364942e-32
-2.623550961709753e+00 -2.623550961709752e+00 -2.623550961709753e+00 8.738403558736690e-32 -1.547843195815579e-31 3.006206939212818e-33
-2.667289446536128e+00 -2.667289446536127e+00 -2.667289446536127e+00 -6.120767757639697e-31 1.568867363004034e-32 -2.209375623230625e-31
-2.667289446430155e+00 -2.667289446430155e+00 -2.667289446430155e+00 3.721418639199690e-31 1.225300309356923e-31 3.040721488492648e-31
-2.667289445921365e+00 -2.667289445921365e+00 -2.667289445921365e+00 3.414040547794964e-32 1.753591744680991e-32 -1.748697513854234e-31
-2.667289446582734e+00 -2.667289446582733e+00 -2.667289446582733e+00 1.577498354924683e-31 -7.664473997735148e-32 -2.144409514800989e-31
-2.623550961750548e+00 -2.623550961750547e+00 -2.623550961750547e+00 -1.755474729419606e-31 1.020322831129877e-31 -5.090406651038215e-31
-2.623550960319683e+00 -2.623550960319683e+00 -2.623550960319683e+00 4.713866900774844e-33 6.666657450325335e-32 1.114076187380703e-31
-2.623550960799296e+00 -2.623550960799296e+00 -2.623550960799296e+00 -1.624754547848574e-31 -4.827054073539137e-32 -1.120477797879503e-32
-2.623550961451762e+00 -2.623550961451762e+00 -2.623550961451763e+00 7.459587488787116e-32 -5.447078975201343e-32 6.225158167364942e-32
-2.667289446430155e+00 -2.667289446430155e+00 -2.667289446430155e+00 3.721418639199690e-31 1.225300309356923e-31 3.040721488492648e-31
-2.667289446008294e+00 -2.667289446008294e+00 -2.667289446008293e+00 6.845184112888328e-32 2.299942548198023e-33 -2.245399603689989e-31
-2.667289445886022e+00 -2.667289445886021e+00 -2.667289445886021e+00 -3.005070633146569e-31 -1.138707216932341e-31 1.137573955635354e-31
-2.667289445921365e+00 -2.667289445921365e+00 -2.667289445921365e+00 3.414040547794964e-32 1.753591744680991e-32 -1.748697513854234e-31
-2.623550960319683e+00 -2.623550960319683e+00 -2.623550960319683e+00 4.713866900774844e-33 6.666657450325335e-32 1.114076187380703e-31
-2.623550960758121e+00 -2.623550960758121e+00 -2.623550960758121e+00 -8.410797126105611e-32 -1.206952811762580e-31 -3.554698951002399e-31
-2.623550961595493e+00 -2.623550961595493e+00 -2.623550961595493e+00 1.871174225355156e-31 -8.922358866543848e-32 1.183818755302879e-31
-2.623550960799296e+00 -2.623550960799296e+00 -2.623550960799296e+00 -1.624754547848574e-31 -4.827054073539137e-32 -1.120477797879503e-32
-2.667289446008294e+00 -2.667289446008294e+00 -2.667289446008293e+00 6.845184112888328e-32 2.299942548198023e-33 -2.245399603689989e-31
-2.667289445601877e+00 -2.667289445601877e+00 -2.667289445601877e+00 -1.530471530313111e-33 4.616756643907531e-32 2.822328623674421e-31
-2.667289446223390e+00 -2.667289446223390e+00 -2.667289446223389e+00 3.273591361405077e-31 -7.535836331786397e-32 -7.196615452880119e-33
-2.667289445886022e+00 -2.667289445886021e+00 -2.667289445886021e+00 -3.005070633146569e-31 -1.138707216932341e-31 1.137573955635354e-31
-2.623550961709753e+00 -2.623550961709752e+00 -2.623550961709753e+00 8.738403558736690e-32 -1.547843195815579e-31 3.006206939212818e-33
-2.623550961451762e+00 -2.623550961451762e+00 -2.623550961451763e+00 7.459587488787116e-32 -5.447078975201343e-32 6.225158167364942e-32
-2.623550960665469e+00 -2.623550960665469e+00 -2.623550960665469e+00 -9.616621539219694e-32 -7.435139088887076e-32 -7.636314418348545e-32
-2.623550960895941e+00 -2.623550960895940e+00 -2.623550960895940e+00 3.852175824688812e-33 3.895186440092830e-31 2.964285110186025e-31
-2.667289446582734e+00 -2.667289446582733e+00 -2.667289446582733e+00 1.577498354924683e-31 -7.664473997735148e-32 -2.144409514800989e-31
-2.667289445921365e+00 -2.667289445921365e+00 -2.667289445921365e+00 3.414040547794964e-32 1.753591744680991e-32 -1.748697513854234e-31
-2.667289445876607e+00 -2.667289445876607e+00 -2.667289445876607e+00 2.194052075672689e-31 1.432972697500786e-31 -1.062713617731280e-32
-2.667289446212115e+00 -2.667289446212115e+00 -2.667289446212115e+00 -4.142097876765291e-32 -1.427733114666296e-31 9.865131337982405e-32
-2.623550961451762e+00 -2.623550961451762e+00 -2.623550961451763e+00 7.459587488787116e-32 -5.447078975201343e-32 6.225158167364942e-32
-2.623550960799296e+00 -2.623550960799296e+00 -2.623550960799296e+00 -1.624754547848574e-31 -4.827054073539137e-32 -1.120477797879503e-32
-2.623550961118956e+00 -2.623550961118956e+00 -2.623550961118956e+00 8.077071921811003e-32 3.989974908211304e-32 1.302574241985589e-31
-2.623550960665469e+00 -2.623550960665469e+00 -2.623550960665469e+00 -9.616621539219694e-32 -7.435139088887076e-32 -7.636314418348545e-32
-2.667289445921365e+00 -2.667289445921365e+00 -2.667289445921365e+00 3.414040547794964e-32 1.753591744680991e-32 -1.748697513854234e-31
-2.667289445886022e+00 -2.667289445886021e+00 -2.667289445886021e+00 -3.005070633146569e-31 -1.138707216932341e-31 1.137573955635354e-31
-2.667289445599248e+00 -2.667289445599248e+00 -2.667289445599247e+00 3.093630789059125e-32 4.953408591376771e-33 -2.076176383158937e-31
-2.667289445876607e+00 -2.667289445876607e+00 -2.667289445876607e+00 2.194052075672689e-31 1.432972697500786e-31 -1.062713617731280e-32
-2.623550960799296e+00 -2.623550960799296e+00 -2.623550960799296e+00 -1.624754547848574e-31 -4.827054073539137e-32 -1.120477797879503e-32
-2.623550961595493e+00 -2.623550961595493e+00 -2.623550961595493e+00 1.871174225355156e-31 -8.922358866543848e-32 1.183818755302879e-31
-2.623550961471926e+00 -2.623550961471926e+00 -2.623550961471926e+00 -1.504036957415565e-32 2.432179410885996e-31 -2.650659029626811e-31
-2.623550961118956e+00 -2.623550961118956e+00 -2.623550961118956e+00 8.077071921811003e-32 3.989974908211304e-32 1.302574241985589e-31
-2.667289445886022e+00 -2.667289445886021e+00 -2.667289445886021e+00 -3.005070633146569e-31 -1.138707216932341e-31 1.137573955635354e-31
-2.667289446223390e+00 -2.667289446223390e+00 -2.667289446223389e+00 3.273591361405077e-31 -7.535836331786397e-32 -7.196615452880119e-33
-2.667289446849416e+00 -2.667289446849415e+00 -2.667289446849416e+00 -1.277952108747378e-31 1.079833637205996e-31 5.294808830161373e-32
-2.667289445599248e+00 -2.667289445599248e+00 -2.667289445599247e+00 3.093630789059125e-32 4.953408591376771e-33 -2.076176383158937e-31
-2.623550960895941e+00 -2.623550960895940e+00 -2.623550960895940e+00 3.852175824688812e-33 3.895186440092830e-31 2.964285110186025e-31
-2.623550960665469e+00 -2.623550960665469e+00 -2.623550960665469e+00 -9.616621539219694e-32 -7.435139088887076e-32 -7.636314418348545e-32
-2.623550960622680e+00 -2.623550960622680e+00 -2.623550960622681e+00 -7.272158450732922e-32 -5.024781326457842e-32 -1.472691654397202e-31
-2.623550960556525e+00 -2.623550960556526e+00 -2.623550960556526e+00 1.487164991172120e-33 3.121048412420583e-32 2.622822796311907e-32
-2.667289446212115e+00 -2.667289446212115e+00 -2.667289446212115e+00 -4.142097876765291e-32 -1.427733114666296e-31 9.865131337982405e-32
-2.667289445876607e+00 -2.667289445876607e+00 -2.667289445876607e+00 2.194052075672689e-31 1.432972697500786e-31 -1.062713617731280e-32
-2.667289446036286e+00 -2.667289446036285e+00 -2.667289446036285e+00 1.872961873226289e-32 1.438079536918814e-32 9.622607216289932e-33
-2.667289446422005e+00 -2.667289446422004e+00 -2.667289446422005e+00 5.547038660928448e-32 3.113479593383654e-32 -7.007799327076807e-32
-2.623550960665469e+00 -2.623550960665469e+00 -2.623550960665469e+00 -9.616621539219694e-32 -7.435139088887076e-32 -7.636314418348545e-32
-2.623550961118956e+00 -2.623550961118956e+00 -2.623550961118956e+00 8.077071921811003e-32 3.989974908211304e-32 1.302574241985589e-31
-2.623550960753294e+00 -2.623550960753294e+00 -2.623550960753294e+00 1.759535436259993e-31 -2.536933014885707e-32 -3.059446414613706e-32
-2.623550960622680e+00 -2.623550960622680e+00 -2.623550960622681e+00 -7.272158450732922e-32 -5.024781326457842e-32 -1.472691654397202e-31
-2.667289445876607e+00 -2.667289445876607e+00 -2.667289445876607e+00 2.194052075672689e-31 1.432972697500786e-31 -1.062713617731280e-32
-2.667289445599248e+00 -2.667289445599248e+00 -2.667289445599247e+00 3.093630789059125e-32 4.953408591376771e-33 -2.076176383158937e-31
-2.667289445771675e+00 -2.667289445771675e+00 -2.667289445771675e+00 -1.690270717298035e-33 2.813900012754602e-32 -2.089008003851841e-32
-2.667289446036286e+00 -2.667289446036285e+00 -2.667289446036285e+00 1.872961873226289e-32 1.438079536918814e-32 9.622607216289932e-33
-2.623550961118956e+00 -2.623550961118956e+00 -2.623550961118956e+00 8.077071921811003e-32 3.989974908211304e-32 1.302574241985589e-31
-2.623550961471926e+00 -2.623550961471926e+00 -2.623550961471926e+00 -1.504036957415565e-32 2.432179410885996e-31 -2.650659029626811e-31
-2.623550961260482e+00 -2.623550961260481e+00 -2.623550961260481e+00 -7.641971479976416e-32 -1.194629627713256e-32 2.043892575194604e-31
-2.623550960753294e+00 -2.623550960753294e+00 -2.623550960753294e+00 1.759535436259993e-31 -2.536933014885707e-32 -3.059446414613706e-32
-2.667289445599248e+00 -2.667289445599248e+00 -2.667289445599247e+00 3.093630789059125e-32 4.953408591376771e-33 -2.076176383158937e-31
-2.667289446849416e+00 -2.667289446849415e+00 -2.667289446849416e+00 -1.277952108747378e-31 1.079833637205996e-31 5.294808830161373e-32
-2.667289445916563e+00 -2.667289445916563e+00 -2.667289445916562e+00 6.521143225314176e-32 5.831513678082371e-32 1.630301155487972e-32
-2.667289445771675e+00 -2.667289445771675e+00 -2.667289445771675e+00 -1.690270717298035e-33 2.813900012754602e-32 -2.089008003851841e-32
-2.623550960556525e+00 -2.623550960556526e+00 -2.623550960556526e+00 1.487164991172120e-33 3.121048412420583e-32 2.622822796311907e-32
-2.623550960622680e+00 -2.623550960622680e+00 -2.623550960622681e+00 -7.272158450732922e-32 -5.024781326457842e-32 -1.472691654397202e-31
-2.623550961060757e+00 -2.623550961060756e+00 -2.623550961060756e+00 -6.459908601386212e-33 -3.838741941281390e-32 6.725798860466772e-32
-2.623550961023745e+00 -2.623550961023745e+00 -2.623550961023745e+00 1.813716045676782e-32 -2.562968918889495e-32 6.518554821917952e-32
-2.667289446422005e+00 -2.667289446422004e+00 -2.667289446422005e+00 5.547038660928448e-32 3.113479593383654e-32 -7.007799327076807e-32
-2.667289446036286e+00 -2.667289446036285e+00 -2.667289446036285e+00 1.872961873226289e-32 1.438079536918814e-32 9.622607216289932e-33
-2.667289446115169e+00 -2.667289446115168e+00 -2.667289446115168e+00 -7.549661148883669e-32 -2.000358166964899e-32 7.901063673110790e-32
-2.667289446002227e+00 -2.667289446002226e+00 -2.667289446002226e+00 -6.366580305780484e-32 3.271107892767706e-32 -1.076769821683017e-31
-2.623550960622680e+00 -2.623550960622680e+00 -2.623550960622681e+00 -7.272158450732922e-32 -5.024781326457842e-32 -1.472691654397202e-31
-2.623550960753294e+00 -2.623550960753294e+00 -2.623550960753294e+00 1.759535436259993e-31 -2.536933014885707e-32 -3.059446414613706e-32
-2.623550961392468e+00 -2.623550961392468e+00 -2.623550961392468e+00 -1.203907677404407e-31 7.991448433970162e-33 -4.640413341408959e-33
-2.623550961060757e+00 -2.623550961060756e+00 -2.623550961060756e+00 -6.459908601386212e-33 -3.838741941281390e-32 6.725798860466772e-32
-2.667289446036286e+00 -2.667289446036285e+00 -2.667289446036285e+00 1.872961873226289e-32 1.438079536918814e-32 9.622607216289932e-33
-2.667289445771675e+00 -2.667289445771675e+00 -2.667289445771675e+00 -1.690270717298035e-33 2.813900012754602e-32 -2.089008003851841e-32
-2.667289445957771e+00 -2.667289445957771e+00 -2.667289445957771e+00 1.276732603664419e-31 5.953012184172994e-32 1.511646984432123e-31
-2.667289446115169e+00 -2.667289446115168e+00 -2.667289446115168e+00 -7.549661148883669e-32 -2.000358166964899e-32 7.901063673110790e-32
-2.623550960753294e+00 -2.623550960753294e+00 -2.623550960753294e+00 1.759535436259993e-31 -2.536933014885707e-32 -3.059446414613706e-32
-2.623550961260482e+00 -2.623550961260481e+00 -2.623550961260481e+00 -7.641971479976416e-32 -1.194629627713256e-32 2.043892575194604e-31
-2.623550961969312e+00 -2.623550961969311e+00 -2.623550961969312e+00 6.752120606441751e-32 -5.021802065091210e-32 -9.203595492239347e-32
-2.623550961392468e+00 -2.623550961392468e+00 -2.623550961392468e+00 -1.203907677404407e-31 7.991448433970162e-33 -4.640413341408959e-33
-2.667289445771675e+00 -2.667289445771675e+00 -2.667289445771675e+00 -1.690270717298035e-33 2.813900012754602e-32 -2.089008003851841e-32
-2.667289445916563e+00 -2.667289445916563e+00 -2.667289445916562e+00 6.521143225314176e-32 5.831513678082371e-32 1.630301155487972e-32
-2.667289445794274e+00 -2.667289445794273e+00 -2.667289445794273e+00 2.570212799288943e-31 2.428033478380715e-32 6.059638960858649e-32
-2.667289445957771e+00 -2.667289445957771e+00 -2.667289445957771e+00 1.276732603664419e-31 5.953012184172994e-32 1.511646984432123e-31
-2.623550961023745e+00 -2.623550961023745e+00 -2.623550961023745e+00 1.813716045676782e-32 -2.562968918889495e-32 6.518554821917952e-32
-2.623550961060757e+00 -2.623550961060756e+00 -2.623550961060756e+00 -6.459908601386212e-33 -3.838741941281390e-32 6.725798860466772e-32
-2.623550961461597e+00 -2.623550961461598e+00 -2.623550961461597e+00 2.525784835684950e-33 7.841120370588962e-33 -1.411372607250074e-31
-2.623550961020384e+00 -2.623550961020385e+00 -2.623550961020384e+00 -8.066412623460410e-32 3.055614656957509e-32 8.556936082374111e-32
-2.667289446002227e+00 -2.667289446002226e+00 -2.667289446002226e+00 -6.366580305780484e-32 3.271107892767706e-32 -1.076769821683017e-31
-2.667289446115169e+00 -2.667289446115168e+00 -2.667289446115168e+00 -7.549661148883669e-32 -2.000358166964899e-32 7.901063673110790e-32
-2.667289446144287e+00 -2.667289446144286e+00 -2.667289446144286e+00 3.078295488839839e-32 -4.638081839589379e-32 1.042186843550946e-31
-2.667289446026683e+00 -2.667289446026684e+00 -2.667289446026684e+00 1.531354204576839e-32 -9.832993271359383e-33 -1.970225201570180e-32
-2.623550961060757e+00 -2.623550961060756e+00 -2.623550961060756e+00 -6.459908601386212e-33 -3.838741941281390e-32 6.725798860466772e-32
-2.623550961392468e+00 -2.623550961392468e+00 -2.623550961392468e+00 -1.203907677404407e-31 7.991448433970162e-33 -4.640413341408959e-33
-2.623550961835323e+00 -2.623550961835322e+00 -2.623550961835322e+00 3.725970714931463e-31 1.290985061068502e-31 1.778853077056809e-32
-2.623550961461597e+00 -2.623550961461598e+00 -2.623550961461597e+00 2.525784835684950e-33 7.841120370588962e-33 -1.411372607250074e-31
-2.667289446115169e+00 -2.667289446115168e+00 -2.667289446115168e+00 -7.549661148883669e-32 -2.000358166964899e-32 7.901063673110790e-32
-2.667289445957771e+00 -2.667289445957771e+00 -2.667289445957771e+00 1.276732603664419e-31 5.953012184172994e-32 1.511646984432123e-31
-2.667289445882790e+00 -2.667289445882790e+00 -2.667289445882790e+00 -1.090647804699567e-31 -4.585419283231358e-32 -9.543806164885343e-32
-2.667289446144287e+00 -2.667289446144286e+00 -2.667289446144286e+00 3.078295488839839e-32 -4.638081839589379e-32 1.042186843550946e-31
-2.623550961392468e+00 -2.623550961392468e+00 -2.623550961392468e+00 -1.203907677404407e-31 7.991448433970162e-33 -4.640413341408959e-33
-2.623550961969312e+00 -2.623550961969311e+00 -2.623550961969312e+00 6.752120606441751e-32 -5.021802065091210e-32 -9.203595492239347e-32
-2.623550961696850e+00 -2.623550961696850e+00 -2.623550961696850e+00 1.522405219503719e-31 7.497913469248014e-32 -7.714420332790703e-32
-2.623550961835323e+00 -2.623550961835322e+00 -2.623550961835322e+00 3.725970714931463e-31 1.290985061068502e-31 1.778853077056809e-32
-2.667289445957771e+00 -2.667289445957771e+00 -2.667289445957771e+00 1.276732603664419e-31 5.953012184172994e-32 1.511646984432123e-31
-2.667289445794274e+00 -2.667289445794273e+00 -2.667289445794273e+00 2.570212799288943e-31 2.428033478380715e-32 6.059638960858649e-32
-2.667289446275407e+00 -2.667289446275406e+00 -2.667289446275406e+00 -1.283671567623272e-31 6.455800974565356e-32 -1.391017564641825e-31
-2.667289445882790e+00 -2.667289445882790e+00 -2.667289445882790e+00 -1.090647804699567e-31 -4.585419283231358e-32 -9.543806164885343e-32
-2.667289446536128e+00 -2.667289446536127e+00 -2.667289446536127e+00 -6.120767757639697e-31 1.568867363004034e-32 -2.209375623230625e-31
-2.667289446430155e+00 -2.667289446430155e+00 -2.667289446430155e+00 3.721418639199690e-31 1.225300309356923e-31 3.040721488492648e-31
-2.667289445921365e+00 -2.667289445921365e+00 -2.667289445921365e+00 3.414040547794964e-32 1.753591744680991e-32 -1.748697513854234e-31
-2.667289446582734e+00 -2.667289446582733e+00 -2.667289446582733e+00 1.577498354924683e-31 -7.664473997735148e-32 -2.144409514800989e-31
-1.788048458584209e+00 -1.788048458584210e+00 -1.788048458584210e+00 9.388278869217533e-32 9.290365490484354e-34 2.540015388261195e-32
-1.788048458735964e+00 -1.788048458735964e+00 -1.788048458735964e+00 -1.990747986804253e-31 -1.414265500240759e-31 -2.475445386083573e-32
-1.788048460270168e+00 -1.788048460270168e+00 -1.788048460270168e+00 6.730514639108584e-32 -6.242463116269942e-32 1.195211099091465e-31
-1.788048460241748e+00 -1.788048460241748e+00 -1.788048460241748e+00 4.926631255914625e-32 1.212160766511397e-31 5.269890137874572e-32
-2.667289446430155e+00 -2.667289446430155e+00 -2.667289446430155e+00 3.721418639199690e-31 1.225300309356923e-31 3.040721488492648e-31
-2.667289446008294e+00 -2.667289446008294e+00 -2.667289446008293e+00 6.845184112888328e-32 2.299942548198023e-33 -2.245399603689989e-31
-2.667289445886022e+00 -2.667289445886021e+00 -2.667289445886021e+00 -3.005070633146569e-31 -1.138707216932341e-31 1.137573955635354e-31
-2.667289445921365e+00 -2.667289445921365e+00 -2.667289445921365e+00 3.414040547794964e-32 1.753591744680991e-32 -1.748697513854234e-31
-1.788048458735964e+00 -1.788048458735964e+00 -1.788048458735964e+00 -1.990747986804253e-31 -1.414265500240759e-31 -2.475445386083573e-32
-1.788048459758350e+00 -1.788048459758350e+00 -1.788048459758349e+00 -4.651542418727842e-32 -1.090107818899437e-32 1.993217208693329e-32
-1.788048459137875e+00 -1.788048459137874e+00 -1.788048459137875e+00 1.050960118100446e-31 1.128903899191965e-31 -1.289988337057149e-31
-1.788048460270168e+00 -1.788048460270168e+00 -1.788048460270168e+00 6.730514639108584e-32 -6.242463116269942e-32 1.195211099091465e-31
-2.667289446008294e+00 -2.667289446008294e+00 -2.667289446008293e+00 6.845184112888328e-32 2.299942548198023e-33 -2.245399603689989e-31
-2.667289445601877e+00 -2.667289445601877e+00 -2.667289445601877e+00 -1.530471530313111e-33 4.616756643907531e-32 2.822328623674421e-31
-2.667289446223390e+00 -2.667289446223390e+00 -2.667289446223389e+00 3.273591361405077e-31 -7.535836331786397e-32 -7.196615452880119e-33
-2.667289445886022e+00 -2.667289445886021e+00 -2.667289445886021e+00 -3.005070633146569e-31 -1.138707216932341e-31 1.137573955635354e-31
-1.788048459758350e+00 -1.788048459758350e+00 -1.788048459758349e+00 -4.651542418727842e-32 -1.090107818899437e-32 1.993217208693329e-32
-1.788048459705635e+00 -1.788048459705634e+00 -1.788048459705634e+00 1.435955253255157e-31 7.405598396813654e-32 -8.858425832710190e-32
-1.788048458695558e+00 -1.788048458695558e+00 -1.788048458695558e+00 -1.767555312592190e-33 8.411531334634424e-33 -4.381570834515561e-32
-1.788048459137875e+00 -1.788048459137874e+00 -1.788048459137875e+00 1.050960118100446e-31 1.128903899191965e-31 -1.289988337057149e-31
-2.667289446582734e+00 -2.667289446582733e+00 -2.667289446582733e+00 1.577498354924683e-31 -7.664473997735148e-32 -2.144409514800989e-31
-2.667289445921365e+00 -2.667289445921365e+00 -2.667289445921365e+00 3.414040547794964e-32 1.753591744680991e-32 -1.748697513854234e-31
-2.667289445876607e+00 -2.667289445876607e+00 -2.667289445876607e+00 2.194052075672689e-31 1.432972697500786e-31 -1.062713617731280e-32
-2.667289446212115e+00 -2.667289446212115e+00 -2.667289446212115e+00 -4.142097876765291e-32 -1.427733114666296e-31 9.865131337982405e-32
-1.788048460241748e+00 -1.788048460241748e+00 -1.788048460241748e+00 4.926631255914625e-32 1.212160766511397e-31 5.269890137874572e-32
-1.788048460270168e+00 -1.788048460270168e+00 -1.788048460270168e+00 6.730514639108584e-32 -6.242463116269942e-32 1.195211099091465e-31
-1.788048461284715e+00 -1.788048461284715e+00 -1.788048461284715e+00 -5.656221352095706e-32 -1.414107991671961e-32 -3.282179196763388e-33
-1.788048461881744e+00 -1.788048461881744e+00 -1.788048461881744e+00 2.883547508382719e-32 -9.339941174895211e-33 -3.939326772570739e-32
-2.667289445921365e+00 -2.667289445921365e+00 -2.667289445921365e+00 3.414040547794964e-32 1.753591744680991e-32 -1.748697513854234e-31
-2.667289445886022e+00 -2.667289445886021e+00 -2.667289445886021e+00 -3.005070633146569e-31 -1.138707216932341e-31 1.137573955635354e-31
-2.667289445599248e+00 -2.667289445599248e+00 -2.667289445599247e+00 3.093630789059125e-32 4.953408591376771e-33 -2.076176383158937e-31
-2.667289445876607e+00 -2.667289445876607e+00 -2.667289445876607e+00 2.194052075672689e-31 1.432972697500786e-31 -1.062713617731280e-32
-1.788048460270168e+00 -1.788048460270168e+00 -1.788048460270168e+00 6.730514639108584e-32 -6.242463116269942e-32 1.195211099091465e-31
-1.788048459137875e+00 -1.788048459137874e+00 -1.788048459137875e+00 1.050960118100446e-31 1.128903899191965e-31 -1.289988337057149e-31
-1.788048459329499e+00 -1.788048459329498e+00 -1.788048459329498e+00 2.640784348821552e-32 -1.302879364663285e-31 5.463969878652618e-32
-1.788048461284715e+00 -1.788048461284715e+00 -1.788048461284715e+00 -5.656221352095706e-32 -1.414107991671961e-32 -3.282179196763388e-33
-2.667289445886022e+00 -2.667289445886021e+00 -2.667289445886021e+00 -3.005070633146569e-31 -1.138707216932341e-31 1.137573955635354e-31
-2.667289446223390e+00 -2.667289446223390e+00 -2.667289446223389e+00 3.273591361405077e-31 -7.535836331786397e-32 -7.196615452880119e-33
-2.667289446849416e+00 -2.667289446849415e+00 -2.667289446849416e+00 -1.277952108747378e-31 1.079833637205996e-31 5.294808830161373e-32
-2.667289445599248e+00 -2.667289445599248e+00 -2.667289445599247e+00 3.093630789059125e-32 4.953408591376771e-33 -2.076176383158937e-31
-1.788048459137875e+00 -1.788048459137874e+00 -1.788048459137875e+00 1.050960118100446e-31 1.128903899191965e-31 -1.289988337057149e-31
-1.788048458695558e+00 -1.788048458695558e+00 -1.788048458695558e+00 -1.767555312592190e-33 8.411531334634424e-33 -4.381570834515561e-32
-1.788048457899216e+00 -1.788048457899216e+00 -1.788048457899216e+00 -1.979044683109344e-33 -2.505219559287892e-32 -4.306247373244543e-33
-1.788048459329499e+00 -1.788048459329498e+00 -1.788048459329498e+00 2.640784348821552e-32 -1.302879364663285e-31 5.463969878652618e-32
-2.667289446212115e+00 -2.667289446212115e+00 -2.667289446212115e+00 -4.142097876765291e-32 -1.427733114666296e-31 9.865131337982405e-32
-2.667289445876607e+00 -2.667289445876607e+00 -2.667289445876607e+00 2.194052075672689e-31 1.432972697500786e-31 -1.062713617731280e-32
-2.667289446036286e+00 -2.667289446036285e+00 -2.667289446036285e+00 1.872961873226289e-32 1.438079536918814e-32 9.622607216289932e-33
-2.667289446422005e+00 -2.667289446422004e+00 -2.667289446422005e+00 5.547038660928448e-32 3.113479593383654e-32 -7.007799327076807e-32
-1.788048461881744e+00 -1.788048461881744e+00 -1.788048461881744e+00 2.883547508382719e-32 -9.339941174895211e-33 -3.939326772570739e-32
-1.788048461284715e+00 -1.788048461284715e+00 -1.788048461284715e+00 -5.656221352095706e-32 -1.414107991671961e-32 -3.282179196763388e-33
-1.788048460292823e+00 -1.788048460292823e+00 -1.788048460292823e+00 -1.512314881149854e-32 -2.068353398053312e-31 1.063349364160112e-31
-1.788048460594074e+00 -1.788048460594074e+00 -1.788048460594074e+00 3.358499372763127e-34 -6.517103777380620e-33 -1.066237582841046e-31
-2.667289445876607e+00 -2.667289445876607e+00 -2.667289445876607e+00 2.194052075672689e-31 1.432972697500786e-31 -1.062713617731280e-32
-2.667289445599248e+00 -2.667289445599248e+00 -2.667289445599247e+00 3.093630789059125e-32 4.953408591376771e-33 -2.076176383158937e-31
-2.667289445771675e+00 -2.667289445771675e+00 -2.667289445771675e+00 -1.690270717298035e-33 2.813900012754602e-32 -2.089008003851841e-32
-2.667289446036286e+00 -2.667289446036285e+00 -2.667289446036285e+00 1.872961873226289e-32 1.438079536918814e-32 9.622607216289932e-33
-1.788048461284715e+00 -1.788048461284715e+00 -1.788048461284715e+00 -5.656221352095706e-32 -1.414107991671961e-32 -3.282179196763388e-33
-1.788048459329499e+00 -1.788048459329498e+00 -1.788048459329498e+00 2.640784348821552e-32 -1.302879364663285e-31 5.463969878652618e-32
-1.788048460073009e+00 -1.788048460073010e+00 -1.788048460073010e+00 -8.205863406702739e-32 -3.158690602606613e-32 -7.333291122114328e-32
-1.788048460292823e+00 -1.788048460292823e+00 -1.788048460292823e+00 -1.512314881149854e-32 -2.068353398053312e-31 1.063349364160112e-31
-2.667289445599248e+00 -2.667289445599248e+00 -2.667289445599247e+00 3.093630789059125e-32 4.953408591376771e-33 -2.076176383158937e-31
-2.667289446849416e+00 -2.667289446849415e+00 -2.667289446849416e+00 -1.277952108747378e-31 1.079833637205996e-31 5.294808830161373e-32
-2.667289445916563e+00 -2.667289445916563e+00 -2.667289445916562e+00 6.521143225314176e-32 5.831513678082371e-32 1.630301155487972e-32
-2.667289445771675e+00 -2.667289445771675e+00 -2.667289445771675e+00 -1.690270717298035e-33 2.813900012754602e-32 -2.089008003851841e-32
-1.788048459329499e+00 -1.788048459329498e+00 -1.788048459329498e+00 2.640784348821552e-32 -1.302879364663285e-31 5.463969878652618e-32
-1.788048457899216e+00 -1.788048457899216e+00 -1.788048457899216e+00 -1.979044683109344e-33 -2.505219559287892e-32 -4.306247373244543e-33
-1.788048459789657e+00 -1.788048459789657e+00 -1.788048459789657e+00 1.055045616016136e-31 -2.868589547057195e-32 2.702328896189869e-32
-1.788048460073009e+00 -1.788048460073010e+00 -1.788048460073010e+00 -8.205863406702739e-32 -3.158690602606613e-32 -7.333291122114328e-32
-2.667289446422005e+00 -2.667289446422004e+00 -2.667289446422005e+00 5.547038660928448e-32 3.113479593383654e-32 -7.007799327076807e-32
-2.667289446036286e+00 -2.667289446036285e+00 -2.667289446036285e+00 1.872961873226289e-32 1.438079536918814e-32 9.622607216289932e-33
-2.667289446115169e+00 -2.667289446115168e+00 -2.667289446115168e+00 -7.549661148883669e-32 -2.000358166964899e-32 7.901063673110790e-32
-2.667289446002227e+00 -2.667289446002226e+00 -2.667289446002226e+00 -6.366580305780484e-32 3.271107892767706e-32 -1.076769821683017e-31
-1.788048460594074e+00 -1.788048460594074e+00 -1.788048460594074e+00 3.358499372763127e-34 -6.517103777380620e-33 -1.066237582841046e-31
-1.788048460292823e+00 -1.788048460292823e+00 -1.788048460292823e+00 -1.512314881149854e-32 -2.068353398053312e-31 1.063349364160112e-31
-1.788048459756306e+00 -1.788048459756305e+00 -1.788048459756305e+00 -2.585911333976303e-32 -2.105749100181673e-32 2.248073743888697e-31
-1.788048459884634e+00 -1.788048459884633e+00 -1.788048459884634e+00 2.092606843434716e-31 1.227005107007344e-32 -9.714909769230254e-33
-2.667289446036286e+00 -2.667289446036285e+00 -2.667289446036285e+00 1.872961873226289e-32 1.438079536918814e-32 9.622607216289932e-33
-2.667289445771675e+00 -2.667289445771675e+00 -2.667289445771675e+00 -1.690270717298035e-33 2.813900012754602e-32 -2.089008003851841e-32
-2.667289445957771e+00 -2.667289445957771e+00 -2.667289445957771e+00 1.276732603664419e-31 5.953012184172994e-32 1.511646984432123e-31
-2.667289446115169e+00 -2.667289446115168e+00 -2.667289446115168e+00 -7.549661148883669e-32 -2.000358166964899e-32 7.901063673110790e-32
-1.788048460292823e+00 -1.788048460292823e+00 -1.788048460292823e+00 -1.512314881149854e-32 -2.068353398053312e-31 1.063349364160112e-31
-1.788048460073009e+00 -1.788048460073010e+00 -1.788048460073010e+00 -8.205863406702739e-32 -3.158690602606613e-32 -7.333291122114328e-32
-1.788048460454187e+00 -1.788048460454187e+00 -1.788048460454187e+00 8.891466394224139e-32 5.863928156376802e-32 -9.683150705686667e-32
-1.788048459756306e+00 -1.788048459756305e+00 -1.788048459756305e+00 -2.585911333976303e-32 -2.105749100181673e-32 2.248073743888697e-31
-2.667289445771675e+00 -2.667289445771675e+00 -2.667289445771675e+00 -1.690270717298035e-33 2.813900012754602e-32 -2.089008003851841e-32
-2.667289445916563e+00 -2.667289445916563e+00 -2.667289445916562e+00 6.521143225314176e-32 5.831513678082371e-32 1.630301155487972e-32
-2.667289445794274e+00 -2.667289445794273e+00 -2.667289445794273e+00 2.570212799288943e-31 2.428033478380715e-32 6.059638960858649e-32
-2.667289445957771e+00 -2.667289445957771e+00 -2.667289445957771e+00 1.276732603664419e-31 5.953012184172994e-32 1.511646984432123e-31
-1.788048460073009e+00 -1.788048460073010e+00 -1.788048460073010e+00 -8.205863406702739e-32 -3.158690602606613e-32 -7.333291122114328e-32
-1.788048459789657e+00 -1.788048459789657e+00 -1.788048459789657e+00 1.055045616016136e-31 -2.868589547057195e-32 2.702328896189869e-32
-1.788048461110964e+00 -1.788048461110964e+00 -1.788048461110964e+00 -1.776977738862716e-31 7.634345286891544e-32 4.049299648886674e-32
-1.788048460454187e+00 -1.788048460454187e+00 -1.788048460454187e+00 8.891466394224139e-32 5.863928156376802e-32 -9.683150705686667e-32
-2.667289446002227e+00 -2.667289446002226e+00 -2.667289446002226e+00 -6.366580305780484e-32 3.271107892767706e-32 -1.076769821683017e-31
-2.667289446115169e+00 -2.667289446115168e+00 -2.667289446115168e+00 -7.549661148883669e-32 -2.000358166964899e-32 7.901063673110790e-32
-2.667289446144287e+00 -2.667289446144286e+00 -2.667289446144286e+00 3.078295488839839e-32 -4.638081839589379e-32 1.042186843550946e-31
-2.667289446026683e+00 -2.667289446026684e+00 -2.667289446026684e+00 1.531354204576839e-32 -9.832993271359383e-33 -1.970225201570180e-32
-1.788048459884634e+00 -1.788048459884633e+00 -1.788048459884634e+00 2.092606843434716e-31 1.227005107007344e-32 -9.714909769230254e-33
-1.788048459756306e+00 -1.788048459756305e+00 -1.788048459756305e+00 -2.585911333976303e-32 -2.105749100181673e-32 2.248073743888697e-31
-1.788048459907331e+00 -1.788048459907332e+00 -1.788048459907331e+00 4.199934078445820e-32 8.171854926814918e-33 -7.277246586100114e-32
-1.788048459961932e+00 -1.788048459961931e+00 -1.788048459961931e+00 -1.079575214921435e-31 -5.710940111947935e-33 9.943723254196828e-32
-2.667289446115169e+00 -2.667289446115168e+00 -2.667289446115168e+00 -7.549661148883669e-32 -2.000358166964899e-32 7.901063673110790e-32
-2.667289445957771e+00 -2.667289445957771e+00 -2.667289445957771e+00 1.276732603664419e-31 5.953012184172994e-32 1.511646984432123e-31
-2.667289445882790e+00 -2.667289445882790e+00 -2.667289445882790e+00 -1.090647804699567e-31 -4.585419283231358e-32 -9.543806164885343e-32
-2.667289446144287e+00 -2.667289446144286e+00 -2.667289446144286e+00 3.078295488839839e-32 -4.638081839589379e-32 1.042186843550946e-31
-1.788048459756306e+00 -1.788048459756305e+00 -1.788048459756305e+00 -2.585911333976303e-32 -2.105749100181673e-32 2.248073743888697e-31
-1.788048460454187e+00 -1.788048460454187e+00 -1.788048460454187e+00 8.891466394224139e-32 5.863928156376802e-32 -9.683150705686667e-32
-1.788048460969216e+00 -1.788048460969215e+00 -1.788048460969215e+00 -2.008450274456003e-32 -4.132883245228450e-32 -2.408782105792179e-32
-1.788048459907331e+00 -1.788048459907332e+00 -1.788048459907331e+00 4.199934078445820e-32 8.171854926814918e-33 -7.277246586100114e-32
-2.667289445957771e+00 -2.667289445957771e+00 -2.667289445957771e+00 1.276732603664419e-31 5.953012184172994e-32 1.511646984432123e-31
-2.667289445794274e+00 -2.667289445794273e+00 -2.667289445794273e+00 2.570212799288943e-31 2.428033478380715e-32 6.059638960858649e-32
-2.667289446275407e+00 -2.667289446275406e+00 -2.667289446275406e+00 -1.283671567623272e-31 6.455800974565356e-32 -1.391017564641825e-31
-2.667289445882790e+00 -2.667289445882790e+00 -2.667289445882790e+00 -1.090647804699567e-31 -4.585419283231358e-32 -9.543806164885343e-32
-1.788048460454187e+00 -1.788048460454187e+00 -1.788048460454187e+00 8.891466394224139e-32 5.863928156376802e-32 -9.683150705686667e-32
-1.788048461110964e+00 -1.788048461110964e+00 -1.788048461110964e+00 -1.776977738862716e-31 7.634345286891544e-32 4.049299648886674e-32
-1.788048461682834e+00 -1.788048461682834e+00 -1.788048461682834e+00 2.399996982503091e-31 -1.376896283186965e-32 3.624625730650408e-32
-1.788048460969216e+00 -1.788048460969215e+00 -1.788048460969215e+00 -2.008450274456003e-32 -4.132883245228450e-32 -2.408782105792179e-32
-1.788048458584209e+00 -1.788048458584210e+00 -1.788048458584210e+00 9.388278869217533e-32 9.290365490484354e-34 2.540015388261195e-32
-1.788048458735964e+00 -1.788048458735964e+00 -1.788048458735964e+00 -1.990747986804253e-31 -1.414265500240759e-31 -2.475445386083573e-32
-1.788048460270168e+00 -1.788048460270168e+00 -1.788048460270168e+00 6.730514639108584e-32 -6.242463116269942e-32 1.195211099091465e-31
-1.788048460241748e+00 -1.788048460241748e+00 -1.788048460241748e+00 4.926631255914625e-32 1.212160766511397e-31 5.269890137874572e-32
-6.830740254767481e-02 -6.830740254767476e-02 -6.830740254767481e-02 7.874409084826152e-33 1.297337342588471e-32 -2.969374710343823e-32
-6.830740238977653e-02 -6.830740238977659e-02 -6.830740238977659e-02 3.344464861647397e-32 -6.250954223701437e-32 -1.379971169978460e-32
-6.830740361595762e-02 -6.830740361595772e-02 -6.830740361595758e-02 -6.789377776761844e-34 2.697757620126419e-32 3.721499183961762e-32
-6.830740356633475e-02 -6.830740356633472e-02 -6.830740356633480e-02 -6.961673120249155e-32 -1.403741158455077e-32 3.572326131244877e-32
-1.788048458735964e+00 -1.788048458735964e+00 -1.788048458735964e+00 -1.990747986804253e-31 -1.414265500240759e-31 -2.475445386083573e-32
-1.788048459758350e+00 -1.788048459758350e+00 -1.788048459758349e+00 -4.651542418727842e-32 -1.090107818899437e-32 1.993217208693329e-32
-1.788048459137875e+00 -1.788048459137874e+00 -1.788048459137875e+00 1.050960118100446e-31 1.128903899191965e-31 -1.289988337057149e-31
-1.788048460270168e+00 -1.788048460270168e+00 -1.788048460270168e+00 6.730514639108584e-32 -6.242463116269942e-32 1.195211099091465e-31
-6.830740238977653e-02 -6.830740238977659e-02 -6.830740238977659e-02 3.344464861647397e-32 -6.250954223701437e-32 -1.379971169978460e-32
-6.830740260829643e-02 -6.830740260829632e-02 -6.830740260829653e-02 -3.292407497973546e-32 8.173979750026322e-33 -4.285109342755461e-32
-6.830740257648137e-02 -6.830740257648141e-02 -6.830740257648155e-02 -7.297746271220056e-33 5.863442613267083e-34 3.232756583195987e-32
-6.830740361595762e-02 -6.830740361595772e-02 -6.830740361595758e-02 -6.789377776761844e-34 2.697757620126419e-32 3.721499183961762e-32
-1.788048459758350e+00 -1.788048459758350e+00 -1.788048459758349e+00 -4.651542418727842e-32 -1.090107818899437e-32 1.993217208693329e-32
-1.788048459705635e+00 -1.788048459705634e+00 -1.788048459705634e+00 1.435955253255157e-31 7.405598396813654e-32 -8.858425832710190e-32
-1.788048458695558e+00 -1.788048458695558e+00 -1.788048458695558e+00 -1.767555312592190e-33 8.411531334634424e-33 -4.381570834515561e-32
-1.788048459137875e+00 -1.788048459137874e+00 -1.788048459137875e+00 1.050960118100446e-31 1.128903899191965e-31 -1.289988337057149e-31
-6.830740260829643e-02 -6.830740260829632e-02 -6.830740260829653e-02 -3.292407497973546e-32 8.173979750026322e-33 -4.285109342755461e-32
-6.830740286423621e-02 -6.830740286423638e-02 -6.830740286423644e-02 5.685830624676199e-32 -5.205364444112909e-32 1.974207487707003e-32
-6.830740293171048e-02 -6.830740293171042e-02 -6.830740293171043e-02 -9.836363297246372e-32 3.105223155652078e-32 1.658838114977819e-32
-6.830740257648137e-02 -6.830740257648141e-02 -6.830740257648155e-02 -7.297746271220056e-33 5.863442613267083e-34 3.232756583195987e-32
-1.788048460241748e+00 -1.788048460241748e+00 -1.788048460241748e+00 4.926631255914625e-32 1.212160766511397e-31 5.269890137874572e-32
-1.788048460270168e+00 -1.788048460270168e+00 -1.788048460270168e+00 6.730514639108584e-32 -6.242463116269942e-32 1.195211099091465e-31
-1.788048461284715e+00 -1.788048461284715e+00 -1.788048461284715e+00 -5.656221352095706e-32 -1.414107991671961e-32 -3.282179196763388e-33
-1.788048461881744e+00 -1.788048461881744e+00 -1.788048461881744e+00 2.883547508382719e-32 -9.339941174895211e-33 -3.939326772570739e-32
-6.830740356633475e-02 -6.830740356633472e-02 -6.830740356633480e-02 -6.961673120249155e-32 -1.403741158455077e-32 3.572326131244877e-32
-6.830740361595762e-02 -6.830740361595772e-02 -6.830740361595758e-02 -6.789377776761844e-34 2.697757620126419e-32 3.721499183961762e-32
-6.830740391595091e-02 -6.830740391595108e-02 -6.830740391595094e-02 -6.808181120931220e-34 -1.013684545289784e-32 3.881756281489011e-32
-6.830740409540120e-02 -6.830740409540120e-02 -6.830740409540140e-02 -4.628057880656136e-32 5.677476423815586e-33 7.010501518601099e-33
-1.788048460270168e+00 -1.788048460270168e+00 -1.788048460270168e+00 6.730514639108584e-32 -6.242463116269942e-32 1.195211099091465e-31
-1.788048459137875e+00 -1.788048459137874e+00 -1.788048459137875e+00 1.050960118100446e-31 1.128903899191965e-31 -1.289988337057149e-31
-1.788048459329499e+00 -1.788048459329498e+00 -1.788048459329498e+00 2.640784348821552e-32 -1.302879364663285e-31 5.463969878652618e-32
-1.788048461284715e+00 -1.788048461284715e+00 -1.788048461284715e+00 -5.656221352095706e-32 -1.414107991671961e-32 -3.282179196763388e-33
-6.830740361595762e-02 -6.830740361595772e-02 -6.830740361595758e-02 -6.789377776761844e-34 2.697757620126419e-32 3.721499183961762e-32
-6.830740257648137e-02 -6.830740257648141e-02 -6.830740257648155e-02 -7.297746271220056e-33 5.863442613267083e-34 3.232756583195987e-32
-6.830740313976021e-02 -6.830740313976029e-02 -6.830740313976023e-02 -1.050649406714496e-33 2.669166321592152e-32 -4.471527313416127e-32
-6.830740391595091e-02 -6.830740391595108e-02 -6.830740391595094e-02 -6.808181120931220e-34 -1.013684545289784e-32 3.881756281489011e-32
-1.788048459137875e+00 -1.788048459137874e+00 -1.788048459137875e+00 1.050960118100446e-31 1.128903899191965e-31 -1.289988337057149e-31
-1.788048458695558e+00 -1.788048458695558e+00 -1.788048458695558e+00 -1.767555312592190e-33 8.411531334634424e-33 -4.381570834515561e-32
-1.788048457899216e+00 -1.788048457899216e+00 -1.788048457899216e+00 -1.979044683109344e-33 -2.505219559287892e-32 -4.306247373244543e-33
-1.788048459329499e+00 -1.788048459329498e+00 -1.788048459329498e+00 2.640784348821552e-32 -1.302879364663285e-31 5.463969878652618e-32
-6.830740257648137e-02 -6.830740257648141e-02 -6.830740257648155e-02 -7.297746271220056e-33 5.863442613267083e-34 3.232756583195987e-32
-6.830740293171048e-02 -6.830740293171042e-02 -6.830740293171043e-02 -9.836363297246372e-32 3.105223155652078e-32 1.658838114977819e-32
-6.830740178024514e-02 -6.830740178024511e-02 -6.830740178024516e-02 3.194927839321188e-32 -2.287876932981460e-32 -5.990642490029575e-32
-6.830740313976021e-02 -6.830740313976029e-02 -6.830740313976023e-02 -1.050649406714496e-33 2.669166321592152e-32 -4.471527313416127e-32
-1.788048461881744e+00 -1.788048461881744e+00 -1.788048461881744e+00 2.883547508382719e-32 -9.339941174895211e-33 -3.939326772570739e-32
-1.788048461284715e+00 -1.788048461284715e+00 -1.788048461284715e+00 -5.656221352095706e-32 -1.414107991671961e-32 -3.282179196763388e-33
-1.788048460292823e+00 -1.788048460292823e+00 -1.788048460292823e+00 -1.512314881149854e-32 -2.068353398053312e-31 1.063349364160112e-31
-1.788048460594074e+00 -1.788048460594074e+00 -1.788048460594074e+00 3.358499372763127e-34 -6.517103777380620e-33 -1.066237582841046e-31
-6.830740409540120e-02 -6.830740409540120e-02 -6.830740409540140e-02 -4.628057880656136e-32 5.677476423815586e-33 7.010501518601099e-33
-6.830740391595091e-02 -6.830740391595108e-02 -6.830740391595094e-02 -6.808181120931220e-34 -1.013684545289784e-32 3.881756281489011e-32
-6.830740321427461e-02 -6.830740321427443e-02 -6.830740321427452e-02 4.199638641293968e-33 2.501567270617057e-32 5.923305564355227e-32
-6.830740332335425e-02 -6.830740332335433e-02 -6.830740332335450e-02 2.293569783967947e-33 3.875138827254615e-32 -6.328761144044668e-32
-1.788048461284715e+00 -1.788048461284715e+00 -1.788048461284715e+00 -5.656221352095706e-32 -1.414107991671961e-32 -3.282179196763388e-33
-1.788048459329499e+00 -1.788048459329498e+00 -1.788048459329498e+00 2.640784348821552e-32 -1.302879364663285e-31 5.463969878652618e-32
-1.788048460073009e+00 -1.788048460073010e+00 -1.788048460073010e+00 -8.205863406702739e-32 -3.158690602606613e-32 -7.333291122114328e-32
-1.788048460292823e+00 -1.788048460292823e+00 -1.788048460292823e+00 -1.512314881149854e-32 -2.068353398053312e-31 1.063349364160112e-31
-6.830740391595091e-02 -6.830740391595108e-02 -6.830740391595094e-02 -6.808181120931220e-34 -1.013684545289784e-32 3.881756281489011e-32
-6.830740313976021e-02 -6.830740313976029e-02 -6.830740313976023e-02 -1.050649406714496e-33 2.669166321592152e-32 -4.471527313416127e-32
-6.830740326202150e-02 -6.830740326202156e-02 -6.830740326202167e-02 -4.179085283915850e-33 2.172048157101623e-32 -1.947023164328579e-32
-6.830740321427461e-02 -6.830740321427443e-02 -6.830740321427452e-02 4.199638641293968e-33 2.501567270617057e-32 5.923305564355227e-32
-1.788048459329499e+00 -1.788048459329498e+00 -1.788048459329498e+00 2.640784348821552e-32 -1.302879364663285e-31 5.463969878652618e-32
-1.788048457899216e+00 -1.788048457899216e+00 -1.788048457899216e+00 -1.979044683109344e-33 -2.505219559287892e-32 -4.306247373244543e-33
-1.788048459789657e+00 -1.788048459789657e+00 -1.788048459789657e+00 1.055045616016136e-31 -2.868589547057195e-32 2.702328896189869e-32
-1.788048460073009e+00 -1.788048460073010e+00 -1.788048460073010e+00 -8.205863406702739e-32 -3.158690602606613e-32 -7.333291122114328e-32
-6.830740313976021e-02 -6.830740313976029e-02 -6.830740313976023e-02 -1.050649406714496e-33 2.669166321592152e-32 -4.471527313416127e-32
-6.830740178024514e-02 -6.830740178024511e-02 -6.830740178024516e-02 3.194927839321188e-32 -2.287876932981460e-32 -5.990642490029575e-32
-6.830740322489388e-02 -6.830740322489384e-02 -6.830740322489405e-02 -6.470871022110040e-32 3.577478593503620e-33 -1.007528239283240e-32
-6.830740326202150e-02 -6.830740326202156e-02 -6.830740326202167e-02 -4.179085283915850e-33 2.172048157101623e-32 -1.947023164328579e-32
-1.788048460594074e+00 -1.788048460594074e+00 -1.788048460594074e+00 3.358499372763127e-34 -6.517103777380620e-33 -1.066237582841046e-31
-1.788048460292823e+00 -1.788048460292823e+00 -1.788048460292823e+00 -1.512314881149854e-32 -2.068353398053312e-31 1.063349364160112e-31
-1.788048459756306e+00 -1.788048459756305e+00 -1.788048459756305e+00 -2.585911333976303e-32 -2.105749100181673e-32 2.248073743888697e-31
-1.788048459884634e+00 -1.788048459884633e+00 -1.788048459884634e+00 2.092606843434716e-31 1.227005107007344e-32 -9.714909769230254e-33
-6.830740332335425e-02 -6.830740332335433e-02 -6.830740332335450e-02 2.293569783967947e-33 3.875138827254615e-32 -6.328761144044668e-32
-6.830740321427461e-02 -6.830740321427443e-02 -6.830740321427452e-02 4.199638641293968e-33 2.501567270617057e-32 5.923305564355227e-32
-6.830740269915039e-02 -6.830740269915031e-02 -6.830740269915046e-02 -6.664864218219470e-32 -2.967892339464997e-32 -1.090796027522422e-31
-6.830740338608240e-02 -6.830740338608224e-02 -6.830740338608218e-02 1.179918463150193e-31 -5.991533231046918e-33 7.130332183221994e-32
-1.788048460292823e+00 -1.788048460292823e+00 -1.788048460292823e+00 -1.512314881149854e-32 -2.068353398053312e-31 1.063349364160112e-31
-1.788048460073009e+00 -1.788048460073010e+00 -1.788048460073010e+00 -8.205863406702739e-32 -3.158690602606613e-32 -7.333291122114328e-32
-1.788048460454187e+00 -1.788048460454187e+00 -1.788048460454187e+00 8.891466394224139e-32 5.863928156376802e-32 -9.683150705686667e-32
-1.788048459756306e+00 -1.788048459756305e+00 -1.788048459756305e+00 -2.585911333976303e-32 -2.105749100181673e-32 2.248073743888697e-31
-6.830740321427461e-02 -6.830740321427443e-02 -6.830740321427452e-02 4.199638641293968e-33 2.501567270617057e-32 5.923305564355227e-32
-6.830740326202150e-02 -6.830740326202156e-02 -6.830740326202167e-02 -4.179085283915850e-33 2.172048157101623e-32 -1.947023164328579e-32
-6.830740361383683e-02 -6.830740361383689e-02 -6.830740361383689e-02 5.029243374836515e-32 -3.970999382104388e-32 2.328211977290743e-32
-6.830740269915039e-02 -6.830740269915031e-02 -6.830740269915046e-02 -6.664864218219470e-32 -2.967892339464997e-32 -1.090796027522422e-31
-1.788048460073009e+00 -1.788048460073010e+00 -1.788048460073010e+00 -8.205863406702739e-32 -3.158690602606613e-32 -7.333291122114328e-32
-1.788048459789657e+00 -1.788048459789657e+00 -1.788048459789657e+00 1.055045616016136e-31 -2.868589547057195e-32 2.702328896189869e-32
-1.788048461110964e+00 -1.788048461110964e+00 -1.788048461110964e+00 -1.776977738862716e-31 7.634345286891544e-32 4.049299648886674e-32
-1.788048460454187e+00 -1.788048460454187e+00 -1.788048460454187e+00 8.891466394224139e-32 5.863928156376802e-32 -9.683150705686667e-32
-6.830740326202150e-02 -6.830740326202156e-02 -6.830740326202167e-02 -4.179085283915850e-33 2.172048157101623e-32 -1.947023164328579e-32
-6.830740322489388e-02 -6.830740322489384e-02 -6.830740322489405e-02 -6.470871022110040e-32 3.577478593503620e-33 -1.007528239283240e-32
-6.830740414244686e-02 -6.830740414244699e-02 -6.830740414244679e-02 -4.678751731223006e-32 -8.859001093670652e-34 1.064805164045358e-32
-6.830740361383683e-02 -6.830740361383689e-02 -6.830740361383689e-02 5.029243374836515e-32 -3.970999382104388e-32 2.328211977290743e-32
-1.788048459884634e+00 -1.788048459884633e+00 -1.788048459884634e+00 2.092606843434716e-31 1.227005107007344e-32 -9.714909769230254e-33
-1.788048459756306e+00 -1.788048459756305e+00 -1.788048459756305e+00 -2.585911333976303e-32 -2.105749100181673e-32 2.248073743888697e-31
-1.788048459907331e+00 -1.788048459907332e+00 -1.788048459907331e+00 4.199934078445820e-32 8.171854926814918e-33 -7.277246586100114e-32
-1.788048459961932e+00 -1.788048459961931e+00 -1.788048459961931e+00 -1.079575214921435e-31 -5.710940111947935e-33 9.943723254196828e-32
-6.830740338608240e-02 -6.830740338608224e-02 -6.830740338608218e-02 1.179918463150193e-31 -5.991533231046918e-33 7.130332183221994e-32
-6.830740269915039e-02 -6.830740269915031e-02 -6.830740269915046e-02 -6.664864218219470e-32 -2.967892339464997e-32 -1.090796027522422e-31
-6.830740290054935e-02 -6.830740290054924e-02 -6.830740290054935e-02 4.857740626983824e-33 2.105175411858622e-32 2.089867033148546e-32
-6.830740313926964e-02 -6.830740313926964e-02 -6.830740313926986e-02 -4.325893425535698e-32 -2.337318457265734e-33 -7.580801824288962e-32
-1.788048459756306e+00 -1.788048459756305e+00 -1.788048459756305e+00 -2.585911333976303e-32 -2.105749100181673e-32 2.248073743888697e-31
-1.788048460454187e+00 -1.788048460454187e+00 -1.788048460454187e+00 8.891466394224139e-32 5.863928156376802e-32 -9.683150705686667e-32
-1.788048460969216e+00 -1.788048460969215e+00 -1.788048460969215e+00 -2.008450274456003e-32 -4.132883245228450e-32 -2.408782105792179e-32
-1.788048459907331e+00 -1.788048459907332e+00 -1.788048459907331e+00 4.199934078445820e-32 8.171854926814918e-33 -7.277246586100114e-32
-6.830740269915039e-02 -6.830740269915031e-02 -6.830740269915046e-02 -6.664864218219470e-32 -2.967892339464997e-32 -1.090796027522422e-31
-6.830740361383683e-02 -6.830740361383689e-02 -6.830740361383689e-02 5.029243374836515e-32 -3.970999382104388e-32 2.328211977290743e-32
-6.830740388749579e-02 -6.830740388749576e-02 -6.830740388749576e-02 -1.793462507992739e-32 2.222847378098725e-32 2.860830919370640e-32
-6.830740290054935e-02 -6.830740290054924e-02 -6.830740290054935e-02 4.857740626983824e-33 2.105175411858622e-32 2.089867033148546e-32
-1.788048460454187e+00 -1.788048460454187e+00 -1.788048460454187e+00 8.891466394224139e-32 5.863928156376802e-32 -9.683150705686667e-32
-1.788048461110964e+00 -1.788048461110964e+00 -1.788048461110964e+00 -1.776977738862716e-31 7.634345286891544e-32 4.049299648886674e-32
-1.788048461682834e+00 -1.788048461682834e+00 -1.788048461682834e+00 2.399996982503091e-31 -1.376896283186965e-32 3.624625730650408e-32
-1.788048460969216e+00 -1.788048460969215e+00 -1.788048460969215e+00 -2.008450274456003e-32 -4.132883245228450e-32 -2.408782105792179e-32
-6.830740361383683e-02 -6.830740361383689e-02 -6.830740361383689e-02 5.029243374836515e-32 -3.970999382104388e-32 2.328211977290743e-32
-6.830740414244686e-02 -6.830740414244699e-02 -6.830740414244679e-02 -4.678751731223006e-32 -8.859001093670652e-34 1.064805164045358e-32
-6.830740396306925e-02 -6.830740396306917e-02 -6.830740396306917e-02 1.177191942853248e-32 6.802760063464321e-34 -8.368078478142750e-34
-6.830740388749579e-02 -6.830740388749576e-02 -6.830740388749576e-02 -1.793462507992739e-32 2.222847378098725e-32 2.860830919370640e-32
        </DataArray>
        <DataArray type="Float64" Name="nodal_cauchy_stresses_xyz" NumberOfComponents="6" format="ascii">
-6.110935005461400e+02 -2.619566503214451e+02 -2.619566503214622e+02 -3.526726847789610e-11 -4.582693764080187e-10 5.398521460265596e-12
-6.110935005460374e+02 -2.619566503208939e+02 -2.619566503213646e+02 -6.926674864863623e-11 3.338029250822152e-10 1.253643622379498e-11
-6.110935005488391e+02 -2.619566503238325e+02 -2.619566503237305e+02 -5.201244310850664e-10 -7.916257207819194e-11 -2.895144593866694e-11
-6.110935005482822e+02 -2.619566503242970e+02 -2.619566503244439e+02 -4.486949503639400e-10 2.847970938405181e-10 4.155154161777067e-10
-6.107041703466277e+02 -2.617897188422401e+02 -2.617897188441433e+02 3.704562928195530e-10 -3.712397036182701e-10 1.675744839563839e-10
-6.107041703429232e+02 -2.617897188421205e+02 -2.617897188415903e+02 1.412243282008967e-10 1.392277390384413e-10 9.884362168606787e-11
-6.107041703443354e+02 -2.617897188419239e+02 -2.617897188417571e+02 -3.552743183102140e-10 9.781657617672524e-11 1.356831933927468e-10
-6.107041703434668e+02 -2.617897188406824e+02 -2.617897188408605e+02 3.010988130698640e-10 3.747770270933110e-10 -3.809506142491527e-10
-6.110935005460374e+02 -2.619566503208939e+02 -2.619566503213646e+02 -6.926674864863623e-11 3.338029250822152e-10 1.253643622379498e-11
-6.110935005470617e+02 -2.619566503224056e+02 -2.619566503222018e+02 8.480097159759025e-10 -9.955236770034581e-11 2.164627665790642e-11
-6.110935005486367e+02 -2.619566503231019e+02 -2.619566503232234e+02 -3.866411734707656e-10 -4.422174972706922e-11 -5.318085982760056e-11
-6.110935005488391e+02 -2.619566503238325e+02 -2.619566503237305e+02 -5.201244310850664e-10 -7.916257207819194e-11 -2.895144593866694e-11
-6.107041703429232e+02 -2.617897188421205e+02 -2.617897188415903e+02 1.412243282008967e-10 1.392277390384413e-10 9.884362168606787e-11
-6.107041703464799e+02 -2.617897188431434e+02 -2.617897188429877e+02 -3.735591160694619e-10 2.691568447968878e-11 3.844050622795882e-11
-6.107041703423399e+02 -2.617897188403192e+02 -2.617897188407265e+02 -5.962708794734750e-10 -1.949685266655187e-10 3.363464870723905e-10
-6.107041703443354e+02 -2.617897188419239e+02 -2.617897188417571e+02 -3.552743183102140e-10 9.781657617672524e-11 1.356831933927468e-10
-6.110935005470617e+02 -2.619566503224056e+02 -2.619566503222018e+02 8.480097159759025e-10 -9.955236770034581e-11 2.164627665790642e-11
-6.110935005485028e+02 -2.619566503223170e+02 -2.619566503231596e+02 5.715412952746359e-10 -1.160680278166252e-11 4.388203861011773e-12
-6.110935005492280e+02 -2.619566503234843e+02 -2.619566503234083e+02 -3.191674092089723e-10 -4.715124649678870e-11 -5.595507941390303e-11
-6.110935005486367e+02 -2.619566503231019e+02 -2.619566503232234e+02 -3.866411734707656e-10 -4.422174972706922e-11 -5.318085982760056e-11
-6.107041703464799e+02 -2.617897188431434e+02 -2.617897188429877e+02 -3.735591160694619e-10 2.691568447968878e-11 3.844050622795882e-11
-6.107041703445699e+02 -2.617897188412761e+02 -2.617897188413372e+02 2.516027808228442e-11 -6.074085340577709e-11 2.566355897833531e-10
-6.107041703445966e+02 -2.617897188417618e+02 -2.617897188417539e+02 -9.849874677268971e-11 6.246394719521126e-11 -1.372741770277427e-10
-6.107041703423399e+02 -2.617897188403192e+02 -2.617897188407265e+02 -5.962708794734750e-10 -1.949685266655187e-10 3.363464870723905e-10
-6.110935005482822e+02 -2.619566503242970e+02 -2.619566503244439e+02 -4.486949503639400e-10 2.847970938405181e-10 4.155154161777067e-10
-6.110935005488391e+02 -2.619566503238325e+02 -2.619566503237305e+02 -5.201244310850664e-10 -7.916257207819194e-11 -2.895144593866694e-11
-6.110935005481958e+02 -2.619566503233074e+02 -2.619566503231761e+02 -1.412149715444437e-10 1.332468023795054e-10 1.980186184084627e-10
-6.110935005463750e+02 -2.619566503223556e+02 -2.619566503208846e+02 2.217259734616070e-11 2.079394194558004e-10 -1.800332645383111e-10
-6.107041703434668e+02 -2.617897188406824e+02 -2.617897188408605e+02 3.010988130698640e-10 3.747770270933110e-10 -3.809506142491527e-10
-6.107041703443354e+02 -2.617897188419239e+02 -2.617897188417571e+02 -3.552743183102140e-10 9.781657617672524e-11 1.356831933927468e-10
-6.107041703441480e+02 -2.617897188419176e+02 -2.617897188422020e+02 -8.084372601709133e-11 -5.460782787755084e-11 9.336917835044771e-11
-6.107041703445331e+02 -2.617897188410900e+02 -2.617897188413909e+02 -2.796316009695939e-10 -2.387265360540894e-10 7.864842804492922e-10
-6.110935005488391e+02 -2.619566503238325e+02 -2.619566503237305e+02 -5.201244310850664e-10 -7.916257207819194e-11 -2.895144593866694e-11
-6.110935005486367e+02 -2.619566503231019e+02 -2.619566503232234e+02 -3.866411734707656e-10 -4.422174972706922e-11 -5.318085982760056e-11
-6.110935005491112e+02 -2.619566503233425e+02 -2.619566503227467e+02 9.219119255084662e-11 -1.121002456716488e-11 8.473144249913792e-12
-6.110935005481958e+02 -2.619566503233074e+02 -2.619566503231761e+02 -1.412149715444437e-10 1.332468023795054e-10 1.980186184084627e-10
-6.107041703443354e+02 -2.617897188419239e+02 -2.617897188417571e+02 -3.552743183102140e-10 9.781657617672524e-11 1.356831933927468e-10
-6.107041703423399e+02 -2.617897188403192e+02 -2.617897188407265e+02 -5.962708794734750e-10 -1.949685266655187e-10 3.363464870723905e-10
-6.107041703435697e+02 -2.617897188409125e+02 -2.617897188410499e+02 1.359348355699299e-10 -3.119530006203133e-11 -3.422867114644991e-11
-6.107041703441480e+02 -2.617897188419176e+02 -2.617897188422020e+02 -8.084372601709133e-11 -5.460782787755084e-11 9.336917835044771e-11
-6.110935005486367e+02 -2.619566503231019e+02 -2.619566503232234e+02 -3.866411734707656e-10 -4.422174972706922e-11 -5.318085982760056e-11
-6.110935005492280e+02 -2.619566503234843e+02 -2.619566503234083e+02 -3.191674092089723e-10 -4.715124649678870e-11 -5.595507941390303e-11
-6.110935005491423e+02 -2.619566503235300e+02 -2.619566503229983e+02 1.332683394159273e-10 3.908524022444282e-11 2.380805369672574e-10
-6.110935005491112e+02 -2.619566503233425e+02 -2.619566503227467e+02 9.219119255084662e-11 -1.121002456716488e-11 8.473144249913792e-12
-6.107041703423399e+02 -2.617897188403192e+02 -2.617897188407265e+02 -5.962708794734750e-10 -1.949685266655187e-10 3.363464870723905e-10
-6.107041703445966e+02 -2.617897188417618e+02 -2.617897188417539e+02 -9.849874677268971e-11 6.246394719521126e-11 -1.372741770277427e-10
-6.107041703426482e+02 -2.617897188411478e+02 -2.617897188413917e+02 3.127920081850888e-10 -1.769886305402829e-11 1.815611979610915e-10
-6.107041703435697e+02 -2.617897188409125e+02 -2.617897188410499e+02 1.359348355699299e-10 -3.119530006203133e-11 -3.422867114644991e-11
-6.110935005463750e+02 -2.619566503223556e+02 -2.619566503208846e+02 2.217259734616070e-11 2.079394194558004e-10 -1.800332645383111e-10
-6.110935005481958e+02 -2.619566503233074e+02 -2.619566503231761e+02 -1.412149715444437e-10 1.332468023795054e-10 1.980186184084627e-10
-6.110935005481145e+02 -2.619566503230055e+02 -2.619566503223556e+02 1.060799032005647e-10 4.100711991993029e-11 -8.870012747660791e-11
-6.110935005492227e+02 -2.619566503232456e+02 -2.619566503239562e+02 2.339929773765541e-10 -8.165660656931984e-11 -1.745949085982492e-11
-6.107041703445331e+02 -2.617897188410900e+02 -2.617897188413909e+02 -2.796316009695939e-10 -2.387265360540894e-10 7.864842804492922e-10
-6.107041703441480e+02 -2.617897188419176e+02 -2.617897188422020e+02 -8.084372601709133e-11 -5.460782787755084e-11 9.336917835044771e-11
-6.107041703443091e+02 -2.617897188416676e+02 -2.617897188414574e+02 7.547823903455227e-11 -2.532070351242192e-10 3.027723832716699e-11
-6.107041703441075e+02 -2.617897188419273e+02 -2.617897188415546e+02 -3.334845185368827e-10 7.340830776627667e-11 -1.156051786965256e-10
-6.110935005481958e+02 -2.619566503233074e+02 -2.619566503231761e+02 -1.412149715444437e-10 1.332468023795054e-10 1.980186184084627e-10
-6.110935005491112e+02 -2.619566503233425e+02 -2.619566503227467e+02 9.219119255084662e-11 -1.121002456716488e-11 8.473144249913792e-12
-6.110935005493892e+02 -2.619566503236330e+02 -2.619566503240221e+02 1.866133817166019e-10 8.175260280908563e-11 -1.605064738452986e-10
-6.110935005481145e+02 -2.619566503230055e+02 -2.619566503223556e+02 1.060799032005647e-10 4.100711991993029e-11 -8.870012747660791e-11
-6.107041703441480e+02 -2.617897188419176e+02 -2.617897188422020e+02 -8.084372601709133e-11 -5.460782787755084e-11 9.336917835044771e-11
-6.107041703435697e+02 -2.617897188409125e+02 -2.617897188410499e+02 1.359348355699299e-10 -3.119530006203133e-11 -3.422867114644991e-11
-6.107041703441904e+02 -2.617897188413998e+02 -2.617897188415945e+02 1.276873863419442e-10 6.184474273736291e-11 -1.329642273736487e-11
-6.107041703443091e+02 -2.617897188416676e+02 -2.617897188414574e+02 7.547823903455227e-11 -2.532070351242192e-10 3.027723832716699e-11
-6.110935005491112e+02 -2.619566503233425e+02 -2.619566503227467e+02 9.219119255084662e-11 -1.121002456716488e-11 8.473144249913792e-12
-6.110935005491423e+02 -2.619566503235300e+02 -2.619566503229983e+02 1.332683394159273e-10 3.908524022444282e-11 2.380805369672574e-10
-6.110935005491956e+02 -2.619566503238452e+02 -2.619566503239358e+02 -3.415567432709607e-11 1.485713747863040e-11 8.554634216581094e-11
-6.110935005493892e+02 -2.619566503236330e+02 -2.619566503240221e+02 1.866133817166019e-10 8.175260280908563e-11 -1.605064738452986e-10
-6.107041703435697e+02 -2.617897188409125e+02 -2.617897188410499e+02 1.359348355699299e-10 -3.119530006203133e-11 -3.422867114644991e-11
-6.107041703426482e+02 -2.617897188411478e+02 -2.617897188413917e+02 3.127920081850888e-10 -1.769886305402829e-11 1.815611979610915e-10
-6.107041703443764e+02 -2.617897188417979e+02 -2.617897188424178e+02 -1.372597902006315e-10 -1.240035121436406e-10 1.637793056449583e-10
-6.107041703441904e+02 -2.617897188413998e+02 -2.617897188415945e+02 1.276873863419442e-10 6.184474273736291e-11 -1.329642273736487e-11
-6.110935005492227e+02 -2.619566503232456e+02 -2.619566503239562e+02 2.339929773765541e-10 -8.165660656931984e-11 -1.745949085982492e-11
-6.110935005481145e+02 -2.619566503230055e+02 -2.619566503223556e+02 1.060799032005647e-10 4.100711991993029e-11 -8.870012747660791e-11
-6.110935005480618e+02 -2.619566503221924e+02 -2.619566503229232e+02 -3.701537595116309e-11 -1.022581132360461e-10 9.648661279621983e-11
-6.110935005469316e+02 -2.619566503227860e+02 -2.619566503220891e+02 3.552429653394746e-10 -3.046209852016880e-11 -6.117062606068364e-11
-6.107041703441075e+02 -2.617897188419273e+02 -2.617897188415546e+02 -3.334845185368827e-10 7.340830776627667e-11 -1.156051786965256e-10
-6.107041703443091e+02 -2.617897188416676e+02 -2.617897188414574e+02 7.547823903455227e-11 -2.532070351242192e-10 3.027723832716699e-11
-6.107041703443690e+02 -2.617897188423140e+02 -2.617897188422656e+02 -1.071305066952208e-10 6.583775222802871e-11 -3.211325200742836e-10
-6.107041703457788e+02 -2.617897188424464e+02 -2.617897188430391e+02 -1.329775699858103e-10 -3.095069438161307e-10 3.774441748630096e-10
-6.110935005481145e+02 -2.619566503230055e+02 -2.619566503223556e+02 1.060799032005647e-10 4.100711991993029e-11 -8.870012747660791e-11
-6.110935005493892e+02 -2.619566503236330e+02 -2.619566503240221e+02 1.866133817166019e-10 8.175260280908563e-11 -1.605064738452986e-10
-6.110935005469158e+02 -2.619566503223355e+02 -2.619566503222471e+02 -2.772780543792220e-11 -2.144171772153419e-11 -5.715738283830688e-11
-6.110935005480618e+02 -2.619566503221924e+02 -2.619566503229232e+02 -3.701537595116309e-11 -1.022581132360461e-10 9.648661279621983e-11
-6.107041703443091e+02 -2.617897188416676e+02 -2.617897188414574e+02 7.547823903455227e-11 -2.532070351242192e-10 3.027723832716699e-11
-6.107041703441904e+02 -2.617897188413998e+02 -2.617897188415945e+02 1.276873863419442e-10 6.184474273736291e-11 -1.329642273736487e-11
-6.107041703451132e+02 -2.617897188418341e+02 -2.617897188413809e+02 -1.169304715663091e-10 -2.224922137544572e-12 -5.482980272556054e-12
-6.107041703443690e+02 -2.617897188423140e+02 -2.617897188422656e+02 -1.071305066952208e-10 6.583775222802871e-11 -3.211325200742836e-10
-6.110935005493892e+02 -2.619566503236330e+02 -2.619566503240221e+02 1.866133817166019e-10 8.175260280908563e-11 -1.605064738452986e-10
-6.110935005491956e+02 -2.619566503238452e+02 -2.619566503239358e+02 -3.415567432709607e-11 1.485713747863040e-11 8.554634216581094e-11
-6.110935005473750e+02 -2.619566503220832e+02 -2.619566503227562e+02 3.657689866176194e-10 9.272788120489578e-12 -4.184279006658928e-10
-6.110935005469158e+02 -2.619566503223355e+02 -2.619566503222471e+02 -2.772780543792220e-11 -2.144171772153419e-11 -5.715738283830688e-11
-6.107041703441904e+02 -2.617897188413998e+02 -2.617897188415945e+02 1.276873863419442e-10 6.184474273736291e-11 -1.329642273736487e-11
-6.107041703443764e+02 -2.617897188417979e+02 -2.617897188424178e+02 -1.372597902006315e-10 -1.240035121436406e-10 1.637793056449583e-10
-6.107041703430993e+02 -2.617897188407893e+02 -2.617897188402234e+02 -3.333628195188089e-10 -1.108901677489301e-10 -2.613953607141843e-10
-6.107041703451132e+02 -2.617897188418341e+02 -2.617897188413809e+02 -1.169304715663091e-10 -2.224922137544572e-12 -5.482980272556054e-12
-6.110935005469316e+02 -2.619566503227860e+02 -2.619566503220891e+02 3.552429653394746e-10 -3.046209852016880e-11 -6.117062606068364e-11
-6.110935005480618e+02 -2.619566503221924e+02 -2.619566503229232e+02 -3.701537595116309e-11 -1.022581132360461e-10 9.648661279621983e-11
-6.110935005470735e+02 -2.619566503237727e+02 -2.619566503228023e+02 -2.358750397092844e-10 -1.147521190858051e-10 -6.449122216594072e-11
-6.110935005512656e+02 -2.619566503243605e+02 -2.619566503244271e+02 -2.702396127641856e-10 1.058319276470518e-10 -2.819446880922181e-10
-6.107041703457788e+02 -2.617897188424464e+02 -2.617897188430391e+02 -1.329775699858103e-10 -3.095069438161307e-10 3.774441748630096e-10
-6.107041703443690e+02 -2.617897188423140e+02 -2.617897188422656e+02 -1.071305066952208e-10 6.583775222802871e-11 -3.211325200742836e-10
-6.107041703437918e+02 -2.617897188405254e+02 -2.617897188413297e+02 -1.599851087190140e-10 -1.763658681758590e-10 2.826205701012208e-10
-6.107041703449005e+02 -2.617897188414142e+02 -2.617897188406122e+02 6.828919157367928e-10 4.487415155540410e-10 1.224542930146481e-10
-6.110935005480618e+02 -2.619566503221924e+02 -2.619566503229232e+02 -3.701537595116309e-11 -1.022581132360461e-10 9.648661279621983e-11
-6.110935005469158e+02 -2.619566503223355e+02 -2.619566503222471e+02 -2.772780543792220e-11 -2.144171772153419e-11 -5.715738283830688e-11
-6.110935005481855e+02 -2.619566503215890e+02 -2.619566503224596e+02 -4.226984020619353e-11 -4.101135824139652e-11 7.420886219231553e-11
-6.110935005470735e+02 -2.619566503237727e+02 -2.619566503228023e+02 -2.358750397092844e-10 -1.147521190858051e-10 -6.449122216594072e-11
-6.107041703443690e+02 -2.617897188423140e+02 -2.617897188422656e+02 -1.071305066952208e-10 6.583775222802871e-11 -3.211325200742836e-10
-6.107041703451132e+02 -2.617897188418341e+02 -2.617897188413809e+02 -1.169304715663091e-10 -2.224922137544572e-12 -5.482980272556054e-12
-6.107041703430114e+02 -2.617897188418714e+02 -2.617897188416148e+02 -2.937660475999289e-10 -1.508088409483503e-10 -2.768653593978163e-11
-6.107041703437918e+02 -2.617897188405254e+02 -2.617897188413297e+02 -1.599851087190140e-10 -1.763658681758590e-10 2.826205701012208e-10
-6.110935005469158e+02 -2.619566503223355e+02 -2.619566503222471e+02 -2.772780543792220e-11 -2.144171772153419e-11 -5.715738283830688e-11
-6.110935005473750e+02 -2.619566503220832e+02 -2.619566503227562e+02 3.657689866176194e-10 9.272788120489578e-12 -4.184279006658928e-10
-6.110935005484458e+02 -2.619566503226478e+02 -2.619566503238689e+02 -5.667104713126772e-10 8.571459529926968e-11 -2.336541010778452e-10
-6.110935005481855e+02 -2.619566503215890e+02 -2.619566503224596e+02 -4.226984020619353e-11 -4.101135824139652e-11 7.420886219231553e-11
-6.107041703451132e+02 -2.617897188418341e+02 -2.617897188413809e+02 -1.169304715663091e-10 -2.224922137544572e-12 -5.482980272556054e-12
-6.107041703430993e+02 -2.617897188407893e+02 -2.617897188402234e+02 -3.333628195188089e-10 -1.108901677489301e-10 -2.613953607141843e-10
-6.107041703444863e+02 -2.617897188425070e+02 -2.617897188421920e+02 5.154937530069434e-10 2.390934125673769e-10 -2.980429440027081e-10
-6.107041703430114e+02 -2.617897188418714e+02 -2.617897188416148e+02 -2.937660475999289e-10 -1.508088409483503e-10 -2.768653593978163e-11
-6.107041703466277e+02 -2.617897188422401e+02 -2.617897188441433e+02 3.704562928195530e-10 -3.712397036182701e-10 1.675744839563839e-10
-6.107041703429232e+02 -2.617897188421205e+02 -2.617897188415903e+02 1.412243282008967e-10 1.392277390384413e-10 9.884362168606787e-11
-6.107041703443354e+02 -2.617897188419239e+02 -2.617897188417571e+02 -3.552743183102140e-10 9.781657617672524e-11 1.356831933927468e-10
-6.107041703434668e+02 -2.617897188406824e+02 -2.617897188408605e+02 3.010988130698640e-10 3.747770270933110e-10 -3.809506142491527e-10
-6.104116836918247e+02 -2.616643105574425e+02 -2.616643105564061e+02 1.137776470866784e-09 2.758937947378793e-10 -6.759085038775775e-10
-6.104116836903167e+02 -2.616643105528624e+02 -2.616643105541873e+02 -3.508473598595052e-10 -3.505996677115592e-11 1.175232179287393e-10
-6.104116836916688e+02 -2.616643105563712e+02 -2.616643105557434e+02 1.482558730680779e-10 1.355431246409778e-10 -8.490276458321538e-11
-6.104116836902922e+02 -2.616643105542676e+02 -2.616643105530317e+02 1.740541725496748e-11 -1.354639686058182e-10 4.363854421047042e-10
-6.107041703429232e+02 -2.617897188421205e+02 -2.617897188415903e+02 1.412243282008967e-10 1.392277390384413e-10 9.884362168606787e-11
-6.107041703464799e+02 -2.617897188431434e+02 -2.617897188429877e+02 -3.735591160694619e-10 2.691568447968878e-11 3.844050622795882e-11
-6.107041703423399e+02 -2.617897188403192e+02 -2.617897188407265e+02 -5.962708794734750e-10 -1.949685266655187e-10 3.363464870723905e-10
-6.107041703443354e+02 -2.617897188419239e+02 -2.617897188417571e+02 -3.552743183102140e-10 9.781657617672524e-11 1.356831933927468e-10
-6.104116836903167e+02 -2.616643105528624e+02 -2.616643105541873e+02 -3.508473598595052e-10 -3.505996677115592e-11 1.175232179287393e-10
-6.104116836914709e+02 -2.616643105556931e+02 -2.616643105557906e+02 5.458585729414623e-10 1.704766633228800e-10 3.716175696122585e-10
-6.104116836909836e+02 -2.616643105545705e+02 -2.616643105552782e+02 -7.903229002655715e-11 4.579265345608308e-11 2.272132085495497e-10
-6.104116836916688e+02 -2.616643105563712e+02 -2.616643105557434e+02 1.482558730680779e-10 1.355431246409778e-10 -8.490276458321538e-11
-6.107041703464799e+02 -2.617897188431434e+02 -2.617897188429877e+02 -3.735591160694619e-10 2.691568447968878e-11 3.844050622795882e-11
-6.107041703445699e+02 -2.617897188412761e+02 -2.617897188413372e+02 2.516027808228442e-11 -6.074085340577709e-11 2.566355897833531e-10
-6.107041703445966e+02 -2.617897188417618e+02 -2.617897188417539e+02 -9.849874677268971e-11 6.246394719521126e-11 -1.372741770277427e-10
-6.107041703423399e+02 -2.617897188403192e+02 -2.617897188407265e+02 -5.962708794734750e-10 -1.949685266655187e-10 3.363464870723905e-10
-6.104116836914709e+02 -2.616643105556931e+02 -2.616643105557906e+02 5.458585729414623e-10 1.704766633228800e-10 3.716175696122585e-10
-6.104116836902165e+02 -2.616643105540409e+02 -2.616643105542447e+02 6.055277084774531e-10 3.619316368032681e-11 -2.742605785877592e-10
-6.104116836912435e+02 -2.616643105554182e+02 -2.616643105553460e+02 2.974162239201027e-10 1.142062105941832e-11 9.393121570068165e-11
-6.104116836909836e+02 -2.616643105545705e+02 -2.616643105552782e+02 -7.903229002655715e-11 4.579265345608308e-11 2.272132085495497e-10
-6.107041703434668e+02 -2.617897188406824e+02 -2.617897188408605e+02 3.010988130698640e-10 3.747770270933110e-10 -3.809506142491527e-10
-6.107041703443354e+02 -2.617897188419239e+02 -2.617897188417571e+02 -3.552743183102140e-10 9.781657617672524e-11 1.356831933927468e-10
-6.107041703441480e+02 -2.617897188419176e+02 -2.617897188422020e+02 -8.084372601709133e-11 -5.460782787755084e-11 9.336917835044771e-11
-6.107041703445331e+02 -2.617897188410900e+02 -2.617897188413909e+02 -2.796316009695939e-10 -2.387265360540894e-10 7.864842804492922e-10
-6.104116836902922e+02 -2.616643105542676e+02 -2.616643105530317e+02 1.740541725496748e-11 -1.354639686058182e-10 4.363854421047042e-10
-6.104116836916688e+02 -2.616643105563712e+02 -2.616643105557434e+02 1.482558730680779e-10 1.355431246409778e-10 -8.490276458321538e-11
-6.104116836913556e+02 -2.616643105551714e+02 -2.616643105553212e+02 -1.206169728944787e-10 5.195446585411561e-11 -2.155681938868286e-10
-6.104116836918795e+02 -2.616643105550674e+02 -2.616643105558101e+02 5.678907660363977e-11 4.675899477418800e-10 -4.690122889568076e-11
-6.107041703443354e+02 -2.617897188419239e+02 -2.617897188417571e+02 -3.552743183102140e-10 9.781657617672524e-11 1.356831933927468e-10
-6.107041703423399e+02 -2.617897188403192e+02 -2.617897188407265e+02 -5.962708794734750e-10 -1.949685266655187e-10 3.363464870723905e-10
-6.107041703435697e+02 -2.617897188409125e+02 -2.617897188410499e+02 1.359348355699299e-10 -3.119530006203133e-11 -3.422867114644991e-11
-6.107041703441480e+02 -2.617897188419176e+02 -2.617897188422020e+02 -8.084372601709133e-11 -5.460782787755084e-11 9.336917835044771e-11
-6.104116836916688e+02 -2.616643105563712e+02 -2.616643105557434e+02 1.482558730680779e-10 1.355431246409778e-10 -8.490276458321538e-11
-6.104116836909836e+02 -2.616643105545705e+02 -2.616643105552782e+02 -7.903229002655715e-11 4.579265345608308e-11 2.272132085495497e-10
-6.104116836917260e+02 -2.616643105555533e+02 -2.616643105558484e+02 1.263042691753806e-10 -3.623787334234657e-10 -1.133751122670640e-10
-6.104116836913556e+02 -2.616643105551714e+02 -2.616643105553212e+02 -1.206169728944787e-10 5.195446585411561e-11 -2.155681938868286e-10
-6.107041703423399e+02 -2.617897188403192e+02 -2.617897188407265e+02 -5.962708794734750e-10 -1.949685266655187e-10 3.363464870723905e-10
-6.107041703445966e+02 -2.617897188417618e+02 -2.617897188417539e+02 -9.849874677268971e-11 6.246394719521126e-11 -1.372741770277427e-10
-6.107041703426482e+02 -2.617897188411478e+02 -2.617897188413917e+02 3.127920081850888e-10 -1.769886305402829e-11 1.815611979610915e-10
-6.107041703435697e+02 -2.617897188409125e+02 -2.617897188410499e+02 1.359348355699299e-10 -3.119530006203133e-11 -3.422867114644991e-11
-6.104116836909836e+02 -2.616643105545705e+02 -2.616643105552782e+02 -7.903229002655715e-11 4.579265345608308e-11 2.272132085495497e-10
-6.104116836912435e+02 -2.616643105554182e+02 -2.616643105553460e+02 2.974162239201027e-10 1.142062105941832e-11 9.393121570068165e-11
-6.104116836916771e+02 -2.616643105556938e+02 -2.616643105554108e+02 2.251664536834475e-10 -1.802101033223295e-10 6.613308053746218e-11
-6.104116836917260e+02 -2.616643105555533e+02 -2.616643105558484e+02 1.263042691753806e-10 -3.623787334234657e-10 -1.133751122670640e-10
-6.107041703445331e+02 -2.617897188410900e+02 -2.617897188413909e+02 -2.796316009695939e-10 -2.387265360540894e-10 7.864842804492922e-10
-6.107041703441480e+02 -2.617897188419176e+02 -2.617897188422020e+02 -8.084372601709133e-11 -5.460782787755084e-11 9.336917835044771e-11
-6.107041703443091e+02 -2.617897188416676e+02 -2.617897188414574e+02 7.547823903455227e-11 -2.532070351242192e-10 3.027723832716699e-11
-6.107041703441075e+02 -2.617897188419273e+02 -2.617897188415546e+02 -3.334845185368827e-10 7.340830776627667e-11 -1.156051786965256e-10
-6.104116836918795e+02 -2.616643105550674e+02 -2.616643105558101e+02 5.678907660363977e-11 4.675899477418800e-10 -4.690122889568076e-11
-6.104116836913556e+02 -2.616643105551714e+02 -2.616643105553212e+02 -1.206169728944787e-10 5.195446585411561e-11 -2.155681938868286e-10
-6.104116836911018e+02 -2.616643105550288e+02 -2.616643105549924e+02 -1.118994816027598e-10 -1.274035928419723e-10 2.925053702759254e-11
-6.104116836911597e+02 -2.616643105546378e+02 -2.616643105547180e+02 -2.945380254706221e-11 -8.307943637787659e-11 2.747667649795415e-10
-6.107041703441480e+02 -2.617897188419176e+02 -2.617897188422020e+02 -8.084372601709133e-11 -5.460782787755084e-11 9.336917835044771e-11
-6.107041703435697e+02 -2.617897188409125e+02 -2.617897188410499e+02 1.359348355699299e-10 -3.119530006203133e-11 -3.422867114644991e-11
-6.107041703441904e+02 -2.617897188413998e+02 -2.617897188415945e+02 1.276873863419442e-10 6.184474273736291e-11 -1.329642273736487e-11
-6.107041703443091e+02 -2.617897188416676e+02 -2.617897188414574e+02 7.547823903455227e-11 -2.532070351242192e-10 3.027723832716699e-11
-6.104116836913556e+02 -2.616643105551714e+02 -2.616643105553212e+02 -1.206169728944787e-10 5.195446585411561e-11 -2.155681938868286e-10
-6.104116836917260e+02 -2.616643105555533e+02 -2.616643105558484e+02 1.263042691753806e-10 -3.623787334234657e-10 -1.133751122670640e-10
-6.104116836911836e+02 -2.616643105548875e+02 -2.616643105551096e+02 1.900365163275714e-10 -3.636530180738217e-13 2.085877599756671e-10
-6.104116836911018e+02 -2.616643105550288e+02 -2.616643105549924e+02 -1.118994816027598e-10 -1.274035928419723e-10 2.925053702759254e-11
-6.107041703435697e+02 -2.617897188409125e+02 -2.617897188410499e+02 1.359348355699299e-10 -3.119530006203133e-11 -3.422867114644991e-11
-6.107041703426482e+02 -2.617897188411478e+02 -2.617897188413917e+02 3.127920081850888e-10 -1.769886305402829e-11 1.815611979610915e-10
-6.107041703443764e+02 -2.617897188417979e+02 -2.617897188424178e+02 -1.372597902006315e-10 -1.240035121436406e-10 1.637793056449583e-10
-6.107041703441904e+02 -2.617897188413998e+02 -2.617897188415945e+02 1.276873863419442e-10 6.184474273736291e-11 -1.329642273736487e-11
-6.104116836917260e+02 -2.616643105555533e+02 -2.616643105558484e+02 1.263042691753806e-10 -3.623787334234657e-10 -1.133751122670640e-10
-6.104116836916771e+02 -2.616643105556938e+02 -2.616643105554108e+02 2.251664536834475e-10 -1.802101033223295e-10 6.613308053746218e-11
-6.104116836910748e+02 -2.616643105553401e+02 -2.616643105549600e+02 -1.023916182617732e-10 -2.985869005623552e-10 -1.146817521226649e-10
-6.104116836911836e+02 -2.616643105548875e+02 -2.616643105551096e+02 1.900365163275714e-10 -3.636530180738217e-13 2.085877599756671e-10
-6.107041703441075e+02 -2.617897188419273e+02 -2.617897188415546e+02 -3.334845185368827e-10 7.340830776627667e-11 -1.156051786965256e-10
-6.107041703443091e+02 -2.617897188416676e+02 -2.617897188414574e+02 7.547823903455227e-11 -2.532070351242192e-10 3.027723832716699e-11
-6.107041703443690e+02 -2.617897188423140e+02 -2.617897188422656e+02 -1.071305066952208e-10 6.583775222802871e-11 -3.211325200742836e-10
-6.107041703457788e+02 -2.617897188424464e+02 -2.617897188430391e+02 -1.329775699858103e-10 -3.095069438161307e-10 3.774441748630096e-10
-6.104116836911597e+02 -2.616643105546378e+02 -2.616643105547180e+02 -2.945380254706221e-11 -8.307943637787659e-11 2.747667649795415e-10
-6.104116836911018e+02 -2.616643105550288e+02 -2.616643105549924e+02 -1.118994816027598e-10 -1.274035928419723e-10 2.925053702759254e-11
-6.104116836906277e+02 -2.616643105549208e+02 -2.616643105549301e+02 -1.108711242179023e-10 -3.876846025009519e-11 -1.222878558211304e-10
-6.104116836912119e+02 -2.616643105550609e+02 -2.616643105552781e+02 -7.260726968248665e-11 -5.844643632063609e-11 5.004015589879211e-10
-6.107041703443091e+02 -2.617897188416676e+02 -2.617897188414574e+02 7.547823903455227e-11 -2.532070351242192e-10 3.027723832716699e-11
-6.107041703441904e+02 -2.617897188413998e+02 -2.617897188415945e+02 1.276873863419442e-10 6.184474273736291e-11 -1.329642273736487e-11
-6.107041703451132e+02 -2.617897188418341e+02 -2.617897188413809e+02 -1.169304715663091e-10 -2.224922137544572e-12 -5.482980272556054e-12
-6.107041703443690e+02 -2.617897188423140e+02 -2.617897188422656e+02 -1.071305066952208e-10 6.583775222802871e-11 -3.211325200742836e-10
-6.104116836911018e+02 -2.616643105550288e+02 -2.616643105549924e+02 -1.118994816027598e-10 -1.274035928419723e-10 2.925053702759254e-11
-6.104116836911836e+02 -2.616643105548875e+02 -2.616643105551096e+02 1.900365163275714e-10 -3.636530180738217e-13 2.085877599756671e-10
-6.104116836913075e+02 -2.616643105547224e+02 -2.616643105550082e+02 -1.434063455183182e-10 9.113488713483947e-11 -1.741754492241646e-10
-6.104116836906277e+02 -2.616643105549208e+02 -2.616643105549301e+02 -1.108711242179023e-10 -3.876846025009519e-11 -1.222878558211304e-10
-6.107041703441904e+02 -2.617897188413998e+02 -2.617897188415945e+02 1.276873863419442e-10 6.184474273736291e-11 -1.329642273736487e-11
-6.107041703443764e+02 -2.617897188417979e+02 -2.617897188424178e+02 -1.372597902006315e-10 -1.240035121436406e-10 1.637793056449583e-10
-6.107041703430993e+02 -2.617897188407893e+02 -2.617897188402234e+02 -3.333628195188089e-10 -1.108901677489301e-10 -2.613953607141843e-10
-6.107041703451132e+02 -2.617897188418341e+02 -2.617897188413809e+02 -1.169304715663091e-10 -2.224922137544572e-12 -5.482980272556054e-12
-6.104116836911836e+02 -2.616643105548875e+02 -2.616643105551096e+02 1.900365163275714e-10 -3.636530180738217e-13 2.085877599756671e-10
-6.104116836910748e+02 -2.616643105553401e+02 -2.616643105549600e+02 -1.023916182617732e-10 -2.985869005623552e-10 -1.146817521226649e-10
-6.104116836912289e+02 -2.616643105554085e+02 -2.616643105555702e+02 -3.480649001814088e-11 1.378278850462906e-10 3.126336925633640e-10
-6.104116836913075e+02 -2.616643105547224e+02 -2.616643105550082e+02 -1.434063455183182e-10 9.113488713483947e-11 -1.741754492241646e-10
-6.107041703457788e+02 -2.617897188424464e+02 -2.617897188430391e+02 -1.329775699858103e-10 -3.095069438161307e-10 3.774441748630096e-10
-6.107041703443690e+02 -2.617897188423140e+02 -2.617897188422656e+02 -1.071305066952208e-10 6.583775222802871e-11 -3.211325200742836e-10
-6.107041703437918e+02 -2.617897188405254e+02 -2.617897188413297e+02 -1.599851087190140e-10 -1.763658681758590e-10 2.826205701012208e-10
-6.107041703449005e+02 -2.617897188414142e+02 -2.617897188406122e+02 6.828919157367928e-10 4.487415155540410e-10 1.224542930146481e-10
-6.104116836912119e+02 -2.616643105550609e+02 -2.616643105552781e+02 -7.260726968248665e-11 -5.844643632063609e-11 5.004015589879211e-10
-6.104116836906277e+02 -2.616643105549208e+02 -2.616643105549301e+02 -1.108711242179023e-10 -3.876846025009519e-11 -1.222878558211304e-10
-6.104116836909782e+02 -2.616643105546135e+02 -2.616643105546743e+02 3.220435322690655e-10 1.362031991316981e-10 -3.621944285560123e-10
-6.104116836910928e+02 -2.616643105539016e+02 -2.616643105544049e+02 1.899436243474145e-10 -1.550550450813667e-10 -1.651813168017157e-10
-6.107041703443690e+02 -2.617897188423140e+02 -2.617897188422656e+02 -1.071305066952208e-10 6.583775222802871e-11 -3.211325200742836e-10
-6.107041703451132e+02 -2.617897188418341e+02 -2.617897188413809e+02 -1.169304715663091e-10 -2.224922137544572e-12 -5.482980272556054e-12
-6.107041703430114e+02 -2.617897188418714e+02 -2.617897188416148e+02 -2.937660475999289e-10 -1.508088409483503e-10 -2.768653593978163e-11
-6.107041703437918e+02 -2.617897188405254e+02 -2.617897188413297e+02 -1.599851087190140e-10 -1.763658681758590e-10 2.826205701012208e-10
-6.104116836906277e+02 -2.616643105549208e+02 -2.616643105549301e+02 -1.108711242179023e-10 -3.876846025009519e-11 -1.222878558211304e-10
-6.104116836913075e+02 -2.616643105547224e+02 -2.616643105550082e+02 -1.434063455183182e-10 9.113488713483947e-11 -1.741754492241646e-10
-6.104116836903797e+02 -2.616643105550253e+02 -2.616643105545186e+02 -7.564073067664895e-11 7.133594858952467e-11 1.721982026420685e-10
-6.104116836909782e+02 -2.616643105546135e+02 -2.616643105546743e+02 3.220435322690655e-10 1.362031991316981e-10 -3.621944285560123e-10
-6.107041703451132e+02 -2.617897188418341e+02 -2.617897188413809e+02 -1.169304715663091e-10 -2.224922137544572e-12 -5.482980272556054e-12
-6.107041703430993e+02 -2.617897188407893e+02 -2.617897188402234e+02 -3.333628195188089e-10 -1.108901677489301e-10 -2.613953607141843e-10
-6.107041703444863e+02 -2.617897188425070e+02 -2.617897188421920e+02 5.154937530069434e-10 2.390934125673769e-10 -2.980429440027081e-10
-6.107041703430114e+02 -2.617897188418714e+02 -2.617897188416148e+02 -2.937660475999289e-10 -1.508088409483503e-10 -2.768653593978163e-11
-6.104116836913075e+02 -2.616643105547224e+02 -2.616643105550082e+02 -1.434063455183182e-10 9.113488713483947e-11 -1.741754492241646e-10
-6.104116836912289e+02 -2.616643105554085e+02 -2.616643105555702e+02 -3.480649001814088e-11 1.378278850462906e-10 3.126336925633640e-10
-6.104116836908699e+02 -2.616643105545293e+02 -2.616643105547213e+02 3.626255037214425e-10 1.699777257629766e-11 -2.122042387609485e-10
-6.104116836903797e+02 -2.616643105550253e+02 -2.616643105545186e+02 -7.564073067664895e-11 7.133594858952467e-11 1.721982026420685e-10
-6.104116836918247e+02 -2.616643105574425e+02 -2.616643105564061e+02 1.137776470866784e-09 2.758937947378793e-10 -6.759085038775775e-10
-6.104116836903167e+02 -2.616643105528624e+02 -2.616643105541873e+02 -3.508473598595052e-10 -3.505996677115592e-11 1.175232179287393e-10
-6.104116836916688e+02 -2.616643105563712e+02 -2.616643105557434e+02 1.482558730680779e-10 1.355431246409778e-10 -8.490276458321538e-11
-6.104116836902922e+02 -2.616643105542676e+02 -2.616643105530317e+02 1.740541725496748e-11 -1.354639686058182e-10 4.363854421047042e-10
-6.111432657490961e+02 -2.619779880090962e+02 -2.619779880104543e+02 1.341355968606237e-10 1.852091138676326e-10 3.867236789081286e-11
-6.111432657497210e+02 -2.619779880097644e+02 -2.619779880104511e+02 4.360419294677997e-11 -1.912512420750001e-10 3.193205312475533e-10
-6.111432657498447e+02 -2.619779880104593e+02 -2.619779880109712e+02 -2.858603407147057e-10 -2.219500828574428e-11 6.521044430673824e-12
-6.111432657495488e+02 -2.619779880111196e+02 -2.619779880103430e+02 -5.680106370020110e-10 -2.611004595859102e-10 1.879229593694949e-10
-6.104116836903167e+02 -2.616643105528624e+02 -2.616643105541873e+02 -3.508473598595052e-10 -3.505996677115592e-11 1.175232179287393e-10
-6.104116836914709e+02 -2.616643105556931e+02 -2.616643105557906e+02 5.458585729414623e-10 1.704766633228800e-10 3.716175696122585e-10
-6.104116836909836e+02 -2.616643105545705e+02 -2.616643105552782e+02 -7.903229002655715e-11 4.579265345608308e-11 2.272132085495497e-10
-6.104116836916688e+02 -2.616643105563712e+02 -2.616643105557434e+02 1.482558730680779e-10 1.355431246409778e-10 -8.490276458321538e-11
-6.111432657497210e+02 -2.619779880097644e+02 -2.619779880104511e+02 4.360419294677997e-11 -1.912512420750001e-10 3.193205312475533e-10
-6.111432657497935e+02 -2.619779880112753e+02 -2.619779880108474e+02 5.764829100301134e-10 2.706991655254047e-11 1.040133233765798e-10
-6.111432657491287e+02 -2.619779880110083e+02 -2.619779880108042e+02 -3.770427109394600e-10 -2.278672348036664e-10 -1.635731239697621e-11
-6.111432657498447e+02 -2.619779880104593e+02 -2.619779880109712e+02 -2.858603407147057e-10 -2.219500828574428e-11 6.521044430673824e-12
-6.104116836914709e+02 -2.616643105556931e+02 -2.616643105557906e+02 5.458585729414623e-10 1.704766633228800e-10 3.716175696122585e-10
-6.104116836902165e+02 -2.616643105540409e+02 -2.616643105542447e+02 6.055277084774531e-10 3.619316368032681e-11 -2.742605785877592e-10
-6.104116836912435e+02 -2.616643105554182e+02 -2.616643105553460e+02 2.974162239201027e-10 1.142062105941832e-11 9.393121570068165e-11
-6.104116836909836e+02 -2.616643105545705e+02 -2.616643105552782e+02 -7.903229002655715e-11 4.579265345608308e-11 2.272132085495497e-10
-6.111432657497935e+02 -2.619779880112753e+02 -2.619779880108474e+02 5.764829100301134e-10 2.706991655254047e-11 1.040133233765798e-10
-6.111432657493211e+02 -2.619779880099073e+02 -2.619779880104630e+02 2.414642542394244e-10 -2.965523418389083e-11 1.398565820510376e-10
-6.111432657478979e+02 -2.619779880089726e+02 -2.619779880093662e+02 -1.902527549652069e-10 3.150620239678399e-11 2.227693955148638e-10
-6.111432657491287e+02 -2.619779880110083e+02 -2.619779880108042e+02 -3.770427109394600e-10 -2.278672348036664e-10 -1.635731239697621e-11
-6.104116836902922e+02 -2.616643105542676e+02 -2.616643105530317e+02 1.740541725496748e-11 -1.354639686058182e-10 4.363854421047042e-10
-6.104116836916688e+02 -2.616643105563712e+02 -2.616643105557434e+02 1.482558730680779e-10 1.355431246409778e-10 -8.490276458321538e-11
-6.104116836913556e+02 -2.616643105551714e+02 -2.616643105553212e+02 -1.206169728944787e-10 5.195446585411561e-11 -2.155681938868286e-10
-6.104116836918795e+02 -2.616643105550674e+02 -2.616643105558101e+02 5.678907660363977e-11 4.675899477418800e-10 -4.690122889568076e-11
-6.111432657495488e+02 -2.619779880111196e+02 -2.619779880103430e+02 -5.680106370020110e-10 -2.611004595859102e-10 1.879229593694949e-10
-6.111432657498447e+02 -2.619779880104593e+02 -2.619779880109712e+02 -2.858603407147057e-10 -2.219500828574428e-11 6.521044430673824e-12
-6.111432657494513e+02 -2.619779880103806e+02 -2.619779880105316e+02 -3.010212476567829e-11 -1.544790717930216e-10 -6.375437949013803e-11
-6.111432657511474e+02 -2.619779880118297e+02 -2.619779880114876e+02 1.930506001939117e-11 7.130399683564737e-11 5.161803874225862e-10
-6.104116836916688e+02 -2.616643105563712e+02 -2.616643105557434e+02 1.482558730680779e-10 1.355431246409778e-10 -8.490276458321538e-11
-6.104116836909836e+02 -2.616643105545705e+02 -2.616643105552782e+02 -7.903229002655715e-11 4.579265345608308e-11 2.272132085495497e-10
-6.104116836917260e+02 -2.616643105555533e+02 -2.616643105558484e+02 1.263042691753806e-10 -3.623787334234657e-10 -1.133751122670640e-10
-6.104116836913556e+02 -2.616643105551714e+02 -2.616643105553212e+02 -1.206169728944787e-10 5.195446585411561e-11 -2.155681938868286e-10
-6.111432657498447e+02 -2.619779880104593e+02 -2.619779880109712e+02 -2.858603407147057e-10 -2.219500828574428e-11 6.521044430673824e-12
-6.111432657491287e+02 -2.619779880110083e+02 -2.619779880108042e+02 -3.770427109394600e-10 -2.278672348036664e-10 -1.635731239697621e-11
-6.111432657494601e+02 -2.619779880108508e+02 -2.619779880112382e+02 6.375640487636011e-11 -1.403536713049930e-10 -3.541716102666194e-10
-6.111432657494513e+02 -2.619779880103806e+02 -2.619779880105316e+02 -3.010212476567829e-11 -1.544790717930216e-10 -6.375437949013803e-11
-6.104116836909836e+02 -2.616643105545705e+02 -2.616643105552782e+02 -7.903229002655715e-11 4.579265345608308e-11 2.272132085495497e-10
-6.104116836912435e+02 -2.616643105554182e+02 -2.616643105553460e+02 2.974162239201027e-10 1.142062105941832e-11 9.393121570068165e-11
-6.104116836916771e+02 -2.616643105556938e+02 -2.616643105554108e+02 2.251664536834475e-10 -1.802101033223295e-10 6.613308053746218e-11
-6.104116836917260e+02 -2.616643105555533e+02 -2.616643105558484e+02 1.263042691753806e-10 -3.623787334234657e-10 -1.133751122670640e-10
-6.111432657491287e+02 -2.619779880110083e+02 -2.619779880108042e+02 -3.770427109394600e-10 -2.278672348036664e-10 -1.635731239697621e-11
-6.111432657478979e+02 -2.619779880089726e+02 -2.619779880093662e+02 -1.902527549652069e-10 3.150620239678399e-11 2.227693955148638e-10
-6.111432657507916e+02 -2.619779880117086e+02 -2.619779880116852e+02 2.908235582283923e-12 -3.586198709198570e-11 -1.372956375984009e-10
-6.111432657494601e+02 -2.619779880108508e+02 -2.619779880112382e+02 6.375640487636011e-11 -1.403536713049930e-10 -3.541716102666194e-10
-6.104116836918795e+02 -2.616643105550674e+02 -2.616643105558101e+02 5.678907660363977e-11 4.675899477418800e-10 -4.690122889568076e-11
-6.104116836913556e+02 -2.616643105551714e+02 -2.616643105553212e+02 -1.206169728944787e-10 5.195446585411561e-11 -2.155681938868286e-10
-6.104116836911018e+02 -2.616643105550288e+02 -2.616643105549924e+02 -1.118994816027598e-10 -1.274035928419723e-10 2.925053702759254e-11
-6.104116836911597e+02 -2.616643105546378e+02 -2.616643105547180e+02 -2.945380254706221e-11 -8.307943637787659e-11 2.747667649795415e-10
-6.111432657511474e+02 -2.619779880118297e+02 -2.619779880114876e+02 1.930506001939117e-11 7.130399683564737e-11 5.161803874225862e-10
-6.111432657494513e+02 -2.619779880103806e+02 -2.619779880105316e+02 -3.010212476567829e-11 -1.544790717930216e-10 -6.375437949013803e-11
-6.111432657500546e+02 -2.619779880103183e+02 -2.619779880104034e+02 2.764302305463013e-10 5.000549454315454e-13 -6.129889988842396e-11
-6.111432657485080e+02 -2.619779880100645e+02 -2.619779880097791e+02 -5.475324387573517e-11 -6.326118253412074e-11 6.033118777647237e-11
-6.104116836913556e+02 -2.616643105551714e+02 -2.616643105553212e+02 -1.206169728944787e-10 5.195446585411561e-11 -2.155681938868286e-10
-6.104116836917260e+02 -2.616643105555533e+02 -2.616643105558484e+02 1.263042691753806e-10 -3.623787334234657e-10 -1.133751122670640e-10
-6.104116836911836e+02 -2.616643105548875e+02 -2.616643105551096e+02 1.900365163275714e-10 -3.636530180738217e-13 2.085877599756671e-10
-6.104116836911018e+02 -2.616643105550288e+02 -2.616643105549924e+02 -1.118994816027598e-10 -1.274035928419723e-10 2.925053702759254e-11
-6.111432657494513e+02 -2.619779880103806e+02 -2.619779880105316e+02 -3.010212476567829e-11 -1.544790717930216e-10 -6.375437949013803e-11
-6.111432657494601e+02 -2.619779880108508e+02 -2.619779880112382e+02 6.375640487636011e-11 -1.403536713049930e-10 -3.541716102666194e-10
-6.111432657496251e+02 -2.619779880115711e+02 -2.619779880107528e+02 -1.534999323176442e-10 -1.361212639197347e-10 -1.402021340067730e-10
-6.111432657500546e+02 -2.619779880103183e+02 -2.619779880104034e+02 2.764302305463013e-10 5.000549454315454e-13 -6.129889988842396e-11
-6.104116836917260e+02 -2.616643105555533e+02 -2.616643105558484e+02 1.263042691753806e-10 -3.623787334234657e-10 -1.133751122670640e-10
-6.104116836916771e+02 -2.616643105556938e+02 -2.616643105554108e+02 2.251664536834475e-10 -1.802101033223295e-10 6.613308053746218e-11
-6.104116836910748e+02 -2.616643105553401e+02 -2.616643105549600e+02 -1.023916182617732e-10 -2.985869005623552e-10 -1.146817521226649e-10
-6.104116836911836e+02 -2.616643105548875e+02 -2.616643105551096e+02 1.900365163275714e-10 -3.636530180738217e-13 2.085877599756671e-10
-6.111432657494601e+02 -2.619779880108508e+02 -2.619779880112382e+02 6.375640487636011e-11 -1.403536713049930e-10 -3.541716102666194e-10
-6.111432657507916e+02 -2.619779880117086e+02 -2.619779880116852e+02 2.908235582283923e-12 -3.586198709198570e-11 -1.372956375984009e-10
-6.111432657487353e+02 -2.619779880101186e+02 -2.619779880101805e+02 -7.542724101095443e-11 2.383037603196474e-11 -5.592949010496290e-11
-6.111432657496251e+02 -2.619779880115711e+02 -2.619779880107528e+02 -1.534999323176442e-10 -1.361212639197347e-10 -1.402021340067730e-10
-6.104116836911597e+02 -2.616643105546378e+02 -2.616643105547180e+02 -2.945380254706221e-11 -8.307943637787659e-11 2.747667649795415e-10
-6.104116836911018e+02 -2.616643105550288e+02 -2.616643105549924e+02 -1.118994816027598e-10 -1.274035928419723e-10 2.925053702759254e-11
-6.104116836906277e+02 -2.616643105549208e+02 -2.616643105549301e+02 -1.108711242179023e-10 -3.876846025009519e-11 -1.222878558211304e-10
-6.104116836912119e+02 -2.616643105550609e+02 -2.616643105552781e+02 -7.260726968248665e-11 -5.844643632063609e-11 5.004015589879211e-10
-6.111432657485080e+02 -2.619779880100645e+02 -2.619779880097791e+02 -5.475324387573517e-11 -6.326118253412074e-11 6.033118777647237e-11
-6.111432657500546e+02 -2.619779880103183e+02 -2.619779880104034e+02 2.764302305463013e-10 5.000549454315454e-13 -6.129889988842396e-11
-6.111432657491264e+02 -2.619779880103847e+02 -2.619779880101157e+02 -2.324302231684389e-10 1.056860071621150e-10 -2.238967448843890e-10
-6.111432657492993e+02 -2.619779880102913e+02 -2.619779880105223e+02 3.021791099671070e-11 -8.701768670670422e-11 1.701827197395652e-10
-6.104116836911018e+02 -2.616643105550288e+02 -2.616643105549924e+02 -1.118994816027598e-10 -1.274035928419723e-10 2.925053702759254e-11
-6.104116836911836e+02 -2.616643105548875e+02 -2.616643105551096e+02 1.900365163275714e-10 -3.636530180738217e-13 2.085877599756671e-10
-6.104116836913075e+02 -2.616643105547224e+02 -2.616643105550082e+02 -1.434063455183182e-10 9.113488713483947e-11 -1.741754492241646e-10
-6.104116836906277e+02 -2.616643105549208e+02 -2.616643105549301e+02 -1.108711242179023e-10 -3.876846025009519e-11 -1.222878558211304e-10
-6.111432657500546e+02 -2.619779880103183e+02 -2.619779880104034e+02 2.764302305463013e-10 5.000549454315454e-13 -6.129889988842396e-11
-6.111432657496251e+02 -2.619779880115711e+02 -2.619779880107528e+02 -1.534999323176442e-10 -1.361212639197347e-10 -1.402021340067730e-10
-6.111432657498133e+02 -2.619779880115418e+02 -2.619779880111068e+02 3.247716492144059e-11 -1.189901693589308e-10 -4.528314729169109e-11
-6.111432657491264e+02 -2.619779880103847e+02 -2.619779880101157e+02 -2.324302231684389e-10 1.056860071621150e-10 -2.238967448843890e-10
-6.104116836911836e+02 -2.616643105548875e+02 -2.616643105551096e+02 1.900365163275714e-10 -3.636530180738217e-13 2.085877599756671e-10
-6.104116836910748e+02 -2.616643105553401e+02 -2.616643105549600e+02 -1.023916182617732e-10 -2.985869005623552e-10 -1.146817521226649e-10
-6.104116836912289e+02 -2.616643105554085e+02 -2.616643105555702e+02 -3.480649001814088e-11 1.378278850462906e-10 3.126336925633640e-10
-6.104116836913075e+02 -2.616643105547224e+02 -2.616643105550082e+02 -1.434063455183182e-10 9.113488713483947e-11 -1.741754492241646e-10
-6.111432657496251e+02 -2.619779880115711e+02 -2.619779880107528e+02 -1.534999323176442e-10 -1.361212639197347e-10 -1.402021340067730e-10
-6.111432657487353e+02 -2.619779880101186e+02 -2.619779880101805e+02 -7.542724101095443e-11 2.383037603196474e-11 -5.592949010496290e-11
-6.111432657495726e+02 -2.619779880107228e+02 -2.619779880111587e+02 -1.487859505678115e-10 -1.428208486000907e-10 4.895900021303780e-11
-6.111432657498133e+02 -2.619779880115418e+02 -2.619779880111068e+02 3.247716492144059e-11 -1.189901693589308e-10 -4.528314729169109e-11
-6.104116836912119e+02 -2.616643105550609e+02 -2.616643105552781e+02 -7.260726968248665e-11 -5.844643632063609e-11 5.004015589879211e-10
-6.104116836906277e+02 -2.616643105549208e+02 -2.616643105549301e+02 -1.108711242179023e-10 -3.876846025009519e-11 -1.222878558211304e-10
-6.104116836909782e+02 -2.616643105546135e+02 -2.616643105546743e+02 3.220435322690655e-10 1.362031991316981e-10 -3.621944285560123e-10
-6.104116836910928e+02 -2.616643105539016e+02 -2.616643105544049e+02 1.899436243474145e-10 -1.550550450813667e-10 -1.651813168017157e-10
-6.111432657492993e+02 -2.619779880102913e+02 -2.619779880105223e+02 3.021791099671070e-11 -8.701768670670422e-11 1.701827197395652e-10
-6.111432657491264e+02 -2.619779880103847e+02 -2.619779880101157e+02 -2.324302231684389e-10 1.056860071621150e-10 -2.238967448843890e-10
-6.111432657503616e+02 -2.619779880117225e+02 -2.619779880113885e+02 2.403547604141033e-10 -2.961574784366921e-10 -1.468131336760786e-10
-6.111432657487995e+02 -2.619779880096675e+02 -2.619779880103162e+02 -4.095222346354178e-11 1.842971410730294e-10 1.180984323306286e-10
-6.104116836906277e+02 -2.616643105549208e+02 -2.616643105549301e+02 -1.108711242179023e-10 -3.876846025009519e-11 -1.222878558211304e-10
-6.104116836913075e+02 -2.616643105547224e+02 -2.616643105550082e+02 -1.434063455183182e-10 9.113488713483947e-11 -1.741754492241646e-10
-6.104116836903797e+02 -2.616643105550253e+02 -2.616643105545186e+02 -7.564073067664895e-11 7.133594858952467e-11 1.721982026420685e-10
-6.104116836909782e+02 -2.616643105546135e+02 -2.616643105546743e+02 3.220435322690655e-10 1.362031991316981e-10 -3.621944285560123e-10
-6.111432657491264e+02 -2.619779880103847e+02 -2.619779880101157e+02 -2.324302231684389e-10 1.056860071621150e-10 -2.238967448843890e-10
-6.111432657498133e+02 -2.619779880115418e+02 -2.619779880111068e+02 3.247716492144059e-11 -1.189901693589308e-10 -4.528314729169109e-11
-6.111432657489520e+02 -2.619779880094733e+02 -2.619779880100721e+02 6.073373580991911e-11 1.421632228806245e-10 -1.313165384605633e-10
-6.111432657503616e+02 -2.619779880117225e+02 -2.619779880113885e+02 2.403547604141033e-10 -2.961574784366921e-10 -1.468131336760786e-10
-6.104116836913075e+02 -2.616643105547224e+02 -2.616643105550082e+02 -1.434063455183182e-10 9.113488713483947e-11 -1.741754492241646e-10
-6.104116836912289e+02 -2.616643105554085e+02 -2.616643105555702e+02 -3.480649001814088e-11 1.378278850462906e-10 3.126336925633640e-10
-6.104116836908699e+02 -2.616643105545293e+02 -2.616643105547213e+02 3.626255037214425e-10 1.699777257629766e-11 -2.122042387609485e-10
-6.104116836903797e+02 -2.616643105550253e+02 -2.616643105545186e+02 -7.564073067664895e-11 7.133594858952467e-11 1.721982026420685e-10
-6.111432657498133e+02 -2.619779880115418e+02 -2.619779880111068e+02 3.247716492144059e-11 -1.189901693589308e-10 -4.528314729169109e-11
-6.111432657495726e+02 -2.619779880107228e+02 -2.619779880111587e+02 -1.487859505678115e-10 -1.428208486000907e-10 4.895900021303780e-11
-6.111432657501557e+02 -2.619779880120544e+02 -2.619779880111198e+02 4.161718825533164e-10 1.469887327588248e-10 -1.651072325997243e-10
-6.111432657489520e+02 -2.619779880094733e+02 -2.619779880100721e+02 6.073373580991911e-11 1.421632228806245e-10 -1.313165384605633e-10
-6.111432657490961e+02 -2.619779880090962e+02 -2.619779880104543e+02 1.341355968606237e-10 1.852091138676326e-10 3.867236789081286e-11
-6.111432657497210e+02 -2.619779880097644e+02 -2.619779880104511e+02 4.360419294677997e-11 -1.912512420750001e-10 3.193205312475533e-10
-6.111432657498447e+02 -2.619779880104593e+02 -2.619779880109712e+02 -2.858603407147057e-10 -2.219500828574428e-11 6.521044430673824e-12
-6.111432657495488e+02 -2.619779880111196e+02 -2.619779880103430e+02 -5.680106370020110e-10 -2.611004595859102e-10 1.879229593694949e-10
-6.129302362202816e+02 -2.627441807621772e+02 -2.627441807609428e+02 5.169820557444516e-10 -3.449854747718694e-10 -2.271319718794175e-10
-6.129302362202170e+02 -2.627441807611843e+02 -2.627441807612926e+02 6.263635960790038e-11 -1.047966988088837e-10 -1.846157810196077e-10
-6.129302362209331e+02 -2.627441807613116e+02 -2.627441807622935e+02 -1.267169318754800e-10 -2.893146618573895e-10 -2.343396399692121e-11
-6.129302362204734e+02 -2.627441807625015e+02 -2.627441807615066e+02 2.806333451950670e-10 2.755248012871383e-10 8.073652880366638e-12
-6.111432657497210e+02 -2.619779880097644e+02 -2.619779880104511e+02 4.360419294677997e-11 -1.912512420750001e-10 3.193205312475533e-10
-6.111432657497935e+02 -2.619779880112753e+02 -2.619779880108474e+02 5.764829100301134e-10 2.706991655254047e-11 1.040133233765798e-10
-6.111432657491287e+02 -2.619779880110083e+02 -2.619779880108042e+02 -3.770427109394600e-10 -2.278672348036664e-10 -1.635731239697621e-11
-6.111432657498447e+02 -2.619779880104593e+02 -2.619779880109712e+02 -2.858603407147057e-10 -2.219500828574428e-11 6.521044430673824e-12
-6.129302362202170e+02 -2.627441807611843e+02 -2.627441807612926e+02 6.263635960790038e-11 -1.047966988088837e-10 -1.846157810196077e-10
-6.129302362207918e+02 -2.627441807627195e+02 -2.627441807624280e+02 6.056610929303654e-10 2.711524197005654e-10 2.758608048332437e-11
-6.129302362202478e+02 -2.627441807615165e+02 -2.627441807615564e+02 1.791310220055680e-10 6.045308360856138e-11 -1.580530387207389e-10
-6.129302362209331e+02 -2.627441807613116e+02 -2.627441807622935e+02 -1.267169318754800e-10 -2.893146618573895e-10 -2.343396399692121e-11
-6.111432657497935e+02 -2.619779880112753e+02 -2.619779880108474e+02 5.764829100301134e-10 2.706991655254047e-11 1.040133233765798e-10
-6.111432657493211e+02 -2.619779880099073e+02 -2.619779880104630e+02 2.414642542394244e-10 -2.965523418389083e-11 1.398565820510376e-10
-6.111432657478979e+02 -2.619779880089726e+02 -2.619779880093662e+02 -1.902527549652069e-10 3.150620239678399e-11 2.227693955148638e-10
-6.111432657491287e+02 -2.619779880110083e+02 -2.619779880108042e+02 -3.770427109394600e-10 -2.278672348036664e-10 -1.635731239697621e-11
-6.129302362207918e+02 -2.627441807627195e+02 -2.627441807624280e+02 6.056610929303654e-10 2.711524197005654e-10 2.758608048332437e-11
-6.129302362205613e+02 -2.627441807630402e+02 -2.627441807625025e+02 1.048032417185033e-09 3.252174507434677e-10 -1.537180330317688e-10
-6.129302362209251e+02 -2.627441807616682e+02 -2.627441807616634e+02 -3.518786653416328e-10 1.164520448601276e-10 5.756373081713969e-11
-6.129302362202478e+02 -2.627441807615165e+02 -2.627441807615564e+02 1.791310220055680e-10 6.045308360856138e-11 -1.580530387207389e-10
-6.111432657495488e+02 -2.619779880111196e+02 -2.619779880103430e+02 -5.680106370020110e-10 -2.611004595859102e-10 1.879229593694949e-10
-6.111432657498447e+02 -2.619779880104593e+02 -2.619779880109712e+02 -2.858603407147057e-10 -2.219500828574428e-11 6.521044430673824e-12
-6.111432657494513e+02 -2.619779880103806e+02 -2.619779880105316e+02 -3.010212476567829e-11 -1.544790717930216e-10 -6.375437949013803e-11
-6.111432657511474e+02 -2.619779880118297e+02 -2.619779880114876e+02 1.930506001939117e-11 7.130399683564737e-11 5.161803874225862e-10
-6.129302362204734e+02 -2.627441807625015e+02 -2.627441807615066e+02 2.806333451950670e-10 2.755248012871383e-10 8.073652880366638e-12
-6.129302362209331e+02 -2.627441807613116e+02 -2.627441807622935e+02 -1.267169318754800e-10 -2.893146618573895e-10 -2.343396399692121e-11
-6.129302362204905e+02 -2.627441807620654e+02 -2.627441807618991e+02 -2.584788655471594e-10 -1.337570223509024e-10 1.473488494885195e-11
-6.129302362206248e+02 -2.627441807620567e+02 -2.627441807616623e+02 3.242107463855299e-10 1.368882242433924e-10 -3.438639869029673e-10
-6.111432657498447e+02 -2.619779880104593e+02 -2.619779880109712e+02 -2.858603407147057e-10 -2.219500828574428e-11 6.521044430673824e-12
-6.111432657491287e+02 -2.619779880110083e+02 -2.619779880108042e+02 -3.770427109394600e-10 -2.278672348036664e-10 -1.635731239697621e-11
-6.111432657494601e+02 -2.619779880108508e+02 -2.619779880112382e+02 6.375640487636011e-11 -1.403536713049930e-10 -3.541716102666194e-10
-6.111432657494513e+02 -2.619779880103806e+02 -2.619779880105316e+02 -3.010212476567829e-11 -1.544790717930216e-10 -6.375437949013803e-11
-6.129302362209331e+02 -2.627441807613116e+02 -2.627441807622935e+02 -1.267169318754800e-10 -2.893146618573895e-10 -2.343396399692121e-11
-6.129302362202478e+02 -2.627441807615165e+02 -2.627441807615564e+02 1.791310220055680e-10 6.045308360856138e-11 -1.580530387207389e-10
-6.129302362212620e+02 -2.627441807624944e+02 -2.627441807623012e+02 -3.652945322769031e-11 -3.590636777580508e-10 -1.447542722466544e-10
-6.129302362204905e+02 -2.627441807620654e+02 -2.627441807618991e+02 -2.584788655471594e-10 -1.337570223509024e-10 1.473488494885195e-11
-6.111432657491287e+02 -2.619779880110083e+02 -2.619779880108042e+02 -3.770427109394600e-10 -2.278672348036664e-10 -1.635731239697621e-11
-6.111432657478979e+02 -2.619779880089726e+02 -2.619779880093662e+02 -1.902527549652069e-10 3.150620239678399e-11 2.227693955148638e-10
-6.111432657507916e+02 -2.619779880117086e+02 -2.619779880116852e+02 2.908235582283923e-12 -3.586198709198570e-11 -1.372956375984009e-10
-6.111432657494601e+02 -2.619779880108508e+02 -2.619779880112382e+02 6.375640487636011e-11 -1.403536713049930e-10 -3.541716102666194e-10
-6.129302362202478e+02 -2.627441807615165e+02 -2.627441807615564e+02 1.791310220055680e-10 6.045308360856138e-11 -1.580530387207389e-10
-6.129302362209251e+02 -2.627441807616682e+02 -2.627441807616634e+02 -3.518786653416328e-10 1.164520448601276e-10 5.756373081713969e-11
-6.129302362202778e+02 -2.627441807618674e+02 -2.627441807617938e+02 -1.625021978835991e-10 6.507022138762125e-11 1.926734938763184e-11
-6.129302362212620e+02 -2.627441807624944e+02 -2.627441807623012e+02 -3.652945322769031e-11 -3.590636777580508e-10 -1.447542722466544e-10
-6.111432657511474e+02 -2.619779880118297e+02 -2.619779880114876e+02 1.930506001939117e-11 7.130399683564737e-11 5.161803874225862e-10
-6.111432657494513e+02 -2.619779880103806e+02 -2.619779880105316e+02 -3.010212476567829e-11 -1.544790717930216e-10 -6.375437949013803e-11
-6.111432657500546e+02 -2.619779880103183e+02 -2.619779880104034e+02 2.764302305463013e-10 5.000549454315454e-13 -6.129889988842396e-11
-6.111432657485080e+02 -2.619779880100645e+02 -2.619779880097791e+02 -5.475324387573517e-11 -6.326118253412074e-11 6.033118777647237e-11
-6.129302362206248e+02 -2.627441807620567e+02 -2.627441807616623e+02 3.242107463855299e-10 1.368882242433924e-10 -3.438639869029673e-10
-6.129302362204905e+02 -2.627441807620654e+02 -2.627441807618991e+02 -2.584788655471594e-10 -1.337570223509024e-10 1.473488494885195e-11
-6.129302362211399e+02 -2.627441807621506e+02 -2.627441807624253e+02 1.229660928324639e-10 -2.247549253044702e-10 3.564811734396560e-11
-6.129302362201579e+02 -2.627441807615947e+02 -2.627441807620000e+02 3.575115197944943e-10 3.490689147091884e-11 2.003340499033038e-10
-6.111432657494513e+02 -2.619779880103806e+02 -2.619779880105316e+02 -3.010212476567829e-11 -1.544790717930216e-10 -6.375437949013803e-11
-6.111432657494601e+02 -2.619779880108508e+02 -2.619779880112382e+02 6.375640487636011e-11 -1.403536713049930e-10 -3.541716102666194e-10
-6.111432657496251e+02 -2.619779880115711e+02 -2.619779880107528e+02 -1.534999323176442e-10 -1.361212639197347e-10 -1.402021340067730e-10
-6.111432657500546e+02 -2.619779880103183e+02 -2.619779880104034e+02 2.764302305463013e-10 5.000549454315454e-13 -6.129889988842396e-11
-6.129302362204905e+02 -2.627441807620654e+02 -2.627441807618991e+02 -2.584788655471594e-10 -1.337570223509024e-10 1.473488494885195e-11
-6.129302362212620e+02 -2.627441807624944e+02 -2.627441807623012e+02 -3.652945322769031e-11 -3.590636777580508e-10 -1.447542722466544e-10
-6.129302362196629e+02 -2.627441807613470e+02 -2.627441807614043e+02 5.693263800130869e-11 3.455078637192462e-11 -1.158098532541497e-10
-6.129302362211399e+02 -2.627441807621506e+02 -2.627441807624253e+02 1.229660928324639e-10 -2.247549253044702e-10 3.564811734396560e-11
-6.111432657494601e+02 -2.619779880108508e+02 -2.619779880112382e+02 6.375640487636011e-11 -1.403536713049930e-10 -3.541716102666194e-10
-6.111432657507916e+02 -2.619779880117086e+02 -2.619779880116852e+02 2.908235582283923e-12 -3.586198709198570e-11 -1.372956375984009e-10
-6.111432657487353e+02 -2.619779880101186e+02 -2.619779880101805e+02 -7.542724101095443e-11 2.383037603196474e-11 -5.592949010496290e-11
-6.111432657496251e+02 -2.619779880115711e+02 -2.619779880107528e+02 -1.534999323176442e-10 -1.361212639197347e-10 -1.402021340067730e-10
-6.129302362212620e+02 -2.627441807624944e+02 -2.627441807623012e+02 -3.652945322769031e-11 -3.590636777580508e-10 -1.447542722466544e-10
-6.129302362202778e+02 -2.627441807618674e+02 -2.627441807617938e+02 -1.625021978835991e-10 6.507022138762125e-11 1.926734938763184e-11
-6.129302362199954e+02 -2.627441807622168e+02 -2.627441807619675e+02 -1.675494874812671e-10 -1.159147287275047e-10 -2.671159686576851e-11
-6.129302362196629e+02 -2.627441807613470e+02 -2.627441807614043e+02 5.693263800130869e-11 3.455078637192462e-11 -1.158098532541497e-10
-6.111432657485080e+02 -2.619779880100645e+02 -2.619779880097791e+02 -5.475324387573517e-11 -6.326118253412074e-11 6.033118777647237e-11
-6.111432657500546e+02 -2.619779880103183e+02 -2.619779880104034e+02 2.764302305463013e-10 5.000549454315454e-13 -6.129889988842396e-11
-6.111432657491264e+02 -2.619779880103847e+02 -2.619779880101157e+02 -2.324302231684389e-10 1.056860071621150e-10 -2.238967448843890e-10
-6.111432657492993e+02 -2.619779880102913e+02 -2.619779880105223e+02 3.021791099671070e-11 -8.701768670670422e-11 1.701827197395652e-10
-6.129302362201579e+02 -2.627441807615947e+02 -2.627441807620000e+02 3.575115197944943e-10 3.490689147091884e-11 2.003340499033038e-10
-6.129302362211399e+02 -2.627441807621506e+02 -2.627441807624253e+02 1.229660928324639e-10 -2.247549253044702e-10 3.564811734396560e-11
-6.129302362198230e+02 -2.627441807617251e+02 -2.627441807616598e+02 -1.186297664923034e-12 -2.918835750583138e-10 -1.496804279521360e-10
-6.129302362213975e+02 -2.627441807617136e+02 -2.627441807620330e+02 -2.855773450105076e-10 1.166713060710709e-10 3.694632627270608e-10
-6.111432657500546e+02 -2.619779880103183e+02 -2.619779880104034e+02 2.764302305463013e-10 5.000549454315454e-13 -6.129889988842396e-11
-6.111432657496251e+02 -2.619779880115711e+02 -2.619779880107528e+02 -1.534999323176442e-10 -1.361212639197347e-10 -1.402021340067730e-10
-6.111432657498133e+02 -2.619779880115418e+02 -2.619779880111068e+02 3.247716492144059e-11 -1.189901693589308e-10 -4.528314729169109e-11
-6.111432657491264e+02 -2.619779880103847e+02 -2.619779880101157e+02 -2.324302231684389e-10 1.056860071621150e-10 -2.238967448843890e-10
-6.129302362211399e+02 -2.627441807621506e+02 -2.627441807624253e+02 1.229660928324639e-10 -2.247549253044702e-10 3.564811734396560e-11
-6.129302362196629e+02 -2.627441807613470e+02 -2.627441807614043e+02 5.693263800130869e-11 3.455078637192462e-11 -1.158098532541497e-10
-6.129302362208712e+02 -2.627441807617350e+02 -2.627441807619804e+02 -2.415305987336185e-11 8.870687152111922e-11 -2.300490183287687e-11
-6.129302362198230e+02 -2.627441807617251e+02 -2.627441807616598e+02 -1.186297664923034e-12 -2.918835750583138e-10 -1.496804279521360e-10
-6.111432657496251e+02 -2.619779880115711e+02 -2.619779880107528e+02 -1.534999323176442e-10 -1.361212639197347e-10 -1.402021340067730e-10
-6.111432657487353e+02 -2.619779880101186e+02 -2.619779880101805e+02 -7.542724101095443e-11 2.383037603196474e-11 -5.592949010496290e-11
-6.111432657495726e+02 -2.619779880107228e+02 -2.619779880111587e+02 -1.487859505678115e-10 -1.428208486000907e-10 4.895900021303780e-11
-6.111432657498133e+02 -2.619779880115418e+02 -2.619779880111068e+02 3.247716492144059e-11 -1.189901693589308e-10 -4.528314729169109e-11
-6.129302362196629e+02 -2.627441807613470e+02 -2.627441807614043e+02 5.693263800130869e-11 3.455078637192462e-11 -1.158098532541497e-10
-6.129302362199954e+02 -2.627441807622168e+02 -2.627441807619675e+02 -1.675494874812671e-10 -1.159147287275047e-10 -2.671159686576851e-11
-6.129302362211420e+02 -2.627441807624957e+02 -2.627441807622238e+02 -2.422288499367889e-11 2.388251716892248e-10 1.169405217609308e-10
-6.129302362208712e+02 -2.627441807617350e+02 -2.627441807619804e+02 -2.415305987336185e-11 8.870687152111922e-11 -2.300490183287687e-11
-6.111432657492993e+02 -2.619779880102913e+02 -2.619779880105223e+02 3.021791099671070e-11 -8.701768670670422e-11 1.701827197395652e-10
-6.111432657491264e+02 -2.619779880103847e+02 -2.619779880101157e+02 -2.324302231684389e-10 1.056860071621150e-10 -2.238967448843890e-10
-6.111432657503616e+02 -2.619779880117225e+02 -2.619779880113885e+02 2.403547604141033e-10 -2.961574784366921e-10 -1.468131336760786e-10
-6.111432657487995e+02 -2.619779880096675e+02 -2.619779880103162e+02 -4.095222346354178e-11 1.842971410730294e-10 1.180984323306286e-10
-6.129302362213975e+02 -2.627441807617136e+02 -2.627441807620330e+02 -2.855773450105076e-10 1.166713060710709e-10 3.694632627270608e-10
-6.129302362198230e+02 -2.627441807617251e+02 -2.627441807616598e+02 -1.186297664923034e-12 -2.918835750583138e-10 -1.496804279521360e-10
-6.129302362213987e+02 -2.627441807626687e+02 -2.627441807624976e+02 2.728503001639679e-10 1.180479239758817e-10 -1.686969399383528e-10
-6.129302362199306e+02 -2.627441807610080e+02 -2.627441807618278e+02 -1.778751128531729e-11 4.063500954001805e-11 1.666129344897773e-10
-6.111432657491264e+02 -2.619779880103847e+02 -2.619779880101157e+02 -2.324302231684389e-10 1.056860071621150e-10 -2.238967448843890e-10
-6.111432657498133e+02 -2.619779880115418e+02 -2.619779880111068e+02 3.247716492144059e-11 -1.189901693589308e-10 -4.528314729169109e-11
-6.111432657489520e+02 -2.619779880094733e+02 -2.619779880100721e+02 6.073373580991911e-11 1.421632228806245e-10 -1.313165384605633e-10
-6.111432657503616e+02 -2.619779880117225e+02 -2.619779880113885e+02 2.403547604141033e-10 -2.961574784366921e-10 -1.468131336760786e-10
-6.129302362198230e+02 -2.627441807617251e+02 -2.627441807616598e+02 -1.186297664923034e-12 -2.918835750583138e-10 -1.496804279521360e-10
-6.129302362208712e+02 -2.627441807617350e+02 -2.627441807619804e+02 -2.415305987336185e-11 8.870687152111922e-11 -2.300490183287687e-11
-6.129302362203839e+02 -2.627441807625365e+02 -2.627441807618820e+02 -3.931515790129575e-11 1.505940207641575e-10 -3.257720088991836e-10
-6.129302362213987e+02 -2.627441807626687e+02 -2.627441807624976e+02 2.728503001639679e-10 1.180479239758817e-10 -1.686969399383528e-10
-6.111432657498133e+02 -2.619779880115418e+02 -2.619779880111068e+02 3.247716492144059e-11 -1.189901693589308e-10 -4.528314729169109e-11
-6.111432657495726e+02 -2.619779880107228e+02 -2.619779880111587e+02 -1.487859505678115e-10 -1.428208486000907e-10 4.895900021303780e-11
-6.111432657501557e+02 -2.619779880120544e+02 -2.619779880111198e+02 4.161718825533164e-10 1.469887327588248e-10 -1.651072325997243e-10
-6.111432657489520e+02 -2.619779880094733e+02 -2.619779880100721e+02 6.073373580991911e-11 1.421632228806245e-10 -1.313165384605633e-10
-6.129302362208712e+02 -2.627441807617350e+02 -2.627441807619804e+02 -2.415305987336185e-11 8.870687152111922e-11 -2.300490183287687e-11
-6.129302362211420e+02 -2.627441807624957e+02 -2.627441807622238e+02 -2.422288499367889e-11 2.388251716892248e-10 1.169405217609308e-10
-6.129302362217600e+02 -2.627441807613654e+02 -2.627441807621564e+02 7.355545517696267e-10 -1.627967963836378e-10 -1.325768099348874e-10
-6.129302362203839e+02 -2.627441807625365e+02 -2.627441807618820e+02 -3.931515790129575e-11 1.505940207641575e-10 -3.257720088991836e-10
-6.129302362202816e+02 -2.627441807621772e+02 -2.627441807609428e+02 5.169820557444516e-10 -3.449854747718694e-10 -2.271319718794175e-10
-6.129302362202170e+02 -2.627441807611843e+02 -2.627441807612926e+02 6.263635960790038e-11 -1.047966988088837e-10 -1.846157810196077e-10
-6.129302362209331e+02 -2.627441807613116e+02 -2.627441807622935e+02 -1.267169318754800e-10 -2.893146618573895e-10 -2.343396399692121e-11
-6.129302362204734e+02 -2.627441807625015e+02 -2.627441807615066e+02 2.806333451950670e-10 2.755248012871383e-10 8.073652880366638e-12
-6.140824681860340e+02 -2.632382192531074e+02 -2.632382192532806e+02 5.066897107837981e-11 1.247471923011279e-10 -1.230771811699081e-10
-6.140824681823246e+02 -2.632382192508015e+02 -2.632382192508015e+02 -3.801570449890330e-10 -7.242493249139543e-11 -3.625169824147123e-10
-6.140824681847550e+02 -2.632382192522755e+02 -2.632382192527862e+02 -3.055120139230190e-10 9.659684034118855e-11 3.117293175983584e-11
-6.140824681831346e+02 -2.632382192523947e+02 -2.632382192518360e+02 3.460779648146285e-10 9.969059869580876e-11 1.004644560854307e-09
-6.129302362202170e+02 -2.627441807611843e+02 -2.627441807612926e+02 6.263635960790038e-11 -1.047966988088837e-10 -1.846157810196077e-10
-6.129302362207918e+02 -2.627441807627195e+02 -2.627441807624280e+02 6.056610929303654e-10 2.711524197005654e-10 2.758608048332437e-11
-6.129302362202478e+02 -2.627441807615165e+02 -2.627441807615564e+02 1.791310220055680e-10 6.045308360856138e-11 -1.580530387207389e-10
-6.129302362209331e+02 -2.627441807613116e+02 -2.627441807622935e+02 -1.267169318754800e-10 -2.893146618573895e-10 -2.343396399692121e-11
-6.140824681823246e+02 -2.632382192508015e+02 -2.632382192508015e+02 -3.801570449890330e-10 -7.242493249139543e-11 -3.625169824147123e-10
-6.140824681821612e+02 -2.632382192511024e+02 -2.632382192510520e+02 -5.737287378425577e-10 -1.246757824422184e-10 -2.372188623262955e-10
-6.140824681854990e+02 -2.632382192536177e+02 -2.632382192533236e+02 -3.880870054944621e-10 -1.791681385575698e-10 2.005192685808102e-11
-6.140824681847550e+02 -2.632382192522755e+02 -2.632382192527862e+02 -3.055120139230190e-10 9.659684034118855e-11 3.117293175983584e-11
-6.129302362207918e+02 -2.627441807627195e+02 -2.627441807624280e+02 6.056610929303654e-10 2.711524197005654e-10 2.758608048332437e-11
-6.129302362205613e+02 -2.627441807630402e+02 -2.627441807625025e+02 1.048032417185033e-09 3.252174507434677e-10 -1.537180330317688e-10
-6.129302362209251e+02 -2.627441807616682e+02 -2.627441807616634e+02 -3.518786653416328e-10 1.164520448601276e-10 5.756373081713969e-11
-6.129302362202478e+02 -2.627441807615165e+02 -2.627441807615564e+02 1.791310220055680e-10 6.045308360856138e-11 -1.580530387207389e-10
-6.140824681821612e+02 -2.632382192511024e+02 -2.632382192510520e+02 -5.737287378425577e-10 -1.246757824422184e-10 -2.372188623262955e-10
-6.140824681827536e+02 -2.632382192510365e+02 -2.632382192511664e+02 -3.502761765846042e-10 -8.291219247447327e-11 2.913799493870277e-10
-6.140824681853071e+02 -2.632382192528575e+02 -2.632382192532762e+02 -2.145390018696026e-10 2.905618414491364e-11 -2.001878732743165e-10
-6.140824681854990e+02 -2.632382192536177e+02 -2.632382192533236e+02 -3.880870054944621e-10 -1.791681385575698e-10 2.005192685808102e-11
-6.129302362204734e+02 -2.627441807625015e+02 -2.627441807615066e+02 2.806333451950670e-10 2.755248012871383e-10 8.073652880366638e-12
-6.129302362209331e+02 -2.627441807613116e+02 -2.627441807622935e+02 -1.267169318754800e-10 -2.893146618573895e-10 -2.343396399692121e-11
-6.129302362204905e+02 -2.627441807620654e+02 -2.627441807618991e+02 -2.584788655471594e-10 -1.337570223509024e-10 1.473488494885195e-11
-6.129302362206248e+02 -2.627441807620567e+02 -2.627441807616623e+02 3.242107463855299e-10 1.368882242433924e-10 -3.438639869029673e-10
-6.140824681831346e+02 -2.632382192523947e+02 -2.632382192518360e+02 3.460779648146285e-10 9.969059869580876e-11 1.004644560854307e-09
-6.140824681847550e+02 -2.632382192522755e+02 -2.632382192527862e+02 -3.055120139230190e-10 9.659684034118855e-11 3.117293175983584e-11
-6.140824681854788e+02 -2.632382192522788e+02 -2.632382192523679e+02 3.197003246522843e-10 1.242346987130540e-10 -9.190702450647014e-11
-6.140824681856260e+02 -2.632382192538267e+02 -2.632382192544073e+02 -3.344570821756508e-10 -1.084560636061733e-10 7.192713185129535e-10
-6.129302362209331e+02 -2.627441807613116e+02 -2.627441807622935e+02 -1.267169318754800e-10 -2.893146618573895e-10 -2.343396399692121e-11
-6.129302362202478e+02 -2.627441807615165e+02 -2.627441807615564e+02 1.791310220055680e-10 6.045308360856138e-11 -1.580530387207389e-10
-6.129302362212620e+02 -2.627441807624944e+02 -2.627441807623012e+02 -3.652945322769031e-11 -3.590636777580508e-10 -1.447542722466544e-10
-6.129302362204905e+02 -2.627441807620654e+02 -2.627441807618991e+02 -2.584788655471594e-10 -1.337570223509024e-10 1.473488494885195e-11
-6.140824681847550e+02 -2.632382192522755e+02 -2.632382192527862e+02 -3.055120139230190e-10 9.659684034118855e-11 3.117293175983584e-11
-6.140824681854990e+02 -2.632382192536177e+02 -2.632382192533236e+02 -3.880870054944621e-10 -1.791681385575698e-10 2.005192685808102e-11
-6.140824681855020e+02 -2.632382192534168e+02 -2.632382192532395e+02 -3.252111422268122e-10 -1.980352032382271e-10 -3.111316591423507e-10
-6.140824681854788e+02 -2.632382192522788e+02 -2.632382192523679e+02 3.197003246522843e-10 1.242346987130540e-10 -9.190702450647014e-11
-6.129302362202478e+02 -2.627441807615165e+02 -2.627441807615564e+02 1.791310220055680e-10 6.045308360856138e-11 -1.580530387207389e-10
-6.129302362209251e+02 -2.627441807616682e+02 -2.627441807616634e+02 -3.518786653416328e-10 1.164520448601276e-10 5.756373081713969e-11
-6.129302362202778e+02 -2.627441807618674e+02 -2.627441807617938e+02 -1.625021978835991e-10 6.507022138762125e-11 1.926734938763184e-11
-6.129302362212620e+02 -2.627441807624944e+02 -2.627441807623012e+02 -3.652945322769031e-11 -3.590636777580508e-10 -1.447542722466544e-10
-6.140824681854990e+02 -2.632382192536177e+02 -2.632382192533236e+02 -3.880870054944621e-10 -1.791681385575698e-10 2.005192685808102e-11
-6.140824681853071e+02 -2.632382192528575e+02 -2.632382192532762e+02 -2.145390018696026e-10 2.905618414491364e-11 -2.001878732743165e-10
-6.140824681847946e+02 -2.632382192528203e+02 -2.632382192524144e+02 1.610949390373005e-10 -1.174694838970214e-11 -1.440276275608278e-10
-6.140824681855020e+02 -2.632382192534168e+02 -2.632382192532395e+02 -3.252111422268122e-10 -1.980352032382271e-10 -3.111316591423507e-10
-6.129302362206248e+02 -2.627441807620567e+02 -2.627441807616623e+02 3.242107463855299e-10 1.368882242433924e-10 -3.438639869029673e-10
-6.129302362204905e+02 -2.627441807620654e+02 -2.627441807618991e+02 -2.584788655471594e-10 -1.337570223509024e-10 1.473488494885195e-11
-6.129302362211399e+02 -2.627441807621506e+02 -2.627441807624253e+02 1.229660928324639e-10 -2.247549253044702e-10 3.564811734396560e-11
-6.129302362201579e+02 -2.627441807615947e+02 -2.627441807620000e+02 3.575115197944943e-10 3.490689147091884e-11 2.003340499033038e-10
-6.140824681856260e+02 -2.632382192538267e+02 -2.632382192544073e+02 -3.344570821756508e-10 -1.084560636061733e-10 7.192713185129535e-10
-6.140824681854788e+02 -2.632382192522788e+02 -2.632382192523679e+02 3.197003246522843e-10 1.242346987130540e-10 -9.190702450647014e-11
-6.140824681832573e+02 -2.632382192522468e+02 -2.632382192522709e+02 6.388219054034340e-10 -8.597351726365885e-11 -7.910661867072581e-11
-6.140824681848396e+02 -2.632382192525907e+02 -2.632382192520109e+02 -2.952045348916482e-10 -4.202598520038251e-10 1.787663680903844e-10
-6.129302362204905e+02 -2.627441807620654e+02 -2.627441807618991e+02 -2.584788655471594e-10 -1.337570223509024e-10 1.473488494885195e-11
-6.129302362212620e+02 -2.627441807624944e+02 -2.627441807623012e+02 -3.652945322769031e-11 -3.590636777580508e-10 -1.447542722466544e-10
-6.129302362196629e+02 -2.627441807613470e+02 -2.627441807614043e+02 5.693263800130869e-11 3.455078637192462e-11 -1.158098532541497e-10
-6.129302362211399e+02 -2.627441807621506e+02 -2.627441807624253e+02 1.229660928324639e-10 -2.247549253044702e-10 3.564811734396560e-11
-6.140824681854788e+02 -2.632382192522788e+02 -2.632382192523679e+02 3.197003246522843e-10 1.242346987130540e-10 -9.190702450647014e-11
-6.140824681855020e+02 -2.632382192534168e+02 -2.632382192532395e+02 -3.252111422268122e-10 -1.980352032382271e-10 -3.111316591423507e-10
-6.140824681838744e+02 -2.632382192525134e+02 -2.632382192522058e+02 9.183853799749673e-11 2.770361231352938e-10 -5.239932468172938e-10
-6.140824681832573e+02 -2.632382192522468e+02 -2.632382192522709e+02 6.388219054034340e-10 -8.597351726365885e-11 -7.910661867072581e-11
-6.129302362212620e+02 -2.627441807624944e+02 -2.627441807623012e+02 -3.652945322769031e-11 -3.590636777580508e-10 -1.447542722466544e-10
-6.129302362202778e+02 -2.627441807618674e+02 -2.627441807617938e+02 -1.625021978835991e-10 6.507022138762125e-11 1.926734938763184e-11
-6.129302362199954e+02 -2.627441807622168e+02 -2.627441807619675e+02 -1.675494874812671e-10 -1.159147287275047e-10 -2.671159686576851e-11
-6.129302362196629e+02 -2.627441807613470e+02 -2.627441807614043e+02 5.693263800130869e-11 3.455078637192462e-11 -1.158098532541497e-10
-6.140824681855020e+02 -2.632382192534168e+02 -2.632382192532395e+02 -3.252111422268122e-10 -1.980352032382271e-10 -3.111316591423507e-10
-6.140824681847946e+02 -2.632382192528203e+02 -2.632382192524144e+02 1.610949390373005e-10 -1.174694838970214e-11 -1.440276275608278e-10
-6.140824681843005e+02 -2.632382192526318e+02 -2.632382192532791e+02 -2.884147653593508e-10 -2.255395620142386e-11 -1.201518987831563e-10
-6.140824681838744e+02 -2.632382192525134e+02 -2.632382192522058e+02 9.183853799749673e-11 2.770361231352938e-10 -5.239932468172938e-10
-6.129302362201579e+02 -2.627441807615947e+02 -2.627441807620000e+02 3.575115197944943e-10 3.490689147091884e-11 2.003340499033038e-10
-6.129302362211399e+02 -2.627441807621506e+02 -2.627441807624253e+02 1.229660928324639e-10 -2.247549253044702e-10 3.564811734396560e-11
-6.129302362198230e+02 -2.627441807617251e+02 -2.627441807616598e+02 -1.186297664923034e-12 -2.918835750583138e-10 -1.496804279521360e-10
-6.129302362213975e+02 -2.627441807617136e+02 -2.627441807620330e+02 -2.855773450105076e-10 1.166713060710709e-10 3.694632627270608e-10
-6.140824681848396e+02 -2.632382192525907e+02 -2.632382192520109e+02 -2.952045348916482e-10 -4.202598520038251e-10 1.787663680903844e-10
-6.140824681832573e+02 -2.632382192522468e+02 -2.632382192522709e+02 6.388219054034340e-10 -8.597351726365885e-11 -7.910661867072581e-11
-6.140824681832654e+02 -2.632382192521692e+02 -2.632382192518678e+02 -4.392022923483157e-10 -6.522778537423848e-11 -1.893473066227002e-10
-6.140824681862014e+02 -2.632382192536205e+02 -2.632382192530619e+02 -2.884004876790597e-10 -1.842922761700850e-10 -2.701753981824771e-10
-6.129302362211399e+02 -2.627441807621506e+02 -2.627441807624253e+02 1.229660928324639e-10 -2.247549253044702e-10 3.564811734396560e-11
-6.129302362196629e+02 -2.627441807613470e+02 -2.627441807614043e+02 5.693263800130869e-11 3.455078637192462e-11 -1.158098532541497e-10
-6.129302362208712e+02 -2.627441807617350e+02 -2.627441807619804e+02 -2.415305987336185e-11 8.870687152111922e-11 -2.300490183287687e-11
-6.129302362198230e+02 -2.627441807617251e+02 -2.627441807616598e+02 -1.186297664923034e-12 -2.918835750583138e-10 -1.496804279521360e-10
-6.140824681832573e+02 -2.632382192522468e+02 -2.632382192522709e+02 6.388219054034340e-10 -8.597351726365885e-11 -7.910661867072581e-11
-6.140824681838744e+02 -2.632382192525134e+02 -2.632382192522058e+02 9.183853799749673e-11 2.770361231352938e-10 -5.239932468172938e-10
-6.140824681861180e+02 -2.632382192533715e+02 -2.632382192535142e+02 -2.163798727148890e-10 -1.892175861755035e-10 2.919793547189521e-10
-6.140824681832654e+02 -2.632382192521692e+02 -2.632382192518678e+02 -4.392022923483157e-10 -6.522778537423848e-11 -1.893473066227002e-10
-6.129302362196629e+02 -2.627441807613470e+02 -2.627441807614043e+02 5.693263800130869e-11 3.455078637192462e-11 -1.158098532541497e-10
-6.129302362199954e+02 -2.627441807622168e+02 -2.627441807619675e+02 -1.675494874812671e-10 -1.159147287275047e-10 -2.671159686576851e-11
-6.129302362211420e+02 -2.627441807624957e+02 -2.627441807622238e+02 -2.422288499367889e-11 2.388251716892248e-10 1.169405217609308e-10
-6.129302362208712e+02 -2.627441807617350e+02 -2.627441807619804e+02 -2.415305987336185e-11 8.870687152111922e-11 -2.300490183287687e-11
-6.140824681838744e+02 -2.632382192525134e+02 -2.632382192522058e+02 9.183853799749673e-11 2.770361231352938e-10 -5.239932468172938e-10
-6.140824681843005e+02 -2.632382192526318e+02 -2.632382192532791e+02 -2.884147653593508e-10 -2.255395620142386e-11 -1.201518987831563e-10
-6.140824681845827e+02 -2.632382192530590e+02 -2.632382192532251e+02 -3.427578982396809e-10 -6.330212610003432e-11 -2.133417587827193e-10
-6.140824681861180e+02 -2.632382192533715e+02 -2.632382192535142e+02 -2.163798727148890e-10 -1.892175861755035e-10 2.919793547189521e-10
-6.129302362213975e+02 -2.627441807617136e+02 -2.627441807620330e+02 -2.855773450105076e-10 1.166713060710709e-10 3.694632627270608e-10
-6.129302362198230e+02 -2.627441807617251e+02 -2.627441807616598e+02 -1.186297664923034e-12 -2.918835750583138e-10 -1.496804279521360e-10
-6.129302362213987e+02 -2.627441807626687e+02 -2.627441807624976e+02 2.728503001639679e-10 1.180479239758817e-10 -1.686969399383528e-10
-6.129302362199306e+02 -2.627441807610080e+02 -2.627441807618278e+02 -1.778751128531729e-11 4.063500954001805e-11 1.666129344897773e-10
-6.140824681862014e+02 -2.632382192536205e+02 -2.632382192530619e+02 -2.884004876790597e-10 -1.842922761700850e-10 -2.701753981824771e-10
-6.140824681832654e+02 -2.632382192521692e+02 -2.632382192518678e+02 -4.392022923483157e-10 -6.522778537423848e-11 -1.893473066227002e-10
-6.140824681854156e+02 -2.632382192525024e+02 -2.632382192528126e+02 -3.162537386984653e-10 -4.553410024415551e-12 3.650961500441544e-11
-6.140824681848280e+02 -2.632382192537202e+02 -2.632382192530049e+02 9.326165286832257e-10 -3.193026064943770e-11 1.105595563133644e-10
-6.129302362198230e+02 -2.627441807617251e+02 -2.627441807616598e+02 -1.186297664923034e-12 -2.918835750583138e-10 -1.496804279521360e-10
-6.129302362208712e+02 -2.627441807617350e+02 -2.627441807619804e+02 -2.415305987336185e-11 8.870687152111922e-11 -2.300490183287687e-11
-6.129302362203839e+02 -2.627441807625365e+02 -2.627441807618820e+02 -3.931515790129575e-11 1.505940207641575e-10 -3.257720088991836e-10
-6.129302362213987e+02 -2.627441807626687e+02 -2.627441807624976e+02 2.728503001639679e-10 1.180479239758817e-10 -1.686969399383528e-10
-6.140824681832654e+02 -2.632382192521692e+02 -2.632382192518678e+02 -4.392022923483157e-10 -6.522778537423848e-11 -1.893473066227002e-10
-6.140824681861180e+02 -2.632382192533715e+02 -2.632382192535142e+02 -2.163798727148890e-10 -1.892175861755035e-10 2.919793547189521e-10
-6.140824681849899e+02 -2.632382192530962e+02 -2.632382192529307e+02 5.523420466704276e-10 7.374084268262377e-11 -5.994150281697083e-11
-6.140824681854156e+02 -2.632382192525024e+02 -2.632382192528126e+02 -3.162537386984653e-10 -4.553410024415551e-12 3.650961500441544e-11
-6.129302362208712e+02 -2.627441807617350e+02 -2.627441807619804e+02 -2.415305987336185e-11 8.870687152111922e-11 -2.300490183287687e-11
-6.129302362211420e+02 -2.627441807624957e+02 -2.627441807622238e+02 -2.422288499367889e-11 2.388251716892248e-10 1.169405217609308e-10
-6.129302362217600e+02 -2.627441807613654e+02 -2.627441807621564e+02 7.355545517696267e-10 -1.627967963836378e-10 -1.325768099348874e-10
-6.129302362203839e+02 -2.627441807625365e+02 -2.627441807618820e+02 -3.931515790129575e-11 1.505940207641575e-10 -3.257720088991836e-10
-6.140824681861180e+02 -2.632382192533715e+02 -2.632382192535142e+02 -2.163798727148890e-10 -1.892175861755035e-10 2.919793547189521e-10
-6.140824681845827e+02 -2.632382192530590e+02 -2.632382192532251e+02 -3.427578982396809e-10 -6.330212610003432e-11 -2.133417587827193e-10
-6.140824681891281e+02 -2.632382192556743e+02 -2.632382192545953e+02 -1.711453424373007e-10 2.260446242032454e-10 4.930932637739440e-11
-6.140824681849899e+02 -2.632382192530962e+02 -2.632382192529307e+02 5.523420466704276e-10 7.374084268262377e-11 -5.994150281697083e-11
        </DataArray>
  </PointData>
  <CellData>
        <DataArray type="Float64" Name="element_GL_strains_xyz" NumberOfComponents="6" format="ascii">
-2.268874572018409e-04 -1.249000902703301e-16 6.938893903907228e-17 -1.769410072863173e-16 2.775557561562890e-17 -6.069839549787176e-17
-2.268874572018964e-04 -4.163336342344337e-17 -1.110223024625157e-16 -1.795348262354535e-16 -6.418476861114186e-17 8.672279032245059e-17
-2.268874572019797e-04 -1.387778780781446e-17 0.000000000000000e+00 -1.812614802624306e-16 -3.014082039509703e-17 7.371000246267339e-17
-2.268874572019242e-04 0.000000000000000e+00 -6.938893903907228e-17 -1.454896971244331e-16 1.639313684798083e-16 2.774179850758060e-17
-2.268874572021462e-04 -5.551115123125783e-17 -6.938893903907228e-17 -1.192461000754060e-16 2.949029909160570e-17 8.585405087365733e-17
-2.268874572022711e-04 -8.326672684688674e-17 2.775557561562891e-17 -3.906670505874541e-18 -5.984795992119984e-17 -2.471469232110869e-17
-2.268874572019797e-04 -5.551115123125783e-17 -1.387778780781446e-17 -2.210237268402188e-17 -6.722053469410127e-17 3.207959127666894e-17
-2.268874572020768e-04 -8.326672684688674e-17 6.938893903907228e-17 7.740554019309939e-17 -3.035766082959414e-17 -7.808223800188255e-18
-2.268874572020491e-04 -2.775557561562891e-17 -8.326672684688674e-17 2.731579345592760e-17 8.890457814381133e-18 -1.213991527856947e-17
-2.268874572021601e-04 -9.714451465470120e-17 -2.775557561562891e-17 4.944394901358275e-17 -8.847089727481716e-17 -3.989863994746655e-17
-2.268874572019380e-04 4.163336342344337e-17 2.775557561562891e-17 -8.662595693445396e-18 3.295974604355934e-17 -6.505291761244732e-17
-2.268874572019797e-04 2.775557561562891e-17 1.387778780781446e-17 -3.901750110142985e-17 -3.903127820947817e-17 -5.681652378648418e-17
-2.268874572021323e-04 -5.551115123125783e-17 -4.163336342344337e-17 -5.118064064785219e-17 7.806255641895629e-17 -1.734428252232914e-17
-2.268874572021878e-04 -1.249000902703301e-16 -8.326672684688674e-17 -1.396261486806946e-16 -4.770489558936218e-17 5.029871453849843e-17
-2.268874572018825e-04 4.163336342344337e-17 1.665334536937735e-16 -5.204150746347495e-17 3.556183125752456e-17 -9.236693972591158e-17
-2.265984699809237e-04 1.110223024625157e-16 4.163336342344337e-17 1.647806462271293e-16 -4.510281037539697e-17 -8.758093054849460e-17
-2.265984699809931e-04 -4.163336342344337e-17 -1.110223024625157e-16 -3.013025502011475e-17 -6.852157730108392e-17 1.959795256342906e-16
-2.265984699810902e-04 4.163336342344337e-17 8.326672684688674e-17 -5.659451800200051e-17 -1.951563910473900e-18 1.305160245568264e-16
-2.265984699809098e-04 -6.938893903907228e-17 2.775557561562891e-17 2.386316059350029e-17 2.354887118638515e-16 8.063535343064512e-17
-2.265984699806878e-04 1.110223024625157e-16 -1.942890293094024e-16 -4.140571190756908e-17 1.249000902703301e-16 1.348402530793477e-16
-2.265984699807988e-04 1.387778780781446e-16 -5.551115123125783e-17 1.352796343367044e-16 -9.974659986866643e-17 7.460136520187256e-17
-2.265984699807294e-04 2.775557561562891e-17 -8.326672684688674e-17 -1.251019426147360e-16 -8.760353553682876e-17 -8.952739844531622e-19
-2.265984699807572e-04 8.326672684688674e-17 4.163336342344337e-17 -1.963308676151876e-18 -9.714451465470120e-17 3.685334045638363e-17
-2.265984699808543e-04 -2.775557561562891e-17 -3.330669073875470e-16 3.339426231429632e-17 -9.345822726825046e-17 3.882161240171317e-17
-2.265984699807155e-04 -1.110223024625157e-16 1.387778780781446e-17 -4.920670943261307e-17 -6.852157730108388e-17 6.547588467976903e-17
-2.265984699810208e-04 0.000000000000000e+00 -4.163336342344337e-17 -3.317005068795112e-17 -4.770489558936220e-17 1.561644258611025e-17
-2.265984699809931e-04 2.775557561562891e-17 5.551115123125783e-17 -4.292369323160675e-17 -4.987329993433322e-17 1.335511026618800e-16
-2.265984699809653e-04 8.326672684688674e-17 5.551115123125783e-17 9.885407779583648e-17 6.591949208711868e-17 9.098944231450399e-18
-2.265984699807849e-04 -5.551115123125783e-17 -8.326672684688674e-17 -1.952163434077552e-17 -8.413408858487514e-17 -1.431254978494637e-17
-2.265984699808404e-04 -6.938893903907228e-17 2.775557561562891e-16 2.513147510867741e-17 9.540979117872441e-17 4.293479916065787e-17
-2.266703538448267e-04 0.000000000000000e+00 8.326672684688674e-17 -1.170849863918615e-17 -3.122502256758254e-17 -2.036520605584195e-17
-2.266703538447573e-04 2.498001805406602e-16 -1.110223024625157e-16 4.489034490231653e-17 -1.994931997373328e-17 1.847144268925529e-16
-2.266703538443965e-04 -1.942890293094024e-16 -2.775557561562891e-17 4.422778016571206e-17 -6.461844948013605e-17 5.028751468286707e-17
-2.266703538451320e-04 -1.942890293094024e-16 8.326672684688674e-17 -3.510794691502221e-17 1.994931997373327e-17 4.204256417125253e-17
-2.266703538449516e-04 8.326672684688674e-17 -1.942890293094024e-16 2.199815584804834e-18 1.214306433183766e-17 -3.687103390490213e-17
-2.266703538447296e-04 2.775557561562891e-17 -5.551115123125783e-17 1.602362328567847e-16 -1.834470075845474e-16 -1.337830762404942e-16
-2.266703538451875e-04 9.714451465470120e-17 -2.220446049250313e-16 4.943278626042993e-17 4.336808689942164e-19 5.678102838275586e-17
-2.266703538450349e-04 8.326672684688674e-17 4.163336342344337e-17 1.990346454921948e-16 -1.062518129035794e-16 -1.261931694643971e-16
-2.266703538448267e-04 -1.110223024625157e-16 -8.326672684688674e-17 4.575382324758679e-17 -1.166601537594403e-16 -1.780084968764534e-16
-2.266703538449794e-04 -2.775557561562891e-17 -8.326672684688674e-17 -2.492470484779317e-17 -5.637851296924624e-17 2.687307356172689e-17
-2.266703538448545e-04 -1.110223024625157e-16 2.775557561562891e-17 -8.867117184417499e-17 -1.214306433183764e-17 -1.127475878194814e-16
-2.266703538447989e-04 1.387778780781446e-17 0.000000000000000e+00 -5.961406205286499e-17 -8.218252467440124e-17 1.733288095377204e-17
-2.266703538449377e-04 -2.775557561562891e-17 -2.775557561562891e-17 2.796312540172447e-17 -5.030698080332741e-17 -4.343100769282745e-18
-2.266703538448683e-04 5.551115123125783e-17 1.387778780781446e-17 -3.211283356342829e-17 8.239936510889834e-17 -8.629334975205418e-17
-2.266703538447851e-04 -1.387778780781446e-16 0.000000000000000e+00 1.753059936589774e-17 -1.084202172485494e-18 5.199844623383697e-18
-2.271414994449439e-04 1.942890293094024e-16 2.220446049250313e-16 -5.637299595492320e-17 -1.613292832658431e-16 6.242265709977582e-17
-2.271414994447357e-04 -5.551115123125783e-17 -2.359223927328458e-16 -1.648302560139282e-17 1.275021754842953e-16 -9.885776118206347e-17
-2.271414994446802e-04 8.326672684688674e-17 -2.775557561562891e-17 -4.365181906460324e-18 8.023096076392730e-18 4.227521513299855e-17
-2.271414994446247e-04 -1.526556658859590e-16 1.387778780781446e-16 -1.192399738798876e-16 -5.507747036226364e-17 9.538299425201265e-17
-2.271414994443333e-04 2.775557561562891e-17 -1.387778780781446e-16 -1.747357562855315e-16 -9.844555726168374e-17 -1.196622266477843e-16
-2.271414994445692e-04 0.000000000000000e+00 -8.326672684688674e-17 -1.183688684536087e-16 -1.413799632921098e-16 4.206507393017935e-17
-2.271414994445969e-04 4.163336342344337e-17 4.163336342344337e-17 7.219170771701723e-17 -1.821459649775646e-17 1.656249113845884e-16
-2.271414994444720e-04 -1.249000902703301e-16 -5.551115123125783e-17 3.077360843826443e-17 -6.895525817007808e-17 -8.236153415354064e-17
-2.271414994445276e-04 -2.775557561562891e-16 -1.110223024625157e-16 1.603594626904276e-17 -5.724587470723462e-17 -1.603397590678455e-17
-2.271414994446247e-04 0.000000000000000e+00 0.000000000000000e+00 4.596761064244972e-17 -8.847089727481716e-17 1.179269120631300e-16
-2.271414994446941e-04 -1.249000902703301e-16 8.326672684688674e-17 -1.127806702855911e-17 -7.632783294297952e-17 -1.075189652797207e-16
-2.271414994444859e-04 4.163336342344337e-17 -1.942890293094024e-16 -1.335532158827287e-16 -3.773023560249556e-17 1.136153240100931e-16
-2.271414994445969e-04 -2.775557561562891e-17 0.000000000000000e+00 -1.318370138119791e-16 -4.423544863740858e-17 5.375002490102094e-17
-2.271414994446247e-04 -8.326672684688674e-17 1.110223024625157e-16 1.560482687098421e-17 2.428612866367531e-17 -1.717051131444434e-16
-2.271414994445553e-04 -1.526556658859590e-16 -1.665334536937735e-16 1.031744721769717e-16 1.669671345627676e-17 3.621176145233838e-17
-2.279967614977479e-04 4.163336342344337e-17 -2.775557561562891e-17 2.098882894527032e-16 1.301042606982606e-17 2.772333776637598e-17
-2.279967614977618e-04 1.249000902703301e-16 -2.775557561562891e-17 -1.040023194899354e-17 -6.938893903907185e-18 -1.569552922712412e-16
-2.279967614978035e-04 -5.551115123125783e-17 8.326672684688674e-17 -3.381425219748981e-17 2.818925648462293e-18 -2.611974124779012e-18
-2.279967614978867e-04 -8.326672684688674e-17 -1.387778780781446e-17 -9.256891214825547e-17 2.645453300864625e-17 1.187753557642331e-16
-2.279967614982337e-04 -1.387778780781446e-16 -8.326672684688674e-17 -1.704100792337403e-16 -8.977193988179972e-17 -2.202645902375273e-16
-2.279967614982059e-04 2.775557561562891e-17 0.000000000000000e+00 -1.430019531848091e-17 -1.376936759056591e-16 -4.381086556636308e-17
-2.279967614978590e-04 1.665334536937735e-16 -1.665334536937735e-16 1.764768647224685e-16 -5.290906601729258e-17 4.853626169198841e-17
-2.279967614980394e-04 0.000000000000000e+00 1.942890293094024e-16 1.463372309966692e-16 5.074066167232160e-17 -2.090092587999545e-16
-2.279967614978173e-04 -2.914335439641036e-16 -5.551115123125783e-17 8.864699539676148e-17 -8.847089727481719e-17 -1.983753752680804e-16
-2.279967614980394e-04 -1.665334536937735e-16 -1.249000902703301e-16 5.117770477099252e-17 -1.613292832658430e-16 -2.951205469539606e-17
-2.279967614977896e-04 -1.387778780781446e-16 1.110223024625157e-16 1.822013428781220e-17 -5.290906601729264e-17 -1.040685751923878e-16
-2.279967614979977e-04 3.053113317719180e-16 -1.665334536937735e-16 -1.240042484691980e-16 2.753873518113183e-17 -4.964854837118509e-17
-2.279967614979977e-04 6.938893903907228e-17 4.163336342344337e-17 -4.337955803596420e-17 1.214306433183767e-17 6.675303375012390e-17
-2.279967614980116e-04 1.526556658859590e-16 -2.775557561562891e-17 -5.985606882806716e-17 3.556183125752451e-17 -1.404805614830847e-16
-2.279967614982337e-04 -1.665334536937735e-16 -5.551115123125783e-17 8.409809294951292e-17 -7.806255641895604e-18 7.717897686723327e-17
        </DataArray>
        <DataArray type="Float64" Name="element_cauchy_coupling_stresses_xyz" NumberOfComponents="6" format="ascii">
-8.688764193220142e-01 -8.688764193220141e-01 -8.688764193220141e-01 -4.146681565593897e-33 -4.151321019699616e-32 2.658386546257756e-32
-8.688764192410123e-01 -8.688764192410122e-01 -8.688764192410123e-01 3.271338189151280e-32 -1.926367062505633e-34 -1.045533189336010e-32
-8.688764191588522e-01 -8.688764191588522e-01 -8.688764191588522e-01 2.444082857943031e-34 -8.114637894062162e-34 1.541093650004505e-33
-8.688764195131813e-01 -8.688764195131813e-01 -8.688764195131813e-01 -1.484034412782092e-33 -3.640833748135624e-32 2.502097799603575e-32
-8.688764194464667e-01 -8.688764194464664e-01 -8.688764194464665e-01 -1.894766904833386e-32 1.464038967504273e-32 -2.627788967338881e-32
-8.688764193384395e-01 -8.688764193384395e-01 -8.688764193384395e-01 1.615287655875209e-33 1.926367062505568e-34 1.562543352671630e-33
-8.688764196352610e-01 -8.688764196352611e-01 -8.688764196352611e-01 -1.685540621901820e-33 1.259607299614771e-33 2.311640475006749e-33
-8.688764195125012e-01 -8.688764195125013e-01 -8.688764195125012e-01 1.928166881152816e-33 4.104755761338931e-33 1.117292896253260e-32
-8.688764195753872e-01 -8.688764195753872e-01 -8.688764195753872e-01 9.334197525871910e-34 -5.201191068765176e-33 -3.852734125011241e-33
-8.688764196254668e-01 -8.688764196254668e-01 -8.688764196254668e-01 2.186135259743230e-32 -7.320194837521365e-33 5.615433327843843e-33
-8.688764194738832e-01 -8.688764194738832e-01 -8.688764194738832e-01 -6.234801705367436e-33 6.064144839797825e-33 1.217190740375059e-32
-8.688764196192476e-01 -8.688764196192476e-01 -8.688764196192474e-01 8.396141759924743e-33 3.852734125011318e-34 -3.756415771885961e-33
-8.688764195525432e-01 -8.688764195525432e-01 -8.688764195525431e-01 2.589425780034639e-33 -3.418003646437759e-33 -3.907738184196514e-34
-8.688764194739679e-01 -8.688764194739679e-01 -8.688764194739679e-01 -5.035133751419097e-33 -6.160463193237179e-33 -9.275530746690509e-33
-8.688764195005836e-01 -8.688764195005835e-01 -8.688764195005836e-01 -1.541093650004498e-33 1.271402261253709e-32 1.194347578753485e-32
-2.156367257370251e+00 -2.156367257370251e+00 -2.156367257370251e+00 2.512599116977610e-32 2.220525315309200e-32 -7.936630002897593e-32
-2.156367256888614e+00 -2.156367256888614e+00 -2.156367256888614e+00 -6.227139123550349e-32 -4.315060972449181e-32 7.705466022230685e-32
-2.156367256712618e+00 -2.156367256712617e+00 -2.156367256712617e+00 -1.903568381779555e-32 2.157530486224591e-32 3.313350389559191e-32
-2.156367257125060e+00 -2.156367257125060e+00 -2.156367257125060e+00 2.997103232491486e-32 1.263696427645831e-31 5.355298885450323e-32
-2.156367256987961e+00 -2.156367256987961e+00 -2.156367256987961e+00 -3.529464557875523e-32 -3.852733011115334e-33 5.538849642393348e-32
-2.156367257035591e+00 -2.156367257035591e+00 -2.156367257035591e+00 -2.617222150603452e-32 -5.856154176895315e-32 -3.698623690670725e-32
-2.156367256886290e+00 -2.156367256886290e+00 -2.156367256886290e+00 2.247713099983211e-32 7.210182288709137e-33 1.849311845335364e-32
-2.156367256888251e+00 -2.156367256888251e+00 -2.156367256888251e+00 -5.582393686169816e-33 -3.082186408892271e-33 1.755720090445110e-32
-2.156367257147655e+00 -2.156367257147654e+00 -2.156367257147654e+00 -1.612609307415074e-32 -2.696913107780738e-32 -5.153060317918515e-32
-2.156367256974720e+00 -2.156367256974720e+00 -2.156367256974720e+00 -6.252969468472857e-32 -6.164372817784537e-33 8.630121944898360e-32
-2.156367256990023e+00 -2.156367256990023e+00 -2.156367256990023e+00 5.944183860738654e-33 5.747288087096005e-33 -2.247687680389416e-32
-2.156367257352342e+00 -2.156367257352342e+00 -2.156367257352342e+00 -1.845225898970298e-32 6.164372817784552e-33 6.549646118896070e-33
-2.156367257149639e+00 -2.156367257149638e+00 -2.156367257149638e+00 2.579289876536229e-32 1.914977194055458e-32 2.756497722741712e-32
-2.156367257310283e+00 -2.156367257310283e+00 -2.156367257310283e+00 4.681224241977484e-32 -2.618201545937686e-32 -3.082186408892274e-33
-2.156367257531331e+00 -2.156367257531330e+00 -2.156367257531331e+00 6.658785598113816e-32 1.232874563556909e-32 -3.139818477051302e-32
-2.645420204084834e+00 -2.645420204084835e+00 -2.645420204084834e+00 -2.731262999776710e-32 2.396914490584478e-32 -4.283740710493846e-32
-2.645420203570890e+00 -2.645420203570890e+00 -2.645420203570890e+00 -2.708594064650658e-32 9.246559891656648e-33 -3.129167489567986e-32
-2.645420203399021e+00 -2.645420203399022e+00 -2.645420203399021e+00 2.585073637282148e-33 -9.015395894365239e-32 -4.623279945828326e-33
-2.645420203664468e+00 -2.645420203664468e+00 -2.645420203664468e+00 9.888385146767302e-32 -2.038361103518090e-33 -4.322938300169081e-32
-2.645420203414840e+00 -2.645420203414840e+00 -2.645420203414841e+00 9.663352278657770e-32 -3.390405293607441e-32 -4.931498608883552e-32
-2.645420203692967e+00 -2.645420203692967e+00 -2.645420203692967e+00 8.717089972643537e-32 7.782521242144358e-32 5.547935934993998e-32
-2.645420203410953e+00 -2.645420203410953e+00 -2.645420203410953e+00 2.818292479963252e-32 -3.852733288190274e-33 -1.294518384831933e-31
-2.645420203305527e+00 -2.645420203305527e+00 -2.645420203305527e+00 5.563989539669894e-32 1.232874652220889e-32 5.811286503166228e-32
-2.645420203592694e+00 -2.645420203592694e+00 -2.645420203592694e+00 -4.173005966675942e-33 8.013685239435775e-32 1.541093315276111e-32
-2.645420203479924e+00 -2.645420203479924e+00 -2.645420203479924e+00 8.960904873419004e-33 -4.603704587630714e-33 4.006842619717886e-32
-2.645420203463762e+00 -2.645420203463762e+00 -2.645420203463762e+00 2.107039686478144e-32 1.081656957976656e-32 3.390405293607441e-32
-2.645420203601979e+00 -2.645420203601979e+00 -2.645420203601979e+00 2.390842044956260e-32 -1.523884611928309e-32 -1.232874652220888e-32
-2.645420203606855e+00 -2.645420203606855e+00 -2.645420203606855e+00 -8.998999507497195e-33 -1.308932972258517e-32 3.082186630552212e-33
-2.645420203731269e+00 -2.645420203731269e+00 -2.645420203731269e+00 1.646253078337857e-32 1.386983983748499e-32 -1.548923458420963e-32
-2.645420203850523e+00 -2.645420203850523e+00 -2.645420203850523e+00 -1.146810754793461e-32 -1.232874652220887e-32 8.486716317285365e-33
-2.227668952912809e+00 -2.227668952912809e+00 -2.227668952912809e+00 -1.788802396480828e-32 -5.235690388358132e-32 1.572487654274864e-32
-2.227668952768524e+00 -2.227668952768524e+00 -2.227668952768524e+00 -1.776682219365459e-32 8.127760062394853e-32 -6.241430868825345e-32
-2.227668952627125e+00 -2.227668952627125e+00 -2.227668952627124e+00 4.403065883658113e-32 -2.619859870864956e-32 2.523541493259627e-32
-2.227668953533899e+00 -2.227668953533899e+00 -2.227668953533899e+00 -2.447185692208425e-32 -1.478968550088746e-33 -1.216580996878271e-32
-2.227668952913187e+00 -2.227668952913187e+00 -2.227668952913187e+00 -1.236347836678194e-32 -1.849312850022321e-32 -5.085610337561385e-32
-2.227668952452527e+00 -2.227668952452527e+00 -2.227668952452527e+00 -2.753452939891281e-32 -4.623282125055806e-32 -1.541094041685278e-33
-2.227668953575046e+00 -2.227668953575046e+00 -2.227668953575046e+00 2.983627673669309e-32 1.202236872450694e-32 8.170536704610781e-32
-2.227668953032983e+00 -2.227668953032982e+00 -2.227668953032983e+00 2.002663822371303e-32 4.700336827140068e-32 -1.171231471680804e-31
-2.227668952653535e+00 -2.227668952653535e+00 -2.227668952653535e+00 1.624190045823942e-32 -4.855453569648477e-32 -3.207045287322892e-32
-2.227668953137941e+00 -2.227668953137940e+00 -2.227668953137940e+00 -8.368972685177654e-33 -3.508507290627858e-32 7.397251400089291e-32
-2.227668953057153e+00 -2.227668953057153e+00 -2.227668953057153e+00 2.179086193923532e-32 -4.623282125055805e-32 -1.541094041685268e-32
-2.227668953108513e+00 -2.227668953108512e+00 -2.227668953108512e+00 5.261620049109847e-32 -6.508080279262915e-33 -2.465750466696430e-32
-2.227668952974821e+00 -2.227668952974821e+00 -2.227668952974821e+00 3.113043595783670e-32 -1.695203445853797e-32 2.157531658359378e-32
-2.227668953148382e+00 -2.227668953148381e+00 -2.227668953148382e+00 -3.577084247339823e-33 2.467765143328864e-32 -4.777391529224332e-32
-2.227668953515930e+00 -2.227668953515930e+00 -2.227668953515930e+00 5.430078088847655e-32 2.735441923991355e-32 4.777391529224336e-32
-9.281779312439790e-01 -9.281779312439790e-01 -9.281779312439790e-01 1.635098081568566e-32 2.136785891800413e-33 2.080478736439087e-32
-9.281779311366084e-01 -9.281779311366084e-01 -9.281779311366083e-01 1.267774070098849e-32 -4.850747402546541e-33 9.246572161951500e-33
-9.281779310347675e-01 -9.281779310347675e-01 -9.281779310347673e-01 -8.158814371027114e-33 -1.699643019857110e-33 4.815923001016406e-33
-9.281779323590023e-01 -9.281779323590021e-01 -9.281779323590023e-01 -3.212230995507177e-32 6.198046423758382e-33 5.586470681179031e-32
-9.281779316588007e-01 -9.281779316588004e-01 -9.281779316588006e-01 2.540722564967593e-32 -3.852738400813126e-32 -2.658389496561057e-32
-9.281779306862930e-01 -9.281779306862930e-01 -9.281779306862931e-01 -1.447925978275046e-32 -2.600598420548857e-33 2.619862112552926e-32
-9.281779323252922e-01 -9.281779323252920e-01 -9.281779323252922e-01 -5.965149111354587e-33 -1.098030444231740e-32 1.772259664374037e-32
-9.281779318140068e-01 -9.281779318140067e-01 -9.281779318140067e-01 2.039213686846191e-32 -1.503597520924972e-32 -8.861298321870187e-33
-9.281779310622879e-01 -9.281779310622877e-01 -9.281779310622876e-01 3.212719220603515e-32 -1.882581399130119e-32 -1.358090286286627e-32
-9.281779316438371e-01 -9.281779316438371e-01 -9.281779316438370e-01 -1.486783767765489e-33 -3.082190720650501e-32 2.234588272471614e-32
-9.281779316707010e-01 -9.281779316707008e-01 -9.281779316707010e-01 -1.649118323994325e-32 -2.465752576520400e-32 1.107662290233771e-32
-9.281779319588768e-01 -9.281779319588768e-01 -9.281779319588767e-01 1.889306612719903e-32 5.971744521260347e-33 -7.314572725123155e-33
-9.281779314544065e-01 -9.281779314544065e-01 -9.281779314544065e-01 3.031465000618808e-32 2.311643040487875e-33 5.162669457089588e-32
-9.281779317735088e-01 -9.281779317735087e-01 -9.281779317735087e-01 -1.814148095258228e-33 -1.001711984211412e-32 -3.490210693129456e-32
-9.281779324780058e-01 -9.281779324780057e-01 -9.281779324780058e-01 3.676496733763867e-32 1.302892662309475e-32 1.200683369152179e-32
        </DataArray>
        <DataArray type="Float64" Name="element_cauchy_stresses_xyz" NumberOfComponents="6" format="ascii">
-6.110935005478243e+02 -2.619566503229962e+02 -2.619566503226907e+02 -2.722193569102035e-10 4.271057715632789e-11 -9.343423332637838e-11
-6.110935005480569e+02 -2.619566503230109e+02 -2.619566503231418e+02 -2.762352851485798e-10 -9.876820967400839e-11 1.334608620197029e-10
-6.110935005481878e+02 -2.619566503229963e+02 -2.619566503229818e+02 -2.789165078508208e-10 -4.638101738069988e-11 1.134484562599614e-10
-6.110935005481006e+02 -2.619566503229381e+02 -2.619566503230399e+02 -2.238617973746601e-10 2.522593463295619e-10 4.272208592399146e-11
-6.110935005486533e+02 -2.619566503232729e+02 -2.619566503233020e+02 -1.835052023605618e-10 4.537998822859846e-11 1.321285793820231e-10
-6.110935005489297e+02 -2.619566503233893e+02 -2.619566503232001e+02 -5.999360510702547e-12 -9.209468199333215e-11 -3.803835062408726e-11
-6.110935005482024e+02 -2.619566503230836e+02 -2.619566503229963e+02 -3.405089144256293e-11 -1.034396790504818e-10 4.939258498159836e-11
-6.110935005483771e+02 -2.619566503231273e+02 -2.619566503228945e+02 1.191054330953058e-10 -4.671469376473369e-11 -1.200659544138545e-11
-6.110935005484642e+02 -2.619566503231710e+02 -2.619566503232292e+02 4.204307295710686e-11 1.368073174538629e-11 -1.868648323050735e-11
-6.110935005487262e+02 -2.619566503233748e+02 -2.619566503232438e+02 7.605428943746128e-11 -1.361399646857953e-10 -6.138252299610242e-11
-6.110935005479405e+02 -2.619566503227052e+02 -2.619566503227343e+02 -1.336098702747148e-11 5.071881037313940e-11 -1.000789890878957e-10
-6.110935005480859e+02 -2.619566503228071e+02 -2.619566503228216e+02 -6.006932068375952e-11 -6.006174912608616e-11 -8.739671216500191e-11
-6.110935005486534e+02 -2.619566503232584e+02 -2.619566503232584e+02 -7.872006616204855e-11 1.201234982521724e-10 -2.669259641117031e-11
-6.110935005489007e+02 -2.619566503235494e+02 -2.619566503234767e+02 -2.148682081301312e-10 -7.340880448743867e-11 7.740807529893345e-11
-6.110935005476058e+02 -2.619566503224577e+02 -2.619566503222686e+02 -8.006446329200571e-11 5.472292698154517e-11 -1.421247878057650e-10
-6.103148401396127e+02 -2.616227873597350e+02 -2.616227873598223e+02 2.535643358579415e-10 -6.940466781286822e-11 -1.348094548448622e-10
-6.103148401401655e+02 -2.616227873603755e+02 -2.616227873604919e+02 -4.638675102306328e-11 -1.054417068695498e-10 3.016430614795081e-10
-6.103148401401072e+02 -2.616227873600698e+02 -2.616227873600262e+02 -8.707105999207887e-11 -3.003086588056826e-12 2.008613285318967e-10
-6.103148401398454e+02 -2.616227873602298e+02 -2.616227873600989e+02 3.667958856543481e-11 3.623724482921868e-10 1.241445176524868e-10
-6.103148401392345e+02 -2.616227873597350e+02 -2.616227873601715e+02 -6.373436387835531e-11 1.921975416356350e-10 2.075527003918639e-10
-6.103148401393363e+02 -2.616227873596478e+02 -2.616227873598805e+02 2.082111299126227e-10 -1.534910922784585e-10 1.147459259396306e-10
-6.103148401393655e+02 -2.616227873598951e+02 -2.616227873600260e+02 -1.925106495266946e-10 -1.348052201749939e-10 -1.291451022308764e-12
-6.103148401392199e+02 -2.616227873596476e+02 -2.616227873597058e+02 -2.984333050069365e-12 -1.494869768277161e-10 5.672678374403216e-11
-6.103148401400931e+02 -2.616227873604774e+02 -2.616227873609430e+02 5.137321741760869e-11 -1.438144799391644e-10 5.970347926451800e-11
-6.103148401393511e+02 -2.616227873600988e+02 -2.616227873599387e+02 -7.575207918702246e-11 -1.054417068695498e-10 1.007626769332049e-10
-6.103148401401656e+02 -2.616227873602590e+02 -2.616227873603318e+02 -5.105095961486983e-11 -7.340878326361061e-11 2.401319860052660e-11
-6.103148401398890e+02 -2.616227873600116e+02 -2.616227873599825e+02 -6.606941731934529e-11 -7.674554613922928e-11 2.055327965577628e-10
-6.103148401397727e+02 -2.616227873598660e+02 -2.616227873598806e+02 1.521606217980792e-10 1.014375914188074e-10 1.402408332301128e-11
-6.103148401396274e+02 -2.616227873601716e+02 -2.616227873602152e+02 -3.001483463035293e-11 -1.294663995740042e-10 -2.201598049786183e-11
-6.103148401393217e+02 -2.616227873598223e+02 -2.616227873593567e+02 3.873155489996617e-11 1.468175665272211e-10 6.605232740166319e-11
-6.105085272422938e+02 -2.617058337498943e+02 -2.617058337497634e+02 -1.801579767251119e-11 -4.804938886445068e-11 -3.138584563774702e-11
-6.105085272420174e+02 -2.617058337493269e+02 -2.617058337499380e+02 6.904860613457215e-11 -3.069822066339903e-11 2.842795094069297e-10
-6.105085272414503e+02 -2.617058337500544e+02 -2.617058337497488e+02 6.806633668909462e-11 -9.943554084448818e-11 7.742530975027843e-11
-6.105085272432539e+02 -2.617058337507532e+02 -2.617058337502439e+02 -5.407439760480708e-11 3.069822066339902e-11 6.475619994527345e-11
-6.105085272428030e+02 -2.617058337500837e+02 -2.617058337505930e+02 3.287670742644041e-12 1.868587344728631e-11 -5.669955688283659e-11
-6.105085272421193e+02 -2.617058337498071e+02 -2.617058337499817e+02 2.465445097480701e-10 -2.822901595786476e-10 -2.058431101894615e-10
-6.105085272434429e+02 -2.617058337503603e+02 -2.617058337509569e+02 7.607146679933722e-11 6.673526231173469e-13 8.745133286217322e-11
-6.105085272427300e+02 -2.617058337498653e+02 -2.617058337499527e+02 3.062836890530109e-10 -1.635013926637557e-10 -1.941678432244799e-10
-6.105085272426285e+02 -2.617058337504038e+02 -2.617058337503165e+02 7.038898461342746e-11 -1.795178556185726e-10 -2.739130777474333e-10
-6.105085272428611e+02 -2.617058337502729e+02 -2.617058337503893e+02 -3.838245814625447e-11 -8.675584100525813e-11 4.138978096397260e-11
-6.105085272425557e+02 -2.617058337502874e+02 -2.617058337500691e+02 -1.364681651241865e-10 -1.868587344728635e-11 -1.734868710731892e-10
-6.105085272422938e+02 -2.617058337498944e+02 -2.617058337499235e+02 -9.176643198195410e-11 -1.264633220807417e-10 2.671014126223545e-11
-6.105085272427157e+02 -2.617058337502147e+02 -2.617058337501855e+02 4.304878277716679e-11 -7.741290428161496e-11 -6.662331052135923e-12
-6.105085272424101e+02 -2.617058337498362e+02 -2.617058337498945e+02 -4.934143140137915e-11 1.267969983923004e-10 -1.327871356628160e-10
-6.105085272424393e+02 -2.617058337503310e+02 -2.617058337500982e+02 2.707316709721754e-11 -1.668381557793433e-12 8.013072635911313e-12
-6.117780042569062e+02 -2.622501422707441e+02 -2.622501422707150e+02 -8.674466344175281e-11 -2.482552928171269e-10 9.611913752866778e-11
-6.117780042571832e+02 -2.622501422717047e+02 -2.622501422719521e+02 -2.534879957821665e-11 1.962017636780519e-10 -1.521549537834794e-10
-6.117780042566155e+02 -2.622501422710206e+02 -2.622501422711661e+02 -6.628352348449461e-12 1.234602934708831e-11 6.506547121656399e-11
-6.117780042565865e+02 -2.622501422713989e+02 -2.622501422709915e+02 -1.835146294245751e-10 -8.475382308541702e-11 1.468255295295459e-10
-6.117780042558448e+02 -2.622501422708896e+02 -2.622501422710932e+02 -2.689400502691286e-10 -1.514891168534618e-10 -1.841994164503789e-10
-6.117780042564848e+02 -2.622501422711807e+02 -2.622501422712680e+02 -1.821859875798659e-10 -2.175570576838263e-10 6.472156169599906e-11
-6.117780042563829e+02 -2.622501422709623e+02 -2.622501422709624e+02 1.111138851218790e-10 -2.802882338257883e-11 2.549342798215180e-10
-6.117780042563395e+02 -2.622501422713262e+02 -2.622501422712535e+02 4.739858305883772e-11 -1.061091170911913e-10 -1.268264687079459e-10
-6.117780042567324e+02 -2.622501422718502e+02 -2.622501422715882e+02 2.470221594551818e-11 -8.809058777381927e-11 -2.470524796084401e-11
-6.117780042565430e+02 -2.622501422711079e+02 -2.622501422711079e+02 7.072728333282417e-11 -1.361399992868115e-10 1.815315207073202e-10
-6.117780042567175e+02 -2.622501422714136e+02 -2.622501422711225e+02 -1.734359634137707e-11 -1.174541170317590e-10 -1.655180822183153e-10
-6.117780042563249e+02 -2.622501422710789e+02 -2.622501422714135e+02 -2.055295447289490e-10 -5.805970557819905e-11 1.748206975420079e-10
-6.117780042565429e+02 -2.622501422712243e+02 -2.622501422711807e+02 -2.028322384372294e-10 -6.806999964340574e-11 8.277359478272167e-11
-6.117780042564992e+02 -2.622501422711661e+02 -2.622501422709333e+02 2.403107298868044e-11 3.737176451010511e-11 -2.642617576708825e-10
-6.117780042567178e+02 -2.622501422716610e+02 -2.622501422716756e+02 1.588578937089445e-10 2.569308810069729e-11 5.571222123692989e-11
-6.140824681839590e+02 -2.632382192522537e+02 -2.632382192523264e+02 3.229458380860537e-10 2.002060526106686e-11 4.275049356541807e-11
-6.140824681839154e+02 -2.632382192520645e+02 -2.632382192522536e+02 -1.602531017256179e-11 -1.067765613923571e-11 -2.415841005552404e-10
-6.140824681841627e+02 -2.632382192524865e+02 -2.632382192522974e+02 -5.206148661175381e-11 4.337797806564502e-12 -3.987990842677515e-12
-6.140824681844392e+02 -2.632382192527049e+02 -2.632382192526030e+02 -1.424812675681249e-10 4.070856403083606e-11 1.828950347364626e-10
-6.140824681855302e+02 -2.632382192533017e+02 -2.632382192532290e+02 -2.622509074464674e-10 -1.381421763013618e-10 -3.390079738313295e-10
-6.140824681851955e+02 -2.632382192528215e+02 -2.632382192528797e+02 -2.203499170200769e-11 -2.118847390129583e-10 -6.737333522382697e-11
-6.140824681842792e+02 -2.632382192522392e+02 -2.632382192526903e+02 2.715990304090931e-10 -8.141712806167209e-11 7.478194026524439e-11
-6.140824681845843e+02 -2.632382192525012e+02 -2.632382192522247e+02 2.252267114321023e-10 7.808036051816093e-11 -3.216293916832181e-10
-6.140824681845413e+02 -2.632382192532143e+02 -2.632382192528360e+02 1.365053681756315e-10 -1.361401157752550e-10 -3.052963500461718e-10
-6.140824681850648e+02 -2.632382192531853e+02 -2.632382192531124e+02 7.872458391507595e-11 -2.482555052372298e-10 -4.533621311678639e-11
-6.140824681841192e+02 -2.632382192525884e+02 -2.632382192522538e+02 2.801393453026246e-11 -8.141712806167209e-11 -1.601511466276086e-10
-6.140824681845409e+02 -2.632382192520792e+02 -2.632382192526902e+02 -1.908634078324141e-10 4.237694780259164e-11 -7.640672681971681e-11
-6.140824681845118e+02 -2.632382192523702e+02 -2.632382192524138e+02 -6.670248176399900e-11 1.868589824366249e-11 1.028010486363014e-10
-6.140824681845407e+02 -2.632382192522247e+02 -2.632382192524720e+02 -9.206130640753151e-11 5.472298771358292e-11 -2.162225368195227e-10
-6.140824681855302e+02 -2.632382192533745e+02 -2.632382192531999e+02 1.294924498922053e-10 -1.201236315664016e-11 1.187867941439640e-10
        </DataArray>
      </CellData>

    </Piece>
  </UnstructuredGrid>
</VTKFile>
