<?xml version="1.0" ?> 
<!-- 
# vtk DataFile Version 3.0
-->
<VTKFile type="UnstructuredGrid" version="0.1" compressor="vtkZLibDataCompressor" byte_order="LittleEndian">
  <UnstructuredGrid>
    <FieldData>
      <DataArray type="Float64" Name="TIME" NumberOfTuples="1" format="ascii">
9.999999999999999e-02 
      </DataArray>
    </FieldData>

    <Piece NumberOfPoints="400" NumberOfCells="50" >
      <Points>
        <DataArray type="Float64" NumberOfComponents="3" format="ascii">
-5.000000000000000e+00 -5.000000000000000e+00 -1.000000000000000e+00
-5.000000000000000e+00 -5.000000000000000e+00 -3.000000000000000e+00
-5.000000000000000e+00 -3.000000000000000e+00 -3.000000000000000e+00
-5.000000000000000e+00 -3.000000000000000e+00 -1.000000000000000e+00
-3.000000000000000e+00 -5.000000000000000e+00 -1.000000000000000e+00
-3.000000000000000e+00 -5.000000000000000e+00 -3.000000000000000e+00
-3.000000000000000e+00 -3.000000000000000e+00 -3.000000000000000e+00
-3.000000000000000e+00 -3.000000000000000e+00 -1.000000000000000e+00
-5.000000000000000e+00 -5.000000000000000e+00 -3.000000000000000e+00
-5.000000000000000e+00 -5.000000000000000e+00 -5.000000000000000e+00
-5.000000000000000e+00 -3.000000000000000e+00 -5.000000000000000e+00
-5.000000000000000e+00 -3.000000000000000e+00 -3.000000000000000e+00
-3.000000000000000e+00 -5.000000000000000e+00 -3.000000000000000e+00
-3.000000000000000e+00 -5.000000000000000e+00 -5.000000000000000e+00
-3.000000000000000e+00 -3.000000000000000e+00 -5.000000000000000e+00
-3.000000000000000e+00 -3.000000000000000e+00 -3.000000000000000e+00
-5.000000000000000e+00 -3.000000000000000e+00 -1.000000000000000e+00
-5.000000000000000e+00 -3.000000000000000e+00 -3.000000000000000e+00
-5.000000000000000e+00 -1.000000000000000e+00 -3.000000000000000e+00
-5.000000000000000e+00 -1.000000000000000e+00 -1.000000000000000e+00
-3.000000000000000e+00 -3.000000000000000e+00 -1.000000000000000e+00
-3.000000000000000e+00 -3.000000000000000e+00 -3.000000000000000e+00
-3.000000000000000e+00 -1.000000000000000e+00 -3.000000000000000e+00
-3.000000000000000e+00 -1.000000000000000e+00 -1.000000000000000e+00
-5.000000000000000e+00 -3.000000000000000e+00 -3.000000000000000e+00
-5.000000000000000e+00 -3.000000000000000e+00 -5.000000000000000e+00
-5.000000000000000e+00 -1.000000000000000e+00 -5.000000000000000e+00
-5.000000000000000e+00 -1.000000000000000e+00 -3.000000000000000e+00
-3.000000000000000e+00 -3.000000000000000e+00 -3.000000000000000e+00
-3.000000000000000e+00 -3.000000000000000e+00 -5.000000000000000e+00
-3.000000000000000e+00 -1.000000000000000e+00 -5.000000000000000e+00
-3.000000000000000e+00 -1.000000000000000e+00 -3.000000000000000e+00
-5.000000000000000e+00 -1.000000000000000e+00 -1.000000000000000e+00
-5.000000000000000e+00 -1.000000000000000e+00 -3.000000000000000e+00
-5.000000000000000e+00 1.000000000000000e+00 -3.000000000000000e+00
-5.000000000000000e+00 1.000000000000000e+00 -1.000000000000000e+00
-3.000000000000000e+00 -1.000000000000000e+00 -1.000000000000000e+00
-3.000000000000000e+00 -1.000000000000000e+00 -3.000000000000000e+00
-3.000000000000000e+00 1.000000000000000e+00 -3.000000000000000e+00
-3.000000000000000e+00 1.000000000000000e+00 -1.000000000000000e+00
-5.000000000000000e+00 -1.000000000000000e+00 -3.000000000000000e+00
-5.000000000000000e+00 -1.000000000000000e+00 -5.000000000000000e+00
-5.000000000000000e+00 1.000000000000000e+00 -5.000000000000000e+00
-5.000000000000000e+00 1.000000000000000e+00 -3.000000000000000e+00
-3.000000000000000e+00 -1.000000000000000e+00 -3.000000000000000e+00
-3.000000000000000e+00 -1.000000000000000e+00 -5.000000000000000e+00
-3.000000000000000e+00 1.000000000000000e+00 -5.000000000000000e+00
-3.000000000000000e+00 1.000000000000000e+00 -3.000000000000000e+00
-5.000000000000000e+00 1.000000000000000e+00 -1.000000000000000e+00
-5.000000000000000e+00 1.000000000000000e+00 -3.000000000000000e+00
-5.000000000000000e+00 3.000000000000000e+00 -3.000000000000000e+00
-5.000000000000000e+00 3.000000000000000e+00 -1.000000000000000e+00
-3.000000000000000e+00 1.000000000000000e+00 -1.000000000000000e+00
-3.000000000000000e+00 1.000000000000000e+00 -3.000000000000000e+00
-3.000000000000000e+00 3.000000000000000e+00 -3.000000000000000e+00
-3.000000000000000e+00 3.000000000000000e+00 -9.999999999999999e-01
-5.000000000000000e+00 1.000000000000000e+00 -3.000000000000000e+00
-5.000000000000000e+00 1.000000000000000e+00 -5.000000000000000e+00
-5.000000000000000e+00 3.000000000000000e+00 -5.000000000000000e+00
-5.000000000000000e+00 3.000000000000000e+00 -3.000000000000000e+00
-3.000000000000000e+00 1.000000000000000e+00 -3.000000000000000e+00
-3.000000000000000e+00 1.000000000000000e+00 -5.000000000000000e+00
-3.000000000000000e+00 3.000000000000000e+00 -4.999999999999999e+00
-3.000000000000000e+00 3.000000000000000e+00 -3.000000000000000e+00
-5.000000000000000e+00 3.000000000000000e+00 -1.000000000000000e+00
-5.000000000000000e+00 3.000000000000000e+00 -3.000000000000000e+00
-5.000000000000000e+00 5.000000000000000e+00 -3.000000000000000e+00
-5.000000000000000e+00 5.000000000000000e+00 -1.000000000000000e+00
-3.000000000000000e+00 3.000000000000000e+00 -9.999999999999999e-01
-3.000000000000000e+00 3.000000000000000e+00 -3.000000000000000e+00
-3.000000000000000e+00 5.000000000000000e+00 -3.000000000000000e+00
-3.000000000000000e+00 5.000000000000000e+00 -1.000000000000000e+00
-5.000000000000000e+00 3.000000000000000e+00 -3.000000000000000e+00
-5.000000000000000e+00 3.000000000000000e+00 -5.000000000000000e+00
-5.000000000000000e+00 5.000000000000000e+00 -5.000000000000000e+00
-5.000000000000000e+00 5.000000000000000e+00 -3.000000000000000e+00
-3.000000000000000e+00 3.000000000000000e+00 -3.000000000000000e+00
-3.000000000000000e+00 3.000000000000000e+00 -4.999999999999999e+00
-3.000000000000000e+00 5.000000000000000e+00 -5.000000000000000e+00
-3.000000000000000e+00 5.000000000000000e+00 -3.000000000000000e+00
-3.000000000000000e+00 -5.000000000000000e+00 -1.000000000000000e+00
-3.000000000000000e+00 -5.000000000000000e+00 -3.000000000000000e+00
-3.000000000000000e+00 -3.000000000000000e+00 -3.000000000000000e+00
-3.000000000000000e+00 -3.000000000000000e+00 -1.000000000000000e+00
-1.000000000000000e+00 -5.000000000000000e+00 -1.000000000000000e+00
-1.000000000000000e+00 -5.000000000000000e+00 -3.000000000000000e+00
-1.000000000000000e+00 -3.000000000000000e+00 -3.000000000000000e+00
-1.000000000000000e+00 -3.000000000000000e+00 -1.000000000000000e+00
-3.000000000000000e+00 -5.000000000000000e+00 -3.000000000000000e+00
-3.000000000000000e+00 -5.000000000000000e+00 -5.000000000000000e+00
-3.000000000000000e+00 -3.000000000000000e+00 -5.000000000000000e+00
-3.000000000000000e+00 -3.000000000000000e+00 -3.000000000000000e+00
-1.000000000000000e+00 -5.000000000000000e+00 -3.000000000000000e+00
-1.000000000000000e+00 -5.000000000000000e+00 -5.000000000000000e+00
-1.000000000000000e+00 -3.000000000000000e+00 -5.000000000000000e+00
-1.000000000000000e+00 -3.000000000000000e+00 -3.000000000000000e+00
-3.000000000000000e+00 -3.000000000000000e+00 -1.000000000000000e+00
-3.000000000000000e+00 -3.000000000000000e+00 -3.000000000000000e+00
-3.000000000000000e+00 -1.000000000000000e+00 -3.000000000000000e+00
-3.000000000000000e+00 -1.000000000000000e+00 -1.000000000000000e+00
-1.000000000000000e+00 -3.000000000000000e+00 -1.000000000000000e+00
-1.000000000000000e+00 -3.000000000000000e+00 -3.000000000000000e+00
-1.000000000000000e+00 -1.000000000000000e+00 -3.000000000000000e+00
-1.000000000000000e+00 -1.000000000000000e+00 -1.000000000000000e+00
-3.000000000000000e+00 -3.000000000000000e+00 -3.000000000000000e+00
-3.000000000000000e+00 -3.000000000000000e+00 -5.000000000000000e+00
-3.000000000000000e+00 -1.000000000000000e+00 -5.000000000000000e+00
-3.000000000000000e+00 -1.000000000000000e+00 -3.000000000000000e+00
-1.000000000000000e+00 -3.000000000000000e+00 -3.000000000000000e+00
-1.000000000000000e+00 -3.000000000000000e+00 -5.000000000000000e+00
-1.000000000000000e+00 -1.000000000000000e+00 -5.000000000000000e+00
-1.000000000000000e+00 -1.000000000000000e+00 -3.000000000000000e+00
-3.000000000000000e+00 -1.000000000000000e+00 -1.000000000000000e+00
-3.000000000000000e+00 -1.000000000000000e+00 -3.000000000000000e+00
-3.000000000000000e+00 1.000000000000000e+00 -3.000000000000000e+00
-3.000000000000000e+00 1.000000000000000e+00 -1.000000000000000e+00
-1.000000000000000e+00 -1.000000000000000e+00 -1.000000000000000e+00
-1.000000000000000e+00 -1.000000000000000e+00 -3.000000000000000e+00
-1.000000000000000e+00 1.000000000000000e+00 -3.000000000000000e+00
-1.000000000000000e+00 1.000000000000000e+00 -1.000000000000000e+00
-3.000000000000000e+00 -1.000000000000000e+00 -3.000000000000000e+00
-3.000000000000000e+00 -1.000000000000000e+00 -5.000000000000000e+00
-3.000000000000000e+00 1.000000000000000e+00 -5.000000000000000e+00
-3.000000000000000e+00 1.000000000000000e+00 -3.000000000000000e+00
-1.000000000000000e+00 -1.000000000000000e+00 -3.000000000000000e+00
-1.000000000000000e+00 -1.000000000000000e+00 -5.000000000000000e+00
-1.000000000000000e+00 1.000000000000000e+00 -5.000000000000000e+00
-1.000000000000000e+00 1.000000000000000e+00 -3.000000000000000e+00
-3.000000000000000e+00 1.000000000000000e+00 -1.000000000000000e+00
-3.000000000000000e+00 1.000000000000000e+00 -3.000000000000000e+00
-3.000000000000000e+00 3.000000000000000e+00 -3.000000000000000e+00
-3.000000000000000e+00 3.000000000000000e+00 -9.999999999999999e-01
-1.000000000000000e+00 1.000000000000000e+00 -1.000000000000000e+00
-1.000000000000000e+00 1.000000000000000e+00 -3.000000000000000e+00
-1.000000000000000e+00 3.000000000000000e+00 -3.000000000000000e+00
-1.000000000000000e+00 3.000000000000000e+00 -1.000000000000000e+00
-3.000000000000000e+00 1.000000000000000e+00 -3.000000000000000e+00
-3.000000000000000e+00 1.000000000000000e+00 -5.000000000000000e+00
-3.000000000000000e+00 3.000000000000000e+00 -4.999999999999999e+00
-3.000000000000000e+00 3.000000000000000e+00 -3.000000000000000e+00
-1.000000000000000e+00 1.000000000000000e+00 -3.000000000000000e+00
-1.000000000000000e+00 1.000000000000000e+00 -5.000000000000000e+00
-1.000000000000000e+00 3.000000000000000e+00 -5.000000000000000e+00
-1.000000000000000e+00 3.000000000000000e+00 -3.000000000000000e+00
-3.000000000000000e+00 3.000000000000000e+00 -9.999999999999999e-01
-3.000000000000000e+00 3.000000000000000e+00 -3.000000000000000e+00
-3.000000000000000e+00 5.000000000000000e+00 -3.000000000000000e+00
-3.000000000000000e+00 5.000000000000000e+00 -1.000000000000000e+00
-1.000000000000000e+00 3.000000000000000e+00 -1.000000000000000e+00
-1.000000000000000e+00 3.000000000000000e+00 -3.000000000000000e+00
-1.000000000000000e+00 5.000000000000000e+00 -3.000000000000000e+00
-1.000000000000000e+00 5.000000000000000e+00 -1.000000000000000e+00
-3.000000000000000e+00 3.000000000000000e+00 -3.000000000000000e+00
-3.000000000000000e+00 3.000000000000000e+00 -4.999999999999999e+00
-3.000000000000000e+00 5.000000000000000e+00 -5.000000000000000e+00
-3.000000000000000e+00 5.000000000000000e+00 -3.000000000000000e+00
-1.000000000000000e+00 3.000000000000000e+00 -3.000000000000000e+00
-1.000000000000000e+00 3.000000000000000e+00 -5.000000000000000e+00
-1.000000000000000e+00 5.000000000000000e+00 -5.000000000000000e+00
-1.000000000000000e+00 5.000000000000000e+00 -3.000000000000000e+00
-1.000000000000000e+00 -5.000000000000000e+00 -1.000000000000000e+00
-1.000000000000000e+00 -5.000000000000000e+00 -3.000000000000000e+00
-1.000000000000000e+00 -3.000000000000000e+00 -3.000000000000000e+00
-1.000000000000000e+00 -3.000000000000000e+00 -1.000000000000000e+00
1.000000000000000e+00 -5.000000000000000e+00 -1.000000000000000e+00
1.000000000000000e+00 -5.000000000000000e+00 -3.000000000000000e+00
1.000000000000000e+00 -3.000000000000000e+00 -3.000000000000000e+00
1.000000000000000e+00 -3.000000000000000e+00 -1.000000000000000e+00
-1.000000000000000e+00 -5.000000000000000e+00 -3.000000000000000e+00
-1.000000000000000e+00 -5.000000000000000e+00 -5.000000000000000e+00
-1.000000000000000e+00 -3.000000000000000e+00 -5.000000000000000e+00
-1.000000000000000e+00 -3.000000000000000e+00 -3.000000000000000e+00
1.000000000000000e+00 -5.000000000000000e+00 -3.000000000000000e+00
1.000000000000000e+00 -5.000000000000000e+00 -5.000000000000000e+00
1.000000000000000e+00 -3.000000000000000e+00 -5.000000000000000e+00
1.000000000000000e+00 -3.000000000000000e+00 -3.000000000000000e+00
-1.000000000000000e+00 -3.000000000000000e+00 -1.000000000000000e+00
-1.000000000000000e+00 -3.000000000000000e+00 -3.000000000000000e+00
-1.000000000000000e+00 -1.000000000000000e+00 -3.000000000000000e+00
-1.000000000000000e+00 -1.000000000000000e+00 -1.000000000000000e+00
1.000000000000000e+00 -3.000000000000000e+00 -1.000000000000000e+00
1.000000000000000e+00 -3.000000000000000e+00 -3.000000000000000e+00
1.000000000000000e+00 -1.000000000000000e+00 -3.000000000000000e+00
1.000000000000000e+00 -1.000000000000000e+00 -1.000000000000000e+00
-1.000000000000000e+00 -3.000000000000000e+00 -3.000000000000000e+00
-1.000000000000000e+00 -3.000000000000000e+00 -5.000000000000000e+00
-1.000000000000000e+00 -1.000000000000000e+00 -5.000000000000000e+00
-1.000000000000000e+00 -1.000000000000000e+00 -3.000000000000000e+00
1.000000000000000e+00 -3.000000000000000e+00 -3.000000000000000e+00
1.000000000000000e+00 -3.000000000000000e+00 -5.000000000000000e+00
1.000000000000000e+00 -1.000000000000000e+00 -5.000000000000000e+00
1.000000000000000e+00 -1.000000000000000e+00 -3.000000000000000e+00
-1.000000000000000e+00 -1.000000000000000e+00 -1.000000000000000e+00
-1.000000000000000e+00 -1.000000000000000e+00 -3.000000000000000e+00
-1.000000000000000e+00 1.000000000000000e+00 -3.000000000000000e+00
-1.000000000000000e+00 1.000000000000000e+00 -1.000000000000000e+00
1.000000000000000e+00 -1.000000000000000e+00 -1.000000000000000e+00
1.000000000000000e+00 -1.000000000000000e+00 -3.000000000000000e+00
1.000000000000000e+00 1.000000000000000e+00 -3.000000000000000e+00
1.000000000000000e+00 1.000000000000000e+00 -1.000000000000000e+00
-1.000000000000000e+00 -1.000000000000000e+00 -3.000000000000000e+00
-1.000000000000000e+00 -1.000000000000000e+00 -5.000000000000000e+00
-1.000000000000000e+00 1.000000000000000e+00 -5.000000000000000e+00
-1.000000000000000e+00 1.000000000000000e+00 -3.000000000000000e+00
1.000000000000000e+00 -1.000000000000000e+00 -3.000000000000000e+00
1.000000000000000e+00 -1.000000000000000e+00 -5.000000000000000e+00
1.000000000000000e+00 1.000000000000000e+00 -5.000000000000000e+00
1.000000000000000e+00 1.000000000000000e+00 -3.000000000000000e+00
-1.000000000000000e+00 1.000000000000000e+00 -1.000000000000000e+00
-1.000000000000000e+00 1.000000000000000e+00 -3.000000000000000e+00
-1.000000000000000e+00 3.000000000000000e+00 -3.000000000000000e+00
-1.000000000000000e+00 3.000000000000000e+00 -1.000000000000000e+00
1.000000000000000e+00 1.000000000000000e+00 -1.000000000000000e+00
1.000000000000000e+00 1.000000000000000e+00 -3.000000000000000e+00
1.000000000000000e+00 3.000000000000000e+00 -3.000000000000000e+00
1.000000000000000e+00 3.000000000000000e+00 -1.000000000000000e+00
-1.000000000000000e+00 1.000000000000000e+00 -3.000000000000000e+00
-1.000000000000000e+00 1.000000000000000e+00 -5.000000000000000e+00
-1.000000000000000e+00 3.000000000000000e+00 -5.000000000000000e+00
-1.000000000000000e+00 3.000000000000000e+00 -3.000000000000000e+00
1.000000000000000e+00 1.000000000000000e+00 -3.000000000000000e+00
1.000000000000000e+00 1.000000000000000e+00 -5.000000000000000e+00
1.000000000000000e+00 3.000000000000000e+00 -5.000000000000000e+00
1.000000000000000e+00 3.000000000000000e+00 -3.000000000000000e+00
-1.000000000000000e+00 3.000000000000000e+00 -1.000000000000000e+00
-1.000000000000000e+00 3.000000000000000e+00 -3.000000000000000e+00
-1.000000000000000e+00 5.000000000000000e+00 -3.000000000000000e+00
-1.000000000000000e+00 5.000000000000000e+00 -1.000000000000000e+00
1.000000000000000e+00 3.000000000000000e+00 -1.000000000000000e+00
1.000000000000000e+00 3.000000000000000e+00 -3.000000000000000e+00
1.000000000000000e+00 5.000000000000000e+00 -3.000000000000000e+00
1.000000000000000e+00 5.000000000000000e+00 -1.000000000000000e+00
-1.000000000000000e+00 3.000000000000000e+00 -3.000000000000000e+00
-1.000000000000000e+00 3.000000000000000e+00 -5.000000000000000e+00
-1.000000000000000e+00 5.000000000000000e+00 -5.000000000000000e+00
-1.000000000000000e+00 5.000000000000000e+00 -3.000000000000000e+00
1.000000000000000e+00 3.000000000000000e+00 -3.000000000000000e+00
1.000000000000000e+00 3.000000000000000e+00 -5.000000000000000e+00
1.000000000000000e+00 5.000000000000000e+00 -5.000000000000000e+00
1.000000000000000e+00 5.000000000000000e+00 -3.000000000000000e+00
1.000000000000000e+00 -5.000000000000000e+00 -1.000000000000000e+00
1.000000000000000e+00 -5.000000000000000e+00 -3.000000000000000e+00
1.000000000000000e+00 -3.000000000000000e+00 -3.000000000000000e+00
1.000000000000000e+00 -3.000000000000000e+00 -1.000000000000000e+00
3.000000000000000e+00 -5.000000000000000e+00 -1.000000000000000e+00
3.000000000000000e+00 -5.000000000000000e+00 -3.000000000000000e+00
3.000000000000000e+00 -3.000000000000000e+00 -3.000000000000000e+00
3.000000000000000e+00 -3.000000000000000e+00 -1.000000000000000e+00
1.000000000000000e+00 -5.000000000000000e+00 -3.000000000000000e+00
1.000000000000000e+00 -5.000000000000000e+00 -5.000000000000000e+00
1.000000000000000e+00 -3.000000000000000e+00 -5.000000000000000e+00
1.000000000000000e+00 -3.000000000000000e+00 -3.000000000000000e+00
3.000000000000000e+00 -5.000000000000000e+00 -3.000000000000000e+00
3.000000000000000e+00 -5.000000000000000e+00 -5.000000000000000e+00
3.000000000000000e+00 -3.000000000000000e+00 -5.000000000000000e+00
3.000000000000000e+00 -3.000000000000000e+00 -3.000000000000000e+00
1.000000000000000e+00 -3.000000000000000e+00 -1.000000000000000e+00
1.000000000000000e+00 -3.000000000000000e+00 -3.000000000000000e+00
1.000000000000000e+00 -1.000000000000000e+00 -3.000000000000000e+00
1.000000000000000e+00 -1.000000000000000e+00 -1.000000000000000e+00
3.000000000000000e+00 -3.000000000000000e+00 -1.000000000000000e+00
3.000000000000000e+00 -3.000000000000000e+00 -3.000000000000000e+00
3.000000000000000e+00 -1.000000000000000e+00 -3.000000000000000e+00
3.000000000000000e+00 -1.000000000000000e+00 -1.000000000000000e+00
1.000000000000000e+00 -3.000000000000000e+00 -3.000000000000000e+00
1.000000000000000e+00 -3.000000000000000e+00 -5.000000000000000e+00
1.000000000000000e+00 -1.000000000000000e+00 -5.000000000000000e+00
1.000000000000000e+00 -1.000000000000000e+00 -3.000000000000000e+00
3.000000000000000e+00 -3.000000000000000e+00 -3.000000000000000e+00
3.000000000000000e+00 -3.000000000000000e+00 -5.000000000000000e+00
3.000000000000000e+00 -1.000000000000000e+00 -5.000000000000000e+00
3.000000000000000e+00 -1.000000000000000e+00 -3.000000000000000e+00
1.000000000000000e+00 -1.000000000000000e+00 -1.000000000000000e+00
1.000000000000000e+00 -1.000000000000000e+00 -3.000000000000000e+00
1.000000000000000e+00 1.000000000000000e+00 -3.000000000000000e+00
1.000000000000000e+00 1.000000000000000e+00 -1.000000000000000e+00
3.000000000000000e+00 -1.000000000000000e+00 -1.000000000000000e+00
3.000000000000000e+00 -1.000000000000000e+00 -3.000000000000000e+00
3.000000000000000e+00 1.000000000000000e+00 -3.000000000000000e+00
3.000000000000000e+00 1.000000000000000e+00 -1.000000000000000e+00
1.000000000000000e+00 -1.000000000000000e+00 -3.000000000000000e+00
1.000000000000000e+00 -1.000000000000000e+00 -5.000000000000000e+00
1.000000000000000e+00 1.000000000000000e+00 -5.000000000000000e+00
1.000000000000000e+00 1.000000000000000e+00 -3.000000000000000e+00
3.000000000000000e+00 -1.000000000000000e+00 -3.000000000000000e+00
3.000000000000000e+00 -1.000000000000000e+00 -5.000000000000000e+00
3.000000000000000e+00 1.000000000000000e+00 -5.000000000000000e+00
3.000000000000000e+00 1.000000000000000e+00 -3.000000000000000e+00
1.000000000000000e+00 1.000000000000000e+00 -1.000000000000000e+00
1.000000000000000e+00 1.000000000000000e+00 -3.000000000000000e+00
1.000000000000000e+00 3.000000000000000e+00 -3.000000000000000e+00
1.000000000000000e+00 3.000000000000000e+00 -1.000000000000000e+00
3.000000000000000e+00 1.000000000000000e+00 -1.000000000000000e+00
3.000000000000000e+00 1.000000000000000e+00 -3.000000000000000e+00
3.000000000000000e+00 3.000000000000000e+00 -3.000000000000000e+00
3.000000000000000e+00 3.000000000000000e+00 -1.000000000000000e+00
1.000000000000000e+00 1.000000000000000e+00 -3.000000000000000e+00
1.000000000000000e+00 1.000000000000000e+00 -5.000000000000000e+00
1.000000000000000e+00 3.000000000000000e+00 -5.000000000000000e+00
1.000000000000000e+00 3.000000000000000e+00 -3.000000000000000e+00
3.000000000000000e+00 1.000000000000000e+00 -3.000000000000000e+00
3.000000000000000e+00 1.000000000000000e+00 -5.000000000000000e+00
3.000000000000000e+00 3.000000000000000e+00 -5.000000000000000e+00
3.000000000000000e+00 3.000000000000000e+00 -3.000000000000000e+00
1.000000000000000e+00 3.000000000000000e+00 -1.000000000000000e+00
1.000000000000000e+00 3.000000000000000e+00 -3.000000000000000e+00
1.000000000000000e+00 5.000000000000000e+00 -3.000000000000000e+00
1.000000000000000e+00 5.000000000000000e+00 -1.000000000000000e+00
3.000000000000000e+00 3.000000000000000e+00 -1.000000000000000e+00
3.000000000000000e+00 3.000000000000000e+00 -3.000000000000000e+00
3.000000000000000e+00 5.000000000000000e+00 -3.000000000000000e+00
3.000000000000000e+00 5.000000000000000e+00 -1.000000000000000e+00
1.000000000000000e+00 3.000000000000000e+00 -3.000000000000000e+00
1.000000000000000e+00 3.000000000000000e+00 -5.000000000000000e+00
1.000000000000000e+00 5.000000000000000e+00 -5.000000000000000e+00
1.000000000000000e+00 5.000000000000000e+00 -3.000000000000000e+00
3.000000000000000e+00 3.000000000000000e+00 -3.000000000000000e+00
3.000000000000000e+00 3.000000000000000e+00 -5.000000000000000e+00
3.000000000000000e+00 5.000000000000000e+00 -5.000000000000000e+00
3.000000000000000e+00 5.000000000000000e+00 -3.000000000000000e+00
3.000000000000000e+00 -5.000000000000000e+00 -1.000000000000000e+00
3.000000000000000e+00 -5.000000000000000e+00 -3.000000000000000e+00
3.000000000000000e+00 -3.000000000000000e+00 -3.000000000000000e+00
3.000000000000000e+00 -3.000000000000000e+00 -1.000000000000000e+00
5.000000000000000e+00 -5.000000000000000e+00 -1.000000000000000e+00
5.000000000000000e+00 -5.000000000000000e+00 -3.000000000000000e+00
5.000000000000000e+00 -3.000000000000000e+00 -3.000000000000000e+00
5.000000000000000e+00 -3.000000000000000e+00 -1.000000000000000e+00
3.000000000000000e+00 -5.000000000000000e+00 -3.000000000000000e+00
3.000000000000000e+00 -5.000000000000000e+00 -5.000000000000000e+00
3.000000000000000e+00 -3.000000000000000e+00 -5.000000000000000e+00
3.000000000000000e+00 -3.000000000000000e+00 -3.000000000000000e+00
5.000000000000000e+00 -5.000000000000000e+00 -3.000000000000000e+00
5.000000000000000e+00 -5.000000000000000e+00 -5.000000000000000e+00
5.000000000000000e+00 -3.000000000000000e+00 -5.000000000000000e+00
5.000000000000000e+00 -3.000000000000000e+00 -3.000000000000000e+00
3.000000000000000e+00 -3.000000000000000e+00 -1.000000000000000e+00
3.000000000000000e+00 -3.000000000000000e+00 -3.000000000000000e+00
3.000000000000000e+00 -1.000000000000000e+00 -3.000000000000000e+00
3.000000000000000e+00 -1.000000000000000e+00 -1.000000000000000e+00
5.000000000000000e+00 -3.000000000000000e+00 -1.000000000000000e+00
5.000000000000000e+00 -3.000000000000000e+00 -3.000000000000000e+00
5.000000000000000e+00 -1.000000000000000e+00 -3.000000000000000e+00
5.000000000000000e+00 -1.000000000000000e+00 -1.000000000000000e+00
3.000000000000000e+00 -3.000000000000000e+00 -3.000000000000000e+00
3.000000000000000e+00 -3.000000000000000e+00 -5.000000000000000e+00
3.000000000000000e+00 -1.000000000000000e+00 -5.000000000000000e+00
3.000000000000000e+00 -1.000000000000000e+00 -3.000000000000000e+00
5.000000000000000e+00 -3.000000000000000e+00 -3.000000000000000e+00
5.000000000000000e+00 -3.000000000000000e+00 -5.000000000000000e+00
5.000000000000000e+00 -1.000000000000000e+00 -5.000000000000000e+00
5.000000000000000e+00 -1.000000000000000e+00 -3.000000000000000e+00
3.000000000000000e+00 -1.000000000000000e+00 -1.000000000000000e+00
3.000000000000000e+00 -1.000000000000000e+00 -3.000000000000000e+00
3.000000000000000e+00 1.000000000000000e+00 -3.000000000000000e+00
3.000000000000000e+00 1.000000000000000e+00 -1.000000000000000e+00
5.000000000000000e+00 -1.000000000000000e+00 -1.000000000000000e+00
5.000000000000000e+00 -1.000000000000000e+00 -3.000000000000000e+00
5.000000000000000e+00 1.000000000000000e+00 -3.000000000000000e+00
5.000000000000000e+00 1.000000000000000e+00 -1.000000000000000e+00
3.000000000000000e+00 -1.000000000000000e+00 -3.000000000000000e+00
3.000000000000000e+00 -1.000000000000000e+00 -5.000000000000000e+00
3.000000000000000e+00 1.000000000000000e+00 -5.000000000000000e+00
3.000000000000000e+00 1.000000000000000e+00 -3.000000000000000e+00
5.000000000000000e+00 -1.000000000000000e+00 -3.000000000000000e+00
5.000000000000000e+00 -1.000000000000000e+00 -5.000000000000000e+00
5.000000000000000e+00 1.000000000000000e+00 -5.000000000000000e+00
5.000000000000000e+00 1.000000000000000e+00 -3.000000000000000e+00
3.000000000000000e+00 1.000000000000000e+00 -1.000000000000000e+00
3.000000000000000e+00 1.000000000000000e+00 -3.000000000000000e+00
3.000000000000000e+00 3.000000000000000e+00 -3.000000000000000e+00
3.000000000000000e+00 3.000000000000000e+00 -1.000000000000000e+00
5.000000000000000e+00 1.000000000000000e+00 -1.000000000000000e+00
5.000000000000000e+00 1.000000000000000e+00 -3.000000000000000e+00
5.000000000000000e+00 3.000000000000000e+00 -3.000000000000000e+00
5.000000000000000e+00 3.000000000000000e+00 -1.000000000000000e+00
3.000000000000000e+00 1.000000000000000e+00 -3.000000000000000e+00
3.000000000000000e+00 1.000000000000000e+00 -5.000000000000000e+00
3.000000000000000e+00 3.000000000000000e+00 -5.000000000000000e+00
3.000000000000000e+00 3.000000000000000e+00 -3.000000000000000e+00
5.000000000000000e+00 1.000000000000000e+00 -3.000000000000000e+00
5.000000000000000e+00 1.000000000000000e+00 -5.000000000000000e+00
5.000000000000000e+00 3.000000000000000e+00 -5.000000000000000e+00
5.000000000000000e+00 3.000000000000000e+00 -3.000000000000000e+00
3.000000000000000e+00 3.000000000000000e+00 -1.000000000000000e+00
3.000000000000000e+00 3.000000000000000e+00 -3.000000000000000e+00
3.000000000000000e+00 5.000000000000000e+00 -3.000000000000000e+00
3.000000000000000e+00 5.000000000000000e+00 -1.000000000000000e+00
5.000000000000000e+00 3.000000000000000e+00 -1.000000000000000e+00
5.000000000000000e+00 3.000000000000000e+00 -3.000000000000000e+00
5.000000000000000e+00 5.000000000000000e+00 -3.000000000000000e+00
5.000000000000000e+00 5.000000000000000e+00 -1.000000000000000e+00
3.000000000000000e+00 3.000000000000000e+00 -3.000000000000000e+00
3.000000000000000e+00 3.000000000000000e+00 -5.000000000000000e+00
3.000000000000000e+00 5.000000000000000e+00 -5.000000000000000e+00
3.000000000000000e+00 5.000000000000000e+00 -3.000000000000000e+00
5.000000000000000e+00 3.000000000000000e+00 -3.000000000000000e+00
5.000000000000000e+00 3.000000000000000e+00 -5.000000000000000e+00
5.000000000000000e+00 5.000000000000000e+00 -5.000000000000000e+00
5.000000000000000e+00 5.000000000000000e+00 -3.000000000000000e+00
        </DataArray>
      </Points>

      <Cells>
        <DataArray type="Int32" Name="connectivity" format="ascii">
0 1 2 3 4 5 6 7 8 9 10 11 12 13 14 15 16 17 18 19 20 21 22 23 24 25 26 27 28 29 30 31 32 33 34 35 36 37 38 39 40 41 42 43 44 45 46 47 48 49 50 51 52 53 54 55 56 57 58 59 60 61 62 63 64 65 66 67 68 69 70 71 72 73 74 75 76 77 78 79 80 81 82 83 84 85 86 87 88 89 90 91 92 93 94 95 96 97 98 99 100 101 102 103 104 105 106 107 108 109 110 111 112 113 114 115 116 117 118 119 120 121 122 123 124 125 126 127 128 129 130 131 132 133 134 135 136 137 138 139 140 141 142 143 144 145 146 147 148 149 150 151 152 153 154 155 156 157 158 159 160 161 162 163 164 165 166 167 168 169 170 171 172 173 174 175 176 177 178 179 180 181 182 183 184 185 186 187 188 189 190 191 192 193 194 195 196 197 198 199 200 201 202 203 204 205 206 207 208 209 210 211 212 213 214 215 216 217 218 219 220 221 222 223 224 225 226 227 228 229 230 231 232 233 234 235 236 237 238 239 240 241 242 243 244 245 246 247 248 249 250 251 252 253 254 255 256 257 258 259 260 261 262 263 264 265 266 267 268 269 270 271 272 273 274 275 276 277 278 279 280 281 282 283 284 285 286 287 288 289 290 291 292 293 294 295 296 297 298 299 300 301 302 303 304 305 306 307 308 309 310 311 312 313 314 315 316 317 318 319 320 321 322 323 324 325 326 327 328 329 330 331 332 333 334 335 336 337 338 339 340 341 342 343 344 345 346 347 348 349 350 351 352 353 354 355 356 357 358 359 360 361 362 363 364 365 366 367 368 369 370 371 372 373 374 375 376 377 378 379 380 381 382 383 384 385 386 387 388 389 390 391 392 393 394 395 396 397 398 399 
        </DataArray>
        <DataArray type="Int32" Name="offsets" format="ascii">
8 16 24 32 40 48 56 64 72 80 88 96 104 112 120 128 136 144 152 160 168 176 184 192 200 208 216 224 232 240 248 256 264 272 280 288 296 304 312 320 328 336 344 352 360 368 376 384 392 400 
        </DataArray>
        <DataArray type="UInt8" Name="types" format="ascii">
12 12 12 12 12 12 12 12 12 12 12 12 12 12 12 12 12 12 12 12 12 12 12 12 12 12 12 12 12 12 12 12 12 12 12 12 12 12 12 12 12 12 12 12 12 12 12 12 12 12 
        </DataArray>
      </Cells>

  <PointData>
        <DataArray type="Float64" Name="displacement" NumberOfComponents="3" format="ascii">
0.000000000000000e+00 0.000000000000000e+00 0.000000000000000e+00
0.000000000000000e+00 0.000000000000000e+00 0.000000000000000e+00
0.000000000000000e+00 0.000000000000000e+00 0.000000000000000e+00
0.000000000000000e+00 0.000000000000000e+00 0.000000000000000e+00
-4.538264040063082e-04 0.000000000000000e+00 0.000000000000000e+00
-4.538264040062460e-04 0.000000000000000e+00 0.000000000000000e+00
-4.538264040064540e-04 -8.372969312996287e-17 -1.403475913185627e-16
-4.538264040062039e-04 1.773557427896145e-16 -7.086128576426333e-17
0.000000000000000e+00 0.000000000000000e+00 0.000000000000000e+00
0.000000000000000e+00 0.000000000000000e+00 0.000000000000000e+00
0.000000000000000e+00 0.000000000000000e+00 0.000000000000000e+00
0.000000000000000e+00 0.000000000000000e+00 0.000000000000000e+00
-4.538264040062460e-04 0.000000000000000e+00 0.000000000000000e+00
-4.538264040071640e-04 0.000000000000000e+00 0.000000000000000e+00
-4.538264040060723e-04 0.000000000000000e+00 0.000000000000000e+00
-4.538264040064540e-04 -8.372969312996287e-17 -1.403475913185627e-16
0.000000000000000e+00 0.000000000000000e+00 0.000000000000000e+00
0.000000000000000e+00 0.000000000000000e+00 0.000000000000000e+00
0.000000000000000e+00 0.000000000000000e+00 0.000000000000000e+00
0.000000000000000e+00 0.000000000000000e+00 0.000000000000000e+00
-4.538264040062039e-04 1.773557427896145e-16 -7.086128576426333e-17
-4.538264040064540e-04 -8.372969312996287e-17 -1.403475913185627e-16
-4.538264040061506e-04 2.732249986673532e-16 2.814080418027969e-16
-4.538264040060556e-04 1.824589821302426e-16 1.163843506393484e-17
0.000000000000000e+00 0.000000000000000e+00 0.000000000000000e+00
0.000000000000000e+00 0.000000000000000e+00 0.000000000000000e+00
0.000000000000000e+00 0.000000000000000e+00 0.000000000000000e+00
0.000000000000000e+00 0.000000000000000e+00 0.000000000000000e+00
-4.538264040064540e-04 -8.372969312996287e-17 -1.403475913185627e-16
-4.538264040060723e-04 0.000000000000000e+00 0.000000000000000e+00
-4.538264040069669e-04 0.000000000000000e+00 0.000000000000000e+00
-4.538264040061506e-04 2.732249986673532e-16 2.814080418027969e-16
0.000000000000000e+00 0.000000000000000e+00 0.000000000000000e+00
0.000000000000000e+00 0.000000000000000e+00 0.000000000000000e+00
0.000000000000000e+00 0.000000000000000e+00 0.000000000000000e+00
0.000000000000000e+00 0.000000000000000e+00 0.000000000000000e+00
-4.538264040060556e-04 1.824589821302426e-16 1.163843506393484e-17
-4.538264040061506e-04 2.732249986673532e-16 2.814080418027969e-16
-4.538264040068264e-04 1.531912376700706e-17 2.554081096118960e-16
-4.538264040060583e-04 3.141134639273684e-17 4.721605688985773e-16
0.000000000000000e+00 0.000000000000000e+00 0.000000000000000e+00
0.000000000000000e+00 0.000000000000000e+00 0.000000000000000e+00
0.000000000000000e+00 0.000000000000000e+00 0.000000000000000e+00
0.000000000000000e+00 0.000000000000000e+00 0.000000000000000e+00
-4.538264040061506e-04 2.732249986673532e-16 2.814080418027969e-16
-4.538264040069669e-04 0.000000000000000e+00 0.000000000000000e+00
-4.538264040061224e-04 0.000000000000000e+00 0.000000000000000e+00
-4.538264040068264e-04 1.531912376700706e-17 2.554081096118960e-16
0.000000000000000e+00 0.000000000000000e+00 0.000000000000000e+00
0.000000000000000e+00 0.000000000000000e+00 0.000000000000000e+00
0.000000000000000e+00 0.000000000000000e+00 0.000000000000000e+00
0.000000000000000e+00 0.000000000000000e+00 0.000000000000000e+00
-4.538264040060583e-04 3.141134639273684e-17 4.721605688985773e-16
-4.538264040068264e-04 1.531912376700706e-17 2.554081096118960e-16
-4.538264040050574e-04 7.125004599597473e-16 -8.507794248162261e-16
-4.538264040063762e-04 5.334471358503137e-16 -8.841195395966753e-16
0.000000000000000e+00 0.000000000000000e+00 0.000000000000000e+00
0.000000000000000e+00 0.000000000000000e+00 0.000000000000000e+00
0.000000000000000e+00 0.000000000000000e+00 0.000000000000000e+00
0.000000000000000e+00 0.000000000000000e+00 0.000000000000000e+00
-4.538264040068264e-04 1.531912376700706e-17 2.554081096118960e-16
-4.538264040061224e-04 0.000000000000000e+00 0.000000000000000e+00
-4.538264040061528e-04 0.000000000000000e+00 0.000000000000000e+00
-4.538264040050574e-04 7.125004599597473e-16 -8.507794248162261e-16
0.000000000000000e+00 0.000000000000000e+00 0.000000000000000e+00
0.000000000000000e+00 0.000000000000000e+00 0.000000000000000e+00
0.000000000000000e+00 0.000000000000000e+00 0.000000000000000e+00
0.000000000000000e+00 0.000000000000000e+00 0.000000000000000e+00
-4.538264040063762e-04 5.334471358503137e-16 -8.841195395966753e-16
-4.538264040050574e-04 7.125004599597473e-16 -8.507794248162261e-16
-4.538264040051643e-04 0.000000000000000e+00 0.000000000000000e+00
-4.538264040053611e-04 0.000000000000000e+00 0.000000000000000e+00
0.000000000000000e+00 0.000000000000000e+00 0.000000000000000e+00
0.000000000000000e+00 0.000000000000000e+00 0.000000000000000e+00
0.000000000000000e+00 0.000000000000000e+00 0.000000000000000e+00
0.000000000000000e+00 0.000000000000000e+00 0.000000000000000e+00
-4.538264040050574e-04 7.125004599597473e-16 -8.507794248162261e-16
-4.538264040061528e-04 0.000000000000000e+00 0.000000000000000e+00
-4.538264040065209e-04 0.000000000000000e+00 0.000000000000000e+00
-4.538264040051643e-04 0.000000000000000e+00 0.000000000000000e+00
-4.538264040063082e-04 0.000000000000000e+00 0.000000000000000e+00
-4.538264040062460e-04 0.000000000000000e+00 0.000000000000000e+00
-4.538264040064540e-04 -8.372969312996287e-17 -1.403475913185627e-16
-4.538264040062039e-04 1.773557427896145e-16 -7.086128576426333e-17
-9.070747024729878e-04 0.000000000000000e+00 0.000000000000000e+00
-9.070747024715400e-04 0.000000000000000e+00 0.000000000000000e+00
-9.070747024726903e-04 2.865672225784298e-17 5.901092712356948e-16
-9.070747024727602e-04 -5.825287500078618e-17 1.313327777377070e-16
-4.538264040062460e-04 0.000000000000000e+00 0.000000000000000e+00
-4.538264040071640e-04 0.000000000000000e+00 0.000000000000000e+00
-4.538264040060723e-04 0.000000000000000e+00 0.000000000000000e+00
-4.538264040064540e-04 -8.372969312996287e-17 -1.403475913185627e-16
-9.070747024715400e-04 0.000000000000000e+00 0.000000000000000e+00
-9.070747024721881e-04 0.000000000000000e+00 0.000000000000000e+00
-9.070747024723520e-04 0.000000000000000e+00 0.000000000000000e+00
-9.070747024726903e-04 2.865672225784298e-17 5.901092712356948e-16
-4.538264040062039e-04 1.773557427896145e-16 -7.086128576426333e-17
-4.538264040064540e-04 -8.372969312996287e-17 -1.403475913185627e-16
-4.538264040061506e-04 2.732249986673532e-16 2.814080418027969e-16
-4.538264040060556e-04 1.824589821302426e-16 1.163843506393484e-17
-9.070747024727602e-04 -5.825287500078618e-17 1.313327777377070e-16
-9.070747024726903e-04 2.865672225784298e-17 5.901092712356948e-16
-9.070747024725955e-04 1.171853633947570e-15 -3.724781037351077e-16
-9.070747024717782e-04 8.526121462556483e-16 8.488185425459381e-16
-4.538264040064540e-04 -8.372969312996287e-17 -1.403475913185627e-16
-4.538264040060723e-04 0.000000000000000e+00 0.000000000000000e+00
-4.538264040069669e-04 0.000000000000000e+00 0.000000000000000e+00
-4.538264040061506e-04 2.732249986673532e-16 2.814080418027969e-16
-9.070747024726903e-04 2.865672225784298e-17 5.901092712356948e-16
-9.070747024723520e-04 0.000000000000000e+00 0.000000000000000e+00
-9.070747024720988e-04 0.000000000000000e+00 0.000000000000000e+00
-9.070747024725955e-04 1.171853633947570e-15 -3.724781037351077e-16
-4.538264040060556e-04 1.824589821302426e-16 1.163843506393484e-17
-4.538264040061506e-04 2.732249986673532e-16 2.814080418027969e-16
-4.538264040068264e-04 1.531912376700706e-17 2.554081096118960e-16
-4.538264040060583e-04 3.141134639273684e-17 4.721605688985773e-16
-9.070747024717782e-04 8.526121462556483e-16 8.488185425459381e-16
-9.070747024725955e-04 1.171853633947570e-15 -3.724781037351077e-16
-9.070747024722392e-04 3.056013771329517e-16 -3.019599735460120e-16
-9.070747024725828e-04 2.067212669242185e-16 1.449160282089165e-16
-4.538264040061506e-04 2.732249986673532e-16 2.814080418027969e-16
-4.538264040069669e-04 0.000000000000000e+00 0.000000000000000e+00
-4.538264040061224e-04 0.000000000000000e+00 0.000000000000000e+00
-4.538264040068264e-04 1.531912376700706e-17 2.554081096118960e-16
-9.070747024725955e-04 1.171853633947570e-15 -3.724781037351077e-16
-9.070747024720988e-04 0.000000000000000e+00 0.000000000000000e+00
-9.070747024725812e-04 0.000000000000000e+00 0.000000000000000e+00
-9.070747024722392e-04 3.056013771329517e-16 -3.019599735460120e-16
-4.538264040060583e-04 3.141134639273684e-17 4.721605688985773e-16
-4.538264040068264e-04 1.531912376700706e-17 2.554081096118960e-16
-4.538264040050574e-04 7.125004599597473e-16 -8.507794248162261e-16
-4.538264040063762e-04 5.334471358503137e-16 -8.841195395966753e-16
-9.070747024725828e-04 2.067212669242185e-16 1.449160282089165e-16
-9.070747024722392e-04 3.056013771329517e-16 -3.019599735460120e-16
-9.070747024724611e-04 -1.473967570595440e-16 1.556363513702031e-16
-9.070747024725466e-04 1.632011842837341e-16 -2.193243065865742e-16
-4.538264040068264e-04 1.531912376700706e-17 2.554081096118960e-16
-4.538264040061224e-04 0.000000000000000e+00 0.000000000000000e+00
-4.538264040061528e-04 0.000000000000000e+00 0.000000000000000e+00
-4.538264040050574e-04 7.125004599597473e-16 -8.507794248162261e-16
-9.070747024722392e-04 3.056013771329517e-16 -3.019599735460120e-16
-9.070747024725812e-04 0.000000000000000e+00 0.000000000000000e+00
-9.070747024725378e-04 0.000000000000000e+00 0.000000000000000e+00
-9.070747024724611e-04 -1.473967570595440e-16 1.556363513702031e-16
-4.538264040063762e-04 5.334471358503137e-16 -8.841195395966753e-16
-4.538264040050574e-04 7.125004599597473e-16 -8.507794248162261e-16
-4.538264040051643e-04 0.000000000000000e+00 0.000000000000000e+00
-4.538264040053611e-04 0.000000000000000e+00 0.000000000000000e+00
-9.070747024725466e-04 1.632011842837341e-16 -2.193243065865742e-16
-9.070747024724611e-04 -1.473967570595440e-16 1.556363513702031e-16
-9.070747024711813e-04 0.000000000000000e+00 0.000000000000000e+00
-9.070747024720985e-04 0.000000000000000e+00 0.000000000000000e+00
-4.538264040050574e-04 7.125004599597473e-16 -8.507794248162261e-16
-4.538264040061528e-04 0.000000000000000e+00 0.000000000000000e+00
-4.538264040065209e-04 0.000000000000000e+00 0.000000000000000e+00
-4.538264040051643e-04 0.000000000000000e+00 0.000000000000000e+00
-9.070747024724611e-04 -1.473967570595440e-16 1.556363513702031e-16
-9.070747024725378e-04 0.000000000000000e+00 0.000000000000000e+00
-9.070747024714839e-04 0.000000000000000e+00 0.000000000000000e+00
-9.070747024711813e-04 0.000000000000000e+00 0.000000000000000e+00
-9.070747024729878e-04 0.000000000000000e+00 0.000000000000000e+00
-9.070747024715400e-04 0.000000000000000e+00 0.000000000000000e+00
-9.070747024726903e-04 2.865672225784298e-17 5.901092712356948e-16
-9.070747024727602e-04 -5.825287500078618e-17 1.313327777377070e-16
-1.360466801260876e-03 0.000000000000000e+00 0.000000000000000e+00
-1.360466801261244e-03 0.000000000000000e+00 0.000000000000000e+00
-1.360466801261171e-03 -2.814190474786244e-16 -2.803070975472820e-16
-1.360466801260828e-03 6.928654483740025e-16 2.380414875816993e-16
-9.070747024715400e-04 0.000000000000000e+00 0.000000000000000e+00
-9.070747024721881e-04 0.000000000000000e+00 0.000000000000000e+00
-9.070747024723520e-04 0.000000000000000e+00 0.000000000000000e+00
-9.070747024726903e-04 2.865672225784298e-17 5.901092712356948e-16
-1.360466801261244e-03 0.000000000000000e+00 0.000000000000000e+00
-1.360466801260903e-03 0.000000000000000e+00 0.000000000000000e+00
-1.360466801260903e-03 0.000000000000000e+00 0.000000000000000e+00
-1.360466801261171e-03 -2.814190474786244e-16 -2.803070975472820e-16
-9.070747024727602e-04 -5.825287500078618e-17 1.313327777377070e-16
-9.070747024726903e-04 2.865672225784298e-17 5.901092712356948e-16
-9.070747024725955e-04 1.171853633947570e-15 -3.724781037351077e-16
-9.070747024717782e-04 8.526121462556483e-16 8.488185425459381e-16
-1.360466801260828e-03 6.928654483740025e-16 2.380414875816993e-16
-1.360466801261171e-03 -2.814190474786244e-16 -2.803070975472820e-16
-1.360466801260968e-03 5.307617714472695e-16 3.929723910027834e-16
-1.360466801260658e-03 6.929418900891907e-16 8.133836756597542e-17
-9.070747024726903e-04 2.865672225784298e-17 5.901092712356948e-16
-9.070747024723520e-04 0.000000000000000e+00 0.000000000000000e+00
-9.070747024720988e-04 0.000000000000000e+00 0.000000000000000e+00
-9.070747024725955e-04 1.171853633947570e-15 -3.724781037351077e-16
-1.360466801261171e-03 -2.814190474786244e-16 -2.803070975472820e-16
-1.360466801260903e-03 0.000000000000000e+00 0.000000000000000e+00
-1.360466801260397e-03 0.000000000000000e+00 0.000000000000000e+00
-1.360466801260968e-03 5.307617714472695e-16 3.929723910027834e-16
-9.070747024717782e-04 8.526121462556483e-16 8.488185425459381e-16
-9.070747024725955e-04 1.171853633947570e-15 -3.724781037351077e-16
-9.070747024722392e-04 3.056013771329517e-16 -3.019599735460120e-16
-9.070747024725828e-04 2.067212669242185e-16 1.449160282089165e-16
-1.360466801260658e-03 6.929418900891907e-16 8.133836756597542e-17
-1.360466801260968e-03 5.307617714472695e-16 3.929723910027834e-16
-1.360466801260296e-03 6.939242292568983e-16 -3.230702605320967e-16
-1.360466801260662e-03 2.723610247044269e-16 -2.818813016860706e-16
-9.070747024725955e-04 1.171853633947570e-15 -3.724781037351077e-16
-9.070747024720988e-04 0.000000000000000e+00 0.000000000000000e+00
-9.070747024725812e-04 0.000000000000000e+00 0.000000000000000e+00
-9.070747024722392e-04 3.056013771329517e-16 -3.019599735460120e-16
-1.360466801260968e-03 5.307617714472695e-16 3.929723910027834e-16
-1.360466801260397e-03 0.000000000000000e+00 0.000000000000000e+00
-1.360466801260587e-03 0.000000000000000e+00 0.000000000000000e+00
-1.360466801260296e-03 6.939242292568983e-16 -3.230702605320967e-16
-9.070747024725828e-04 2.067212669242185e-16 1.449160282089165e-16
-9.070747024722392e-04 3.056013771329517e-16 -3.019599735460120e-16
-9.070747024724611e-04 -1.473967570595440e-16 1.556363513702031e-16
-9.070747024725466e-04 1.632011842837341e-16 -2.193243065865742e-16
-1.360466801260662e-03 2.723610247044269e-16 -2.818813016860706e-16
-1.360466801260296e-03 6.939242292568983e-16 -3.230702605320967e-16
-1.360466801260908e-03 3.338482822800936e-16 3.998268029247192e-16
-1.360466801260955e-03 9.156979099409148e-16 3.518819267793625e-18
-9.070747024722392e-04 3.056013771329517e-16 -3.019599735460120e-16
-9.070747024725812e-04 0.000000000000000e+00 0.000000000000000e+00
-9.070747024725378e-04 0.000000000000000e+00 0.000000000000000e+00
-9.070747024724611e-04 -1.473967570595440e-16 1.556363513702031e-16
-1.360466801260296e-03 6.939242292568983e-16 -3.230702605320967e-16
-1.360466801260587e-03 0.000000000000000e+00 0.000000000000000e+00
-1.360466801260349e-03 0.000000000000000e+00 0.000000000000000e+00
-1.360466801260908e-03 3.338482822800936e-16 3.998268029247192e-16
-9.070747024725466e-04 1.632011842837341e-16 -2.193243065865742e-16
-9.070747024724611e-04 -1.473967570595440e-16 1.556363513702031e-16
-9.070747024711813e-04 0.000000000000000e+00 0.000000000000000e+00
-9.070747024720985e-04 0.000000000000000e+00 0.000000000000000e+00
-1.360466801260955e-03 9.156979099409148e-16 3.518819267793625e-18
-1.360466801260908e-03 3.338482822800936e-16 3.998268029247192e-16
-1.360466801260412e-03 0.000000000000000e+00 0.000000000000000e+00
-1.360466801260596e-03 0.000000000000000e+00 0.000000000000000e+00
-9.070747024724611e-04 -1.473967570595440e-16 1.556363513702031e-16
-9.070747024725378e-04 0.000000000000000e+00 0.000000000000000e+00
-9.070747024714839e-04 0.000000000000000e+00 0.000000000000000e+00
-9.070747024711813e-04 0.000000000000000e+00 0.000000000000000e+00
-1.360466801260908e-03 3.338482822800936e-16 3.998268029247192e-16
-1.360466801260349e-03 0.000000000000000e+00 0.000000000000000e+00
-1.360466801259432e-03 0.000000000000000e+00 0.000000000000000e+00
-1.360466801260412e-03 0.000000000000000e+00 0.000000000000000e+00
-1.360466801260876e-03 0.000000000000000e+00 0.000000000000000e+00
-1.360466801261244e-03 0.000000000000000e+00 0.000000000000000e+00
-1.360466801261171e-03 -2.814190474786244e-16 -2.803070975472820e-16
-1.360466801260828e-03 6.928654483740025e-16 2.380414875816993e-16
-1.814801405133440e-03 0.000000000000000e+00 0.000000000000000e+00
-1.814801405132608e-03 0.000000000000000e+00 0.000000000000000e+00
-1.814801405133175e-03 -6.996462341729460e-16 5.982156680028953e-16
-1.814801405132630e-03 -4.793473596124393e-16 4.360883310922262e-16
-1.360466801261244e-03 0.000000000000000e+00 0.000000000000000e+00
-1.360466801260903e-03 0.000000000000000e+00 0.000000000000000e+00
-1.360466801260903e-03 0.000000000000000e+00 0.000000000000000e+00
-1.360466801261171e-03 -2.814190474786244e-16 -2.803070975472820e-16
-1.814801405132608e-03 0.000000000000000e+00 0.000000000000000e+00
-1.814801405133503e-03 0.000000000000000e+00 0.000000000000000e+00
-1.814801405133342e-03 0.000000000000000e+00 0.000000000000000e+00
-1.814801405133175e-03 -6.996462341729460e-16 5.982156680028953e-16
-1.360466801260828e-03 6.928654483740025e-16 2.380414875816993e-16
-1.360466801261171e-03 -2.814190474786244e-16 -2.803070975472820e-16
-1.360466801260968e-03 5.307617714472695e-16 3.929723910027834e-16
-1.360466801260658e-03 6.929418900891907e-16 8.133836756597542e-17
-1.814801405132630e-03 -4.793473596124393e-16 4.360883310922262e-16
-1.814801405133175e-03 -6.996462341729460e-16 5.982156680028953e-16
-1.814801405132991e-03 6.185909875076021e-16 -3.169626173326026e-16
-1.814801405133469e-03 1.088340748938671e-15 -9.156092438998255e-17
-1.360466801261171e-03 -2.814190474786244e-16 -2.803070975472820e-16
-1.360466801260903e-03 0.000000000000000e+00 0.000000000000000e+00
-1.360466801260397e-03 0.000000000000000e+00 0.000000000000000e+00
-1.360466801260968e-03 5.307617714472695e-16 3.929723910027834e-16
-1.814801405133175e-03 -6.996462341729460e-16 5.982156680028953e-16
-1.814801405133342e-03 0.000000000000000e+00 0.000000000000000e+00
-1.814801405133380e-03 0.000000000000000e+00 0.000000000000000e+00
-1.814801405132991e-03 6.185909875076021e-16 -3.169626173326026e-16
-1.360466801260658e-03 6.929418900891907e-16 8.133836756597542e-17
-1.360466801260968e-03 5.307617714472695e-16 3.929723910027834e-16
-1.360466801260296e-03 6.939242292568983e-16 -3.230702605320967e-16
-1.360466801260662e-03 2.723610247044269e-16 -2.818813016860706e-16
-1.814801405133469e-03 1.088340748938671e-15 -9.156092438998255e-17
-1.814801405132991e-03 6.185909875076021e-16 -3.169626173326026e-16
-1.814801405133128e-03 5.285971052225501e-16 -3.373857728224161e-16
-1.814801405132443e-03 3.380800488287002e-16 6.834741101793819e-17
-1.360466801260968e-03 5.307617714472695e-16 3.929723910027834e-16
-1.360466801260397e-03 0.000000000000000e+00 0.000000000000000e+00
-1.360466801260587e-03 0.000000000000000e+00 0.000000000000000e+00
-1.360466801260296e-03 6.939242292568983e-16 -3.230702605320967e-16
-1.814801405132991e-03 6.185909875076021e-16 -3.169626173326026e-16
-1.814801405133380e-03 0.000000000000000e+00 0.000000000000000e+00
-1.814801405131950e-03 0.000000000000000e+00 0.000000000000000e+00
-1.814801405133128e-03 5.285971052225501e-16 -3.373857728224161e-16
-1.360466801260662e-03 2.723610247044269e-16 -2.818813016860706e-16
-1.360466801260296e-03 6.939242292568983e-16 -3.230702605320967e-16
-1.360466801260908e-03 3.338482822800936e-16 3.998268029247192e-16
-1.360466801260955e-03 9.156979099409148e-16 3.518819267793625e-18
-1.814801405132443e-03 3.380800488287002e-16 6.834741101793819e-17
-1.814801405133128e-03 5.285971052225501e-16 -3.373857728224161e-16
-1.814801405132858e-03 -5.576780470427322e-16 -5.711913228078625e-16
-1.814801405133597e-03 -2.767028377848041e-17 9.176648411795899e-17
-1.360466801260296e-03 6.939242292568983e-16 -3.230702605320967e-16
-1.360466801260587e-03 0.000000000000000e+00 0.000000000000000e+00
-1.360466801260349e-03 0.000000000000000e+00 0.000000000000000e+00
-1.360466801260908e-03 3.338482822800936e-16 3.998268029247192e-16
-1.814801405133128e-03 5.285971052225501e-16 -3.373857728224161e-16
-1.814801405131950e-03 0.000000000000000e+00 0.000000000000000e+00
-1.814801405132308e-03 0.000000000000000e+00 0.000000000000000e+00
-1.814801405132858e-03 -5.576780470427322e-16 -5.711913228078625e-16
-1.360466801260955e-03 9.156979099409148e-16 3.518819267793625e-18
-1.360466801260908e-03 3.338482822800936e-16 3.998268029247192e-16
-1.360466801260412e-03 0.000000000000000e+00 0.000000000000000e+00
-1.360466801260596e-03 0.000000000000000e+00 0.000000000000000e+00
-1.814801405133597e-03 -2.767028377848041e-17 9.176648411795899e-17
-1.814801405132858e-03 -5.576780470427322e-16 -5.711913228078625e-16
-1.814801405132326e-03 0.000000000000000e+00 0.000000000000000e+00
-1.814801405132811e-03 0.000000000000000e+00 0.000000000000000e+00
-1.360466801260908e-03 3.338482822800936e-16 3.998268029247192e-16
-1.360466801260349e-03 0.000000000000000e+00 0.000000000000000e+00
-1.360466801259432e-03 0.000000000000000e+00 0.000000000000000e+00
-1.360466801260412e-03 0.000000000000000e+00 0.000000000000000e+00
-1.814801405132858e-03 -5.576780470427322e-16 -5.711913228078625e-16
-1.814801405132308e-03 0.000000000000000e+00 0.000000000000000e+00
-1.814801405132148e-03 0.000000000000000e+00 0.000000000000000e+00
-1.814801405132326e-03 0.000000000000000e+00 0.000000000000000e+00
-1.814801405133440e-03 0.000000000000000e+00 0.000000000000000e+00
-1.814801405132608e-03 0.000000000000000e+00 0.000000000000000e+00
-1.814801405133175e-03 -6.996462341729460e-16 5.982156680028953e-16
-1.814801405132630e-03 -4.793473596124393e-16 4.360883310922262e-16
-2.270846922506289e-03 0.000000000000000e+00 0.000000000000000e+00
-2.270846922507478e-03 0.000000000000000e+00 0.000000000000000e+00
-2.270846922507833e-03 7.452716131677417e-17 1.961160784908126e-16
-2.270846922508733e-03 6.081950023073178e-16 -2.955108249366289e-16
-1.814801405132608e-03 0.000000000000000e+00 0.000000000000000e+00
-1.814801405133503e-03 0.000000000000000e+00 0.000000000000000e+00
-1.814801405133342e-03 0.000000000000000e+00 0.000000000000000e+00
-1.814801405133175e-03 -6.996462341729460e-16 5.982156680028953e-16
-2.270846922507478e-03 0.000000000000000e+00 0.000000000000000e+00
-2.270846922509047e-03 0.000000000000000e+00 0.000000000000000e+00
-2.270846922506547e-03 0.000000000000000e+00 0.000000000000000e+00
-2.270846922507833e-03 7.452716131677417e-17 1.961160784908126e-16
-1.814801405132630e-03 -4.793473596124393e-16 4.360883310922262e-16
-1.814801405133175e-03 -6.996462341729460e-16 5.982156680028953e-16
-1.814801405132991e-03 6.185909875076021e-16 -3.169626173326026e-16
-1.814801405133469e-03 1.088340748938671e-15 -9.156092438998255e-17
-2.270846922508733e-03 6.081950023073178e-16 -2.955108249366289e-16
-2.270846922507833e-03 7.452716131677417e-17 1.961160784908126e-16
-2.270846922508065e-03 1.917960115491327e-16 -8.194398233040433e-16
-2.270846922507107e-03 6.573324890212030e-16 -2.683279982332985e-17
-1.814801405133175e-03 -6.996462341729460e-16 5.982156680028953e-16
-1.814801405133342e-03 0.000000000000000e+00 0.000000000000000e+00
-1.814801405133380e-03 0.000000000000000e+00 0.000000000000000e+00
-1.814801405132991e-03 6.185909875076021e-16 -3.169626173326026e-16
-2.270846922507833e-03 7.452716131677417e-17 1.961160784908126e-16
-2.270846922506547e-03 0.000000000000000e+00 0.000000000000000e+00
-2.270846922506298e-03 0.000000000000000e+00 0.000000000000000e+00
-2.270846922508065e-03 1.917960115491327e-16 -8.194398233040433e-16
-1.814801405133469e-03 1.088340748938671e-15 -9.156092438998255e-17
-1.814801405132991e-03 6.185909875076021e-16 -3.169626173326026e-16
-1.814801405133128e-03 5.285971052225501e-16 -3.373857728224161e-16
-1.814801405132443e-03 3.380800488287002e-16 6.834741101793819e-17
-2.270846922507107e-03 6.573324890212030e-16 -2.683279982332985e-17
-2.270846922508065e-03 1.917960115491327e-16 -8.194398233040433e-16
-2.270846922507648e-03 -5.734391014164927e-17 9.649227671658442e-16
-2.270846922507018e-03 -3.006207375320036e-17 -5.564307865381951e-16
-1.814801405132991e-03 6.185909875076021e-16 -3.169626173326026e-16
-1.814801405133380e-03 0.000000000000000e+00 0.000000000000000e+00
-1.814801405131950e-03 0.000000000000000e+00 0.000000000000000e+00
-1.814801405133128e-03 5.285971052225501e-16 -3.373857728224161e-16
-2.270846922508065e-03 1.917960115491327e-16 -8.194398233040433e-16
-2.270846922506298e-03 0.000000000000000e+00 0.000000000000000e+00
-2.270846922508537e-03 0.000000000000000e+00 0.000000000000000e+00
-2.270846922507648e-03 -5.734391014164927e-17 9.649227671658442e-16
-1.814801405132443e-03 3.380800488287002e-16 6.834741101793819e-17
-1.814801405133128e-03 5.285971052225501e-16 -3.373857728224161e-16
-1.814801405132858e-03 -5.576780470427322e-16 -5.711913228078625e-16
-1.814801405133597e-03 -2.767028377848041e-17 9.176648411795899e-17
-2.270846922507018e-03 -3.006207375320036e-17 -5.564307865381951e-16
-2.270846922507648e-03 -5.734391014164927e-17 9.649227671658442e-16
-2.270846922508232e-03 -4.786061273994814e-16 3.787078829093057e-16
-2.270846922508318e-03 6.285255451111060e-16 2.942097396188234e-16
-1.814801405133128e-03 5.285971052225501e-16 -3.373857728224161e-16
-1.814801405131950e-03 0.000000000000000e+00 0.000000000000000e+00
-1.814801405132308e-03 0.000000000000000e+00 0.000000000000000e+00
-1.814801405132858e-03 -5.576780470427322e-16 -5.711913228078625e-16
-2.270846922507648e-03 -5.734391014164927e-17 9.649227671658442e-16
-2.270846922508537e-03 0.000000000000000e+00 0.000000000000000e+00
-2.270846922506209e-03 0.000000000000000e+00 0.000000000000000e+00
-2.270846922508232e-03 -4.786061273994814e-16 3.787078829093057e-16
-1.814801405133597e-03 -2.767028377848041e-17 9.176648411795899e-17
-1.814801405132858e-03 -5.576780470427322e-16 -5.711913228078625e-16
-1.814801405132326e-03 0.000000000000000e+00 0.000000000000000e+00
-1.814801405132811e-03 0.000000000000000e+00 0.000000000000000e+00
-2.270846922508318e-03 6.285255451111060e-16 2.942097396188234e-16
-2.270846922508232e-03 -4.786061273994814e-16 3.787078829093057e-16
-2.270846922507349e-03 0.000000000000000e+00 0.000000000000000e+00
-2.270846922507160e-03 0.000000000000000e+00 0.000000000000000e+00
-1.814801405132858e-03 -5.576780470427322e-16 -5.711913228078625e-16
-1.814801405132308e-03 0.000000000000000e+00 0.000000000000000e+00
-1.814801405132148e-03 0.000000000000000e+00 0.000000000000000e+00
-1.814801405132326e-03 0.000000000000000e+00 0.000000000000000e+00
-2.270846922508232e-03 -4.786061273994814e-16 3.787078829093057e-16
-2.270846922506209e-03 0.000000000000000e+00 0.000000000000000e+00
-2.270846922505817e-03 0.000000000000000e+00 0.000000000000000e+00
-2.270846922507349e-03 0.000000000000000e+00 0.000000000000000e+00
        </DataArray>
        <DataArray type="Float64" Name="nodal_GL_strains_xyz" NumberOfComponents="6" format="ascii">
-2.268874572022499e-04 4.373815268076591e-16 -1.110223024625156e-16 3.714222365453490e-16 -7.542709879170907e-18 2.849589893044035e-18
-2.268874572030250e-04 1.110223024625155e-16 1.997333527100251e-16 1.567933224263325e-18 -2.748065488703158e-16 1.361760763851350e-16
-2.268874572021033e-04 4.350221856724875e-18 2.718444534494089e-16 -4.983679457562830e-17 8.953424168900136e-17 -1.469023043680718e-16
-2.268874572023697e-04 -7.855180447552936e-17 -1.759632984364885e-17 -2.074417051978749e-16 -3.064135571670398e-17 -3.637078092784897e-17
-2.267429635918446e-04 1.475760429999691e-16 1.221779285700187e-16 1.634611174307126e-17 -3.947259354787665e-17 1.667664201722286e-16
-2.267429635910921e-04 -5.284500382408472e-16 -8.734996939735379e-17 1.537164319847919e-16 -1.649197854677818e-17 1.801121192862565e-16
-2.267429635913004e-04 2.502137416594804e-16 8.308437658957040e-17 7.616730468273977e-17 -6.869953675464296e-18 2.127102098291924e-16
-2.267429635916631e-04 2.979719689086242e-17 -1.573705882573166e-17 -6.400284850100680e-17 4.059236353552289e-17 -8.920267368784864e-17
-2.268874572030250e-04 1.110223024625155e-16 1.997333527100251e-16 1.567933224263325e-18 -2.748065488703158e-16 1.361760763851350e-16
-2.268874572023891e-04 -1.153777611830138e-15 5.699856804559157e-16 3.990429575995765e-16 -9.834767554963445e-17 -3.514461559276047e-16
-2.268874572015701e-04 3.419627935177463e-16 -2.978742477002493e-16 -2.603380326593583e-16 -2.844523355357256e-16 2.549423799011044e-16
-2.268874572021033e-04 4.350221856724875e-18 2.718444534494089e-16 -4.983679457562830e-17 8.953424168900136e-17 -1.469023043680718e-16
-2.267429635910921e-04 -5.284500382408472e-16 -8.734996939735379e-17 1.537164319847919e-16 -1.649197854677818e-17 1.801121192862565e-16
-2.267429635919426e-04 1.253911267491408e-15 -2.877150019282692e-16 6.135917685831942e-16 5.078580213109128e-16 -1.678779125940879e-16
-2.267429635917995e-04 1.587054847886066e-17 8.834634973287672e-17 -7.343573979984818e-17 1.996880646496299e-16 -2.966569149850966e-18
-2.267429635913004e-04 2.502137416594804e-16 8.308437658957040e-17 7.616730468273977e-17 -6.869953675464296e-18 2.127102098291924e-16
-2.268874572023697e-04 -7.855180447552936e-17 -1.759632984364885e-17 -2.074417051978749e-16 -3.064135571670398e-17 -3.637078092784897e-17
-2.268874572021033e-04 4.350221856724875e-18 2.718444534494089e-16 -4.983679457562830e-17 8.953424168900136e-17 -1.469023043680718e-16
-2.268874572021145e-04 1.323371743419988e-16 3.247049798698623e-17 -9.075649963041694e-17 -5.679632589156394e-17 9.556714396891880e-17
-2.268874572023663e-04 -1.401389589283003e-16 2.366517937621111e-16 8.663078631658464e-17 2.539964132383108e-17 1.547370549533663e-16
-2.267429635916631e-04 2.979719689086242e-17 -1.573705882573166e-17 -6.400284850100680e-17 4.059236353552289e-17 -8.920267368784864e-17
-2.267429635913004e-04 2.502137416594804e-16 8.308437658957040e-17 7.616730468273977e-17 -6.869953675464296e-18 2.127102098291924e-16
-2.267429635916661e-04 -1.301489712542025e-17 -1.892094064234123e-16 -5.155219016142389e-17 1.024488170095837e-16 2.229225693510790e-16
-2.267429635908463e-04 -3.927590223776469e-17 -2.322038506970113e-16 2.040422357095923e-16 -1.150373535443744e-17 1.180294749131566e-16
-2.268874572021033e-04 4.350221856724875e-18 2.718444534494089e-16 -4.983679457562830e-17 8.953424168900136e-17 -1.469023043680718e-16
-2.268874572015701e-04 3.419627935177463e-16 -2.978742477002493e-16 -2.603380326593583e-16 -2.844523355357256e-16 2.549423799011044e-16
-2.268874572024801e-04 -1.144152324670673e-15 -2.661331507425284e-16 7.617504027045462e-17 -1.239659837057773e-16 -1.522656060327093e-17
-2.268874572021145e-04 1.323371743419988e-16 3.247049798698623e-17 -9.075649963041694e-17 -5.679632589156394e-17 9.556714396891880e-17
-2.267429635913004e-04 2.502137416594804e-16 8.308437658957040e-17 7.616730468273977e-17 -6.869953675464296e-18 2.127102098291924e-16
-2.267429635917995e-04 1.587054847886066e-17 8.834634973287672e-17 -7.343573979984818e-17 1.996880646496299e-16 -2.966569149850966e-18
-2.267429635907393e-04 1.194557668697073e-16 1.553778275862704e-16 4.108037509006990e-17 7.766500224707216e-17 9.334550140934852e-17
-2.267429635916661e-04 -1.301489712542025e-17 -1.892094064234123e-16 -5.155219016142389e-17 1.024488170095837e-16 2.229225693510790e-16
-2.268874572023663e-04 -1.401389589283003e-16 2.366517937621111e-16 8.663078631658464e-17 2.539964132383108e-17 1.547370549533663e-16
-2.268874572021145e-04 1.323371743419988e-16 3.247049798698623e-17 -9.075649963041694e-17 -5.679632589156394e-17 9.556714396891880e-17
-2.268874572018896e-04 1.225426290846514e-16 -1.493018243647572e-16 3.120878509796570e-17 -2.093746683198405e-17 3.681855368976966e-16
-2.268874572022462e-04 -2.044482750813824e-16 -2.224093054396640e-16 -2.219992451887334e-17 9.654948028695126e-18 5.559953094651507e-17
-2.267429635908463e-04 -3.927590223776469e-17 -2.322038506970113e-16 2.040422357095923e-16 -1.150373535443744e-17 1.180294749131566e-16
-2.267429635916661e-04 -1.301489712542025e-17 -1.892094064234123e-16 -5.155219016142389e-17 1.024488170095837e-16 2.229225693510790e-16
-2.267429635913943e-04 1.288140747229149e-17 -3.061122696906914e-17 3.310049527862199e-17 -1.550635546956247e-16 4.795407210151462e-17
-2.267429635915160e-04 6.059077411724786e-17 -3.341121483272575e-16 -9.334329292435387e-17 -7.725828671190272e-17 1.118296500413883e-16
-2.268874572021145e-04 1.323371743419988e-16 3.247049798698623e-17 -9.075649963041694e-17 -5.679632589156394e-17 9.556714396891880e-17
-2.268874572024801e-04 -1.144152324670673e-15 -2.661331507425284e-16 7.617504027045462e-17 -1.239659837057773e-16 -1.522656060327093e-17
-2.268874572024362e-04 -2.302110900259654e-16 9.736333496348081e-16 -8.728082938572351e-17 -3.985752343873193e-17 -3.420845675248868e-16
-2.268874572018896e-04 1.225426290846514e-16 -1.493018243647572e-16 3.120878509796570e-17 -2.093746683198405e-17 3.681855368976966e-16
-2.267429635916661e-04 -1.301489712542025e-17 -1.892094064234123e-16 -5.155219016142389e-17 1.024488170095837e-16 2.229225693510790e-16
-2.267429635907393e-04 1.194557668697073e-16 1.553778275862704e-16 4.108037509006990e-17 7.766500224707216e-17 9.334550140934852e-17
-2.267429635913347e-04 -7.310748107490673e-17 -9.070381091855536e-17 8.691470521705721e-18 -5.664980282742355e-17 -7.661997353826812e-16
-2.267429635913943e-04 1.288140747229149e-17 -3.061122696906914e-17 3.310049527862199e-17 -1.550635546956247e-16 4.795407210151462e-17
-2.268874572022462e-04 -2.044482750813824e-16 -2.224093054396640e-16 -2.219992451887334e-17 9.654948028695126e-18 5.559953094651507e-17
-2.268874572018896e-04 1.225426290846514e-16 -1.493018243647572e-16 3.120878509796570e-17 -2.093746683198405e-17 3.681855368976966e-16
-2.268874572013836e-04 2.196871437393526e-16 -4.153372538989106e-16 9.577417953852882e-17 1.268460653613112e-16 -2.457999745769188e-16
-2.268874572017323e-04 2.603241268272730e-16 -1.780537803159092e-16 2.377044320016075e-16 6.025944601589722e-18 -2.719376763664403e-16
-2.267429635915160e-04 6.059077411724786e-17 -3.341121483272575e-16 -9.334329292435387e-17 -7.725828671190272e-17 1.118296500413883e-16
-2.267429635913943e-04 1.288140747229149e-17 -3.061122696906914e-17 3.310049527862199e-17 -1.550635546956247e-16 4.795407210151462e-17
-2.267429635917519e-04 -2.267595272963886e-17 -3.077176535617842e-16 1.674241987689123e-16 -1.975954715555656e-16 2.004164614083571e-16
-2.267429635913588e-04 5.805096267425278e-17 4.353399055324257e-16 -2.206719796114131e-16 -6.562084245223971e-17 -1.585769712241688e-16
-2.268874572018896e-04 1.225426290846514e-16 -1.493018243647572e-16 3.120878509796570e-17 -2.093746683198405e-17 3.681855368976966e-16
-2.268874572024362e-04 -2.302110900259654e-16 9.736333496348081e-16 -8.728082938572351e-17 -3.985752343873193e-17 -3.420845675248868e-16
-2.268874572033033e-04 7.855180447552929e-17 -3.330669073875470e-16 2.327889491941102e-16 -1.603573332324135e-16 -3.618078862018346e-16
-2.268874572013836e-04 2.196871437393526e-16 -4.153372538989106e-16 9.577417953852882e-17 1.268460653613112e-16 -2.457999745769188e-16
-2.267429635913943e-04 1.288140747229149e-17 -3.061122696906914e-17 3.310049527862199e-17 -1.550635546956247e-16 4.795407210151462e-17
-2.267429635913347e-04 -7.310748107490673e-17 -9.070381091855536e-17 8.691470521705721e-18 -5.664980282742355e-17 -7.661997353826812e-16
-2.267429635914272e-04 -1.178277067132939e-16 -5.859801344620197e-17 5.912002195490141e-17 2.095401131184193e-16 4.700517342779821e-16
-2.267429635917519e-04 -2.267595272963886e-17 -3.077176535617842e-16 1.674241987689123e-16 -1.975954715555656e-16 2.004164614083571e-16
-2.268874572017323e-04 2.603241268272730e-16 -1.780537803159092e-16 2.377044320016075e-16 6.025944601589722e-18 -2.719376763664403e-16
-2.268874572013836e-04 2.196871437393526e-16 -4.153372538989106e-16 9.577417953852882e-17 1.268460653613112e-16 -2.457999745769188e-16
-2.268874572022370e-04 2.857222412572231e-16 -1.543814472507476e-16 -2.393346143736290e-18 -1.194946478506450e-16 2.350332672253388e-16
-2.268874572020000e-04 3.724405308336866e-16 -4.529850959802620e-16 -3.682794886474645e-16 5.570184459189472e-17 -1.518471505783787e-16
-2.267429635913588e-04 5.805096267425278e-17 4.353399055324257e-16 -2.206719796114131e-16 -6.562084245223971e-17 -1.585769712241688e-16
-2.267429635917519e-04 -2.267595272963886e-17 -3.077176535617842e-16 1.674241987689123e-16 -1.975954715555656e-16 2.004164614083571e-16
-2.267429635906566e-04 -2.061740564461708e-16 2.639449476547323e-17 -4.238503444105798e-17 4.827094110948254e-16 -5.343097317050437e-17
-2.267429635914102e-04 -3.943870825340601e-16 9.963803355230388e-19 3.034336850965624e-16 1.376090174825066e-16 -1.307091176456723e-16
-2.268874572013836e-04 2.196871437393526e-16 -4.153372538989106e-16 9.577417953852882e-17 1.268460653613112e-16 -2.457999745769188e-16
-2.268874572033033e-04 7.855180447552929e-17 -3.330669073875470e-16 2.327889491941102e-16 -1.603573332324135e-16 -3.618078862018346e-16
-2.268874572014916e-04 -9.897708774199258e-16 -2.166002815244085e-16 -6.569276410547040e-16 -1.301197488891659e-16 3.599377089150697e-16
-2.268874572022370e-04 2.857222412572231e-16 -1.543814472507476e-16 -2.393346143736290e-18 -1.194946478506450e-16 2.350332672253388e-16
-2.267429635917519e-04 -2.267595272963886e-17 -3.077176535617842e-16 1.674241987689123e-16 -1.975954715555656e-16 2.004164614083571e-16
-2.267429635914272e-04 -1.178277067132939e-16 -5.859801344620197e-17 5.912002195490141e-17 2.095401131184193e-16 4.700517342779821e-16
-2.267429635906646e-04 4.535190545927759e-17 4.522556949509966e-16 -4.930322687558045e-17 3.463666680416029e-17 2.462051688992760e-16
-2.267429635906566e-04 -2.061740564461708e-16 2.639449476547323e-17 -4.238503444105798e-17 4.827094110948254e-16 -5.343097317050437e-17
-2.267429635918446e-04 1.475760429999691e-16 1.221779285700187e-16 1.634611174307126e-17 -3.947259354787665e-17 1.667664201722286e-16
-2.267429635910921e-04 -5.284500382408472e-16 -8.734996939735379e-17 1.537164319847919e-16 -1.649197854677818e-17 1.801121192862565e-16
-2.267429635913004e-04 2.502137416594804e-16 8.308437658957040e-17 7.616730468273977e-17 -6.869953675464296e-18 2.127102098291924e-16
-2.267429635916631e-04 2.979719689086242e-17 -1.573705882573166e-17 -6.400284850100680e-17 4.059236353552289e-17 -8.920267368784864e-17
-2.266344119127014e-04 2.579666656415943e-16 8.798164921824411e-17 3.939509416465981e-16 2.352022118152875e-17 -1.792443239078004e-16
-2.266344119123345e-04 -1.266258716351185e-16 -1.336982551921545e-16 -1.046487285896047e-16 7.646336824601990e-17 -5.522875968718337e-17
-2.266344119129443e-04 9.088616117587191e-17 -9.976895514663710e-18 -1.403044629974482e-16 3.234829559889138e-17 -1.738547916787751e-16
-2.266344119128052e-04 -1.357398764673880e-16 -6.059077411724786e-17 1.881233933213416e-16 6.622330672440298e-18 6.397750892639953e-17
-2.267429635910921e-04 -5.284500382408472e-16 -8.734996939735379e-17 1.537164319847919e-16 -1.649197854677818e-17 1.801121192862565e-16
-2.267429635919426e-04 1.253911267491408e-15 -2.877150019282692e-16 6.135917685831942e-16 5.078580213109128e-16 -1.678779125940879e-16
-2.267429635917995e-04 1.587054847886066e-17 8.834634973287672e-17 -7.343573979984818e-17 1.996880646496299e-16 -2.966569149850966e-18
-2.267429635913004e-04 2.502137416594804e-16 8.308437658957040e-17 7.616730468273977e-17 -6.869953675464296e-18 2.127102098291924e-16
-2.266344119123345e-04 -1.266258716351185e-16 -1.336982551921545e-16 -1.046487285896047e-16 7.646336824601990e-17 -5.522875968718337e-17
-2.266344119126110e-04 2.341966113680574e-16 -4.319372034070364e-16 1.137482155781514e-16 -1.586527091298607e-16 7.443248612708458e-17
-2.266344119129387e-04 -2.528870427556042e-16 3.981056245698945e-16 -1.543174439010674e-16 4.981601597498794e-17 -1.799722903321490e-16
-2.266344119129443e-04 9.088616117587191e-17 -9.976895514663710e-18 -1.403044629974482e-16 3.234829559889138e-17 -1.738547916787751e-16
-2.267429635916631e-04 2.979719689086242e-17 -1.573705882573166e-17 -6.400284850100680e-17 4.059236353552289e-17 -8.920267368784864e-17
-2.267429635913004e-04 2.502137416594804e-16 8.308437658957040e-17 7.616730468273977e-17 -6.869953675464296e-18 2.127102098291924e-16
-2.267429635916661e-04 -1.301489712542025e-17 -1.892094064234123e-16 -5.155219016142389e-17 1.024488170095837e-16 2.229225693510790e-16
-2.267429635908463e-04 -3.927590223776469e-17 -2.322038506970113e-16 2.040422357095923e-16 -1.150373535443744e-17 1.180294749131566e-16
-2.266344119128052e-04 -1.357398764673880e-16 -6.059077411724786e-17 1.881233933213416e-16 6.622330672440298e-18 6.397750892639953e-17
-2.266344119129443e-04 9.088616117587191e-17 -9.976895514663710e-18 -1.403044629974482e-16 3.234829559889138e-17 -1.738547916787751e-16
-2.266344119130086e-04 7.121244161223530e-18 1.873501354054951e-16 1.346452474338194e-16 6.095034581999678e-18 1.956287957278278e-16
-2.266344119130438e-04 -2.136111405178396e-16 1.845922052604305e-17 1.200672326364019e-16 -1.138319718087500e-16 7.257380601786333e-17
-2.267429635913004e-04 2.502137416594804e-16 8.308437658957040e-17 7.616730468273977e-17 -6.869953675464296e-18 2.127102098291924e-16
-2.267429635917995e-04 1.587054847886066e-17 8.834634973287672e-17 -7.343573979984818e-17 1.996880646496299e-16 -2.966569149850966e-18
-2.267429635907393e-04 1.194557668697073e-16 1.553778275862704e-16 4.108037509006990e-17 7.766500224707216e-17 9.334550140934852e-17
-2.267429635916661e-04 -1.301489712542025e-17 -1.892094064234123e-16 -5.155219016142389e-17 1.024488170095837e-16 2.229225693510790e-16
-2.266344119129443e-04 9.088616117587191e-17 -9.976895514663710e-18 -1.403044629974482e-16 3.234829559889138e-17 -1.738547916787751e-16
-2.266344119129387e-04 -2.528870427556042e-16 3.981056245698945e-16 -1.543174439010674e-16 4.981601597498794e-17 -1.799722903321490e-16
-2.266344119126767e-04 1.069390599120486e-16 -1.970111910097137e-16 -7.814885998300659e-17 2.530202329047991e-16 -2.153902246292612e-16
-2.266344119130086e-04 7.121244161223530e-18 1.873501354054951e-16 1.346452474338194e-16 6.095034581999678e-18 1.956287957278278e-16
-2.267429635908463e-04 -3.927590223776469e-17 -2.322038506970113e-16 2.040422357095923e-16 -1.150373535443744e-17 1.180294749131566e-16
-2.267429635916661e-04 -1.301489712542025e-17 -1.892094064234123e-16 -5.155219016142389e-17 1.024488170095837e-16 2.229225693510790e-16
-2.267429635913943e-04 1.288140747229149e-17 -3.061122696906914e-17 3.310049527862199e-17 -1.550635546956247e-16 4.795407210151462e-17
-2.267429635915160e-04 6.059077411724786e-17 -3.341121483272575e-16 -9.334329292435387e-17 -7.725828671190272e-17 1.118296500413883e-16
-2.266344119130438e-04 -2.136111405178396e-16 1.845922052604305e-17 1.200672326364019e-16 -1.138319718087500e-16 7.257380601786333e-17
-2.266344119130086e-04 7.121244161223530e-18 1.873501354054951e-16 1.346452474338194e-16 6.095034581999678e-18 1.956287957278278e-16
-2.266344119126083e-04 -7.075001988922799e-17 -9.900378567261837e-17 1.091457014849807e-16 5.924602515677517e-17 -9.995613119049943e-17
-2.266344119128282e-04 -1.673963443761676e-16 5.229079936318493e-17 -6.668067156809423e-17 -1.744290032534883e-16 -6.391078976586537e-17
-2.267429635916661e-04 -1.301489712542025e-17 -1.892094064234123e-16 -5.155219016142389e-17 1.024488170095837e-16 2.229225693510790e-16
-2.267429635907393e-04 1.194557668697073e-16 1.553778275862704e-16 4.108037509006990e-17 7.766500224707216e-17 9.334550140934852e-17
-2.267429635913347e-04 -7.310748107490673e-17 -9.070381091855536e-17 8.691470521705721e-18 -5.664980282742355e-17 -7.661997353826812e-16
-2.267429635913943e-04 1.288140747229149e-17 -3.061122696906914e-17 3.310049527862199e-17 -1.550635546956247e-16 4.795407210151462e-17
-2.266344119130086e-04 7.121244161223530e-18 1.873501354054951e-16 1.346452474338194e-16 6.095034581999678e-18 1.956287957278278e-16
-2.266344119126767e-04 1.069390599120486e-16 -1.970111910097137e-16 -7.814885998300659e-17 2.530202329047991e-16 -2.153902246292612e-16
-2.266344119127477e-04 -3.183881816609593e-17 -3.625482643679642e-16 7.598261647083003e-18 1.729407850166369e-16 2.591618966733682e-16
-2.266344119126083e-04 -7.075001988922799e-17 -9.900378567261837e-17 1.091457014849807e-16 5.924602515677517e-17 -9.995613119049943e-17
-2.267429635915160e-04 6.059077411724786e-17 -3.341121483272575e-16 -9.334329292435387e-17 -7.725828671190272e-17 1.118296500413883e-16
-2.267429635913943e-04 1.288140747229149e-17 -3.061122696906914e-17 3.310049527862199e-17 -1.550635546956247e-16 4.795407210151462e-17
-2.267429635917519e-04 -2.267595272963886e-17 -3.077176535617842e-16 1.674241987689123e-16 -1.975954715555656e-16 2.004164614083571e-16
-2.267429635913588e-04 5.805096267425278e-17 4.353399055324257e-16 -2.206719796114131e-16 -6.562084245223971e-17 -1.585769712241688e-16
-2.266344119128282e-04 -1.673963443761676e-16 5.229079936318493e-17 -6.668067156809423e-17 -1.744290032534883e-16 -6.391078976586537e-17
-2.266344119126083e-04 -7.075001988922799e-17 -9.900378567261837e-17 1.091457014849807e-16 5.924602515677517e-17 -9.995613119049943e-17
-2.266344119128586e-04 -6.802785818891655e-17 -7.161291057162217e-17 6.149640224985203e-17 1.568636605433575e-16 1.523593593562199e-16
-2.266344119127448e-04 -1.482565834250467e-16 -1.091630314445985e-16 -5.684753382125243e-17 -8.364538865854359e-18 1.223639792828818e-16
-2.267429635913943e-04 1.288140747229149e-17 -3.061122696906914e-17 3.310049527862199e-17 -1.550635546956247e-16 4.795407210151462e-17
-2.267429635913347e-04 -7.310748107490673e-17 -9.070381091855536e-17 8.691470521705721e-18 -5.664980282742355e-17 -7.661997353826812e-16
-2.267429635914272e-04 -1.178277067132939e-16 -5.859801344620197e-17 5.912002195490141e-17 2.095401131184193e-16 4.700517342779821e-16
-2.267429635917519e-04 -2.267595272963886e-17 -3.077176535617842e-16 1.674241987689123e-16 -1.975954715555656e-16 2.004164614083571e-16
-2.266344119126083e-04 -7.075001988922799e-17 -9.900378567261837e-17 1.091457014849807e-16 5.924602515677517e-17 -9.995613119049943e-17
-2.266344119127477e-04 -3.183881816609593e-17 -3.625482643679642e-16 7.598261647083003e-18 1.729407850166369e-16 2.591618966733682e-16
-2.266344119125393e-04 -1.083001407622044e-16 -1.895741069380450e-16 1.199766695517725e-16 7.499357842639026e-18 -1.007196415595012e-16
-2.266344119128586e-04 -6.802785818891655e-17 -7.161291057162217e-17 6.149640224985203e-17 1.568636605433575e-16 1.523593593562199e-16
-2.267429635913588e-04 5.805096267425278e-17 4.353399055324257e-16 -2.206719796114131e-16 -6.562084245223971e-17 -1.585769712241688e-16
-2.267429635917519e-04 -2.267595272963886e-17 -3.077176535617842e-16 1.674241987689123e-16 -1.975954715555656e-16 2.004164614083571e-16
-2.267429635906566e-04 -2.061740564461708e-16 2.639449476547323e-17 -4.238503444105798e-17 4.827094110948254e-16 -5.343097317050437e-17
-2.267429635914102e-04 -3.943870825340601e-16 9.963803355230388e-19 3.034336850965624e-16 1.376090174825066e-16 -1.307091176456723e-16
-2.266344119127448e-04 -1.482565834250467e-16 -1.091630314445985e-16 -5.684753382125243e-17 -8.364538865854359e-18 1.223639792828818e-16
-2.266344119128586e-04 -6.802785818891655e-17 -7.161291057162217e-17 6.149640224985203e-17 1.568636605433575e-16 1.523593593562199e-16
-2.266344119129066e-04 3.791482138760900e-16 -1.211815482344957e-16 6.151817287107383e-17 -5.081526022038706e-17 -1.176683508059138e-17
-2.266344119132754e-04 2.302110900259653e-16 -1.115562610750307e-17 3.149760763048159e-16 -3.453060249246479e-18 -1.543702513055529e-16
-2.267429635917519e-04 -2.267595272963886e-17 -3.077176535617842e-16 1.674241987689123e-16 -1.975954715555656e-16 2.004164614083571e-16
-2.267429635914272e-04 -1.178277067132939e-16 -5.859801344620197e-17 5.912002195490141e-17 2.095401131184193e-16 4.700517342779821e-16
-2.267429635906646e-04 4.535190545927759e-17 4.522556949509966e-16 -4.930322687558045e-17 3.463666680416029e-17 2.462051688992760e-16
-2.267429635906566e-04 -2.061740564461708e-16 2.639449476547323e-17 -4.238503444105798e-17 4.827094110948254e-16 -5.343097317050437e-17
-2.266344119128586e-04 -6.802785818891655e-17 -7.161291057162217e-17 6.149640224985203e-17 1.568636605433575e-16 1.523593593562199e-16
-2.266344119125393e-04 -1.083001407622044e-16 -1.895741069380450e-16 1.199766695517725e-16 7.499357842639026e-18 -1.007196415595012e-16
-2.266344119126686e-04 -4.772891088663140e-16 -2.220446049250312e-16 -1.025786859913411e-16 -3.986526753418430e-17 2.703816927983420e-16
-2.266344119129066e-04 3.791482138760900e-16 -1.211815482344957e-16 6.151817287107383e-17 -5.081526022038706e-17 -1.176683508059138e-17
-2.266344119127014e-04 2.579666656415943e-16 8.798164921824411e-17 3.939509416465981e-16 2.352022118152875e-17 -1.792443239078004e-16
-2.266344119123345e-04 -1.266258716351185e-16 -1.336982551921545e-16 -1.046487285896047e-16 7.646336824601990e-17 -5.522875968718337e-17
-2.266344119129443e-04 9.088616117587191e-17 -9.976895514663710e-18 -1.403044629974482e-16 3.234829559889138e-17 -1.738547916787751e-16
-2.266344119128052e-04 -1.357398764673880e-16 -6.059077411724786e-17 1.881233933213416e-16 6.622330672440298e-18 6.397750892639953e-17
-2.269059266447364e-04 3.240017631594651e-16 -5.179260919542343e-17 1.487441511035695e-16 -1.927153383248315e-17 9.642876654921016e-17
-2.269059266448126e-04 1.025888380553239e-16 2.284853086611771e-16 4.645819041574162e-16 -9.232243958196078e-17 6.185095040787610e-17
-2.269059266446629e-04 5.577813053751592e-18 -9.296355089585918e-18 -1.062433198521721e-16 1.260040324372184e-16 1.283770558042618e-16
-2.269059266443823e-04 3.127972764477742e-16 1.327018748566315e-16 -1.485686710733629e-16 4.277516374631368e-17 1.327539944945491e-16
-2.266344119123345e-04 -1.266258716351185e-16 -1.336982551921545e-16 -1.046487285896047e-16 7.646336824601990e-17 -5.522875968718337e-17
-2.266344119126110e-04 2.341966113680574e-16 -4.319372034070364e-16 1.137482155781514e-16 -1.586527091298607e-16 7.443248612708458e-17
-2.266344119129387e-04 -2.528870427556042e-16 3.981056245698945e-16 -1.543174439010674e-16 4.981601597498794e-17 -1.799722903321490e-16
-2.266344119129443e-04 9.088616117587191e-17 -9.976895514663710e-18 -1.403044629974482e-16 3.234829559889138e-17 -1.738547916787751e-16
-2.269059266448126e-04 1.025888380553239e-16 2.284853086611771e-16 4.645819041574162e-16 -9.232243958196078e-17 6.185095040787610e-17
-2.269059266446419e-04 1.841297835374224e-16 2.924299242996265e-16 8.841044682213994e-17 2.571949500878583e-16 -2.058826645322121e-16
-2.269059266448376e-04 -3.009611099151933e-16 -3.256298233158782e-16 1.074657543279838e-17 -1.476354822352741e-16 -1.370636312452441e-16
-2.269059266446629e-04 5.577813053751592e-18 -9.296355089585918e-18 -1.062433198521721e-16 1.260040324372184e-16 1.283770558042618e-16
-2.266344119128052e-04 -1.357398764673880e-16 -6.059077411724786e-17 1.881233933213416e-16 6.622330672440298e-18 6.397750892639953e-17
-2.266344119129443e-04 9.088616117587191e-17 -9.976895514663710e-18 -1.403044629974482e-16 3.234829559889138e-17 -1.738547916787751e-16
-2.266344119130086e-04 7.121244161223530e-18 1.873501354054951e-16 1.346452474338194e-16 6.095034581999678e-18 1.956287957278278e-16
-2.266344119130438e-04 -2.136111405178396e-16 1.845922052604305e-17 1.200672326364019e-16 -1.138319718087500e-16 7.257380601786333e-17
-2.269059266443823e-04 3.127972764477742e-16 1.327018748566315e-16 -1.485686710733629e-16 4.277516374631368e-17 1.327539944945491e-16
-2.269059266446629e-04 5.577813053751592e-18 -9.296355089585918e-18 -1.062433198521721e-16 1.260040324372184e-16 1.283770558042618e-16
-2.269059266445618e-04 2.134287902605233e-16 -7.075001988922794e-17 3.736833035710557e-17 7.941564848274961e-17 5.128715122042661e-17
-2.269059266450321e-04 -2.034518947458594e-16 -2.501648810552929e-16 -2.593306823929126e-17 -1.737511329250027e-17 -1.258895146703911e-16
-2.266344119129443e-04 9.088616117587191e-17 -9.976895514663710e-18 -1.403044629974482e-16 3.234829559889138e-17 -1.738547916787751e-16
-2.266344119129387e-04 -2.528870427556042e-16 3.981056245698945e-16 -1.543174439010674e-16 4.981601597498794e-17 -1.799722903321490e-16
-2.266344119126767e-04 1.069390599120486e-16 -1.970111910097137e-16 -7.814885998300659e-17 2.530202329047991e-16 -2.153902246292612e-16
-2.266344119130086e-04 7.121244161223530e-18 1.873501354054951e-16 1.346452474338194e-16 6.095034581999678e-18 1.956287957278278e-16
-2.269059266446629e-04 5.577813053751592e-18 -9.296355089585918e-18 -1.062433198521721e-16 1.260040324372184e-16 1.283770558042618e-16
-2.269059266448376e-04 -3.009611099151933e-16 -3.256298233158782e-16 1.074657543279838e-17 -1.476354822352741e-16 -1.370636312452441e-16
-2.269059266446924e-04 8.698526888272106e-17 2.136111405178395e-16 -9.685996017269870e-19 1.891279114140700e-16 -3.785499078077511e-16
-2.269059266445618e-04 2.134287902605233e-16 -7.075001988922794e-17 3.736833035710557e-17 7.941564848274961e-17 5.128715122042661e-17
-2.266344119130438e-04 -2.136111405178396e-16 1.845922052604305e-17 1.200672326364019e-16 -1.138319718087500e-16 7.257380601786333e-17
-2.266344119130086e-04 7.121244161223530e-18 1.873501354054951e-16 1.346452474338194e-16 6.095034581999678e-18 1.956287957278278e-16
-2.266344119126083e-04 -7.075001988922799e-17 -9.900378567261837e-17 1.091457014849807e-16 5.924602515677517e-17 -9.995613119049943e-17
-2.266344119128282e-04 -1.673963443761676e-16 5.229079936318493e-17 -6.668067156809423e-17 -1.744290032534883e-16 -6.391078976586537e-17
-2.269059266450321e-04 -2.034518947458594e-16 -2.501648810552929e-16 -2.593306823929126e-17 -1.737511329250027e-17 -1.258895146703911e-16
-2.269059266445618e-04 2.134287902605233e-16 -7.075001988922794e-17 3.736833035710557e-17 7.941564848274961e-17 5.128715122042661e-17
-2.269059266448122e-04 2.657684502278953e-17 -2.539811442995089e-18 2.446396119885361e-17 3.715643874881843e-17 1.425390380954927e-17
-2.269059266444852e-04 8.109161591852434e-17 7.075001988922798e-17 1.193521766419357e-17 1.235705554356420e-17 -1.363564294202300e-16
-2.266344119130086e-04 7.121244161223530e-18 1.873501354054951e-16 1.346452474338194e-16 6.095034581999678e-18 1.956287957278278e-16
-2.266344119126767e-04 1.069390599120486e-16 -1.970111910097137e-16 -7.814885998300659e-17 2.530202329047991e-16 -2.153902246292612e-16
-2.266344119127477e-04 -3.183881816609593e-17 -3.625482643679642e-16 7.598261647083003e-18 1.729407850166369e-16 2.591618966733682e-16
-2.266344119126083e-04 -7.075001988922799e-17 -9.900378567261837e-17 1.091457014849807e-16 5.924602515677517e-17 -9.995613119049943e-17
-2.269059266445618e-04 2.134287902605233e-16 -7.075001988922794e-17 3.736833035710557e-17 7.941564848274961e-17 5.128715122042661e-17
-2.269059266446924e-04 8.698526888272106e-17 2.136111405178395e-16 -9.685996017269870e-19 1.891279114140700e-16 -3.785499078077511e-16
-2.269059266443664e-04 -2.974833628667485e-17 -1.540167467361147e-16 -5.098304955083312e-18 1.659741075189404e-16 1.130795668946804e-18
-2.269059266448122e-04 2.657684502278953e-17 -2.539811442995089e-18 2.446396119885361e-17 3.715643874881843e-17 1.425390380954927e-17
-2.266344119128282e-04 -1.673963443761676e-16 5.229079936318493e-17 -6.668067156809423e-17 -1.744290032534883e-16 -6.391078976586537e-17
-2.266344119126083e-04 -7.075001988922799e-17 -9.900378567261837e-17 1.091457014849807e-16 5.924602515677517e-17 -9.995613119049943e-17
-2.266344119128586e-04 -6.802785818891655e-17 -7.161291057162217e-17 6.149640224985203e-17 1.568636605433575e-16 1.523593593562199e-16
-2.266344119127448e-04 -1.482565834250467e-16 -1.091630314445985e-16 -5.684753382125243e-17 -8.364538865854359e-18 1.223639792828818e-16
-2.269059266444852e-04 8.109161591852434e-17 7.075001988922798e-17 1.193521766419357e-17 1.235705554356420e-17 -1.363564294202300e-16
-2.269059266448122e-04 2.657684502278953e-17 -2.539811442995089e-18 2.446396119885361e-17 3.715643874881843e-17 1.425390380954927e-17
-2.269059266446767e-04 -1.646741826758562e-16 -1.357398764673880e-16 -1.739323489821195e-16 1.734834449848290e-16 -8.899585363109035e-17
-2.269059266446640e-04 -1.387778780781446e-17 -3.872658383728366e-16 -8.894577749403000e-17 1.144716002900840e-17 -5.821545931273914e-17
-2.266344119126083e-04 -7.075001988922799e-17 -9.900378567261837e-17 1.091457014849807e-16 5.924602515677517e-17 -9.995613119049943e-17
-2.266344119127477e-04 -3.183881816609593e-17 -3.625482643679642e-16 7.598261647083003e-18 1.729407850166369e-16 2.591618966733682e-16
-2.266344119125393e-04 -1.083001407622044e-16 -1.895741069380450e-16 1.199766695517725e-16 7.499357842639026e-18 -1.007196415595012e-16
-2.266344119128586e-04 -6.802785818891655e-17 -7.161291057162217e-17 6.149640224985203e-17 1.568636605433575e-16 1.523593593562199e-16
-2.269059266448122e-04 2.657684502278953e-17 -2.539811442995089e-18 2.446396119885361e-17 3.715643874881843e-17 1.425390380954927e-17
-2.269059266443664e-04 -2.974833628667485e-17 -1.540167467361147e-16 -5.098304955083312e-18 1.659741075189404e-16 1.130795668946804e-18
-2.269059266444659e-04 2.474427193549815e-16 1.188240870488170e-16 1.471450307617867e-16 1.749868773474648e-16 -7.223392810453425e-17
-2.269059266446767e-04 -1.646741826758562e-16 -1.357398764673880e-16 -1.739323489821195e-16 1.734834449848290e-16 -8.899585363109035e-17
-2.266344119127448e-04 -1.482565834250467e-16 -1.091630314445985e-16 -5.684753382125243e-17 -8.364538865854359e-18 1.223639792828818e-16
-2.266344119128586e-04 -6.802785818891655e-17 -7.161291057162217e-17 6.149640224985203e-17 1.568636605433575e-16 1.523593593562199e-16
-2.266344119129066e-04 3.791482138760900e-16 -1.211815482344957e-16 6.151817287107383e-17 -5.081526022038706e-17 -1.176683508059138e-17
-2.266344119132754e-04 2.302110900259653e-16 -1.115562610750307e-17 3.149760763048159e-16 -3.453060249246479e-18 -1.543702513055529e-16
-2.269059266446640e-04 -1.387778780781446e-17 -3.872658383728366e-16 -8.894577749403000e-17 1.144716002900840e-17 -5.821545931273914e-17
-2.269059266446767e-04 -1.646741826758562e-16 -1.357398764673880e-16 -1.739323489821195e-16 1.734834449848290e-16 -8.899585363109035e-17
-2.269059266448000e-04 6.839255870354925e-17 -2.904371636285806e-16 6.369107682291751e-17 -9.404505753293909e-17 1.724522125271442e-17
-2.269059266448220e-04 -4.498982337653180e-16 -1.623524899349317e-17 1.967443165421599e-16 9.007913718499038e-17 -5.225887623361104e-17
-2.266344119128586e-04 -6.802785818891655e-17 -7.161291057162217e-17 6.149640224985203e-17 1.568636605433575e-16 1.523593593562199e-16
-2.266344119125393e-04 -1.083001407622044e-16 -1.895741069380450e-16 1.199766695517725e-16 7.499357842639026e-18 -1.007196415595012e-16
-2.266344119126686e-04 -4.772891088663140e-16 -2.220446049250312e-16 -1.025786859913411e-16 -3.986526753418430e-17 2.703816927983420e-16
-2.266344119129066e-04 3.791482138760900e-16 -1.211815482344957e-16 6.151817287107383e-17 -5.081526022038706e-17 -1.176683508059138e-17
-2.269059266446767e-04 -1.646741826758562e-16 -1.357398764673880e-16 -1.739323489821195e-16 1.734834449848290e-16 -8.899585363109035e-17
-2.269059266444659e-04 2.474427193549815e-16 1.188240870488170e-16 1.471450307617867e-16 1.749868773474648e-16 -7.223392810453425e-17
-2.269059266445505e-04 -2.024555144103366e-16 -2.423630964689915e-16 3.227615306569850e-16 -1.749579759897768e-16 2.788110579787511e-17
-2.269059266448000e-04 6.839255870354925e-17 -2.904371636285806e-16 6.369107682291751e-17 -9.404505753293909e-17 1.724522125271442e-17
-2.269059266447364e-04 3.240017631594651e-16 -5.179260919542343e-17 1.487441511035695e-16 -1.927153383248315e-17 9.642876654921016e-17
-2.269059266448126e-04 1.025888380553239e-16 2.284853086611771e-16 4.645819041574162e-16 -9.232243958196078e-17 6.185095040787610e-17
-2.269059266446629e-04 5.577813053751592e-18 -9.296355089585918e-18 -1.062433198521721e-16 1.260040324372184e-16 1.283770558042618e-16
-2.269059266443823e-04 3.127972764477742e-16 1.327018748566315e-16 -1.485686710733629e-16 4.277516374631368e-17 1.327539944945491e-16
-2.275691304709954e-04 -4.884447349738173e-16 -1.487416814333741e-17 6.819897975685374e-16 2.158729555192658e-16 -1.094170824212897e-16
-2.275691304714799e-04 2.122500596676839e-16 -6.666677733876082e-17 -2.227984677882544e-16 9.482266141010182e-17 1.341863103370411e-16
-2.275691304710010e-04 -1.083978619705795e-17 1.812741321839821e-16 -6.011077936313970e-17 -2.391269060284540e-17 2.010435240241093e-16
-2.275691304715653e-04 1.765592098126248e-16 8.920924041527101e-17 -2.252795105507714e-16 9.730976957539417e-17 3.921127631944430e-17
-2.269059266448126e-04 1.025888380553239e-16 2.284853086611771e-16 4.645819041574162e-16 -9.232243958196078e-17 6.185095040787610e-17
-2.269059266446419e-04 1.841297835374224e-16 2.924299242996265e-16 8.841044682213994e-17 2.571949500878583e-16 -2.058826645322121e-16
-2.269059266448376e-04 -3.009611099151933e-16 -3.256298233158782e-16 1.074657543279838e-17 -1.476354822352741e-16 -1.370636312452441e-16
-2.269059266446629e-04 5.577813053751592e-18 -9.296355089585918e-18 -1.062433198521721e-16 1.260040324372184e-16 1.283770558042618e-16
-2.275691304714799e-04 2.122500596676839e-16 -6.666677733876082e-17 -2.227984677882544e-16 9.482266141010182e-17 1.341863103370411e-16
-2.275691304710059e-04 3.521220392897264e-16 3.920296213483815e-16 1.174569770169511e-16 -3.548734233550744e-17 -4.866183549473760e-16
-2.275691304708604e-04 -3.564722611464511e-16 3.219112812800439e-16 -1.110399824676360e-16 -1.659957835372063e-16 -5.669314793072267e-17
-2.275691304710010e-04 -1.083978619705795e-17 1.812741321839821e-16 -6.011077936313970e-17 -2.391269060284540e-17 2.010435240241093e-16
-2.269059266443823e-04 3.127972764477742e-16 1.327018748566315e-16 -1.485686710733629e-16 4.277516374631368e-17 1.327539944945491e-16
-2.269059266446629e-04 5.577813053751592e-18 -9.296355089585918e-18 -1.062433198521721e-16 1.260040324372184e-16 1.283770558042618e-16
-2.269059266445618e-04 2.134287902605233e-16 -7.075001988922794e-17 3.736833035710557e-17 7.941564848274961e-17 5.128715122042661e-17
-2.269059266450321e-04 -2.034518947458594e-16 -2.501648810552929e-16 -2.593306823929126e-17 -1.737511329250027e-17 -1.258895146703911e-16
-2.275691304715653e-04 1.765592098126248e-16 8.920924041527101e-17 -2.252795105507714e-16 9.730976957539417e-17 3.921127631944430e-17
-2.275691304710010e-04 -1.083978619705795e-17 1.812741321839821e-16 -6.011077936313970e-17 -2.391269060284540e-17 2.010435240241093e-16
-2.275691304714521e-04 2.212305748468246e-16 -2.435287349023971e-17 -9.208615606689357e-18 7.204592293261879e-17 -4.775878533159693e-17
-2.275691304711267e-04 6.585274726055423e-17 2.081668171172167e-17 -8.518662675122622e-17 1.828124638537810e-17 1.577195949256068e-17
-2.269059266446629e-04 5.577813053751592e-18 -9.296355089585918e-18 -1.062433198521721e-16 1.260040324372184e-16 1.283770558042618e-16
-2.269059266448376e-04 -3.009611099151933e-16 -3.256298233158782e-16 1.074657543279838e-17 -1.476354822352741e-16 -1.370636312452441e-16
-2.269059266446924e-04 8.698526888272106e-17 2.136111405178395e-16 -9.685996017269870e-19 1.891279114140700e-16 -3.785499078077511e-16
-2.269059266445618e-04 2.134287902605233e-16 -7.075001988922794e-17 3.736833035710557e-17 7.941564848274961e-17 5.128715122042661e-17
-2.275691304710010e-04 -1.083978619705795e-17 1.812741321839821e-16 -6.011077936313970e-17 -2.391269060284540e-17 2.010435240241093e-16
-2.275691304708604e-04 -3.564722611464511e-16 3.219112812800439e-16 -1.110399824676360e-16 -1.659957835372063e-16 -5.669314793072267e-17
-2.275691304709747e-04 -9.162865436457054e-18 -1.651723728436178e-16 1.509518252673870e-16 2.494668361636093e-16 6.319780465841915e-17
-2.275691304714521e-04 2.212305748468246e-16 -2.435287349023971e-17 -9.208615606689357e-18 7.204592293261879e-17 -4.775878533159693e-17
-2.269059266450321e-04 -2.034518947458594e-16 -2.501648810552929e-16 -2.593306823929126e-17 -1.737511329250027e-17 -1.258895146703911e-16
-2.269059266445618e-04 2.134287902605233e-16 -7.075001988922794e-17 3.736833035710557e-17 7.941564848274961e-17 5.128715122042661e-17
-2.269059266448122e-04 2.657684502278953e-17 -2.539811442995089e-18 2.446396119885361e-17 3.715643874881843e-17 1.425390380954927e-17
-2.269059266444852e-04 8.109161591852434e-17 7.075001988922798e-17 1.193521766419357e-17 1.235705554356420e-17 -1.363564294202300e-16
-2.275691304711267e-04 6.585274726055423e-17 2.081668171172167e-17 -8.518662675122622e-17 1.828124638537810e-17 1.577195949256068e-17
-2.275691304714521e-04 2.212305748468246e-16 -2.435287349023971e-17 -9.208615606689357e-18 7.204592293261879e-17 -4.775878533159693e-17
-2.275691304712305e-04 -2.797797276888390e-16 5.111206877034560e-17 -8.744088282106183e-17 3.751944793049764e-17 1.835019496402954e-16
-2.275691304711649e-04 -2.779204566709218e-16 -1.437597797557594e-17 -8.423155512800312e-17 -7.781427959504017e-17 1.861616875541378e-17
-2.269059266445618e-04 2.134287902605233e-16 -7.075001988922794e-17 3.736833035710557e-17 7.941564848274961e-17 5.128715122042661e-17
-2.269059266446924e-04 8.698526888272106e-17 2.136111405178395e-16 -9.685996017269870e-19 1.891279114140700e-16 -3.785499078077511e-16
-2.269059266443664e-04 -2.974833628667485e-17 -1.540167467361147e-16 -5.098304955083312e-18 1.659741075189404e-16 1.130795668946804e-18
-2.269059266448122e-04 2.657684502278953e-17 -2.539811442995089e-18 2.446396119885361e-17 3.715643874881843e-17 1.425390380954927e-17
-2.275691304714521e-04 2.212305748468246e-16 -2.435287349023971e-17 -9.208615606689357e-18 7.204592293261879e-17 -4.775878533159693e-17
-2.275691304709747e-04 -9.162865436457054e-18 -1.651723728436178e-16 1.509518252673870e-16 2.494668361636093e-16 6.319780465841915e-17
-2.275691304714199e-04 -6.440703736145750e-18 -1.567389084364261e-16 5.355454407753470e-17 8.275937531584009e-17 -4.538266612879262e-16
-2.275691304712305e-04 -2.797797276888390e-16 5.111206877034560e-17 -8.744088282106183e-17 3.751944793049764e-17 1.835019496402954e-16
-2.269059266444852e-04 8.109161591852434e-17 7.075001988922798e-17 1.193521766419357e-17 1.235705554356420e-17 -1.363564294202300e-16
-2.269059266448122e-04 2.657684502278953e-17 -2.539811442995089e-18 2.446396119885361e-17 3.715643874881843e-17 1.425390380954927e-17
-2.269059266446767e-04 -1.646741826758562e-16 -1.357398764673880e-16 -1.739323489821195e-16 1.734834449848290e-16 -8.899585363109035e-17
-2.269059266446640e-04 -1.387778780781446e-17 -3.872658383728366e-16 -8.894577749403000e-17 1.144716002900840e-17 -5.821545931273914e-17
-2.275691304711649e-04 -2.779204566709218e-16 -1.437597797557594e-17 -8.423155512800312e-17 -7.781427959504017e-17 1.861616875541378e-17
-2.275691304712305e-04 -2.797797276888390e-16 5.111206877034560e-17 -8.744088282106183e-17 3.751944793049764e-17 1.835019496402954e-16
-2.275691304716611e-04 -2.181306204724470e-17 -1.165381627526461e-17 4.270695306024312e-17 -4.760034741983995e-17 -9.784179651692918e-17
-2.275691304715672e-04 -2.254473070504204e-16 6.907309912862707e-17 -1.666893055728958e-16 1.256630535907632e-16 9.385426960153833e-17
-2.269059266448122e-04 2.657684502278953e-17 -2.539811442995089e-18 2.446396119885361e-17 3.715643874881843e-17 1.425390380954927e-17
-2.269059266443664e-04 -2.974833628667485e-17 -1.540167467361147e-16 -5.098304955083312e-18 1.659741075189404e-16 1.130795668946804e-18
-2.269059266444659e-04 2.474427193549815e-16 1.188240870488170e-16 1.471450307617867e-16 1.749868773474648e-16 -7.223392810453425e-17
-2.269059266446767e-04 -1.646741826758562e-16 -1.357398764673880e-16 -1.739323489821195e-16 1.734834449848290e-16 -8.899585363109035e-17
-2.275691304712305e-04 -2.797797276888390e-16 5.111206877034560e-17 -8.744088282106183e-17 3.751944793049764e-17 1.835019496402954e-16
-2.275691304714199e-04 -6.440703736145750e-18 -1.567389084364261e-16 5.355454407753470e-17 8.275937531584009e-17 -4.538266612879262e-16
-2.275691304712138e-04 -3.337963084168123e-16 -2.802779178566005e-16 4.647582494869156e-17 -1.333702001306624e-16 -3.021249846744354e-16
-2.275691304716611e-04 -2.181306204724470e-17 -1.165381627526461e-17 4.270695306024312e-17 -4.760034741983995e-17 -9.784179651692918e-17
-2.269059266446640e-04 -1.387778780781446e-17 -3.872658383728366e-16 -8.894577749403000e-17 1.144716002900840e-17 -5.821545931273914e-17
-2.269059266446767e-04 -1.646741826758562e-16 -1.357398764673880e-16 -1.739323489821195e-16 1.734834449848290e-16 -8.899585363109035e-17
-2.269059266448000e-04 6.839255870354925e-17 -2.904371636285806e-16 6.369107682291751e-17 -9.404505753293909e-17 1.724522125271442e-17
-2.269059266448220e-04 -4.498982337653180e-16 -1.623524899349317e-17 1.967443165421599e-16 9.007913718499038e-17 -5.225887623361104e-17
-2.275691304715672e-04 -2.254473070504204e-16 6.907309912862707e-17 -1.666893055728958e-16 1.256630535907632e-16 9.385426960153833e-17
-2.275691304716611e-04 -2.181306204724470e-17 -1.165381627526461e-17 4.270695306024312e-17 -4.760034741983995e-17 -9.784179651692918e-17
-2.275691304714812e-04 9.950197584038000e-17 -1.794148611660649e-16 6.723225405503348e-17 1.992459016770549e-17 1.037682895740796e-16
-2.275691304712899e-04 6.252298523809157e-16 -1.929279484592467e-16 2.615026695877236e-16 -5.436426615781980e-17 -1.341414701920352e-16
-2.269059266446767e-04 -1.646741826758562e-16 -1.357398764673880e-16 -1.739323489821195e-16 1.734834449848290e-16 -8.899585363109035e-17
-2.269059266444659e-04 2.474427193549815e-16 1.188240870488170e-16 1.471450307617867e-16 1.749868773474648e-16 -7.223392810453425e-17
-2.269059266445505e-04 -2.024555144103366e-16 -2.423630964689915e-16 3.227615306569850e-16 -1.749579759897768e-16 2.788110579787511e-17
-2.269059266448000e-04 6.839255870354925e-17 -2.904371636285806e-16 6.369107682291751e-17 -9.404505753293909e-17 1.724522125271442e-17
-2.275691304716611e-04 -2.181306204724470e-17 -1.165381627526461e-17 4.270695306024312e-17 -4.760034741983995e-17 -9.784179651692918e-17
-2.275691304712138e-04 -3.337963084168123e-16 -2.802779178566005e-16 4.647582494869156e-17 -1.333702001306624e-16 -3.021249846744354e-16
-2.275691304708962e-04 1.516592855504359e-16 -1.313407940064759e-16 1.312677890189903e-16 2.492108152442402e-17 -1.254903136540590e-16
-2.275691304714812e-04 9.950197584038000e-17 -1.794148611660649e-16 6.723225405503348e-17 1.992459016770549e-17 1.037682895740796e-16
-2.275691304709954e-04 -4.884447349738173e-16 -1.487416814333741e-17 6.819897975685374e-16 2.158729555192658e-16 -1.094170824212897e-16
-2.275691304714799e-04 2.122500596676839e-16 -6.666677733876082e-17 -2.227984677882544e-16 9.482266141010182e-17 1.341863103370411e-16
-2.275691304710010e-04 -1.083978619705795e-17 1.812741321839821e-16 -6.011077936313970e-17 -2.391269060284540e-17 2.010435240241093e-16
-2.275691304715653e-04 1.765592098126248e-16 8.920924041527101e-17 -2.252795105507714e-16 9.730976957539417e-17 3.921127631944430e-17
-2.279967614975296e-04 3.337963084168122e-16 9.614813431917812e-17 -2.274074322463925e-16 -6.746374145455540e-17 1.996247635925774e-16
-2.279967614981328e-04 -7.622819490942720e-16 -1.184593865341844e-16 3.111294543743669e-16 -8.499610225888242e-18 2.844093216725360e-16
-2.279967614977916e-04 -2.728408337849318e-16 -6.839255870354928e-17 7.186215220413176e-17 -3.364069559861944e-17 -1.872374053185317e-16
-2.279967614981514e-04 9.133549073944574e-17 2.031849154396018e-17 -1.704807052394145e-16 -5.659118185208336e-18 -1.475050721883577e-16
-2.275691304714799e-04 2.122500596676839e-16 -6.666677733876082e-17 -2.227984677882544e-16 9.482266141010182e-17 1.341863103370411e-16
-2.275691304710059e-04 3.521220392897264e-16 3.920296213483815e-16 1.174569770169511e-16 -3.548734233550744e-17 -4.866183549473760e-16
-2.275691304708604e-04 -3.564722611464511e-16 3.219112812800439e-16 -1.110399824676360e-16 -1.659957835372063e-16 -5.669314793072267e-17
-2.275691304710010e-04 -1.083978619705795e-17 1.812741321839821e-16 -6.011077936313970e-17 -2.391269060284540e-17 2.010435240241093e-16
-2.279967614981328e-04 -7.622819490942720e-16 -1.184593865341844e-16 3.111294543743669e-16 -8.499610225888242e-18 2.844093216725360e-16
-2.279967614984145e-04 -5.696995328978835e-17 -1.219109492637611e-16 3.671475303842562e-16 3.770804082819952e-17 3.672838059049227e-16
-2.279967614972167e-04 4.535190545927752e-17 -7.782240344626398e-17 3.984705149282993e-16 -2.175853237172730e-17 7.953415401524501e-17
-2.279967614977916e-04 -2.728408337849318e-16 -6.839255870354928e-17 7.186215220413176e-17 -3.364069559861944e-17 -1.872374053185317e-16
-2.275691304715653e-04 1.765592098126248e-16 8.920924041527101e-17 -2.252795105507714e-16 9.730976957539417e-17 3.921127631944430e-17
-2.275691304710010e-04 -1.083978619705795e-17 1.812741321839821e-16 -6.011077936313970e-17 -2.391269060284540e-17 2.010435240241093e-16
-2.275691304714521e-04 2.212305748468246e-16 -2.435287349023971e-17 -9.208615606689357e-18 7.204592293261879e-17 -4.775878533159693e-17
-2.275691304711267e-04 6.585274726055423e-17 2.081668171172167e-17 -8.518662675122622e-17 1.828124638537810e-17 1.577195949256068e-17
-2.279967614981514e-04 9.133549073944574e-17 2.031849154396018e-17 -1.704807052394145e-16 -5.659118185208336e-18 -1.475050721883577e-16
-2.279967614977916e-04 -2.728408337849318e-16 -6.839255870354928e-17 7.186215220413176e-17 -3.364069559861944e-17 -1.872374053185317e-16
-2.279967614977903e-04 8.798164921824402e-18 -1.225426290846514e-16 -3.125501193930599e-17 1.819797019190215e-16 -2.537723251825775e-16
-2.279967614980984e-04 -9.442235295438988e-17 1.729741574299192e-16 6.763824324638274e-17 -6.028123166021179e-17 -8.090798308660719e-17
-2.275691304710010e-04 -1.083978619705795e-17 1.812741321839821e-16 -6.011077936313970e-17 -2.391269060284540e-17 2.010435240241093e-16
-2.275691304708604e-04 -3.564722611464511e-16 3.219112812800439e-16 -1.110399824676360e-16 -1.659957835372063e-16 -5.669314793072267e-17
-2.275691304709747e-04 -9.162865436457054e-18 -1.651723728436178e-16 1.509518252673870e-16 2.494668361636093e-16 6.319780465841915e-17
-2.275691304714521e-04 2.212305748468246e-16 -2.435287349023971e-17 -9.208615606689357e-18 7.204592293261879e-17 -4.775878533159693e-17
-2.279967614977916e-04 -2.728408337849318e-16 -6.839255870354928e-17 7.186215220413176e-17 -3.364069559861944e-17 -1.872374053185317e-16
-2.279967614972167e-04 4.535190545927752e-17 -7.782240344626398e-17 3.984705149282993e-16 -2.175853237172730e-17 7.953415401524501e-17
-2.279967614975324e-04 -6.086299028727898e-16 -2.450852581693028e-16 -3.369377816359147e-16 -2.162400520653680e-17 -9.601603714038057e-16
-2.279967614977903e-04 8.798164921824402e-18 -1.225426290846514e-16 -3.125501193930599e-17 1.819797019190215e-16 -2.537723251825775e-16
-2.275691304711267e-04 6.585274726055423e-17 2.081668171172167e-17 -8.518662675122622e-17 1.828124638537810e-17 1.577195949256068e-17
-2.275691304714521e-04 2.212305748468246e-16 -2.435287349023971e-17 -9.208615606689357e-18 7.204592293261879e-17 -4.775878533159693e-17
-2.275691304712305e-04 -2.797797276888390e-16 5.111206877034560e-17 -8.744088282106183e-17 3.751944793049764e-17 1.835019496402954e-16
-2.275691304711649e-04 -2.779204566709218e-16 -1.437597797557594e-17 -8.423155512800312e-17 -7.781427959504017e-17 1.861616875541378e-17
-2.279967614980984e-04 -9.442235295438988e-17 1.729741574299192e-16 6.763824324638274e-17 -6.028123166021179e-17 -8.090798308660719e-17
-2.279967614977903e-04 8.798164921824402e-18 -1.225426290846514e-16 -3.125501193930599e-17 1.819797019190215e-16 -2.537723251825775e-16
-2.279967614980767e-04 -2.131487187948326e-17 -4.684909439444897e-16 8.514651367115177e-17 4.804058512025862e-17 4.458223029461486e-16
-2.279967614980681e-04 8.798164921824390e-18 -3.967445437197389e-16 -1.991708749006761e-16 -2.095873372026778e-17 -1.859879366341054e-16
-2.275691304714521e-04 2.212305748468246e-16 -2.435287349023971e-17 -9.208615606689357e-18 7.204592293261879e-17 -4.775878533159693e-17
-2.275691304709747e-04 -9.162865436457054e-18 -1.651723728436178e-16 1.509518252673870e-16 2.494668361636093e-16 6.319780465841915e-17
-2.275691304714199e-04 -6.440703736145750e-18 -1.567389084364261e-16 5.355454407753470e-17 8.275937531584009e-17 -4.538266612879262e-16
-2.275691304712305e-04 -2.797797276888390e-16 5.111206877034560e-17 -8.744088282106183e-17 3.751944793049764e-17 1.835019496402954e-16
-2.279967614977903e-04 8.798164921824402e-18 -1.225426290846514e-16 -3.125501193930599e-17 1.819797019190215e-16 -2.537723251825775e-16
-2.279967614975324e-04 -6.086299028727898e-16 -2.450852581693028e-16 -3.369377816359147e-16 -2.162400520653680e-17 -9.601603714038057e-16
-2.279967614983914e-04 1.848591845666876e-16 1.266258716351184e-16 -3.158234993431609e-16 1.775472470448271e-16 8.886217146346560e-17
-2.279967614980767e-04 -2.131487187948326e-17 -4.684909439444897e-16 8.514651367115177e-17 4.804058512025862e-17 4.458223029461486e-16
-2.275691304711649e-04 -2.779204566709218e-16 -1.437597797557594e-17 -8.423155512800312e-17 -7.781427959504017e-17 1.861616875541378e-17
-2.275691304712305e-04 -2.797797276888390e-16 5.111206877034560e-17 -8.744088282106183e-17 3.751944793049764e-17 1.835019496402954e-16
-2.275691304716611e-04 -2.181306204724470e-17 -1.165381627526461e-17 4.270695306024312e-17 -4.760034741983995e-17 -9.784179651692918e-17
-2.275691304715672e-04 -2.254473070504204e-16 6.907309912862707e-17 -1.666893055728958e-16 1.256630535907632e-16 9.385426960153833e-17
-2.279967614980681e-04 8.798164921824390e-18 -3.967445437197389e-16 -1.991708749006761e-16 -2.095873372026778e-17 -1.859879366341054e-16
-2.279967614980767e-04 -2.131487187948326e-17 -4.684909439444897e-16 8.514651367115177e-17 4.804058512025862e-17 4.458223029461486e-16
-2.279967614984758e-04 5.886499275245952e-17 9.986667635501249e-17 -6.405842512574366e-17 -4.097032746497132e-17 -1.100592241409332e-16
-2.279967614980222e-04 -1.659994950812592e-17 -2.664001300487860e-16 -9.270735881364598e-17 4.914311001931442e-17 6.329166661719116e-17
-2.275691304712305e-04 -2.797797276888390e-16 5.111206877034560e-17 -8.744088282106183e-17 3.751944793049764e-17 1.835019496402954e-16
-2.275691304714199e-04 -6.440703736145750e-18 -1.567389084364261e-16 5.355454407753470e-17 8.275937531584009e-17 -4.538266612879262e-16
-2.275691304712138e-04 -3.337963084168123e-16 -2.802779178566005e-16 4.647582494869156e-17 -1.333702001306624e-16 -3.021249846744354e-16
-2.275691304716611e-04 -2.181306204724470e-17 -1.165381627526461e-17 4.270695306024312e-17 -4.760034741983995e-17 -9.784179651692918e-17
-2.279967614980767e-04 -2.131487187948326e-17 -4.684909439444897e-16 8.514651367115177e-17 4.804058512025862e-17 4.458223029461486e-16
-2.279967614983914e-04 1.848591845666876e-16 1.266258716351184e-16 -3.158234993431609e-16 1.775472470448271e-16 8.886217146346560e-17
-2.279967614965689e-04 1.489371238501246e-16 5.511259909704861e-16 4.042638793899680e-16 6.723171233308341e-18 -7.047302316722459e-16
-2.279967614984758e-04 5.886499275245952e-17 9.986667635501249e-17 -6.405842512574366e-17 -4.097032746497132e-17 -1.100592241409332e-16
-2.275691304715672e-04 -2.254473070504204e-16 6.907309912862707e-17 -1.666893055728958e-16 1.256630535907632e-16 9.385426960153833e-17
-2.275691304716611e-04 -2.181306204724470e-17 -1.165381627526461e-17 4.270695306024312e-17 -4.760034741983995e-17 -9.784179651692918e-17
-2.275691304714812e-04 9.950197584038000e-17 -1.794148611660649e-16 6.723225405503348e-17 1.992459016770549e-17 1.037682895740796e-16
-2.275691304712899e-04 6.252298523809157e-16 -1.929279484592467e-16 2.615026695877236e-16 -5.436426615781980e-17 -1.341414701920352e-16
-2.279967614980222e-04 -1.659994950812592e-17 -2.664001300487860e-16 -9.270735881364598e-17 4.914311001931442e-17 6.329166661719116e-17
-2.279967614984758e-04 5.886499275245952e-17 9.986667635501249e-17 -6.405842512574366e-17 -4.097032746497132e-17 -1.100592241409332e-16
-2.279967614982690e-04 3.811409745471359e-16 2.403703357979454e-16 6.757569745604075e-16 1.296805594525160e-16 -1.383352578555908e-16
-2.279967614980379e-04 -8.165297406837490e-16 1.110223024625156e-16 -2.751283852835915e-17 1.250580102255526e-16 -6.757647930978378e-17
-2.275691304716611e-04 -2.181306204724470e-17 -1.165381627526461e-17 4.270695306024312e-17 -4.760034741983995e-17 -9.784179651692918e-17
-2.275691304712138e-04 -3.337963084168123e-16 -2.802779178566005e-16 4.647582494869156e-17 -1.333702001306624e-16 -3.021249846744354e-16
-2.275691304708962e-04 1.516592855504359e-16 -1.313407940064759e-16 1.312677890189903e-16 2.492108152442402e-17 -1.254903136540590e-16
-2.275691304714812e-04 9.950197584038000e-17 -1.794148611660649e-16 6.723225405503348e-17 1.992459016770549e-17 1.037682895740796e-16
-2.279967614984758e-04 5.886499275245952e-17 9.986667635501249e-17 -6.405842512574366e-17 -4.097032746497132e-17 -1.100592241409332e-16
-2.279967614965689e-04 1.489371238501246e-16 5.511259909704861e-16 4.042638793899680e-16 6.723171233308341e-18 -7.047302316722459e-16
-2.279967614979934e-04 -1.422294408077212e-16 1.487416814333752e-17 -3.872211879071467e-16 -1.555601778435868e-16 8.852982186001513e-17
-2.279967614982690e-04 3.811409745471359e-16 2.403703357979454e-16 6.757569745604075e-16 1.296805594525160e-16 -1.383352578555908e-16
        </DataArray>
        <DataArray type="Float64" Name="nodal_cauchy_stresses_xyz" NumberOfComponents="6" format="ascii">
-6.110935005485028e+02 -2.619566503223170e+02 -2.619566503231596e+02 5.715412952746359e-10 -1.160680278166252e-11 4.388203861011773e-12
-6.110935005506770e+02 -2.619566503237622e+02 -2.619566503236371e+02 2.401911932288602e-12 -4.228752619340652e-10 2.094895428593225e-10
-6.110935005481372e+02 -2.619566503227645e+02 -2.619566503223140e+02 -7.671074624501975e-11 1.377762504640007e-10 -2.261185382400537e-10
-6.110935005492280e+02 -2.619566503234843e+02 -2.619566503234083e+02 -3.191674092089723e-10 -4.715124649678870e-11 -5.595507941390303e-11
-6.107041703445699e+02 -2.617897188412761e+02 -2.617897188413372e+02 2.516027808228442e-11 -6.074085340577709e-11 2.566355897833531e-10
-6.107041703435830e+02 -2.617897188423812e+02 -2.617897188417545e+02 2.364556573145675e-10 -2.537799851939812e-11 2.771596562315795e-10
-6.107041703432027e+02 -2.617897188405765e+02 -2.617897188407991e+02 1.172119433502967e-10 -1.057154288399601e-11 3.272982607862791e-10
-6.107041703445966e+02 -2.617897188417618e+02 -2.617897188417539e+02 -9.849874677268971e-11 6.246394719521126e-11 -1.372741770277427e-10
-6.110935005506770e+02 -2.619566503237622e+02 -2.619566503236371e+02 2.401911932288602e-12 -4.228752619340652e-10 2.094895428593225e-10
-6.110935005498285e+02 -2.619566503257790e+02 -2.619566503230972e+02 6.138885550939452e-10 -1.513384569240536e-10 -5.405968839933839e-10
-6.110935005469717e+02 -2.619566503217827e+02 -2.619566503227530e+02 -4.004916915676478e-10 -4.377183018087088e-10 3.922593904666373e-10
-6.110935005481372e+02 -2.619566503227645e+02 -2.619566503223140e+02 -7.671074624501975e-11 1.377762504640007e-10 -2.261185382400537e-10
-6.107041703435830e+02 -2.617897188423812e+02 -2.617897188417545e+02 2.364556573145675e-10 -2.537799851939812e-11 2.771596562315795e-10
-6.107041703443174e+02 -2.617897188393022e+02 -2.617897188415117e+02 9.442871184956453e-10 7.814972509448359e-10 -2.580956392666641e-10
-6.107041703447211e+02 -2.617897188416279e+02 -2.617897188416392e+02 -1.129302008628725e-10 3.072820969646046e-10 -4.622846333003341e-12
-6.107041703432027e+02 -2.617897188405765e+02 -2.617897188407991e+02 1.172119433502967e-10 -1.057154288399601e-11 3.272982607862791e-10
-6.110935005492280e+02 -2.619566503234843e+02 -2.619566503234083e+02 -3.191674092089723e-10 -4.715124649678870e-11 -5.595507941390303e-11
-6.110935005481372e+02 -2.619566503227645e+02 -2.619566503223140e+02 -7.671074624501975e-11 1.377762504640007e-10 -2.261185382400537e-10
-6.110935005483792e+02 -2.619566503227070e+02 -2.619566503228423e+02 -1.396808912327901e-10 -8.739879485048894e-11 1.470403733522316e-10
-6.110935005491423e+02 -2.619566503235300e+02 -2.619566503229983e+02 1.332683394159273e-10 3.908524022444282e-11 2.380805369672574e-10
-6.107041703445966e+02 -2.617897188417618e+02 -2.617897188417539e+02 -9.849874677268971e-11 6.246394719521126e-11 -1.372741770277427e-10
-6.107041703432027e+02 -2.617897188405765e+02 -2.617897188407991e+02 1.172119433502967e-10 -1.057154288399601e-11 3.272982607862791e-10
-6.107041703447325e+02 -2.617897188419400e+02 -2.617897188422253e+02 -7.939238738450349e-11 1.576493176592627e-10 3.430476291634327e-10
-6.107041703425991e+02 -2.617897188411364e+02 -2.617897188413842e+02 3.139718536313456e-10 -1.770207266729670e-11 1.815579890751990e-10
-6.110935005481372e+02 -2.619566503227645e+02 -2.619566503223140e+02 -7.671074624501975e-11 1.377762504640007e-10 -2.261185382400537e-10
-6.110935005469717e+02 -2.619566503217827e+02 -2.619566503227530e+02 -4.004916915676478e-10 -4.377183018087088e-10 3.922593904666373e-10
-6.110935005510885e+02 -2.619566503268521e+02 -2.619566503253862e+02 1.171953862747663e-10 -1.907601840130573e-10 -2.346335308640505e-11
-6.110935005483792e+02 -2.619566503227070e+02 -2.619566503228423e+02 -1.396808912327901e-10 -8.739879485048894e-11 1.470403733522316e-10
-6.107041703432027e+02 -2.617897188405765e+02 -2.617897188407991e+02 1.172119433502967e-10 -1.057154288399601e-11 3.272982607862791e-10
-6.107041703447211e+02 -2.617897188416279e+02 -2.617897188416392e+02 -1.129302008628725e-10 3.072820969646046e-10 -4.622846333003341e-12
-6.107041703418888e+02 -2.617897188403114e+02 -2.617897188402854e+02 6.324393824538216e-11 1.195116988663348e-10 1.438047475143553e-10
-6.107041703447325e+02 -2.617897188419400e+02 -2.617897188422253e+02 -7.939238738450349e-11 1.576493176592627e-10 3.430476291634327e-10
-6.110935005491423e+02 -2.619566503235300e+02 -2.619566503229983e+02 1.332683394159273e-10 3.908524022444282e-11 2.380805369672574e-10
-6.110935005483792e+02 -2.619566503227070e+02 -2.619566503228423e+02 -1.396808912327901e-10 -8.739879485048894e-11 1.470403733522316e-10
-6.110935005480101e+02 -2.619566503227327e+02 -2.619566503231276e+02 4.801431530882590e-11 -3.221879830450966e-11 5.664445082229708e-10
-6.110935005491956e+02 -2.619566503238452e+02 -2.619566503239358e+02 -3.415567432709607e-11 1.485713747863040e-11 8.554634216581094e-11
-6.107041703425991e+02 -2.617897188411364e+02 -2.617897188413842e+02 3.139718536313456e-10 -1.770207266729670e-11 1.815579890751990e-10
-6.107041703447325e+02 -2.617897188419400e+02 -2.617897188422253e+02 -7.939238738450349e-11 1.576493176592627e-10 3.430476291634327e-10
-6.107041703438040e+02 -2.617897188413774e+02 -2.617897188414348e+02 5.091908004073061e-11 -2.386134198263694e-10 7.374487229739556e-11
-6.107041703445701e+02 -2.617897188418698e+02 -2.617897188424420e+02 -1.436573729470749e-10 -1.188858626721297e-10 1.721153918497763e-10
-6.110935005483792e+02 -2.619566503227070e+02 -2.619566503228423e+02 -1.396808912327901e-10 -8.739879485048894e-11 1.470403733522316e-10
-6.110935005510885e+02 -2.619566503268521e+02 -2.619566503253862e+02 1.171953862747663e-10 -1.907601840130573e-10 -2.346335308640505e-11
-6.110935005486716e+02 -2.619566503231227e+02 -2.619566503211711e+02 -1.342573776824631e-10 -6.133318413801960e-11 -5.262548956145838e-10
-6.110935005480101e+02 -2.619566503227327e+02 -2.619566503231276e+02 4.801431530882590e-11 -3.221879830450966e-11 5.664445082229708e-10
-6.107041703447325e+02 -2.617897188419400e+02 -2.617897188422253e+02 -7.939238738450349e-11 1.576493176592627e-10 3.430476291634327e-10
-6.107041703418888e+02 -2.617897188403114e+02 -2.617897188402854e+02 6.324393824538216e-11 1.195116988663348e-10 1.438047475143553e-10
-6.107041703438227e+02 -2.617897188416375e+02 -2.617897188416454e+02 1.341925012771201e-11 -8.717331732121578e-11 -1.178981804955640e-09
-6.107041703438040e+02 -2.617897188413774e+02 -2.617897188414348e+02 5.091908004073061e-11 -2.386134198263694e-10 7.374487229739556e-11
-6.110935005491956e+02 -2.619566503238452e+02 -2.619566503239358e+02 -3.415567432709607e-11 1.485713747863040e-11 8.554634216581094e-11
-6.110935005480101e+02 -2.619566503227327e+02 -2.619566503231276e+02 4.801431530882590e-11 -3.221879830450966e-11 5.664445082229708e-10
-6.110935005466831e+02 -2.619566503220734e+02 -2.619566503230567e+02 1.472431561817068e-10 1.951920845244604e-10 -3.781923632492570e-10
-6.110935005473750e+02 -2.619566503220832e+02 -2.619566503227562e+02 3.657689866176194e-10 9.272788120489578e-12 -4.184279006658928e-10
-6.107041703445701e+02 -2.617897188418698e+02 -2.617897188424420e+02 -1.436573729470749e-10 -1.188858626721297e-10 1.721153918497763e-10
-6.107041703438040e+02 -2.617897188413774e+02 -2.617897188414348e+02 5.091908004073061e-11 -2.386134198263694e-10 7.374487229739556e-11
-6.107041703451640e+02 -2.617897188422614e+02 -2.617897188426921e+02 2.577440733721103e-10 -3.040619720354780e-10 3.083490684428704e-10
-6.107041703430825e+02 -2.617897188407400e+02 -2.617897188401431e+02 -3.395138490618520e-10 -1.009780562403817e-10 -2.440320152630418e-10
-6.110935005480101e+02 -2.619566503227327e+02 -2.619566503231276e+02 4.801431530882590e-11 -3.221879830450966e-11 5.664445082229708e-10
-6.110935005486716e+02 -2.619566503231227e+02 -2.619566503211711e+02 -1.342573776824631e-10 -6.133318413801960e-11 -5.262548956145838e-10
-6.110935005518738e+02 -2.619566503244503e+02 -2.619566503250884e+02 3.582150816732107e-10 -2.467595825953405e-10 -5.566337795616386e-10
-6.110935005466831e+02 -2.619566503220734e+02 -2.619566503230567e+02 1.472431561817068e-10 1.951920845244604e-10 -3.781923632492570e-10
-6.107041703438040e+02 -2.617897188413774e+02 -2.617897188414348e+02 5.091908004073061e-11 -2.386134198263694e-10 7.374487229739556e-11
-6.107041703438227e+02 -2.617897188416375e+02 -2.617897188416454e+02 1.341925012771201e-11 -8.717331732121578e-11 -1.178981804955640e-09
-6.107041703441081e+02 -2.617897188417658e+02 -2.617897188417105e+02 9.092655904200231e-11 3.224425054330183e-10 7.235010421898095e-10
-6.107041703451640e+02 -2.617897188422614e+02 -2.617897188426921e+02 2.577440733721103e-10 -3.040619720354780e-10 3.083490684428704e-10
-6.110935005473750e+02 -2.619566503220832e+02 -2.619566503227562e+02 3.657689866176194e-10 9.272788120489578e-12 -4.184279006658928e-10
-6.110935005466831e+02 -2.619566503220734e+02 -2.619566503230567e+02 1.472431561817068e-10 1.951920845244604e-10 -3.781923632492570e-10
-6.110935005485903e+02 -2.619566503225399e+02 -2.619566503231845e+02 -3.787107242203755e-12 -1.838796444891371e-10 3.615846289455086e-10
-6.110935005484458e+02 -2.619566503226478e+02 -2.619566503238689e+02 -5.667104713126772e-10 8.571459529926968e-11 -2.336541010778452e-10
-6.107041703430825e+02 -2.617897188407400e+02 -2.617897188401431e+02 -3.395138490618520e-10 -1.009780562403817e-10 -2.440320152630418e-10
-6.107041703451640e+02 -2.617897188422614e+02 -2.617897188426921e+02 2.577440733721103e-10 -3.040619720354780e-10 3.083490684428704e-10
-6.107041703420032e+02 -2.617897188410285e+02 -2.617897188406494e+02 -6.522999513346577e-11 7.427983013959215e-10 -8.209596024413724e-11
-6.107041703441597e+02 -2.617897188422602e+02 -2.617897188417663e+02 4.670053865754029e-10 2.117541938403179e-10 -2.011835635331741e-10
-6.110935005466831e+02 -2.619566503220734e+02 -2.619566503230567e+02 1.472431561817068e-10 1.951920845244604e-10 -3.781923632492570e-10
-6.110935005518738e+02 -2.619566503244503e+02 -2.619566503250884e+02 3.582150816732107e-10 -2.467595825953405e-10 -5.566337795616386e-10
-6.110935005482725e+02 -2.619566503252375e+02 -2.619566503241516e+02 -1.010736146074124e-09 -2.002296638144074e-10 5.538176626050077e-10
-6.110935005485903e+02 -2.619566503225399e+02 -2.619566503231845e+02 -3.787107242203755e-12 -1.838796444891371e-10 3.615846289455086e-10
-6.107041703451640e+02 -2.617897188422614e+02 -2.617897188426921e+02 2.577440733721103e-10 -3.040619720354780e-10 3.083490684428704e-10
-6.107041703441081e+02 -2.617897188417658e+02 -2.617897188417105e+02 9.092655904200231e-11 3.224425054330183e-10 7.235010421898095e-10
-6.107041703413084e+02 -2.617897188399302e+02 -2.617897188395406e+02 -7.577547414122835e-11 5.329927474428373e-11 3.788862016570017e-10
-6.107041703420032e+02 -2.617897188410285e+02 -2.617897188406494e+02 -6.522999513346577e-11 7.427983013959215e-10 -8.209596024413724e-11
-6.107041703445699e+02 -2.617897188412761e+02 -2.617897188413372e+02 2.516027808228442e-11 -6.074085340577709e-11 2.566355897833531e-10
-6.107041703435830e+02 -2.617897188423812e+02 -2.617897188417545e+02 2.364556573145675e-10 -2.537799851939812e-11 2.771596562315795e-10
-6.107041703432027e+02 -2.617897188405765e+02 -2.617897188407991e+02 1.172119433502967e-10 -1.057154288399601e-11 3.272982607862791e-10
-6.107041703445966e+02 -2.617897188417618e+02 -2.617897188417539e+02 -9.849874677268971e-11 6.246394719521126e-11 -1.372741770277427e-10
-6.104116836901951e+02 -2.616643105540341e+02 -2.616643105542379e+02 6.061535665649620e-10 3.619316368032680e-11 -2.758763471826375e-10
-6.104116836900390e+02 -2.616643105549966e+02 -2.616643105549124e+02 -1.612336358104348e-10 1.176626207843954e-10 -8.503471352370055e-11
-6.104116836910727e+02 -2.616643105547987e+02 -2.616643105549470e+02 -2.159476091330016e-10 4.977789220992755e-11 -2.675168358109430e-10
-6.104116836911460e+02 -2.616643105553721e+02 -2.616643105552999e+02 2.895614723406628e-10 1.019051216555010e-11 9.846243740754506e-11
-6.107041703435830e+02 -2.617897188423812e+02 -2.617897188417545e+02 2.364556573145675e-10 -2.537799851939812e-11 2.771596562315795e-10
-6.107041703443174e+02 -2.617897188393022e+02 -2.617897188415117e+02 9.442871184956453e-10 7.814972509448359e-10 -2.580956392666641e-10
-6.107041703447211e+02 -2.617897188416279e+02 -2.617897188416392e+02 -1.129302008628725e-10 3.072820969646046e-10 -4.622846333003341e-12
-6.107041703432027e+02 -2.617897188405765e+02 -2.617897188407991e+02 1.172119433502967e-10 -1.057154288399601e-11 3.272982607862791e-10
-6.104116836900390e+02 -2.616643105549966e+02 -2.616643105549124e+02 -1.612336358104348e-10 1.176626207843954e-10 -8.503471352370055e-11
-6.104116836906719e+02 -2.616643105545101e+02 -2.616643105556615e+02 1.749419166416299e-10 -2.441364269426894e-10 1.146482061532930e-10
-6.104116836910225e+02 -2.616643105552444e+02 -2.616643105542133e+02 -2.373804442032062e-10 7.665740400707262e-11 -2.769418081777184e-10
-6.104116836910727e+02 -2.616643105547987e+02 -2.616643105549470e+02 -2.159476091330016e-10 4.977789220992755e-11 -2.675168358109430e-10
-6.107041703445966e+02 -2.617897188417618e+02 -2.617897188417539e+02 -9.849874677268971e-11 6.246394719521126e-11 -1.372741770277427e-10
-6.107041703432027e+02 -2.617897188405765e+02 -2.617897188407991e+02 1.172119433502967e-10 -1.057154288399601e-11 3.272982607862791e-10
-6.107041703447325e+02 -2.617897188419400e+02 -2.617897188422253e+02 -7.939238738450349e-11 1.576493176592627e-10 3.430476291634327e-10
-6.107041703425991e+02 -2.617897188411364e+02 -2.617897188413842e+02 3.139718536313456e-10 -1.770207266729670e-11 1.815579890751990e-10
-6.104116836911460e+02 -2.616643105553721e+02 -2.616643105552999e+02 2.895614723406628e-10 1.019051216555010e-11 9.846243740754506e-11
-6.104116836910727e+02 -2.616643105547987e+02 -2.616643105549470e+02 -2.159476091330016e-10 4.977789220992755e-11 -2.675168358109430e-10
-6.104116836912220e+02 -2.616643105550011e+02 -2.616643105546852e+02 2.072165022931294e-10 9.379103729198768e-12 3.010059118642728e-10
-6.104116836918606e+02 -2.616643105557853e+02 -2.616643105555498e+02 1.847443228095328e-10 -1.751658137254933e-10 1.116724372494239e-10
-6.107041703432027e+02 -2.617897188405765e+02 -2.617897188407991e+02 1.172119433502967e-10 -1.057154288399601e-11 3.272982607862791e-10
-6.107041703447211e+02 -2.617897188416279e+02 -2.617897188416392e+02 -1.129302008628725e-10 3.072820969646046e-10 -4.622846333003341e-12
-6.107041703418888e+02 -2.617897188403114e+02 -2.617897188402854e+02 6.324393824538216e-11 1.195116988663348e-10 1.438047475143553e-10
-6.107041703447325e+02 -2.617897188419400e+02 -2.617897188422253e+02 -7.939238738450349e-11 1.576493176592627e-10 3.430476291634327e-10
-6.104116836910727e+02 -2.616643105547987e+02 -2.616643105549470e+02 -2.159476091330016e-10 4.977789220992755e-11 -2.675168358109430e-10
-6.104116836910225e+02 -2.616643105552444e+02 -2.616643105542133e+02 -2.373804442032062e-10 7.665740400707262e-11 -2.769418081777184e-10
-6.104116836907219e+02 -2.616643105546829e+02 -2.616643105552610e+02 -1.202452654907421e-10 3.893501472998556e-10 -3.314538136011065e-10
-6.104116836912220e+02 -2.616643105550011e+02 -2.616643105546852e+02 2.072165022931294e-10 9.379103729198768e-12 3.010059118642728e-10
-6.107041703425991e+02 -2.617897188411364e+02 -2.617897188413842e+02 3.139718536313456e-10 -1.770207266729670e-11 1.815579890751990e-10
-6.107041703447325e+02 -2.617897188419400e+02 -2.617897188422253e+02 -7.939238738450349e-11 1.576493176592627e-10 3.430476291634327e-10
-6.107041703438040e+02 -2.617897188413774e+02 -2.617897188414348e+02 5.091908004073061e-11 -2.386134198263694e-10 7.374487229739556e-11
-6.107041703445701e+02 -2.617897188418698e+02 -2.617897188424420e+02 -1.436573729470749e-10 -1.188858626721297e-10 1.721153918497763e-10
-6.104116836918606e+02 -2.616643105557853e+02 -2.616643105555498e+02 1.847443228095328e-10 -1.751658137254933e-10 1.116724372494239e-10
-6.104116836912220e+02 -2.616643105550011e+02 -2.616643105546852e+02 2.072165022931294e-10 9.379103729198768e-12 3.010059118642728e-10
-6.104116836905903e+02 -2.616643105550053e+02 -2.616643105551569e+02 1.679470976589199e-10 9.116839272571393e-11 -1.537897461768734e-10
-6.104116836910327e+02 -2.616643105553039e+02 -2.616643105549715e+02 -1.026676990894511e-10 -2.684131526691474e-10 -9.831381721762535e-11
-6.107041703447325e+02 -2.617897188419400e+02 -2.617897188422253e+02 -7.939238738450349e-11 1.576493176592627e-10 3.430476291634327e-10
-6.107041703418888e+02 -2.617897188403114e+02 -2.617897188402854e+02 6.324393824538216e-11 1.195116988663348e-10 1.438047475143553e-10
-6.107041703438227e+02 -2.617897188416375e+02 -2.617897188416454e+02 1.341925012771201e-11 -8.717331732121578e-11 -1.178981804955640e-09
-6.107041703438040e+02 -2.617897188413774e+02 -2.617897188414348e+02 5.091908004073061e-11 -2.386134198263694e-10 7.374487229739556e-11
-6.104116836912220e+02 -2.616643105550011e+02 -2.616643105546852e+02 2.072165022931294e-10 9.379103729198768e-12 3.010059118642728e-10
-6.104116836907219e+02 -2.616643105546829e+02 -2.616643105552610e+02 -1.202452654907421e-10 3.893501472998556e-10 -3.314538136011065e-10
-6.104116836912011e+02 -2.616643105553557e+02 -2.616643105559487e+02 1.164269407762460e-11 2.661230602782498e-10 3.987643732288127e-10
-6.104116836905903e+02 -2.616643105550053e+02 -2.616643105551569e+02 1.679470976589199e-10 9.116839272571393e-11 -1.537897461768734e-10
-6.107041703445701e+02 -2.617897188418698e+02 -2.617897188424420e+02 -1.436573729470749e-10 -1.188858626721297e-10 1.721153918497763e-10
-6.107041703438040e+02 -2.617897188413774e+02 -2.617897188414348e+02 5.091908004073061e-11 -2.386134198263694e-10 7.374487229739556e-11
-6.107041703451640e+02 -2.617897188422614e+02 -2.617897188426921e+02 2.577440733721103e-10 -3.040619720354780e-10 3.083490684428704e-10
-6.107041703430825e+02 -2.617897188407400e+02 -2.617897188401431e+02 -3.395138490618520e-10 -1.009780562403817e-10 -2.440320152630418e-10
-6.104116836910327e+02 -2.616643105553039e+02 -2.616643105549715e+02 -1.026676990894511e-10 -2.684131526691474e-10 -9.831381721762535e-11
-6.104116836905903e+02 -2.616643105550053e+02 -2.616643105551569e+02 1.679470976589199e-10 9.116839272571393e-11 -1.537897461768734e-10
-6.104116836912502e+02 -2.616643105552487e+02 -2.616643105553043e+02 9.469639516311928e-11 2.413834154304045e-10 2.344056078726570e-10
-6.104116836911617e+02 -2.616643105554123e+02 -2.616643105554489e+02 -8.741540445326179e-11 -1.287143824212672e-11 1.882844355245566e-10
-6.107041703438040e+02 -2.617897188413774e+02 -2.617897188414348e+02 5.091908004073061e-11 -2.386134198263694e-10 7.374487229739556e-11
-6.107041703438227e+02 -2.617897188416375e+02 -2.617897188416454e+02 1.341925012771201e-11 -8.717331732121578e-11 -1.178981804955640e-09
-6.107041703441081e+02 -2.617897188417658e+02 -2.617897188417105e+02 9.092655904200231e-11 3.224425054330183e-10 7.235010421898095e-10
-6.107041703451640e+02 -2.617897188422614e+02 -2.617897188426921e+02 2.577440733721103e-10 -3.040619720354780e-10 3.083490684428704e-10
-6.104116836905903e+02 -2.616643105550053e+02 -2.616643105551569e+02 1.679470976589199e-10 9.116839272571393e-11 -1.537897461768734e-10
-6.104116836912011e+02 -2.616643105553557e+02 -2.616643105559487e+02 1.164269407762460e-11 2.661230602782498e-10 3.987643732288127e-10
-6.104116836905816e+02 -2.616643105553094e+02 -2.616643105553948e+02 1.846856303964708e-10 1.154008571357928e-11 -1.548923827573547e-10
-6.104116836912502e+02 -2.616643105552487e+02 -2.616643105553043e+02 9.469639516311928e-11 2.413834154304045e-10 2.344056078726570e-10
-6.107041703430825e+02 -2.617897188407400e+02 -2.617897188401431e+02 -3.395138490618520e-10 -1.009780562403817e-10 -2.440320152630418e-10
-6.107041703451640e+02 -2.617897188422614e+02 -2.617897188426921e+02 2.577440733721103e-10 -3.040619720354780e-10 3.083490684428704e-10
-6.107041703420032e+02 -2.617897188410285e+02 -2.617897188406494e+02 -6.522999513346577e-11 7.427983013959215e-10 -8.209596024413724e-11
-6.107041703441597e+02 -2.617897188422602e+02 -2.617897188417663e+02 4.670053865754029e-10 2.117541938403179e-10 -2.011835635331741e-10
-6.104116836911617e+02 -2.616643105554123e+02 -2.616643105554489e+02 -8.741540445326179e-11 -1.287143824212672e-11 1.882844355245566e-10
-6.104116836912502e+02 -2.616643105552487e+02 -2.616643105553043e+02 9.469639516311928e-11 2.413834154304045e-10 2.344056078726570e-10
-6.104116836910159e+02 -2.616643105542892e+02 -2.616643105549926e+02 9.485973232082846e-11 -7.819504206000347e-11 -1.819376261330488e-11
-6.104116836919457e+02 -2.616643105549708e+02 -2.616643105552835e+02 4.846483634476286e-10 -5.313606687846084e-12 -2.375888142676621e-10
-6.107041703451640e+02 -2.617897188422614e+02 -2.617897188426921e+02 2.577440733721103e-10 -3.040619720354780e-10 3.083490684428704e-10
-6.107041703441081e+02 -2.617897188417658e+02 -2.617897188417105e+02 9.092655904200231e-11 3.224425054330183e-10 7.235010421898095e-10
-6.107041703413084e+02 -2.617897188399302e+02 -2.617897188395406e+02 -7.577547414122835e-11 5.329927474428373e-11 3.788862016570017e-10
-6.107041703420032e+02 -2.617897188410285e+02 -2.617897188406494e+02 -6.522999513346577e-11 7.427983013959215e-10 -8.209596024413724e-11
-6.104116836912502e+02 -2.616643105552487e+02 -2.616643105553043e+02 9.469639516311928e-11 2.413834154304045e-10 2.344056078726570e-10
-6.104116836905816e+02 -2.616643105553094e+02 -2.616643105553948e+02 1.846856303964708e-10 1.154008571357928e-11 -1.548923827573547e-10
-6.104116836912365e+02 -2.616643105562898e+02 -2.616643105557177e+02 -1.576128630516179e-10 -6.134507549406788e-11 4.160128834436799e-10
-6.104116836910159e+02 -2.616643105542892e+02 -2.616643105549926e+02 9.485973232082846e-11 -7.819504206000347e-11 -1.819376261330488e-11
-6.104116836901951e+02 -2.616643105540341e+02 -2.616643105542379e+02 6.061535665649620e-10 3.619316368032680e-11 -2.758763471826375e-10
-6.104116836900390e+02 -2.616643105549966e+02 -2.616643105549124e+02 -1.612336358104348e-10 1.176626207843954e-10 -8.503471352370055e-11
-6.104116836910727e+02 -2.616643105547987e+02 -2.616643105549470e+02 -2.159476091330016e-10 4.977789220992755e-11 -2.675168358109430e-10
-6.104116836911460e+02 -2.616643105553721e+02 -2.616643105552999e+02 2.895614723406628e-10 1.019051216555010e-11 9.846243740754506e-11
-6.111432657493636e+02 -2.619779880099325e+02 -2.619779880104883e+02 2.288564225276002e-10 -2.965523418389083e-11 1.484380578222735e-10
-6.111432657492140e+02 -2.619779880100013e+02 -2.619779880098563e+02 7.148163051117438e-10 -1.420667615598480e-10 9.513952074908507e-11
-6.111432657495249e+02 -2.619779880106254e+02 -2.619779880106507e+02 -1.634195067609137e-10 1.938963571322831e-10 1.975190430768622e-10
-6.111432657478917e+02 -2.619779880090666e+02 -2.619779880092722e+02 -2.285466856945483e-10 6.582288626507412e-11 2.042833479731855e-10
-6.104116836900390e+02 -2.616643105549966e+02 -2.616643105549124e+02 -1.612336358104348e-10 1.176626207843954e-10 -8.503471352370055e-11
-6.104116836906719e+02 -2.616643105545101e+02 -2.616643105556615e+02 1.749419166416299e-10 -2.441364269426894e-10 1.146482061532930e-10
-6.104116836910225e+02 -2.616643105552444e+02 -2.616643105542133e+02 -2.373804442032062e-10 7.665740400707262e-11 -2.769418081777184e-10
-6.104116836910727e+02 -2.616643105547987e+02 -2.616643105549470e+02 -2.159476091330016e-10 4.977789220992755e-11 -2.675168358109430e-10
-6.111432657492140e+02 -2.619779880100013e+02 -2.619779880098563e+02 7.148163051117438e-10 -1.420667615598480e-10 9.513952074908507e-11
-6.111432657487150e+02 -2.619779880097507e+02 -2.619779880095285e+02 1.360136538917753e-10 3.957743636668183e-10 -3.168181789748688e-10
-6.111432657504924e+02 -2.619779880118905e+02 -2.619779880118723e+02 1.656076986039632e-11 -2.271830424803069e-10 -2.108937248315653e-10
-6.111432657495249e+02 -2.619779880106254e+02 -2.619779880106507e+02 -1.634195067609137e-10 1.938963571322831e-10 1.975190430768622e-10
-6.104116836911460e+02 -2.616643105553721e+02 -2.616643105552999e+02 2.895614723406628e-10 1.019051216555010e-11 9.846243740754506e-11
-6.104116836910727e+02 -2.616643105547987e+02 -2.616643105549470e+02 -2.159476091330016e-10 4.977789220992755e-11 -2.675168358109430e-10
-6.104116836912220e+02 -2.616643105550011e+02 -2.616643105546852e+02 2.072165022931294e-10 9.379103729198768e-12 3.010059118642728e-10
-6.104116836918606e+02 -2.616643105557853e+02 -2.616643105555498e+02 1.847443228095328e-10 -1.751658137254933e-10 1.116724372494239e-10
-6.111432657478917e+02 -2.619779880090666e+02 -2.619779880092722e+02 -2.285466856945483e-10 6.582288626507412e-11 2.042833479731855e-10
-6.111432657495249e+02 -2.619779880106254e+02 -2.619779880106507e+02 -1.634195067609137e-10 1.938963571322831e-10 1.975190430768622e-10
-6.111432657488717e+02 -2.619779880098863e+02 -2.619779880103432e+02 5.753768990047242e-11 1.222056437661416e-10 7.888934425049849e-11
-6.111432657507768e+02 -2.619779880116633e+02 -2.619779880117434e+02 -3.990131783374064e-11 -2.673701198300203e-11 -1.936952775853527e-10
-6.104116836910727e+02 -2.616643105547987e+02 -2.616643105549470e+02 -2.159476091330016e-10 4.977789220992755e-11 -2.675168358109430e-10
-6.104116836910225e+02 -2.616643105552444e+02 -2.616643105542133e+02 -2.373804442032062e-10 7.665740400707262e-11 -2.769418081777184e-10
-6.104116836907219e+02 -2.616643105546829e+02 -2.616643105552610e+02 -1.202452654907421e-10 3.893501472998556e-10 -3.314538136011065e-10
-6.104116836912220e+02 -2.616643105550011e+02 -2.616643105546852e+02 2.072165022931294e-10 9.379103729198768e-12 3.010059118642728e-10
-6.111432657495249e+02 -2.619779880106254e+02 -2.619779880106507e+02 -1.634195067609137e-10 1.938963571322831e-10 1.975190430768622e-10
-6.111432657504924e+02 -2.619779880118905e+02 -2.619779880118723e+02 1.656076986039632e-11 -2.271830424803069e-10 -2.108937248315653e-10
-6.111432657491162e+02 -2.619779880101718e+02 -2.619779880099236e+02 -1.475464121875780e-12 2.910320448505581e-10 -5.824692924145674e-10
-6.111432657488717e+02 -2.619779880098863e+02 -2.619779880103432e+02 5.753768990047242e-11 1.222056437661416e-10 7.888934425049849e-11
-6.104116836918606e+02 -2.616643105557853e+02 -2.616643105555498e+02 1.847443228095328e-10 -1.751658137254933e-10 1.116724372494239e-10
-6.104116836912220e+02 -2.616643105550011e+02 -2.616643105546852e+02 2.072165022931294e-10 9.379103729198768e-12 3.010059118642728e-10
-6.104116836905903e+02 -2.616643105550053e+02 -2.616643105551569e+02 1.679470976589199e-10 9.116839272571393e-11 -1.537897461768734e-10
-6.104116836910327e+02 -2.616643105553039e+02 -2.616643105549715e+02 -1.026676990894511e-10 -2.684131526691474e-10 -9.831381721762535e-11
-6.111432657507768e+02 -2.619779880116633e+02 -2.619779880117434e+02 -3.990131783374064e-11 -2.673701198300203e-11 -1.936952775853527e-10
-6.111432657488717e+02 -2.619779880098863e+02 -2.619779880103432e+02 5.753768990047242e-11 1.222056437661416e-10 7.888934425049849e-11
-6.111432657497207e+02 -2.619779880104923e+02 -2.619779880105221e+02 3.765907265300302e-11 5.717671927867801e-11 2.190788155203744e-11
-6.111432657486313e+02 -2.619779880100535e+02 -2.619779880100160e+02 1.833935655482357e-11 1.901516675142853e-11 -2.098708150495975e-10
-6.104116836912220e+02 -2.616643105550011e+02 -2.616643105546852e+02 2.072165022931294e-10 9.379103729198768e-12 3.010059118642728e-10
-6.104116836907219e+02 -2.616643105546829e+02 -2.616643105552610e+02 -1.202452654907421e-10 3.893501472998556e-10 -3.314538136011065e-10
-6.104116836912011e+02 -2.616643105553557e+02 -2.616643105559487e+02 1.164269407762460e-11 2.661230602782498e-10 3.987643732288127e-10
-6.104116836905903e+02 -2.616643105550053e+02 -2.616643105551569e+02 1.679470976589199e-10 9.116839272571393e-11 -1.537897461768734e-10
-6.111432657488717e+02 -2.619779880098863e+02 -2.619779880103432e+02 5.753768990047242e-11 1.222056437661416e-10 7.888934425049849e-11
-6.111432657491162e+02 -2.619779880101718e+02 -2.619779880099236e+02 -1.475464121875780e-12 2.910320448505581e-10 -5.824692924145674e-10
-6.111432657486573e+02 -2.619779880103537e+02 -2.619779880104645e+02 -7.816428940955698e-12 2.554027782568706e-10 1.779462439384143e-12
-6.111432657497207e+02 -2.619779880104923e+02 -2.619779880105221e+02 3.765907265300302e-11 5.717671927867801e-11 2.190788155203744e-11
-6.104116836910327e+02 -2.616643105553039e+02 -2.616643105549715e+02 -1.026676990894511e-10 -2.684131526691474e-10 -9.831381721762535e-11
-6.104116836905903e+02 -2.616643105550053e+02 -2.616643105551569e+02 1.679470976589199e-10 9.116839272571393e-11 -1.537897461768734e-10
-6.104116836912502e+02 -2.616643105552487e+02 -2.616643105553043e+02 9.469639516311928e-11 2.413834154304045e-10 2.344056078726570e-10
-6.104116836911617e+02 -2.616643105554123e+02 -2.616643105554489e+02 -8.741540445326179e-11 -1.287143824212672e-11 1.882844355245566e-10
-6.111432657486313e+02 -2.619779880100535e+02 -2.619779880100160e+02 1.833935655482357e-11 1.901516675142853e-11 -2.098708150495975e-10
-6.111432657497207e+02 -2.619779880104923e+02 -2.619779880105221e+02 3.765907265300302e-11 5.717671927867801e-11 2.190788155203744e-11
-6.111432657496234e+02 -2.619779880110864e+02 -2.619779880110561e+02 -2.676104358366614e-10 2.669581918565114e-10 -1.369923207346727e-10
-6.111432657497187e+02 -2.619779880109154e+02 -2.619779880115528e+02 -1.368171684203541e-10 1.761501676422364e-11 -8.961122786863360e-11
-6.104116836905903e+02 -2.616643105550053e+02 -2.616643105551569e+02 1.679470976589199e-10 9.116839272571393e-11 -1.537897461768734e-10
-6.104116836912011e+02 -2.616643105553557e+02 -2.616643105559487e+02 1.164269407762460e-11 2.661230602782498e-10 3.987643732288127e-10
-6.104116836905816e+02 -2.616643105553094e+02 -2.616643105553948e+02 1.846856303964708e-10 1.154008571357928e-11 -1.548923827573547e-10
-6.104116836912502e+02 -2.616643105552487e+02 -2.616643105553043e+02 9.469639516311928e-11 2.413834154304045e-10 2.344056078726570e-10
-6.111432657497207e+02 -2.619779880104923e+02 -2.619779880105221e+02 3.765907265300302e-11 5.717671927867801e-11 2.190788155203744e-11
-6.111432657486573e+02 -2.619779880103537e+02 -2.619779880104645e+02 -7.816428940955698e-12 2.554027782568706e-10 1.779462439384143e-12
-6.111432657483192e+02 -2.619779880094478e+02 -2.619779880096089e+02 2.264811889856520e-10 2.692717048180038e-10 -1.112455852966290e-10
-6.111432657496234e+02 -2.619779880110864e+02 -2.619779880110561e+02 -2.676104358366614e-10 2.669581918565114e-10 -1.369923207346727e-10
-6.104116836911617e+02 -2.616643105554123e+02 -2.616643105554489e+02 -8.741540445326179e-11 -1.287143824212672e-11 1.882844355245566e-10
-6.104116836912502e+02 -2.616643105552487e+02 -2.616643105553043e+02 9.469639516311928e-11 2.413834154304045e-10 2.344056078726570e-10
-6.104116836910159e+02 -2.616643105542892e+02 -2.616643105549926e+02 9.485973232082846e-11 -7.819504206000347e-11 -1.819376261330488e-11
-6.104116836919457e+02 -2.616643105549708e+02 -2.616643105552835e+02 4.846483634476286e-10 -5.313606687846084e-12 -2.375888142676621e-10
-6.111432657497187e+02 -2.619779880109154e+02 -2.619779880115528e+02 -1.368171684203541e-10 1.761501676422364e-11 -8.961122786863360e-11
-6.111432657496234e+02 -2.619779880110864e+02 -2.619779880110561e+02 -2.676104358366614e-10 2.669581918565114e-10 -1.369923207346727e-10
-6.111432657498226e+02 -2.619779880107477e+02 -2.619779880111768e+02 9.805977029193104e-11 -1.447175488836204e-10 2.645648328557592e-11
-6.111432657502696e+02 -2.619779880119702e+02 -2.619779880112344e+02 3.027805639294468e-10 1.386147296942677e-10 -8.039599194856803e-11
-6.104116836912502e+02 -2.616643105552487e+02 -2.616643105553043e+02 9.469639516311928e-11 2.413834154304045e-10 2.344056078726570e-10
-6.104116836905816e+02 -2.616643105553094e+02 -2.616643105553948e+02 1.846856303964708e-10 1.154008571357928e-11 -1.548923827573547e-10
-6.104116836912365e+02 -2.616643105562898e+02 -2.616643105557177e+02 -1.576128630516179e-10 -6.134507549406788e-11 4.160128834436799e-10
-6.104116836910159e+02 -2.616643105542892e+02 -2.616643105549926e+02 9.485973232082846e-11 -7.819504206000347e-11 -1.819376261330488e-11
-6.111432657496234e+02 -2.619779880110864e+02 -2.619779880110561e+02 -2.676104358366614e-10 2.669581918565114e-10 -1.369923207346727e-10
-6.111432657483192e+02 -2.619779880094478e+02 -2.619779880096089e+02 2.264811889856520e-10 2.692717048180038e-10 -1.112455852966290e-10
-6.111432657494893e+02 -2.619779880110423e+02 -2.619779880112269e+02 4.967165924228865e-10 -2.692271551563291e-10 4.273878437716796e-11
-6.111432657498226e+02 -2.619779880107477e+02 -2.619779880111768e+02 9.805977029193104e-11 -1.447175488836204e-10 2.645648328557592e-11
-6.111432657493636e+02 -2.619779880099325e+02 -2.619779880104883e+02 2.288564225276002e-10 -2.965523418389083e-11 1.484380578222735e-10
-6.111432657492140e+02 -2.619779880100013e+02 -2.619779880098563e+02 7.148163051117438e-10 -1.420667615598480e-10 9.513952074908507e-11
-6.111432657495249e+02 -2.619779880106254e+02 -2.619779880106507e+02 -1.634195067609137e-10 1.938963571322831e-10 1.975190430768622e-10
-6.111432657478917e+02 -2.619779880090666e+02 -2.619779880092722e+02 -2.285466856945483e-10 6.582288626507412e-11 2.042833479731855e-10
-6.129302362204011e+02 -2.627441807628800e+02 -2.627441807621823e+02 1.049462950630777e-09 3.321878672007127e-10 -1.684593450678152e-10
-6.129302362208081e+02 -2.627441807614341e+02 -2.627441807618550e+02 -3.430272032001961e-10 1.459142081452015e-10 2.064313113475165e-10
-6.129302362195027e+02 -2.627441807613003e+02 -2.627441807610564e+02 -9.252860288635538e-11 -3.679710069918242e-11 3.093513584381549e-10
-6.129302362209633e+02 -2.627441807616242e+02 -2.627441807617809e+02 -3.466018790310958e-10 1.497414138837996e-10 6.039927387803440e-11
-6.111432657492140e+02 -2.619779880100013e+02 -2.619779880098563e+02 7.148163051117438e-10 -1.420667615598480e-10 9.513952074908507e-11
-6.111432657487150e+02 -2.619779880097507e+02 -2.619779880095285e+02 1.360136538917753e-10 3.957743636668183e-10 -3.168181789748688e-10
-6.111432657504924e+02 -2.619779880118905e+02 -2.619779880118723e+02 1.656076986039632e-11 -2.271830424803069e-10 -2.108937248315653e-10
-6.111432657495249e+02 -2.619779880106254e+02 -2.619779880106507e+02 -1.634195067609137e-10 1.938963571322831e-10 1.975190430768622e-10
-6.129302362208081e+02 -2.627441807614341e+02 -2.627441807618550e+02 -3.430272032001961e-10 1.459142081452015e-10 2.064313113475165e-10
-6.129302362191873e+02 -2.627441807604317e+02 -2.627441807604140e+02 1.807591843682190e-10 -5.460838909205495e-11 -7.484121950561381e-10
-6.129302362192650e+02 -2.627441807617429e+02 -2.627441807608848e+02 -1.708574724358117e-10 -2.554363034887065e-10 -8.727528357012447e-11
-6.129302362195027e+02 -2.627441807613003e+02 -2.627441807610564e+02 -9.252860288635538e-11 -3.679710069918242e-11 3.093513584381549e-10
-6.111432657478917e+02 -2.619779880090666e+02 -2.619779880092722e+02 -2.285466856945483e-10 6.582288626507412e-11 2.042833479731855e-10
-6.111432657495249e+02 -2.619779880106254e+02 -2.619779880106507e+02 -1.634195067609137e-10 1.938963571322831e-10 1.975190430768622e-10
-6.111432657488717e+02 -2.619779880098863e+02 -2.619779880103432e+02 5.753768990047242e-11 1.222056437661416e-10 7.888934425049849e-11
-6.111432657507768e+02 -2.619779880116633e+02 -2.619779880117434e+02 -3.990131783374064e-11 -2.673701198300203e-11 -1.936952775853527e-10
-6.129302362209633e+02 -2.627441807616242e+02 -2.627441807617809e+02 -3.466018790310958e-10 1.497414138837996e-10 6.039927387803440e-11
-6.129302362195027e+02 -2.627441807613003e+02 -2.627441807610564e+02 -9.252860288635538e-11 -3.679710069918242e-11 3.093513584381549e-10
-6.129302362207485e+02 -2.627441807614872e+02 -2.627441807618063e+02 -1.414448968879856e-11 1.108651432342815e-10 -7.346813228766829e-11
-6.129302362200041e+02 -2.627441807615430e+02 -2.627441807615266e+02 -1.310955602952296e-10 2.813138437332000e-11 2.428162372640510e-11
-6.111432657495249e+02 -2.619779880106254e+02 -2.619779880106507e+02 -1.634195067609137e-10 1.938963571322831e-10 1.975190430768622e-10
-6.111432657504924e+02 -2.619779880118905e+02 -2.619779880118723e+02 1.656076986039632e-11 -2.271830424803069e-10 -2.108937248315653e-10
-6.111432657491162e+02 -2.619779880101718e+02 -2.619779880099236e+02 -1.475464121875780e-12 2.910320448505581e-10 -5.824692924145674e-10
-6.111432657488717e+02 -2.619779880098863e+02 -2.619779880103432e+02 5.753768990047242e-11 1.222056437661416e-10 7.888934425049849e-11
-6.129302362195027e+02 -2.627441807613003e+02 -2.627441807610564e+02 -9.252860288635538e-11 -3.679710069918242e-11 3.093513584381549e-10
-6.129302362192650e+02 -2.627441807617429e+02 -2.627441807608848e+02 -1.708574724358117e-10 -2.554363034887065e-10 -8.727528357012447e-11
-6.129302362199130e+02 -2.627441807617630e+02 -2.627441807619703e+02 2.323348744326017e-10 3.838824035643807e-10 9.734238702020098e-11
-6.129302362207485e+02 -2.627441807614872e+02 -2.627441807618063e+02 -1.414448968879856e-11 1.108651432342815e-10 -7.346813228766829e-11
-6.111432657507768e+02 -2.619779880116633e+02 -2.619779880117434e+02 -3.990131783374064e-11 -2.673701198300203e-11 -1.936952775853527e-10
-6.111432657488717e+02 -2.619779880098863e+02 -2.619779880103432e+02 5.753768990047242e-11 1.222056437661416e-10 7.888934425049849e-11
-6.111432657497207e+02 -2.619779880104923e+02 -2.619779880105221e+02 3.765907265300302e-11 5.717671927867801e-11 2.190788155203744e-11
-6.111432657486313e+02 -2.619779880100535e+02 -2.619779880100160e+02 1.833935655482357e-11 1.901516675142853e-11 -2.098708150495975e-10
-6.129302362200041e+02 -2.627441807615430e+02 -2.627441807615266e+02 -1.310955602952296e-10 2.813138437332000e-11 2.428162372640510e-11
-6.129302362207485e+02 -2.627441807614872e+02 -2.627441807618063e+02 -1.414448968879856e-11 1.108651432342815e-10 -7.346813228766829e-11
-6.129302362206424e+02 -2.627441807624260e+02 -2.627441807619863e+02 -1.344971719004828e-10 5.773536728467677e-11 2.822731827868025e-10
-6.129302362204909e+02 -2.627441807623569e+02 -2.627441807620164e+02 -1.296407690133511e-10 -1.197415136669267e-10 2.870135375735281e-11
-6.111432657488717e+02 -2.619779880098863e+02 -2.619779880103432e+02 5.753768990047242e-11 1.222056437661416e-10 7.888934425049849e-11
-6.111432657491162e+02 -2.619779880101718e+02 -2.619779880099236e+02 -1.475464121875780e-12 2.910320448505581e-10 -5.824692924145674e-10
-6.111432657486573e+02 -2.619779880103537e+02 -2.619779880104645e+02 -7.816428940955698e-12 2.554027782568706e-10 1.779462439384143e-12
-6.111432657497207e+02 -2.619779880104923e+02 -2.619779880105221e+02 3.765907265300302e-11 5.717671927867801e-11 2.190788155203744e-11
-6.129302362207485e+02 -2.627441807614872e+02 -2.627441807618063e+02 -1.414448968879856e-11 1.108651432342815e-10 -7.346813228766829e-11
-6.129302362199130e+02 -2.627441807617630e+02 -2.627441807619703e+02 2.323348744326017e-10 3.838824035643807e-10 9.734238702020098e-11
-6.129302362210907e+02 -2.627441807622051e+02 -2.627441807623957e+02 8.244597407312794e-11 1.273510446604711e-10 -6.984645302027546e-10
-6.129302362206424e+02 -2.627441807624260e+02 -2.627441807619863e+02 -1.344971719004828e-10 5.773536728467677e-11 2.822731827868025e-10
-6.111432657486313e+02 -2.619779880100535e+02 -2.619779880100160e+02 1.833935655482357e-11 1.901516675142853e-11 -2.098708150495975e-10
-6.111432657497207e+02 -2.619779880104923e+02 -2.619779880105221e+02 3.765907265300302e-11 5.717671927867801e-11 2.190788155203744e-11
-6.111432657496234e+02 -2.619779880110864e+02 -2.619779880110561e+02 -2.676104358366614e-10 2.669581918565114e-10 -1.369923207346727e-10
-6.111432657497187e+02 -2.619779880109154e+02 -2.619779880115528e+02 -1.368171684203541e-10 1.761501676422364e-11 -8.961122786863360e-11
-6.129302362204909e+02 -2.627441807623569e+02 -2.627441807620164e+02 -1.296407690133511e-10 -1.197415136669267e-10 2.870135375735281e-11
-6.129302362206424e+02 -2.627441807624260e+02 -2.627441807619863e+02 -1.344971719004828e-10 5.773536728467677e-11 2.822731827868025e-10
-6.129302362216193e+02 -2.627441807624322e+02 -2.627441807623565e+02 6.581176274407975e-11 -7.324798169699611e-11 -1.506263548841095e-10
-6.129302362215034e+02 -2.627441807626681e+02 -2.627441807622533e+02 -2.564752802200614e-10 1.933717703050459e-10 1.444224772032758e-10
-6.111432657497207e+02 -2.619779880104923e+02 -2.619779880105221e+02 3.765907265300302e-11 5.717671927867801e-11 2.190788155203744e-11
-6.111432657486573e+02 -2.619779880103537e+02 -2.619779880104645e+02 -7.816428940955698e-12 2.554027782568706e-10 1.779462439384143e-12
-6.111432657483192e+02 -2.619779880094478e+02 -2.619779880096089e+02 2.264811889856520e-10 2.692717048180038e-10 -1.112455852966290e-10
-6.111432657496234e+02 -2.619779880110864e+02 -2.619779880110561e+02 -2.676104358366614e-10 2.669581918565114e-10 -1.369923207346727e-10
-6.129302362206424e+02 -2.627441807624260e+02 -2.627441807619863e+02 -1.344971719004828e-10 5.773536728467677e-11 2.822731827868025e-10
-6.129302362210907e+02 -2.627441807622051e+02 -2.627441807623957e+02 8.244597407312794e-11 1.273510446604711e-10 -6.984645302027546e-10
-6.129302362211524e+02 -2.627441807629349e+02 -2.627441807629357e+02 7.151589384941319e-11 -2.052316771213608e-10 -4.648859375268884e-10
-6.129302362216193e+02 -2.627441807624322e+02 -2.627441807623565e+02 6.581176274407975e-11 -7.324798169699611e-11 -1.506263548841095e-10
-6.111432657497187e+02 -2.619779880109154e+02 -2.619779880115528e+02 -1.368171684203541e-10 1.761501676422364e-11 -8.961122786863360e-11
-6.111432657496234e+02 -2.619779880110864e+02 -2.619779880110561e+02 -2.676104358366614e-10 2.669581918565114e-10 -1.369923207346727e-10
-6.111432657498226e+02 -2.619779880107477e+02 -2.619779880111768e+02 9.805977029193104e-11 -1.447175488836204e-10 2.645648328557592e-11
-6.111432657502696e+02 -2.619779880119702e+02 -2.619779880112344e+02 3.027805639294468e-10 1.386147296942677e-10 -8.039599194856803e-11
-6.129302362215034e+02 -2.627441807626681e+02 -2.627441807622533e+02 -2.564752802200614e-10 1.933717703050459e-10 1.444224772032758e-10
-6.129302362216193e+02 -2.627441807624322e+02 -2.627441807623565e+02 6.581176274407975e-11 -7.324798169699611e-11 -1.506263548841095e-10
-6.129302362213534e+02 -2.627441807622408e+02 -2.627441807626113e+02 1.035453380722729e-10 3.066011194947475e-11 1.595514449046638e-10
-6.129302362200369e+02 -2.627441807604730e+02 -2.627441807616538e+02 4.025416001719063e-10 -8.365639029279497e-11 -2.064032361846998e-10
-6.111432657496234e+02 -2.619779880110864e+02 -2.619779880110561e+02 -2.676104358366614e-10 2.669581918565114e-10 -1.369923207346727e-10
-6.111432657483192e+02 -2.619779880094478e+02 -2.619779880096089e+02 2.264811889856520e-10 2.692717048180038e-10 -1.112455852966290e-10
-6.111432657494893e+02 -2.619779880110423e+02 -2.619779880112269e+02 4.967165924228865e-10 -2.692271551563291e-10 4.273878437716796e-11
-6.111432657498226e+02 -2.619779880107477e+02 -2.619779880111768e+02 9.805977029193104e-11 -1.447175488836204e-10 2.645648328557592e-11
-6.129302362216193e+02 -2.627441807624322e+02 -2.627441807623565e+02 6.581176274407975e-11 -7.324798169699611e-11 -1.506263548841095e-10
-6.129302362211524e+02 -2.627441807629349e+02 -2.627441807629357e+02 7.151589384941319e-11 -2.052316771213608e-10 -4.648859375268884e-10
-6.129302362192981e+02 -2.627441807611967e+02 -2.627441807614323e+02 2.019972261999953e-10 3.834885329667914e-11 -1.931620764691591e-10
-6.129302362213534e+02 -2.627441807622408e+02 -2.627441807626113e+02 1.035453380722729e-10 3.066011194947475e-11 1.595514449046638e-10
-6.129302362204011e+02 -2.627441807628800e+02 -2.627441807621823e+02 1.049462950630777e-09 3.321878672007127e-10 -1.684593450678152e-10
-6.129302362208081e+02 -2.627441807614341e+02 -2.627441807618550e+02 -3.430272032001961e-10 1.459142081452015e-10 2.064313113475165e-10
-6.129302362195027e+02 -2.627441807613003e+02 -2.627441807610564e+02 -9.252860288635538e-11 -3.679710069918242e-11 3.093513584381549e-10
-6.129302362209633e+02 -2.627441807616242e+02 -2.627441807617809e+02 -3.466018790310958e-10 1.497414138837996e-10 6.039927387803440e-11
-6.140824681829206e+02 -2.632382192512034e+02 -2.632382192515000e+02 -3.502761765846042e-10 -1.038140434331207e-10 3.072713045843347e-10
-6.140824681858933e+02 -2.632382192547258e+02 -2.632382192537358e+02 4.787353959427214e-10 -1.307930580383465e-11 4.378648861165221e-10
-6.140824681845904e+02 -2.632382192533355e+02 -2.632382192529345e+02 1.105692059247637e-10 -5.176672029593840e-11 -2.881696048585911e-10
-6.140824681849415e+02 -2.632382192525024e+02 -2.632382192525740e+02 -2.624128164730606e-10 -8.708321365012394e-12 -2.269109941080589e-10
-6.129302362208081e+02 -2.627441807614341e+02 -2.627441807618550e+02 -3.430272032001961e-10 1.459142081452015e-10 2.064313113475165e-10
-6.129302362191873e+02 -2.627441807604317e+02 -2.627441807604140e+02 1.807591843682190e-10 -5.460838909205495e-11 -7.484121950561381e-10
-6.129302362192650e+02 -2.627441807617429e+02 -2.627441807608848e+02 -1.708574724358117e-10 -2.554363034887065e-10 -8.727528357012447e-11
-6.129302362195027e+02 -2.627441807613003e+02 -2.627441807610564e+02 -9.252860288635538e-11 -3.679710069918242e-11 3.093513584381549e-10
-6.140824681858933e+02 -2.632382192547258e+02 -2.632382192537358e+02 4.787353959427214e-10 -1.307930580383465e-11 4.378648861165221e-10
-6.140824681860458e+02 -2.632382192532981e+02 -2.632382192534030e+02 5.653486181921988e-10 5.802560166268703e-11 5.653443078449147e-10
-6.140824681826269e+02 -2.632382192517159e+02 -2.632382192518528e+02 6.132620433582896e-10 -3.348229991366616e-11 1.222906454503776e-10
-6.140824681845904e+02 -2.632382192533355e+02 -2.632382192529345e+02 1.105692059247637e-10 -5.176672029593840e-11 -2.881696048585911e-10
-6.129302362209633e+02 -2.627441807616242e+02 -2.627441807617809e+02 -3.466018790310958e-10 1.497414138837996e-10 6.039927387803440e-11
-6.129302362195027e+02 -2.627441807613003e+02 -2.627441807610564e+02 -9.252860288635538e-11 -3.679710069918242e-11 3.093513584381549e-10
-6.129302362207485e+02 -2.627441807614872e+02 -2.627441807618063e+02 -1.414448968879856e-11 1.108651432342815e-10 -7.346813228766829e-11
-6.129302362200041e+02 -2.627441807615430e+02 -2.627441807615266e+02 -1.310955602952296e-10 2.813138437332000e-11 2.428162372640510e-11
-6.140824681849415e+02 -2.632382192525024e+02 -2.632382192525740e+02 -2.624128164730606e-10 -8.708321365012394e-12 -2.269109941080589e-10
-6.140824681845904e+02 -2.632382192533355e+02 -2.632382192529345e+02 1.105692059247637e-10 -5.176672029593840e-11 -2.881696048585911e-10
-6.140824681841125e+02 -2.632382192524543e+02 -2.632382192525841e+02 -4.801710059900826e-11 2.800326259950122e-10 -3.905739057373812e-10
-6.140824681847942e+02 -2.632382192527398e+02 -2.632382192524158e+02 1.041499376456310e-10 -9.276150813531087e-11 -1.245222356643924e-10
-6.129302362195027e+02 -2.627441807613003e+02 -2.627441807610564e+02 -9.252860288635538e-11 -3.679710069918242e-11 3.093513584381549e-10
-6.129302362192650e+02 -2.627441807617429e+02 -2.627441807608848e+02 -1.708574724358117e-10 -2.554363034887065e-10 -8.727528357012447e-11
-6.129302362199130e+02 -2.627441807617630e+02 -2.627441807619703e+02 2.323348744326017e-10 3.838824035643807e-10 9.734238702020098e-11
-6.129302362207485e+02 -2.627441807614872e+02 -2.627441807618063e+02 -1.414448968879856e-11 1.108651432342815e-10 -7.346813228766829e-11
-6.140824681845904e+02 -2.632382192533355e+02 -2.632382192529345e+02 1.105692059247637e-10 -5.176672029593840e-11 -2.881696048585911e-10
-6.140824681826269e+02 -2.632382192517159e+02 -2.632382192518528e+02 6.132620433582896e-10 -3.348229991366616e-11 1.222906454503776e-10
-6.140824681843919e+02 -2.632382192538511e+02 -2.632382192533584e+02 -5.186129104353742e-10 -3.327528784067862e-11 -1.477614890530960e-09
-6.140824681841125e+02 -2.632382192524543e+02 -2.632382192525841e+02 -4.801710059900826e-11 2.800326259950122e-10 -3.905739057373812e-10
-6.129302362200041e+02 -2.627441807615430e+02 -2.627441807615266e+02 -1.310955602952296e-10 2.813138437332000e-11 2.428162372640510e-11
-6.129302362207485e+02 -2.627441807614872e+02 -2.627441807618063e+02 -1.414448968879856e-11 1.108651432342815e-10 -7.346813228766829e-11
-6.129302362206424e+02 -2.627441807624260e+02 -2.627441807619863e+02 -1.344971719004828e-10 5.773536728467677e-11 2.822731827868025e-10
-6.129302362204909e+02 -2.627441807623569e+02 -2.627441807620164e+02 -1.296407690133511e-10 -1.197415136669267e-10 2.870135375735281e-11
-6.140824681847942e+02 -2.632382192527398e+02 -2.632382192524158e+02 1.041499376456310e-10 -9.276150813531087e-11 -1.245222356643924e-10
-6.140824681841125e+02 -2.632382192524543e+02 -2.632382192525841e+02 -4.801710059900826e-11 2.800326259950122e-10 -3.905739057373812e-10
-6.140824681854640e+02 -2.632382192533968e+02 -2.632382192540246e+02 1.310808490773311e-10 7.392544917756430e-11 6.859425419447233e-10
-6.140824681851889e+02 -2.632382192529354e+02 -2.632382192535817e+02 -3.064773781935997e-10 -3.225155981312937e-11 -2.861300046365033e-10
-6.129302362207485e+02 -2.627441807614872e+02 -2.627441807618063e+02 -1.414448968879856e-11 1.108651432342815e-10 -7.346813228766829e-11
-6.129302362199130e+02 -2.627441807617630e+02 -2.627441807619703e+02 2.323348744326017e-10 3.838824035643807e-10 9.734238702020098e-11
-6.129302362210907e+02 -2.627441807622051e+02 -2.627441807623957e+02 8.244597407312794e-11 1.273510446604711e-10 -6.984645302027546e-10
-6.129302362206424e+02 -2.627441807624260e+02 -2.627441807619863e+02 -1.344971719004828e-10 5.773536728467677e-11 2.822731827868025e-10
-6.140824681841125e+02 -2.632382192524543e+02 -2.632382192525841e+02 -4.801710059900826e-11 2.800326259950122e-10 -3.905739057373812e-10
-6.140824681843919e+02 -2.632382192538511e+02 -2.632382192533584e+02 -5.186129104353742e-10 -3.327528784067862e-11 -1.477614890530960e-09
-6.140824681852976e+02 -2.632382192523771e+02 -2.632382192524993e+02 -4.860118517327426e-10 2.732119093714768e-10 1.369648640467777e-10
-6.140824681854640e+02 -2.632382192533968e+02 -2.632382192540246e+02 1.310808490773311e-10 7.392544917756430e-11 6.859425419447233e-10
-6.129302362204909e+02 -2.627441807623569e+02 -2.627441807620164e+02 -1.296407690133511e-10 -1.197415136669267e-10 2.870135375735281e-11
-6.129302362206424e+02 -2.627441807624260e+02 -2.627441807619863e+02 -1.344971719004828e-10 5.773536728467677e-11 2.822731827868025e-10
-6.129302362216193e+02 -2.627441807624322e+02 -2.627441807623565e+02 6.581176274407975e-11 -7.324798169699611e-11 -1.506263548841095e-10
-6.129302362215034e+02 -2.627441807626681e+02 -2.627441807622533e+02 -2.564752802200614e-10 1.933717703050459e-10 1.444224772032758e-10
-6.140824681851889e+02 -2.632382192529354e+02 -2.632382192535817e+02 -3.064773781935997e-10 -3.225155981312937e-11 -2.861300046365033e-10
-6.140824681854640e+02 -2.632382192533968e+02 -2.632382192540246e+02 1.310808490773311e-10 7.392544917756430e-11 6.859425419447233e-10
-6.140824681856815e+02 -2.632382192528806e+02 -2.632382192528401e+02 -9.857574456353709e-11 -6.304564886581028e-11 -1.695472083874157e-10
-6.140824681850559e+02 -2.632382192529668e+02 -2.632382192533465e+02 -1.426787613963093e-10 7.562202818858418e-11 9.740779492241879e-11
-6.129302362206424e+02 -2.627441807624260e+02 -2.627441807619863e+02 -1.344971719004828e-10 5.773536728467677e-11 2.822731827868025e-10
-6.129302362210907e+02 -2.627441807622051e+02 -2.627441807623957e+02 8.244597407312794e-11 1.273510446604711e-10 -6.984645302027546e-10
-6.129302362211524e+02 -2.627441807629349e+02 -2.627441807629357e+02 7.151589384941319e-11 -2.052316771213608e-10 -4.648859375268884e-10
-6.129302362216193e+02 -2.627441807624322e+02 -2.627441807623565e+02 6.581176274407975e-11 -7.324798169699611e-11 -1.506263548841095e-10
-6.140824681854640e+02 -2.632382192533968e+02 -2.632382192540246e+02 1.310808490773311e-10 7.392544917756430e-11 6.859425419447233e-10
-6.140824681852976e+02 -2.632382192523771e+02 -2.632382192524993e+02 -4.860118517327426e-10 2.732119093714768e-10 1.369648640467777e-10
-6.140824681797199e+02 -2.632382192496848e+02 -2.632382192491014e+02 6.222148714606095e-10 1.034569941385745e-11 -1.084497824564876e-09
-6.140824681856815e+02 -2.632382192528806e+02 -2.632382192528401e+02 -9.857574456353709e-11 -6.304564886581028e-11 -1.695472083874157e-10
-6.129302362215034e+02 -2.627441807626681e+02 -2.627441807622533e+02 -2.564752802200614e-10 1.933717703050459e-10 1.444224772032758e-10
-6.129302362216193e+02 -2.627441807624322e+02 -2.627441807623565e+02 6.581176274407975e-11 -7.324798169699611e-11 -1.506263548841095e-10
-6.129302362213534e+02 -2.627441807622408e+02 -2.627441807626113e+02 1.035453380722729e-10 3.066011194947475e-11 1.595514449046638e-10
-6.129302362200369e+02 -2.627441807604730e+02 -2.627441807616538e+02 4.025416001719063e-10 -8.365639029279497e-11 -2.064032361846998e-10
-6.140824681850559e+02 -2.632382192529668e+02 -2.632382192533465e+02 -1.426787613963093e-10 7.562202818858418e-11 9.740779492241879e-11
-6.140824681856815e+02 -2.632382192528806e+02 -2.632382192528401e+02 -9.857574456353709e-11 -6.304564886581028e-11 -1.695472083874157e-10
-6.140824681846552e+02 -2.632382192515352e+02 -2.632382192516877e+02 1.039893087990066e-09 1.995540558701976e-10 -2.129280045077352e-10
-6.140824681856750e+02 -2.632382192547651e+02 -2.632382192533873e+02 -4.227028922611805e-11 1.924408196951335e-10 -1.039788432709457e-10
-6.129302362216193e+02 -2.627441807624322e+02 -2.627441807623565e+02 6.581176274407975e-11 -7.324798169699611e-11 -1.506263548841095e-10
-6.129302362211524e+02 -2.627441807629349e+02 -2.627441807629357e+02 7.151589384941319e-11 -2.052316771213608e-10 -4.648859375268884e-10
-6.129302362192981e+02 -2.627441807611967e+02 -2.627441807614323e+02 2.019972261999953e-10 3.834885329667914e-11 -1.931620764691591e-10
-6.129302362213534e+02 -2.627441807622408e+02 -2.627441807626113e+02 1.035453380722729e-10 3.066011194947475e-11 1.595514449046638e-10
-6.140824681856815e+02 -2.632382192528806e+02 -2.632382192528401e+02 -9.857574456353709e-11 -6.304564886581028e-11 -1.695472083874157e-10
-6.140824681797199e+02 -2.632382192496848e+02 -2.632382192491014e+02 6.222148714606095e-10 1.034569941385745e-11 -1.084497824564876e-09
-6.140824681849272e+02 -2.632382192529540e+02 -2.632382192527735e+02 -5.956569140711247e-10 -2.393779341455079e-10 1.359157027883660e-10
-6.140824681846552e+02 -2.632382192515352e+02 -2.632382192516877e+02 1.039893087990066e-09 1.995540558701976e-10 -2.129280045077352e-10
        </DataArray>
  </PointData>
  <CellData>
        <DataArray type="Float64" Name="element_GL_strains_xyz" NumberOfComponents="6" format="ascii">
-2.268874572022572e-04 5.551115123125783e-17 1.110223024625157e-16 2.607399241355308e-18 1.235990476633476e-17 7.263564108165097e-17
-2.268874572023127e-04 1.665334536937735e-16 0.000000000000000e+00 4.335490023885960e-17 -1.821459649775645e-17 1.188139937330459e-16
-2.268874572022017e-04 -1.249000902703301e-16 -1.387778780781446e-16 -3.490816090076506e-17 -3.968179951296946e-17 1.974113943572370e-17
-2.268874572021601e-04 5.551115123125783e-17 1.665334536937735e-16 2.145795267123769e-17 7.892991815694475e-17 1.500398035639455e-16
-2.268874572020907e-04 -5.551115123125783e-17 -2.498001805406602e-16 -8.324114078908276e-17 1.409462824231154e-17 2.081524495616807e-16
-2.268874572023127e-04 -6.938893903907228e-17 0.000000000000000e+00 1.235793660804215e-17 -8.673617379884070e-19 4.249796973982209e-17
-2.268874572019935e-04 8.326672684688674e-17 -1.665334536937735e-16 7.285149743700175e-17 -1.691355389077387e-16 -3.598685223003126e-17
-2.268874572020074e-04 8.326672684688674e-17 -1.387778780781446e-17 1.049466371641824e-16 -7.199102425303746e-17 1.733542581001232e-18
-2.268874572018548e-04 -2.775557561562891e-17 -1.110223024625157e-16 -8.738566603540497e-19 4.943961906533903e-17 -2.181184496520599e-16
-2.268874572020491e-04 -4.163336342344337e-17 -6.938893903907228e-17 5.376678377964718e-17 1.170938346284345e-16 6.934504910914696e-17
-2.265984699808266e-04 1.387778780781446e-17 0.000000000000000e+00 2.083397944192518e-17 1.257674520083188e-17 -5.744040500107152e-17
-2.265984699805351e-04 1.110223024625157e-16 -6.938893903907228e-17 4.315326125736157e-17 4.597017211338536e-17 1.179499921548138e-16
-2.265984699810208e-04 6.938893903907228e-17 -8.326672684688674e-17 2.311174059960604e-16 -1.604619215278546e-17 2.514680718772142e-17
-2.265984699809792e-04 8.326672684688674e-17 0.000000000000000e+00 8.152930060056563e-17 6.461844948013606e-17 -1.153484966361964e-16
-2.265984699807849e-04 -1.387778780781446e-16 1.110223024625157e-16 2.929277117975060e-17 -3.274290560906226e-17 2.990265264551942e-17
-2.265984699807155e-04 -9.714451465470120e-17 8.326672684688674e-17 8.261276565386634e-17 1.170938346284345e-16 -4.339167471333388e-18
-2.265984699808821e-04 0.000000000000000e+00 0.000000000000000e+00 3.467913744049210e-17 -1.170938346284345e-16 -9.191695297797282e-17
-2.265984699807710e-04 -5.551115123125783e-17 -2.081668171172169e-16 1.647181385202575e-17 4.943961906533901e-17 4.075636999477346e-17
-2.265984699811874e-04 -4.163336342344337e-17 -2.775557561562891e-17 7.781156279556301e-17 1.155759515869547e-16 -1.361237031084528e-16
-2.265984699808682e-04 -2.775557561562891e-17 0.000000000000000e+00 3.444170681009934e-17 9.801187639268965e-17 3.082931407305493e-16
-2.266703538447434e-04 5.551115123125783e-17 1.110223024625157e-16 5.430989707006969e-18 1.142749089799722e-16 -1.441828638010012e-16
-2.266703538448406e-04 -1.387778780781446e-17 0.000000000000000e+00 -9.929315793799274e-17 -6.071532165918825e-17 -5.767788424265396e-17
-2.266703538447018e-04 1.387778780781446e-16 5.551115123125783e-17 1.044980657189709e-16 1.689186984732416e-16 2.882109817757165e-17
-2.266703538447018e-04 1.665334536937735e-16 2.775557561562891e-17 3.555141000111645e-17 1.431146867680866e-16 -7.350257553989827e-18
-2.266703538447018e-04 -2.359223927328458e-16 8.326672684688674e-17 -2.016734017310676e-17 -1.708702623837155e-16 1.842534148039224e-17
-2.266703538446047e-04 0.000000000000000e+00 -1.942890293094024e-16 1.386810390445411e-17 1.379105163401562e-16 6.245653384198512e-17
-2.266703538446324e-04 0.000000000000000e+00 -5.551115123125783e-17 3.080677695572104e-17 5.507747036226363e-17 -1.949981059264758e-17
-2.266703538444520e-04 -8.326672684688674e-17 -1.249000902703301e-16 -9.314749721234086e-18 1.188285581044113e-16 6.678390441291614e-17
-2.266703538448128e-04 -6.938893903907228e-17 -1.665334536937735e-16 1.621584992728283e-16 -2.602085213965251e-18 -5.071696806105419e-17
-2.266703538447573e-04 -5.551115123125783e-17 -2.775557561562891e-17 1.955317718687436e-16 1.647987302177965e-17 2.646682222610867e-17
-2.271414994445692e-04 -9.714451465470120e-17 -8.326672684688674e-17 1.300136240343826e-17 1.218643241873707e-16 1.509114846711427e-16
-2.271414994445969e-04 -2.775557561562891e-17 1.110223024625157e-16 -9.105859884429739e-17 1.040834085586084e-17 5.203894577214273e-17
-2.271414994446247e-04 2.220446049250313e-16 5.551115123125783e-17 -9.518546336764607e-17 1.400789206851272e-16 6.178651944076954e-17
-2.271414994448329e-04 1.387778780781446e-16 -8.326672684688674e-17 5.204012798949764e-17 1.214306433183765e-17 2.342152543284839e-17
-2.271414994447080e-04 -1.110223024625157e-16 0.000000000000000e+00 9.127603038747196e-17 -5.767955557622884e-17 -8.896762973607424e-18
-2.271414994446108e-04 5.551115123125783e-17 -5.551115123125783e-17 5.549282686225642e-17 1.374768354711620e-16 -1.396255361935508e-16
-2.271414994447218e-04 -1.665334536937735e-16 5.551115123125783e-17 -2.020724287491027e-16 9.107298248878237e-17 -4.314691166795501e-17
-2.271414994446247e-04 -1.942890293094024e-16 -1.387778780781446e-16 -9.800990603043136e-17 1.309716224362489e-16 -1.682360602649414e-16
-2.271414994447218e-04 -2.775557561562891e-17 -1.387778780781446e-16 -8.704946139789662e-18 6.678685382510706e-17 -1.287795737441794e-16
-2.271414994446386e-04 4.163336342344337e-17 -2.775557561562891e-17 -4.339547493480939e-17 3.556183125752451e-17 -1.673649548386624e-16
-2.279967614978451e-04 -2.636779683484747e-16 -8.326672684688674e-17 -6.415925522124232e-17 1.196959198423996e-16 -4.901582710715857e-17
-2.279967614977479e-04 -6.938893903907228e-17 8.326672684688674e-17 1.040592796162228e-16 -7.806255641895587e-18 7.976642649319407e-17
-2.279967614980533e-04 5.551115123125783e-17 5.551115123125783e-17 7.653834447455581e-17 2.385244779468107e-18 -9.259482109458761e-17
-2.279967614976924e-04 0.000000000000000e+00 -2.775557561562891e-17 1.084953729707352e-17 -8.326672684688672e-17 -1.430771089069942e-16
-2.279967614978451e-04 -1.804112415015879e-16 -5.551115123125783e-17 -2.213868880962950e-17 1.446325698095663e-16 6.027293854867789e-17
-2.279967614979422e-04 8.326672684688674e-17 -2.636779683484747e-16 -5.139790743516626e-17 1.773754754186285e-16 -5.114981804249762e-17
-2.279967614980810e-04 -1.526556658859590e-16 -2.775557561562891e-16 -1.578268073517714e-16 6.375108774214765e-17 5.073433276940079e-17
-2.279967614980533e-04 -1.110223024625157e-16 1.387778780781446e-16 2.687001828174311e-17 -1.249000902703302e-16 -1.049036990811231e-16
-2.279967614981088e-04 3.469446951953614e-16 -1.110223024625157e-16 2.185294712051180e-16 4.857225732735057e-17 -4.031274077304945e-17
-2.279967614979422e-04 6.938893903907228e-17 -1.387778780781446e-16 1.474123353712060e-16 -3.816391647148984e-17 -1.569380855664252e-16
        </DataArray>
        <DataArray type="Float64" Name="element_cauchy_stresses_xyz" NumberOfComponents="6" format="ascii">
-6.110935005486240e+02 -2.619566503228945e+02 -2.619566503228071e+02 3.995030739197641e-12 1.901955388992727e-11 1.117653098023292e-10
-6.110935005488276e+02 -2.619566503228218e+02 -2.619566503230691e+02 6.674042546598035e-11 -2.802881625884023e-11 1.828355781251921e-10
-6.110935005490609e+02 -2.619566503236950e+02 -2.619566503237095e+02 -5.371455341850054e-11 -6.106277827818762e-11 3.034433488808895e-11
-6.110935005483331e+02 -2.619566503227343e+02 -2.619566503225597e+02 3.304070070567676e-11 1.214582037883076e-10 2.308728629337836e-10
-6.110935005487844e+02 -2.619566503234475e+02 -2.619566503237823e+02 -1.281420287874197e-10 2.168896496219780e-11 3.202787506672015e-10
-6.110935005491189e+02 -2.619566503234767e+02 -2.619566503233457e+02 1.901826672512280e-11 -1.334705536135247e-12 6.538997108988444e-11
-6.110935005482897e+02 -2.619566503229381e+02 -2.619566503233019e+02 1.121004247823210e-10 -2.602675795463734e-10 -5.539103690538018e-11
-6.110935005480422e+02 -2.619566503226470e+02 -2.619566503227925e+02 1.614690836416715e-10 -1.107805594992256e-10 2.670622521498246e-12
-6.110935005479697e+02 -2.619566503229526e+02 -2.619566503230836e+02 -1.324408217699447e-12 7.607821555970909e-11 -3.356377073577321e-10
-6.110935005484060e+02 -2.619566503231418e+02 -2.619566503231709e+02 8.274780603039523e-11 1.801852473782584e-10 1.068197522007117e-10
-6.103148401395982e+02 -2.616227873599678e+02 -2.616227873599678e+02 3.199904624699415e-11 1.935322467858826e-11 -8.843850821469952e-11
-6.103148401386965e+02 -2.616227873593856e+02 -2.616227873596475e+02 6.638343263966224e-11 7.073937296311568e-11 1.814960047965422e-10
-6.103148401401219e+02 -2.616227873601572e+02 -2.616227873603900e+02 3.556713971868067e-10 -2.469204527957810e-11 3.870796173927228e-11
-6.103148401399180e+02 -2.616227873599825e+02 -2.616227873600698e+02 1.254380103906248e-10 9.943553369343615e-11 -1.774918893457999e-10
-6.103148401394819e+02 -2.616227873601279e+02 -2.616227873598224e+02 4.500637193352384e-11 -5.038511942184183e-11 4.606971093855485e-11
-6.103148401393072e+02 -2.616227873600114e+02 -2.616227873597641e+02 1.271071480194820e-10 1.801851952834078e-10 -6.668383652111773e-12
-6.103148401396999e+02 -2.616227873600115e+02 -2.616227873600406e+02 5.339970011382640e-11 -1.801851952834078e-10 -1.414826781196803e-10
-6.103148401397293e+02 -2.616227873602880e+02 -2.616227873604918e+02 2.536605233592322e-11 7.607819356410549e-11 6.273174701446913e-11
-6.103148401406602e+02 -2.616227873605501e+02 -2.616227873605356e+02 1.198151952539189e-10 1.778494612704748e-10 -2.095813760421206e-10
-6.103148401397291e+02 -2.616227873600843e+02 -2.616227873600552e+02 5.309778385027557e-11 1.508216819779636e-10 4.744631803230226e-10
-6.105085272419591e+02 -2.617058337495741e+02 -2.617058337495014e+02 8.324661161800763e-12 1.758474161914270e-10 -2.218691041750809e-10
-6.105085272424247e+02 -2.617058337499963e+02 -2.617058337499818e+02 -1.528195146801878e-10 -9.342936723643183e-11 -8.874034967503746e-11
-6.105085272417700e+02 -2.617058337493121e+02 -2.617058337494432e+02 1.608247960766335e-10 2.599338467042156e-10 4.439763328340200e-11
-6.105085272418427e+02 -2.617058337493559e+02 -2.617058337495595e+02 5.472654596450143e-11 2.202263656287321e-10 -1.137676469567017e-11
-6.105085272422211e+02 -2.617058337504183e+02 -2.617058337498653e+02 -3.102304673206971e-11 -2.629369335082438e-10 2.836543656345092e-11
-6.105085272420322e+02 -2.617058337499381e+02 -2.617058337502727e+02 2.136534447226953e-11 2.122181341513237e-10 9.606700762622655e-11
-6.105085272418720e+02 -2.617058337497343e+02 -2.617058337498798e+02 4.734754298700060e-11 8.475378313590603e-11 -3.004841723985443e-11
-6.105085272415813e+02 -2.617058337498943e+02 -2.617058337499670e+02 -1.435927657606125e-11 1.828546187341594e-10 1.027535444708765e-10
-6.105085272425705e+02 -2.617058337503020e+02 -2.617058337505057e+02 2.495919990527415e-10 -4.004115738704228e-12 -7.809901639393080e-11
-6.105085272422795e+02 -2.617058337500836e+02 -2.617058337499963e+02 3.009975156667903e-10 2.535939967846005e-11 4.068037077636188e-11
-6.117780042566012e+02 -2.622501422714281e+02 -2.622501422713844e+02 2.002998737792357e-11 1.875261754882060e-10 2.322006189196906e-10
-6.117780042563683e+02 -2.622501422710496e+02 -2.622501422708750e+02 -1.401344144638515e-10 1.601647050433072e-11 8.006840525115497e-11
-6.117780042561791e+02 -2.622501422704821e+02 -2.622501422707295e+02 -1.464622151108955e-10 2.155549988707848e-10 9.509620181141787e-11
-6.117780042570665e+02 -2.622501422711517e+02 -2.622501422714282e+02 8.006658604195948e-11 1.868588225505257e-11 3.602462737190826e-11
-6.117780042569358e+02 -2.622501422715300e+02 -2.622501422714137e+02 1.404671055277109e-10 -8.875794071149970e-11 -1.366792495769753e-11
-6.117780042564701e+02 -2.622501422710206e+02 -2.622501422711952e+02 8.542996886754236e-11 2.115508812447022e-10 -2.148691506396168e-10
-6.117780042569502e+02 -2.622501422716318e+02 -2.622501422713409e+02 -3.109509943797768e-10 1.401441169128943e-10 -6.639320345667545e-11
-6.117780042569505e+02 -2.622501422718066e+02 -2.622501422717338e+02 -1.507905341579253e-10 2.015405871794955e-10 -2.589235405725040e-10
-6.117780042570085e+02 -2.622501422714573e+02 -2.622501422716465e+02 -1.329581769460225e-11 1.027723524027891e-10 -1.981951812474147e-10
-6.117780042565576e+02 -2.622501422710934e+02 -2.622501422711807e+02 -6.667798867838648e-11 5.472294088979678e-11 -2.575948987277948e-10
-6.140824681846140e+02 -2.632382192531998e+02 -2.632382192528941e+02 -9.878505818461828e-11 1.841895684018156e-10 -7.537853389249234e-11
-6.140824681839155e+02 -2.632382192523555e+02 -2.632382192521519e+02 1.601654507756876e-10 -1.201236315664013e-11 1.228125235900839e-10
-6.140824681846863e+02 -2.632382192525012e+02 -2.632382192524867e+02 1.177707749597854e-10 3.670444297862274e-12 -1.424413985596495e-10
-6.140824681838865e+02 -2.632382192523410e+02 -2.632382192523555e+02 1.666846836696029e-11 -1.281318736708282e-10 -2.202342664611396e-10
-6.140824681845266e+02 -2.632382192529669e+02 -2.632382192528069e+02 -3.399500776355033e-11 2.225623951521939e-10 9.275437694841831e-11
-6.140824681847010e+02 -2.632382192526468e+02 -2.632382192530978e+02 -7.905301074273857e-11 2.729475850592123e-10 -7.876749635931274e-11
-6.140824681853849e+02 -2.632382192534037e+02 -2.632382192536074e+02 -2.429121120139698e-10 9.810096577922792e-11 7.807229541339306e-11
-6.140824681847155e+02 -2.632382192527340e+02 -2.632382192523993e+02 4.139448249768335e-11 -1.921978105062424e-10 -1.615351573043491e-10
-6.140824681847007e+02 -2.632382192519919e+02 -2.632382192526320e+02 3.363397771708251e-10 7.474359297464979e-11 -6.207985434705517e-11
-6.140824681845846e+02 -2.632382192525304e+02 -2.632382192528067e+02 2.269087145788906e-10 -5.872710876579629e-11 -2.416105784463653e-10
        </DataArray>
      </CellData>

    </Piece>
  </UnstructuredGrid>
</VTKFile>
