<?xml version="1.0" ?> 
<!-- 
# vtk DataFile Version 3.0
-->
<VTKFile type="UnstructuredGrid" version="0.1" compressor="vtkZLibDataCompressor" byte_order="LittleEndian">
  <UnstructuredGrid>
    <FieldData>
      <DataArray type="Float64" Name="TIME" NumberOfTuples="1" format="ascii">
9.999999999999999e-02 
      </DataArray>
    </FieldData>

    <Piece NumberOfPoints="400" NumberOfCells="50" >
      <Points>
        <DataArray type="Float64" NumberOfComponents="3" format="ascii">
-5.000000000000000e+00 -5.000000000000000e+00 -1.000000000000000e+00
-5.000000000000000e+00 -5.000000000000000e+00 -3.000000000000000e+00
-5.000000000000000e+00 -3.000000000000000e+00 -3.000000000000000e+00
-5.000000000000000e+00 -3.000000000000000e+00 -1.000000000000000e+00
-3.000000000000000e+00 -5.000000000000000e+00 -1.000000000000000e+00
-3.000000000000000e+00 -5.000000000000000e+00 -3.000000000000000e+00
-3.000000000000000e+00 -3.000000000000000e+00 -3.000000000000000e+00
-3.000000000000000e+00 -3.000000000000000e+00 -1.000000000000000e+00
-5.000000000000000e+00 -5.000000000000000e+00 -3.000000000000000e+00
-5.000000000000000e+00 -5.000000000000000e+00 -5.000000000000000e+00
-5.000000000000000e+00 -3.000000000000000e+00 -5.000000000000000e+00
-5.000000000000000e+00 -3.000000000000000e+00 -3.000000000000000e+00
-3.000000000000000e+00 -5.000000000000000e+00 -3.000000000000000e+00
-3.000000000000000e+00 -5.000000000000000e+00 -5.000000000000000e+00
-3.000000000000000e+00 -3.000000000000000e+00 -5.000000000000000e+00
-3.000000000000000e+00 -3.000000000000000e+00 -3.000000000000000e+00
-5.000000000000000e+00 -3.000000000000000e+00 -1.000000000000000e+00
-5.000000000000000e+00 -3.000000000000000e+00 -3.000000000000000e+00
-5.000000000000000e+00 -1.000000000000000e+00 -3.000000000000000e+00
-5.000000000000000e+00 -1.000000000000000e+00 -1.000000000000000e+00
-3.000000000000000e+00 -3.000000000000000e+00 -1.000000000000000e+00
-3.000000000000000e+00 -3.000000000000000e+00 -3.000000000000000e+00
-3.000000000000000e+00 -1.000000000000000e+00 -3.000000000000000e+00
-3.000000000000000e+00 -1.000000000000000e+00 -1.000000000000000e+00
-5.000000000000000e+00 -3.000000000000000e+00 -3.000000000000000e+00
-5.000000000000000e+00 -3.000000000000000e+00 -5.000000000000000e+00
-5.000000000000000e+00 -1.000000000000000e+00 -5.000000000000000e+00
-5.000000000000000e+00 -1.000000000000000e+00 -3.000000000000000e+00
-3.000000000000000e+00 -3.000000000000000e+00 -3.000000000000000e+00
-3.000000000000000e+00 -3.000000000000000e+00 -5.000000000000000e+00
-3.000000000000000e+00 -1.000000000000000e+00 -5.000000000000000e+00
-3.000000000000000e+00 -1.000000000000000e+00 -3.000000000000000e+00
-5.000000000000000e+00 -1.000000000000000e+00 -1.000000000000000e+00
-5.000000000000000e+00 -1.000000000000000e+00 -3.000000000000000e+00
-5.000000000000000e+00 1.000000000000000e+00 -3.000000000000000e+00
-5.000000000000000e+00 1.000000000000000e+00 -1.000000000000000e+00
-3.000000000000000e+00 -1.000000000000000e+00 -1.000000000000000e+00
-3.000000000000000e+00 -1.000000000000000e+00 -3.000000000000000e+00
-3.000000000000000e+00 1.000000000000000e+00 -3.000000000000000e+00
-3.000000000000000e+00 1.000000000000000e+00 -1.000000000000000e+00
-5.000000000000000e+00 -1.000000000000000e+00 -3.000000000000000e+00
-5.000000000000000e+00 -1.000000000000000e+00 -5.000000000000000e+00
-5.000000000000000e+00 1.000000000000000e+00 -5.000000000000000e+00
-5.000000000000000e+00 1.000000000000000e+00 -3.000000000000000e+00
-3.000000000000000e+00 -1.000000000000000e+00 -3.000000000000000e+00
-3.000000000000000e+00 -1.000000000000000e+00 -5.000000000000000e+00
-3.000000000000000e+00 1.000000000000000e+00 -5.000000000000000e+00
-3.000000000000000e+00 1.000000000000000e+00 -3.000000000000000e+00
-5.000000000000000e+00 1.000000000000000e+00 -1.000000000000000e+00
-5.000000000000000e+00 1.000000000000000e+00 -3.000000000000000e+00
-5.000000000000000e+00 3.000000000000000e+00 -3.000000000000000e+00
-5.000000000000000e+00 3.000000000000000e+00 -1.000000000000000e+00
-3.000000000000000e+00 1.000000000000000e+00 -1.000000000000000e+00
-3.000000000000000e+00 1.000000000000000e+00 -3.000000000000000e+00
-3.000000000000000e+00 3.000000000000000e+00 -3.000000000000000e+00
-3.000000000000000e+00 3.000000000000000e+00 -9.999999999999999e-01
-5.000000000000000e+00 1.000000000000000e+00 -3.000000000000000e+00
-5.000000000000000e+00 1.000000000000000e+00 -5.000000000000000e+00
-5.000000000000000e+00 3.000000000000000e+00 -5.000000000000000e+00
-5.000000000000000e+00 3.000000000000000e+00 -3.000000000000000e+00
-3.000000000000000e+00 1.000000000000000e+00 -3.000000000000000e+00
-3.000000000000000e+00 1.000000000000000e+00 -5.000000000000000e+00
-3.000000000000000e+00 3.000000000000000e+00 -4.999999999999999e+00
-3.000000000000000e+00 3.000000000000000e+00 -3.000000000000000e+00
-5.000000000000000e+00 3.000000000000000e+00 -1.000000000000000e+00
-5.000000000000000e+00 3.000000000000000e+00 -3.000000000000000e+00
-5.000000000000000e+00 5.000000000000000e+00 -3.000000000000000e+00
-5.000000000000000e+00 5.000000000000000e+00 -1.000000000000000e+00
-3.000000000000000e+00 3.000000000000000e+00 -9.999999999999999e-01
-3.000000000000000e+00 3.000000000000000e+00 -3.000000000000000e+00
-3.000000000000000e+00 5.000000000000000e+00 -3.000000000000000e+00
-3.000000000000000e+00 5.000000000000000e+00 -1.000000000000000e+00
-5.000000000000000e+00 3.000000000000000e+00 -3.000000000000000e+00
-5.000000000000000e+00 3.000000000000000e+00 -5.000000000000000e+00
-5.000000000000000e+00 5.000000000000000e+00 -5.000000000000000e+00
-5.000000000000000e+00 5.000000000000000e+00 -3.000000000000000e+00
-3.000000000000000e+00 3.000000000000000e+00 -3.000000000000000e+00
-3.000000000000000e+00 3.000000000000000e+00 -4.999999999999999e+00
-3.000000000000000e+00 5.000000000000000e+00 -5.000000000000000e+00
-3.000000000000000e+00 5.000000000000000e+00 -3.000000000000000e+00
-3.000000000000000e+00 -5.000000000000000e+00 -1.000000000000000e+00
-3.000000000000000e+00 -5.000000000000000e+00 -3.000000000000000e+00
-3.000000000000000e+00 -3.000000000000000e+00 -3.000000000000000e+00
-3.000000000000000e+00 -3.000000000000000e+00 -1.000000000000000e+00
-1.000000000000000e+00 -5.000000000000000e+00 -1.000000000000000e+00
-1.000000000000000e+00 -5.000000000000000e+00 -3.000000000000000e+00
-1.000000000000000e+00 -3.000000000000000e+00 -3.000000000000000e+00
-1.000000000000000e+00 -3.000000000000000e+00 -1.000000000000000e+00
-3.000000000000000e+00 -5.000000000000000e+00 -3.000000000000000e+00
-3.000000000000000e+00 -5.000000000000000e+00 -5.000000000000000e+00
-3.000000000000000e+00 -3.000000000000000e+00 -5.000000000000000e+00
-3.000000000000000e+00 -3.000000000000000e+00 -3.000000000000000e+00
-1.000000000000000e+00 -5.000000000000000e+00 -3.000000000000000e+00
-1.000000000000000e+00 -5.000000000000000e+00 -5.000000000000000e+00
-1.000000000000000e+00 -3.000000000000000e+00 -5.000000000000000e+00
-1.000000000000000e+00 -3.000000000000000e+00 -3.000000000000000e+00
-3.000000000000000e+00 -3.000000000000000e+00 -1.000000000000000e+00
-3.000000000000000e+00 -3.000000000000000e+00 -3.000000000000000e+00
-3.000000000000000e+00 -1.000000000000000e+00 -3.000000000000000e+00
-3.000000000000000e+00 -1.000000000000000e+00 -1.000000000000000e+00
-1.000000000000000e+00 -3.000000000000000e+00 -1.000000000000000e+00
-1.000000000000000e+00 -3.000000000000000e+00 -3.000000000000000e+00
-1.000000000000000e+00 -1.000000000000000e+00 -3.000000000000000e+00
-1.000000000000000e+00 -1.000000000000000e+00 -1.000000000000000e+00
-3.000000000000000e+00 -3.000000000000000e+00 -3.000000000000000e+00
-3.000000000000000e+00 -3.000000000000000e+00 -5.000000000000000e+00
-3.000000000000000e+00 -1.000000000000000e+00 -5.000000000000000e+00
-3.000000000000000e+00 -1.000000000000000e+00 -3.000000000000000e+00
-1.000000000000000e+00 -3.000000000000000e+00 -3.000000000000000e+00
-1.000000000000000e+00 -3.000000000000000e+00 -5.000000000000000e+00
-1.000000000000000e+00 -1.000000000000000e+00 -5.000000000000000e+00
-1.000000000000000e+00 -1.000000000000000e+00 -3.000000000000000e+00
-3.000000000000000e+00 -1.000000000000000e+00 -1.000000000000000e+00
-3.000000000000000e+00 -1.000000000000000e+00 -3.000000000000000e+00
-3.000000000000000e+00 1.000000000000000e+00 -3.000000000000000e+00
-3.000000000000000e+00 1.000000000000000e+00 -1.000000000000000e+00
-1.000000000000000e+00 -1.000000000000000e+00 -1.000000000000000e+00
-1.000000000000000e+00 -1.000000000000000e+00 -3.000000000000000e+00
-1.000000000000000e+00 1.000000000000000e+00 -3.000000000000000e+00
-1.000000000000000e+00 1.000000000000000e+00 -1.000000000000000e+00
-3.000000000000000e+00 -1.000000000000000e+00 -3.000000000000000e+00
-3.000000000000000e+00 -1.000000000000000e+00 -5.000000000000000e+00
-3.000000000000000e+00 1.000000000000000e+00 -5.000000000000000e+00
-3.000000000000000e+00 1.000000000000000e+00 -3.000000000000000e+00
-1.000000000000000e+00 -1.000000000000000e+00 -3.000000000000000e+00
-1.000000000000000e+00 -1.000000000000000e+00 -5.000000000000000e+00
-1.000000000000000e+00 1.000000000000000e+00 -5.000000000000000e+00
-1.000000000000000e+00 1.000000000000000e+00 -3.000000000000000e+00
-3.000000000000000e+00 1.000000000000000e+00 -1.000000000000000e+00
-3.000000000000000e+00 1.000000000000000e+00 -3.000000000000000e+00
-3.000000000000000e+00 3.000000000000000e+00 -3.000000000000000e+00
-3.000000000000000e+00 3.000000000000000e+00 -9.999999999999999e-01
-1.000000000000000e+00 1.000000000000000e+00 -1.000000000000000e+00
-1.000000000000000e+00 1.000000000000000e+00 -3.000000000000000e+00
-1.000000000000000e+00 3.000000000000000e+00 -3.000000000000000e+00
-1.000000000000000e+00 3.000000000000000e+00 -1.000000000000000e+00
-3.000000000000000e+00 1.000000000000000e+00 -3.000000000000000e+00
-3.000000000000000e+00 1.000000000000000e+00 -5.000000000000000e+00
-3.000000000000000e+00 3.000000000000000e+00 -4.999999999999999e+00
-3.000000000000000e+00 3.000000000000000e+00 -3.000000000000000e+00
-1.000000000000000e+00 1.000000000000000e+00 -3.000000000000000e+00
-1.000000000000000e+00 1.000000000000000e+00 -5.000000000000000e+00
-1.000000000000000e+00 3.000000000000000e+00 -5.000000000000000e+00
-1.000000000000000e+00 3.000000000000000e+00 -3.000000000000000e+00
-3.000000000000000e+00 3.000000000000000e+00 -9.999999999999999e-01
-3.000000000000000e+00 3.000000000000000e+00 -3.000000000000000e+00
-3.000000000000000e+00 5.000000000000000e+00 -3.000000000000000e+00
-3.000000000000000e+00 5.000000000000000e+00 -1.000000000000000e+00
-1.000000000000000e+00 3.000000000000000e+00 -1.000000000000000e+00
-1.000000000000000e+00 3.000000000000000e+00 -3.000000000000000e+00
-1.000000000000000e+00 5.000000000000000e+00 -3.000000000000000e+00
-1.000000000000000e+00 5.000000000000000e+00 -1.000000000000000e+00
-3.000000000000000e+00 3.000000000000000e+00 -3.000000000000000e+00
-3.000000000000000e+00 3.000000000000000e+00 -4.999999999999999e+00
-3.000000000000000e+00 5.000000000000000e+00 -5.000000000000000e+00
-3.000000000000000e+00 5.000000000000000e+00 -3.000000000000000e+00
-1.000000000000000e+00 3.000000000000000e+00 -3.000000000000000e+00
-1.000000000000000e+00 3.000000000000000e+00 -5.000000000000000e+00
-1.000000000000000e+00 5.000000000000000e+00 -5.000000000000000e+00
-1.000000000000000e+00 5.000000000000000e+00 -3.000000000000000e+00
-1.000000000000000e+00 -5.000000000000000e+00 -1.000000000000000e+00
-1.000000000000000e+00 -5.000000000000000e+00 -3.000000000000000e+00
-1.000000000000000e+00 -3.000000000000000e+00 -3.000000000000000e+00
-1.000000000000000e+00 -3.000000000000000e+00 -1.000000000000000e+00
1.000000000000000e+00 -5.000000000000000e+00 -1.000000000000000e+00
1.000000000000000e+00 -5.000000000000000e+00 -3.000000000000000e+00
1.000000000000000e+00 -3.000000000000000e+00 -3.000000000000000e+00
1.000000000000000e+00 -3.000000000000000e+00 -1.000000000000000e+00
-1.000000000000000e+00 -5.000000000000000e+00 -3.000000000000000e+00
-1.000000000000000e+00 -5.000000000000000e+00 -5.000000000000000e+00
-1.000000000000000e+00 -3.000000000000000e+00 -5.000000000000000e+00
-1.000000000000000e+00 -3.000000000000000e+00 -3.000000000000000e+00
1.000000000000000e+00 -5.000000000000000e+00 -3.000000000000000e+00
1.000000000000000e+00 -5.000000000000000e+00 -5.000000000000000e+00
1.000000000000000e+00 -3.000000000000000e+00 -5.000000000000000e+00
1.000000000000000e+00 -3.000000000000000e+00 -3.000000000000000e+00
-1.000000000000000e+00 -3.000000000000000e+00 -1.000000000000000e+00
-1.000000000000000e+00 -3.000000000000000e+00 -3.000000000000000e+00
-1.000000000000000e+00 -1.000000000000000e+00 -3.000000000000000e+00
-1.000000000000000e+00 -1.000000000000000e+00 -1.000000000000000e+00
1.000000000000000e+00 -3.000000000000000e+00 -1.000000000000000e+00
1.000000000000000e+00 -3.000000000000000e+00 -3.000000000000000e+00
1.000000000000000e+00 -1.000000000000000e+00 -3.000000000000000e+00
1.000000000000000e+00 -1.000000000000000e+00 -1.000000000000000e+00
-1.000000000000000e+00 -3.000000000000000e+00 -3.000000000000000e+00
-1.000000000000000e+00 -3.000000000000000e+00 -5.000000000000000e+00
-1.000000000000000e+00 -1.000000000000000e+00 -5.000000000000000e+00
-1.000000000000000e+00 -1.000000000000000e+00 -3.000000000000000e+00
1.000000000000000e+00 -3.000000000000000e+00 -3.000000000000000e+00
1.000000000000000e+00 -3.000000000000000e+00 -5.000000000000000e+00
1.000000000000000e+00 -1.000000000000000e+00 -5.000000000000000e+00
1.000000000000000e+00 -1.000000000000000e+00 -3.000000000000000e+00
-1.000000000000000e+00 -1.000000000000000e+00 -1.000000000000000e+00
-1.000000000000000e+00 -1.000000000000000e+00 -3.000000000000000e+00
-1.000000000000000e+00 1.000000000000000e+00 -3.000000000000000e+00
-1.000000000000000e+00 1.000000000000000e+00 -1.000000000000000e+00
1.000000000000000e+00 -1.000000000000000e+00 -1.000000000000000e+00
1.000000000000000e+00 -1.000000000000000e+00 -3.000000000000000e+00
1.000000000000000e+00 1.000000000000000e+00 -3.000000000000000e+00
1.000000000000000e+00 1.000000000000000e+00 -1.000000000000000e+00
-1.000000000000000e+00 -1.000000000000000e+00 -3.000000000000000e+00
-1.000000000000000e+00 -1.000000000000000e+00 -5.000000000000000e+00
-1.000000000000000e+00 1.000000000000000e+00 -5.000000000000000e+00
-1.000000000000000e+00 1.000000000000000e+00 -3.000000000000000e+00
1.000000000000000e+00 -1.000000000000000e+00 -3.000000000000000e+00
1.000000000000000e+00 -1.000000000000000e+00 -5.000000000000000e+00
1.000000000000000e+00 1.000000000000000e+00 -5.000000000000000e+00
1.000000000000000e+00 1.000000000000000e+00 -3.000000000000000e+00
-1.000000000000000e+00 1.000000000000000e+00 -1.000000000000000e+00
-1.000000000000000e+00 1.000000000000000e+00 -3.000000000000000e+00
-1.000000000000000e+00 3.000000000000000e+00 -3.000000000000000e+00
-1.000000000000000e+00 3.000000000000000e+00 -1.000000000000000e+00
1.000000000000000e+00 1.000000000000000e+00 -1.000000000000000e+00
1.000000000000000e+00 1.000000000000000e+00 -3.000000000000000e+00
1.000000000000000e+00 3.000000000000000e+00 -3.000000000000000e+00
1.000000000000000e+00 3.000000000000000e+00 -1.000000000000000e+00
-1.000000000000000e+00 1.000000000000000e+00 -3.000000000000000e+00
-1.000000000000000e+00 1.000000000000000e+00 -5.000000000000000e+00
-1.000000000000000e+00 3.000000000000000e+00 -5.000000000000000e+00
-1.000000000000000e+00 3.000000000000000e+00 -3.000000000000000e+00
1.000000000000000e+00 1.000000000000000e+00 -3.000000000000000e+00
1.000000000000000e+00 1.000000000000000e+00 -5.000000000000000e+00
1.000000000000000e+00 3.000000000000000e+00 -5.000000000000000e+00
1.000000000000000e+00 3.000000000000000e+00 -3.000000000000000e+00
-1.000000000000000e+00 3.000000000000000e+00 -1.000000000000000e+00
-1.000000000000000e+00 3.000000000000000e+00 -3.000000000000000e+00
-1.000000000000000e+00 5.000000000000000e+00 -3.000000000000000e+00
-1.000000000000000e+00 5.000000000000000e+00 -1.000000000000000e+00
1.000000000000000e+00 3.000000000000000e+00 -1.000000000000000e+00
1.000000000000000e+00 3.000000000000000e+00 -3.000000000000000e+00
1.000000000000000e+00 5.000000000000000e+00 -3.000000000000000e+00
1.000000000000000e+00 5.000000000000000e+00 -1.000000000000000e+00
-1.000000000000000e+00 3.000000000000000e+00 -3.000000000000000e+00
-1.000000000000000e+00 3.000000000000000e+00 -5.000000000000000e+00
-1.000000000000000e+00 5.000000000000000e+00 -5.000000000000000e+00
-1.000000000000000e+00 5.000000000000000e+00 -3.000000000000000e+00
1.000000000000000e+00 3.000000000000000e+00 -3.000000000000000e+00
1.000000000000000e+00 3.000000000000000e+00 -5.000000000000000e+00
1.000000000000000e+00 5.000000000000000e+00 -5.000000000000000e+00
1.000000000000000e+00 5.000000000000000e+00 -3.000000000000000e+00
1.000000000000000e+00 -5.000000000000000e+00 -1.000000000000000e+00
1.000000000000000e+00 -5.000000000000000e+00 -3.000000000000000e+00
1.000000000000000e+00 -3.000000000000000e+00 -3.000000000000000e+00
1.000000000000000e+00 -3.000000000000000e+00 -1.000000000000000e+00
3.000000000000000e+00 -5.000000000000000e+00 -1.000000000000000e+00
3.000000000000000e+00 -5.000000000000000e+00 -3.000000000000000e+00
3.000000000000000e+00 -3.000000000000000e+00 -3.000000000000000e+00
3.000000000000000e+00 -3.000000000000000e+00 -1.000000000000000e+00
1.000000000000000e+00 -5.000000000000000e+00 -3.000000000000000e+00
1.000000000000000e+00 -5.000000000000000e+00 -5.000000000000000e+00
1.000000000000000e+00 -3.000000000000000e+00 -5.000000000000000e+00
1.000000000000000e+00 -3.000000000000000e+00 -3.000000000000000e+00
3.000000000000000e+00 -5.000000000000000e+00 -3.000000000000000e+00
3.000000000000000e+00 -5.000000000000000e+00 -5.000000000000000e+00
3.000000000000000e+00 -3.000000000000000e+00 -5.000000000000000e+00
3.000000000000000e+00 -3.000000000000000e+00 -3.000000000000000e+00
1.000000000000000e+00 -3.000000000000000e+00 -1.000000000000000e+00
1.000000000000000e+00 -3.000000000000000e+00 -3.000000000000000e+00
1.000000000000000e+00 -1.000000000000000e+00 -3.000000000000000e+00
1.000000000000000e+00 -1.000000000000000e+00 -1.000000000000000e+00
3.000000000000000e+00 -3.000000000000000e+00 -1.000000000000000e+00
3.000000000000000e+00 -3.000000000000000e+00 -3.000000000000000e+00
3.000000000000000e+00 -1.000000000000000e+00 -3.000000000000000e+00
3.000000000000000e+00 -1.000000000000000e+00 -1.000000000000000e+00
1.000000000000000e+00 -3.000000000000000e+00 -3.000000000000000e+00
1.000000000000000e+00 -3.000000000000000e+00 -5.000000000000000e+00
1.000000000000000e+00 -1.000000000000000e+00 -5.000000000000000e+00
1.000000000000000e+00 -1.000000000000000e+00 -3.000000000000000e+00
3.000000000000000e+00 -3.000000000000000e+00 -3.000000000000000e+00
3.000000000000000e+00 -3.000000000000000e+00 -5.000000000000000e+00
3.000000000000000e+00 -1.000000000000000e+00 -5.000000000000000e+00
3.000000000000000e+00 -1.000000000000000e+00 -3.000000000000000e+00
1.000000000000000e+00 -1.000000000000000e+00 -1.000000000000000e+00
1.000000000000000e+00 -1.000000000000000e+00 -3.000000000000000e+00
1.000000000000000e+00 1.000000000000000e+00 -3.000000000000000e+00
1.000000000000000e+00 1.000000000000000e+00 -1.000000000000000e+00
3.000000000000000e+00 -1.000000000000000e+00 -1.000000000000000e+00
3.000000000000000e+00 -1.000000000000000e+00 -3.000000000000000e+00
3.000000000000000e+00 1.000000000000000e+00 -3.000000000000000e+00
3.000000000000000e+00 1.000000000000000e+00 -1.000000000000000e+00
1.000000000000000e+00 -1.000000000000000e+00 -3.000000000000000e+00
1.000000000000000e+00 -1.000000000000000e+00 -5.000000000000000e+00
1.000000000000000e+00 1.000000000000000e+00 -5.000000000000000e+00
1.000000000000000e+00 1.000000000000000e+00 -3.000000000000000e+00
3.000000000000000e+00 -1.000000000000000e+00 -3.000000000000000e+00
3.000000000000000e+00 -1.000000000000000e+00 -5.000000000000000e+00
3.000000000000000e+00 1.000000000000000e+00 -5.000000000000000e+00
3.000000000000000e+00 1.000000000000000e+00 -3.000000000000000e+00
1.000000000000000e+00 1.000000000000000e+00 -1.000000000000000e+00
1.000000000000000e+00 1.000000000000000e+00 -3.000000000000000e+00
1.000000000000000e+00 3.000000000000000e+00 -3.000000000000000e+00
1.000000000000000e+00 3.000000000000000e+00 -1.000000000000000e+00
3.000000000000000e+00 1.000000000000000e+00 -1.000000000000000e+00
3.000000000000000e+00 1.000000000000000e+00 -3.000000000000000e+00
3.000000000000000e+00 3.000000000000000e+00 -3.000000000000000e+00
3.000000000000000e+00 3.000000000000000e+00 -1.000000000000000e+00
1.000000000000000e+00 1.000000000000000e+00 -3.000000000000000e+00
1.000000000000000e+00 1.000000000000000e+00 -5.000000000000000e+00
1.000000000000000e+00 3.000000000000000e+00 -5.000000000000000e+00
1.000000000000000e+00 3.000000000000000e+00 -3.000000000000000e+00
3.000000000000000e+00 1.000000000000000e+00 -3.000000000000000e+00
3.000000000000000e+00 1.000000000000000e+00 -5.000000000000000e+00
3.000000000000000e+00 3.000000000000000e+00 -5.000000000000000e+00
3.000000000000000e+00 3.000000000000000e+00 -3.000000000000000e+00
1.000000000000000e+00 3.000000000000000e+00 -1.000000000000000e+00
1.000000000000000e+00 3.000000000000000e+00 -3.000000000000000e+00
1.000000000000000e+00 5.000000000000000e+00 -3.000000000000000e+00
1.000000000000000e+00 5.000000000000000e+00 -1.000000000000000e+00
3.000000000000000e+00 3.000000000000000e+00 -1.000000000000000e+00
3.000000000000000e+00 3.000000000000000e+00 -3.000000000000000e+00
3.000000000000000e+00 5.000000000000000e+00 -3.000000000000000e+00
3.000000000000000e+00 5.000000000000000e+00 -1.000000000000000e+00
1.000000000000000e+00 3.000000000000000e+00 -3.000000000000000e+00
1.000000000000000e+00 3.000000000000000e+00 -5.000000000000000e+00
1.000000000000000e+00 5.000000000000000e+00 -5.000000000000000e+00
1.000000000000000e+00 5.000000000000000e+00 -3.000000000000000e+00
3.000000000000000e+00 3.000000000000000e+00 -3.000000000000000e+00
3.000000000000000e+00 3.000000000000000e+00 -5.000000000000000e+00
3.000000000000000e+00 5.000000000000000e+00 -5.000000000000000e+00
3.000000000000000e+00 5.000000000000000e+00 -3.000000000000000e+00
3.000000000000000e+00 -5.000000000000000e+00 -1.000000000000000e+00
3.000000000000000e+00 -5.000000000000000e+00 -3.000000000000000e+00
3.000000000000000e+00 -3.000000000000000e+00 -3.000000000000000e+00
3.000000000000000e+00 -3.000000000000000e+00 -1.000000000000000e+00
5.000000000000000e+00 -5.000000000000000e+00 -1.000000000000000e+00
5.000000000000000e+00 -5.000000000000000e+00 -3.000000000000000e+00
5.000000000000000e+00 -3.000000000000000e+00 -3.000000000000000e+00
5.000000000000000e+00 -3.000000000000000e+00 -1.000000000000000e+00
3.000000000000000e+00 -5.000000000000000e+00 -3.000000000000000e+00
3.000000000000000e+00 -5.000000000000000e+00 -5.000000000000000e+00
3.000000000000000e+00 -3.000000000000000e+00 -5.000000000000000e+00
3.000000000000000e+00 -3.000000000000000e+00 -3.000000000000000e+00
5.000000000000000e+00 -5.000000000000000e+00 -3.000000000000000e+00
5.000000000000000e+00 -5.000000000000000e+00 -5.000000000000000e+00
5.000000000000000e+00 -3.000000000000000e+00 -5.000000000000000e+00
5.000000000000000e+00 -3.000000000000000e+00 -3.000000000000000e+00
3.000000000000000e+00 -3.000000000000000e+00 -1.000000000000000e+00
3.000000000000000e+00 -3.000000000000000e+00 -3.000000000000000e+00
3.000000000000000e+00 -1.000000000000000e+00 -3.000000000000000e+00
3.000000000000000e+00 -1.000000000000000e+00 -1.000000000000000e+00
5.000000000000000e+00 -3.000000000000000e+00 -1.000000000000000e+00
5.000000000000000e+00 -3.000000000000000e+00 -3.000000000000000e+00
5.000000000000000e+00 -1.000000000000000e+00 -3.000000000000000e+00
5.000000000000000e+00 -1.000000000000000e+00 -1.000000000000000e+00
3.000000000000000e+00 -3.000000000000000e+00 -3.000000000000000e+00
3.000000000000000e+00 -3.000000000000000e+00 -5.000000000000000e+00
3.000000000000000e+00 -1.000000000000000e+00 -5.000000000000000e+00
3.000000000000000e+00 -1.000000000000000e+00 -3.000000000000000e+00
5.000000000000000e+00 -3.000000000000000e+00 -3.000000000000000e+00
5.000000000000000e+00 -3.000000000000000e+00 -5.000000000000000e+00
5.000000000000000e+00 -1.000000000000000e+00 -5.000000000000000e+00
5.000000000000000e+00 -1.000000000000000e+00 -3.000000000000000e+00
3.000000000000000e+00 -1.000000000000000e+00 -1.000000000000000e+00
3.000000000000000e+00 -1.000000000000000e+00 -3.000000000000000e+00
3.000000000000000e+00 1.000000000000000e+00 -3.000000000000000e+00
3.000000000000000e+00 1.000000000000000e+00 -1.000000000000000e+00
5.000000000000000e+00 -1.000000000000000e+00 -1.000000000000000e+00
5.000000000000000e+00 -1.000000000000000e+00 -3.000000000000000e+00
5.000000000000000e+00 1.000000000000000e+00 -3.000000000000000e+00
5.000000000000000e+00 1.000000000000000e+00 -1.000000000000000e+00
3.000000000000000e+00 -1.000000000000000e+00 -3.000000000000000e+00
3.000000000000000e+00 -1.000000000000000e+00 -5.000000000000000e+00
3.000000000000000e+00 1.000000000000000e+00 -5.000000000000000e+00
3.000000000000000e+00 1.000000000000000e+00 -3.000000000000000e+00
5.000000000000000e+00 -1.000000000000000e+00 -3.000000000000000e+00
5.000000000000000e+00 -1.000000000000000e+00 -5.000000000000000e+00
5.000000000000000e+00 1.000000000000000e+00 -5.000000000000000e+00
5.000000000000000e+00 1.000000000000000e+00 -3.000000000000000e+00
3.000000000000000e+00 1.000000000000000e+00 -1.000000000000000e+00
3.000000000000000e+00 1.000000000000000e+00 -3.000000000000000e+00
3.000000000000000e+00 3.000000000000000e+00 -3.000000000000000e+00
3.000000000000000e+00 3.000000000000000e+00 -1.000000000000000e+00
5.000000000000000e+00 1.000000000000000e+00 -1.000000000000000e+00
5.000000000000000e+00 1.000000000000000e+00 -3.000000000000000e+00
5.000000000000000e+00 3.000000000000000e+00 -3.000000000000000e+00
5.000000000000000e+00 3.000000000000000e+00 -1.000000000000000e+00
3.000000000000000e+00 1.000000000000000e+00 -3.000000000000000e+00
3.000000000000000e+00 1.000000000000000e+00 -5.000000000000000e+00
3.000000000000000e+00 3.000000000000000e+00 -5.000000000000000e+00
3.000000000000000e+00 3.000000000000000e+00 -3.000000000000000e+00
5.000000000000000e+00 1.000000000000000e+00 -3.000000000000000e+00
5.000000000000000e+00 1.000000000000000e+00 -5.000000000000000e+00
5.000000000000000e+00 3.000000000000000e+00 -5.000000000000000e+00
5.000000000000000e+00 3.000000000000000e+00 -3.000000000000000e+00
3.000000000000000e+00 3.000000000000000e+00 -1.000000000000000e+00
3.000000000000000e+00 3.000000000000000e+00 -3.000000000000000e+00
3.000000000000000e+00 5.000000000000000e+00 -3.000000000000000e+00
3.000000000000000e+00 5.000000000000000e+00 -1.000000000000000e+00
5.000000000000000e+00 3.000000000000000e+00 -1.000000000000000e+00
5.000000000000000e+00 3.000000000000000e+00 -3.000000000000000e+00
5.000000000000000e+00 5.000000000000000e+00 -3.000000000000000e+00
5.000000000000000e+00 5.000000000000000e+00 -1.000000000000000e+00
3.000000000000000e+00 3.000000000000000e+00 -3.000000000000000e+00
3.000000000000000e+00 3.000000000000000e+00 -5.000000000000000e+00
3.000000000000000e+00 5.000000000000000e+00 -5.000000000000000e+00
3.000000000000000e+00 5.000000000000000e+00 -3.000000000000000e+00
5.000000000000000e+00 3.000000000000000e+00 -3.000000000000000e+00
5.000000000000000e+00 3.000000000000000e+00 -5.000000000000000e+00
5.000000000000000e+00 5.000000000000000e+00 -5.000000000000000e+00
5.000000000000000e+00 5.000000000000000e+00 -3.000000000000000e+00
        </DataArray>
      </Points>

      <Cells>
        <DataArray type="Int32" Name="connectivity" format="ascii">
0 1 2 3 4 5 6 7 8 9 10 11 12 13 14 15 16 17 18 19 20 21 22 23 24 25 26 27 28 29 30 31 32 33 34 35 36 37 38 39 40 41 42 43 44 45 46 47 48 49 50 51 52 53 54 55 56 57 58 59 60 61 62 63 64 65 66 67 68 69 70 71 72 73 74 75 76 77 78 79 80 81 82 83 84 85 86 87 88 89 90 91 92 93 94 95 96 97 98 99 100 101 102 103 104 105 106 107 108 109 110 111 112 113 114 115 116 117 118 119 120 121 122 123 124 125 126 127 128 129 130 131 132 133 134 135 136 137 138 139 140 141 142 143 144 145 146 147 148 149 150 151 152 153 154 155 156 157 158 159 160 161 162 163 164 165 166 167 168 169 170 171 172 173 174 175 176 177 178 179 180 181 182 183 184 185 186 187 188 189 190 191 192 193 194 195 196 197 198 199 200 201 202 203 204 205 206 207 208 209 210 211 212 213 214 215 216 217 218 219 220 221 222 223 224 225 226 227 228 229 230 231 232 233 234 235 236 237 238 239 240 241 242 243 244 245 246 247 248 249 250 251 252 253 254 255 256 257 258 259 260 261 262 263 264 265 266 267 268 269 270 271 272 273 274 275 276 277 278 279 280 281 282 283 284 285 286 287 288 289 290 291 292 293 294 295 296 297 298 299 300 301 302 303 304 305 306 307 308 309 310 311 312 313 314 315 316 317 318 319 320 321 322 323 324 325 326 327 328 329 330 331 332 333 334 335 336 337 338 339 340 341 342 343 344 345 346 347 348 349 350 351 352 353 354 355 356 357 358 359 360 361 362 363 364 365 366 367 368 369 370 371 372 373 374 375 376 377 378 379 380 381 382 383 384 385 386 387 388 389 390 391 392 393 394 395 396 397 398 399 
        </DataArray>
        <DataArray type="Int32" Name="offsets" format="ascii">
8 16 24 32 40 48 56 64 72 80 88 96 104 112 120 128 136 144 152 160 168 176 184 192 200 208 216 224 232 240 248 256 264 272 280 288 296 304 312 320 328 336 344 352 360 368 376 384 392 400 
        </DataArray>
        <DataArray type="UInt8" Name="types" format="ascii">
12 12 12 12 12 12 12 12 12 12 12 12 12 12 12 12 12 12 12 12 12 12 12 12 12 12 12 12 12 12 12 12 12 12 12 12 12 12 12 12 12 12 12 12 12 12 12 12 12 12 
        </DataArray>
      </Cells>

  <PointData>
        <DataArray type="Float64" Name="displacement" NumberOfComponents="3" format="ascii">
0.000000000000000e+00 0.000000000000000e+00 0.000000000000000e+00
0.000000000000000e+00 0.000000000000000e+00 0.000000000000000e+00
0.000000000000000e+00 0.000000000000000e+00 0.000000000000000e+00
0.000000000000000e+00 0.000000000000000e+00 0.000000000000000e+00
-4.538264040063062e-04 0.000000000000000e+00 0.000000000000000e+00
-4.538264040062428e-04 0.000000000000000e+00 0.000000000000000e+00
-4.538264040064411e-04 -8.261985904778553e-17 -1.297123531345221e-16
-4.538264040062064e-04 1.767777750412395e-16 -8.048514369125884e-17
0.000000000000000e+00 0.000000000000000e+00 0.000000000000000e+00
0.000000000000000e+00 0.000000000000000e+00 0.000000000000000e+00
0.000000000000000e+00 0.000000000000000e+00 0.000000000000000e+00
0.000000000000000e+00 0.000000000000000e+00 0.000000000000000e+00
-4.538264040062428e-04 0.000000000000000e+00 0.000000000000000e+00
-4.538264040071649e-04 0.000000000000000e+00 0.000000000000000e+00
-4.538264040060765e-04 0.000000000000000e+00 0.000000000000000e+00
-4.538264040064411e-04 -8.261985904778553e-17 -1.297123531345221e-16
0.000000000000000e+00 0.000000000000000e+00 0.000000000000000e+00
0.000000000000000e+00 0.000000000000000e+00 0.000000000000000e+00
0.000000000000000e+00 0.000000000000000e+00 0.000000000000000e+00
0.000000000000000e+00 0.000000000000000e+00 0.000000000000000e+00
-4.538264040062064e-04 1.767777750412395e-16 -8.048514369125884e-17
-4.538264040064411e-04 -8.261985904778553e-17 -1.297123531345221e-16
-4.538264040061460e-04 2.716846823241744e-16 2.846999597403460e-16
-4.538264040060575e-04 1.859644499141998e-16 1.356886324893634e-17
0.000000000000000e+00 0.000000000000000e+00 0.000000000000000e+00
0.000000000000000e+00 0.000000000000000e+00 0.000000000000000e+00
0.000000000000000e+00 0.000000000000000e+00 0.000000000000000e+00
0.000000000000000e+00 0.000000000000000e+00 0.000000000000000e+00
-4.538264040064411e-04 -8.261985904778553e-17 -1.297123531345221e-16
-4.538264040060765e-04 0.000000000000000e+00 0.000000000000000e+00
-4.538264040069606e-04 0.000000000000000e+00 0.000000000000000e+00
-4.538264040061460e-04 2.716846823241744e-16 2.846999597403460e-16
0.000000000000000e+00 0.000000000000000e+00 0.000000000000000e+00
0.000000000000000e+00 0.000000000000000e+00 0.000000000000000e+00
0.000000000000000e+00 0.000000000000000e+00 0.000000000000000e+00
0.000000000000000e+00 0.000000000000000e+00 0.000000000000000e+00
-4.538264040060575e-04 1.859644499141998e-16 1.356886324893634e-17
-4.538264040061460e-04 2.716846823241744e-16 2.846999597403460e-16
-4.538264040068250e-04 1.073015402120085e-17 2.547763237901007e-16
-4.538264040060606e-04 2.823663517213395e-17 4.727924158812611e-16
0.000000000000000e+00 0.000000000000000e+00 0.000000000000000e+00
0.000000000000000e+00 0.000000000000000e+00 0.000000000000000e+00
0.000000000000000e+00 0.000000000000000e+00 0.000000000000000e+00
0.000000000000000e+00 0.000000000000000e+00 0.000000000000000e+00
-4.538264040061460e-04 2.716846823241744e-16 2.846999597403460e-16
-4.538264040069606e-04 0.000000000000000e+00 0.000000000000000e+00
-4.538264040061203e-04 0.000000000000000e+00 0.000000000000000e+00
-4.538264040068250e-04 1.073015402120085e-17 2.547763237901007e-16
0.000000000000000e+00 0.000000000000000e+00 0.000000000000000e+00
0.000000000000000e+00 0.000000000000000e+00 0.000000000000000e+00
0.000000000000000e+00 0.000000000000000e+00 0.000000000000000e+00
0.000000000000000e+00 0.000000000000000e+00 0.000000000000000e+00
-4.538264040060606e-04 2.823663517213395e-17 4.727924158812611e-16
-4.538264040068250e-04 1.073015402120085e-17 2.547763237901007e-16
-4.538264040050562e-04 7.125075424187490e-16 -8.559452856989508e-16
-4.538264040063923e-04 5.285482626847600e-16 -9.003733712997433e-16
0.000000000000000e+00 0.000000000000000e+00 0.000000000000000e+00
0.000000000000000e+00 0.000000000000000e+00 0.000000000000000e+00
0.000000000000000e+00 0.000000000000000e+00 0.000000000000000e+00
0.000000000000000e+00 0.000000000000000e+00 0.000000000000000e+00
-4.538264040068250e-04 1.073015402120085e-17 2.547763237901007e-16
-4.538264040061203e-04 0.000000000000000e+00 0.000000000000000e+00
-4.538264040061494e-04 0.000000000000000e+00 0.000000000000000e+00
-4.538264040050562e-04 7.125075424187490e-16 -8.559452856989508e-16
0.000000000000000e+00 0.000000000000000e+00 0.000000000000000e+00
0.000000000000000e+00 0.000000000000000e+00 0.000000000000000e+00
0.000000000000000e+00 0.000000000000000e+00 0.000000000000000e+00
0.000000000000000e+00 0.000000000000000e+00 0.000000000000000e+00
-4.538264040063923e-04 5.285482626847600e-16 -9.003733712997433e-16
-4.538264040050562e-04 7.125075424187490e-16 -8.559452856989508e-16
-4.538264040051573e-04 0.000000000000000e+00 0.000000000000000e+00
-4.538264040053909e-04 0.000000000000000e+00 0.000000000000000e+00
0.000000000000000e+00 0.000000000000000e+00 0.000000000000000e+00
0.000000000000000e+00 0.000000000000000e+00 0.000000000000000e+00
0.000000000000000e+00 0.000000000000000e+00 0.000000000000000e+00
0.000000000000000e+00 0.000000000000000e+00 0.000000000000000e+00
-4.538264040050562e-04 7.125075424187490e-16 -8.559452856989508e-16
-4.538264040061494e-04 0.000000000000000e+00 0.000000000000000e+00
-4.538264040065161e-04 0.000000000000000e+00 0.000000000000000e+00
-4.538264040051573e-04 0.000000000000000e+00 0.000000000000000e+00
-4.538264040063062e-04 0.000000000000000e+00 0.000000000000000e+00
-4.538264040062428e-04 0.000000000000000e+00 0.000000000000000e+00
-4.538264040064411e-04 -8.261985904778553e-17 -1.297123531345221e-16
-4.538264040062064e-04 1.767777750412395e-16 -8.048514369125884e-17
-9.070747024730009e-04 0.000000000000000e+00 0.000000000000000e+00
-9.070747024715456e-04 0.000000000000000e+00 0.000000000000000e+00
-9.070747024727037e-04 3.547629126136538e-17 5.888246711729171e-16
-9.070747024727678e-04 -1.597613578256863e-17 4.102192730425869e-16
-4.538264040062428e-04 0.000000000000000e+00 0.000000000000000e+00
-4.538264040071649e-04 0.000000000000000e+00 0.000000000000000e+00
-4.538264040060765e-04 0.000000000000000e+00 0.000000000000000e+00
-4.538264040064411e-04 -8.261985904778553e-17 -1.297123531345221e-16
-9.070747024715456e-04 0.000000000000000e+00 0.000000000000000e+00
-9.070747024721908e-04 0.000000000000000e+00 0.000000000000000e+00
-9.070747024723493e-04 0.000000000000000e+00 0.000000000000000e+00
-9.070747024727037e-04 3.547629126136538e-17 5.888246711729171e-16
-4.538264040062064e-04 1.767777750412395e-16 -8.048514369125884e-17
-4.538264040064411e-04 -8.261985904778553e-17 -1.297123531345221e-16
-4.538264040061460e-04 2.716846823241744e-16 2.846999597403460e-16
-4.538264040060575e-04 1.859644499141998e-16 1.356886324893634e-17
-9.070747024727678e-04 -1.597613578256863e-17 4.102192730425869e-16
-9.070747024727037e-04 3.547629126136538e-17 5.888246711729171e-16
-9.070747024725823e-04 1.156087661239461e-15 -3.386592777201866e-16
-9.070747024718018e-04 8.357133642956256e-16 9.012523665329920e-16
-4.538264040064411e-04 -8.261985904778553e-17 -1.297123531345221e-16
-4.538264040060765e-04 0.000000000000000e+00 0.000000000000000e+00
-4.538264040069606e-04 0.000000000000000e+00 0.000000000000000e+00
-4.538264040061460e-04 2.716846823241744e-16 2.846999597403460e-16
-9.070747024727037e-04 3.547629126136538e-17 5.888246711729171e-16
-9.070747024723493e-04 0.000000000000000e+00 0.000000000000000e+00
-9.070747024721022e-04 0.000000000000000e+00 0.000000000000000e+00
-9.070747024725823e-04 1.156087661239461e-15 -3.386592777201866e-16
-4.538264040060575e-04 1.859644499141998e-16 1.356886324893634e-17
-4.538264040061460e-04 2.716846823241744e-16 2.846999597403460e-16
-4.538264040068250e-04 1.073015402120085e-17 2.547763237901007e-16
-4.538264040060606e-04 2.823663517213395e-17 4.727924158812611e-16
-9.070747024718018e-04 8.357133642956256e-16 9.012523665329920e-16
-9.070747024725823e-04 1.156087661239461e-15 -3.386592777201866e-16
-9.070747024722436e-04 2.947311390967398e-16 -2.977060145480536e-16
-9.070747024725827e-04 2.133860967029513e-16 1.482201870391843e-16
-4.538264040061460e-04 2.716846823241744e-16 2.846999597403460e-16
-4.538264040069606e-04 0.000000000000000e+00 0.000000000000000e+00
-4.538264040061203e-04 0.000000000000000e+00 0.000000000000000e+00
-4.538264040068250e-04 1.073015402120085e-17 2.547763237901007e-16
-9.070747024725823e-04 1.156087661239461e-15 -3.386592777201866e-16
-9.070747024721022e-04 0.000000000000000e+00 0.000000000000000e+00
-9.070747024725775e-04 0.000000000000000e+00 0.000000000000000e+00
-9.070747024722436e-04 2.947311390967398e-16 -2.977060145480536e-16
-4.538264040060606e-04 2.823663517213395e-17 4.727924158812611e-16
-4.538264040068250e-04 1.073015402120085e-17 2.547763237901007e-16
-4.538264040050562e-04 7.125075424187490e-16 -8.559452856989508e-16
-4.538264040063923e-04 5.285482626847600e-16 -9.003733712997433e-16
-9.070747024725827e-04 2.133860967029513e-16 1.482201870391843e-16
-9.070747024722436e-04 2.947311390967398e-16 -2.977060145480536e-16
-9.070747024724585e-04 -1.524220243022558e-16 1.658801197297156e-16
-9.070747024725876e-04 1.648680044208991e-16 -1.994624339337378e-16
-4.538264040068250e-04 1.073015402120085e-17 2.547763237901007e-16
-4.538264040061203e-04 0.000000000000000e+00 0.000000000000000e+00
-4.538264040061494e-04 0.000000000000000e+00 0.000000000000000e+00
-4.538264040050562e-04 7.125075424187490e-16 -8.559452856989508e-16
-9.070747024722436e-04 2.947311390967398e-16 -2.977060145480536e-16
-9.070747024725775e-04 0.000000000000000e+00 0.000000000000000e+00
-9.070747024725444e-04 0.000000000000000e+00 0.000000000000000e+00
-9.070747024724585e-04 -1.524220243022558e-16 1.658801197297156e-16
-4.538264040063923e-04 5.285482626847600e-16 -9.003733712997433e-16
-4.538264040050562e-04 7.125075424187490e-16 -8.559452856989508e-16
-4.538264040051573e-04 0.000000000000000e+00 0.000000000000000e+00
-4.538264040053909e-04 0.000000000000000e+00 0.000000000000000e+00
-9.070747024725876e-04 1.648680044208991e-16 -1.994624339337378e-16
-9.070747024724585e-04 -1.524220243022558e-16 1.658801197297156e-16
-9.070747024711969e-04 0.000000000000000e+00 0.000000000000000e+00
-9.070747024720485e-04 0.000000000000000e+00 0.000000000000000e+00
-4.538264040050562e-04 7.125075424187490e-16 -8.559452856989508e-16
-4.538264040061494e-04 0.000000000000000e+00 0.000000000000000e+00
-4.538264040065161e-04 0.000000000000000e+00 0.000000000000000e+00
-4.538264040051573e-04 0.000000000000000e+00 0.000000000000000e+00
-9.070747024724585e-04 -1.524220243022558e-16 1.658801197297156e-16
-9.070747024725444e-04 0.000000000000000e+00 0.000000000000000e+00
-9.070747024714404e-04 0.000000000000000e+00 0.000000000000000e+00
-9.070747024711969e-04 0.000000000000000e+00 0.000000000000000e+00
-9.070747024730009e-04 0.000000000000000e+00 0.000000000000000e+00
-9.070747024715456e-04 0.000000000000000e+00 0.000000000000000e+00
-9.070747024727037e-04 3.547629126136538e-17 5.888246711729171e-16
-9.070747024727678e-04 -1.597613578256863e-17 4.102192730425869e-16
-1.360466801260880e-03 0.000000000000000e+00 0.000000000000000e+00
-1.360466801261256e-03 0.000000000000000e+00 0.000000000000000e+00
-1.360466801261171e-03 -2.815242706851862e-16 -2.714570451838717e-16
-1.360466801260842e-03 6.854490348985413e-16 2.623434596676117e-16
-9.070747024715456e-04 0.000000000000000e+00 0.000000000000000e+00
-9.070747024721908e-04 0.000000000000000e+00 0.000000000000000e+00
-9.070747024723493e-04 0.000000000000000e+00 0.000000000000000e+00
-9.070747024727037e-04 3.547629126136538e-17 5.888246711729171e-16
-1.360466801261256e-03 0.000000000000000e+00 0.000000000000000e+00
-1.360466801260908e-03 0.000000000000000e+00 0.000000000000000e+00
-1.360466801260909e-03 0.000000000000000e+00 0.000000000000000e+00
-1.360466801261171e-03 -2.815242706851862e-16 -2.714570451838717e-16
-9.070747024727678e-04 -1.597613578256863e-17 4.102192730425869e-16
-9.070747024727037e-04 3.547629126136538e-17 5.888246711729171e-16
-9.070747024725823e-04 1.156087661239461e-15 -3.386592777201866e-16
-9.070747024718018e-04 8.357133642956256e-16 9.012523665329920e-16
-1.360466801260842e-03 6.854490348985413e-16 2.623434596676117e-16
-1.360466801261171e-03 -2.815242706851862e-16 -2.714570451838717e-16
-1.360466801260968e-03 5.254055226029367e-16 3.936800160988694e-16
-1.360466801260679e-03 6.948480333283856e-16 6.010424104567725e-17
-9.070747024727037e-04 3.547629126136538e-17 5.888246711729171e-16
-9.070747024723493e-04 0.000000000000000e+00 0.000000000000000e+00
-9.070747024721022e-04 0.000000000000000e+00 0.000000000000000e+00
-9.070747024725823e-04 1.156087661239461e-15 -3.386592777201866e-16
-1.360466801261171e-03 -2.815242706851862e-16 -2.714570451838717e-16
-1.360466801260909e-03 0.000000000000000e+00 0.000000000000000e+00
-1.360466801260403e-03 0.000000000000000e+00 0.000000000000000e+00
-1.360466801260968e-03 5.254055226029367e-16 3.936800160988694e-16
-9.070747024718018e-04 8.357133642956256e-16 9.012523665329920e-16
-9.070747024725823e-04 1.156087661239461e-15 -3.386592777201866e-16
-9.070747024722436e-04 2.947311390967398e-16 -2.977060145480536e-16
-9.070747024725827e-04 2.133860967029513e-16 1.482201870391843e-16
-1.360466801260679e-03 6.948480333283856e-16 6.010424104567725e-17
-1.360466801260968e-03 5.254055226029367e-16 3.936800160988694e-16
-1.360466801260296e-03 7.006307056947103e-16 -3.190871538276477e-16
-1.360466801260643e-03 2.596101249826536e-16 -2.805195409235785e-16
-9.070747024725823e-04 1.156087661239461e-15 -3.386592777201866e-16
-9.070747024721022e-04 0.000000000000000e+00 0.000000000000000e+00
-9.070747024725775e-04 0.000000000000000e+00 0.000000000000000e+00
-9.070747024722436e-04 2.947311390967398e-16 -2.977060145480536e-16
-1.360466801260968e-03 5.254055226029367e-16 3.936800160988694e-16
-1.360466801260403e-03 0.000000000000000e+00 0.000000000000000e+00
-1.360466801260593e-03 0.000000000000000e+00 0.000000000000000e+00
-1.360466801260296e-03 7.006307056947103e-16 -3.190871538276477e-16
-9.070747024725827e-04 2.133860967029513e-16 1.482201870391843e-16
-9.070747024722436e-04 2.947311390967398e-16 -2.977060145480536e-16
-9.070747024724585e-04 -1.524220243022558e-16 1.658801197297156e-16
-9.070747024725876e-04 1.648680044208991e-16 -1.994624339337378e-16
-1.360466801260643e-03 2.596101249826536e-16 -2.805195409235785e-16
-1.360466801260296e-03 7.006307056947103e-16 -3.190871538276477e-16
-1.360466801260933e-03 3.184628399860837e-16 4.014787266391478e-16
-1.360466801261091e-03 9.506934586566232e-16 -2.907996883208956e-17
-9.070747024722436e-04 2.947311390967398e-16 -2.977060145480536e-16
-9.070747024725775e-04 0.000000000000000e+00 0.000000000000000e+00
-9.070747024725444e-04 0.000000000000000e+00 0.000000000000000e+00
-9.070747024724585e-04 -1.524220243022558e-16 1.658801197297156e-16
-1.360466801260296e-03 7.006307056947103e-16 -3.190871538276477e-16
-1.360466801260593e-03 0.000000000000000e+00 0.000000000000000e+00
-1.360466801260328e-03 0.000000000000000e+00 0.000000000000000e+00
-1.360466801260933e-03 3.184628399860837e-16 4.014787266391478e-16
-9.070747024725876e-04 1.648680044208991e-16 -1.994624339337378e-16
-9.070747024724585e-04 -1.524220243022558e-16 1.658801197297156e-16
-9.070747024711969e-04 0.000000000000000e+00 0.000000000000000e+00
-9.070747024720485e-04 0.000000000000000e+00 0.000000000000000e+00
-1.360466801261091e-03 9.506934586566232e-16 -2.907996883208956e-17
-1.360466801260933e-03 3.184628399860837e-16 4.014787266391478e-16
-1.360466801260397e-03 0.000000000000000e+00 0.000000000000000e+00
-1.360466801260579e-03 0.000000000000000e+00 0.000000000000000e+00
-9.070747024724585e-04 -1.524220243022558e-16 1.658801197297156e-16
-9.070747024725444e-04 0.000000000000000e+00 0.000000000000000e+00
-9.070747024714404e-04 0.000000000000000e+00 0.000000000000000e+00
-9.070747024711969e-04 0.000000000000000e+00 0.000000000000000e+00
-1.360466801260933e-03 3.184628399860837e-16 4.014787266391478e-16
-1.360466801260328e-03 0.000000000000000e+00 0.000000000000000e+00
-1.360466801259643e-03 0.000000000000000e+00 0.000000000000000e+00
-1.360466801260397e-03 0.000000000000000e+00 0.000000000000000e+00
-1.360466801260880e-03 0.000000000000000e+00 0.000000000000000e+00
-1.360466801261256e-03 0.000000000000000e+00 0.000000000000000e+00
-1.360466801261171e-03 -2.815242706851862e-16 -2.714570451838717e-16
-1.360466801260842e-03 6.854490348985413e-16 2.623434596676117e-16
-1.814801405133442e-03 0.000000000000000e+00 0.000000000000000e+00
-1.814801405132615e-03 0.000000000000000e+00 0.000000000000000e+00
-1.814801405133182e-03 -7.007126249844525e-16 5.990242305466744e-16
-1.814801405132633e-03 -4.776686640559282e-16 4.300741978807861e-16
-1.360466801261256e-03 0.000000000000000e+00 0.000000000000000e+00
-1.360466801260908e-03 0.000000000000000e+00 0.000000000000000e+00
-1.360466801260909e-03 0.000000000000000e+00 0.000000000000000e+00
-1.360466801261171e-03 -2.815242706851862e-16 -2.714570451838717e-16
-1.814801405132615e-03 0.000000000000000e+00 0.000000000000000e+00
-1.814801405133510e-03 0.000000000000000e+00 0.000000000000000e+00
-1.814801405133347e-03 0.000000000000000e+00 0.000000000000000e+00
-1.814801405133182e-03 -7.007126249844525e-16 5.990242305466744e-16
-1.360466801260842e-03 6.854490348985413e-16 2.623434596676117e-16
-1.360466801261171e-03 -2.815242706851862e-16 -2.714570451838717e-16
-1.360466801260968e-03 5.254055226029367e-16 3.936800160988694e-16
-1.360466801260679e-03 6.948480333283856e-16 6.010424104567725e-17
-1.814801405132633e-03 -4.776686640559282e-16 4.300741978807861e-16
-1.814801405133182e-03 -7.007126249844525e-16 5.990242305466744e-16
-1.814801405132994e-03 6.186702960497856e-16 -3.167387258897495e-16
-1.814801405133487e-03 1.095387649074805e-15 -8.863038377945227e-17
-1.360466801261171e-03 -2.815242706851862e-16 -2.714570451838717e-16
-1.360466801260909e-03 0.000000000000000e+00 0.000000000000000e+00
-1.360466801260403e-03 0.000000000000000e+00 0.000000000000000e+00
-1.360466801260968e-03 5.254055226029367e-16 3.936800160988694e-16
-1.814801405133182e-03 -7.007126249844525e-16 5.990242305466744e-16
-1.814801405133347e-03 0.000000000000000e+00 0.000000000000000e+00
-1.814801405133385e-03 0.000000000000000e+00 0.000000000000000e+00
-1.814801405132994e-03 6.186702960497856e-16 -3.167387258897495e-16
-1.360466801260679e-03 6.948480333283856e-16 6.010424104567725e-17
-1.360466801260968e-03 5.254055226029367e-16 3.936800160988694e-16
-1.360466801260296e-03 7.006307056947103e-16 -3.190871538276477e-16
-1.360466801260643e-03 2.596101249826536e-16 -2.805195409235785e-16
-1.814801405133487e-03 1.095387649074805e-15 -8.863038377945227e-17
-1.814801405132994e-03 6.186702960497856e-16 -3.167387258897495e-16
-1.814801405133128e-03 5.206840583114478e-16 -3.406326857326319e-16
-1.814801405132446e-03 3.617934068135430e-16 6.742130962035172e-17
-1.360466801260968e-03 5.254055226029367e-16 3.936800160988694e-16
-1.360466801260403e-03 0.000000000000000e+00 0.000000000000000e+00
-1.360466801260593e-03 0.000000000000000e+00 0.000000000000000e+00
-1.360466801260296e-03 7.006307056947103e-16 -3.190871538276477e-16
-1.814801405132994e-03 6.186702960497856e-16 -3.167387258897495e-16
-1.814801405133385e-03 0.000000000000000e+00 0.000000000000000e+00
-1.814801405131949e-03 0.000000000000000e+00 0.000000000000000e+00
-1.814801405133128e-03 5.206840583114478e-16 -3.406326857326319e-16
-1.360466801260643e-03 2.596101249826536e-16 -2.805195409235785e-16
-1.360466801260296e-03 7.006307056947103e-16 -3.190871538276477e-16
-1.360466801260933e-03 3.184628399860837e-16 4.014787266391478e-16
-1.360466801261091e-03 9.506934586566232e-16 -2.907996883208956e-17
-1.814801405132446e-03 3.617934068135430e-16 6.742130962035172e-17
-1.814801405133128e-03 5.206840583114478e-16 -3.406326857326319e-16
-1.814801405132827e-03 -5.464382964020537e-16 -5.798073484521390e-16
-1.814801405133545e-03 -3.058390193858612e-17 7.820188217914047e-17
-1.360466801260296e-03 7.006307056947103e-16 -3.190871538276477e-16
-1.360466801260593e-03 0.000000000000000e+00 0.000000000000000e+00
-1.360466801260328e-03 0.000000000000000e+00 0.000000000000000e+00
-1.360466801260933e-03 3.184628399860837e-16 4.014787266391478e-16
-1.814801405133128e-03 5.206840583114478e-16 -3.406326857326319e-16
-1.814801405131949e-03 0.000000000000000e+00 0.000000000000000e+00
-1.814801405132322e-03 0.000000000000000e+00 0.000000000000000e+00
-1.814801405132827e-03 -5.464382964020537e-16 -5.798073484521390e-16
-1.360466801261091e-03 9.506934586566232e-16 -2.907996883208956e-17
-1.360466801260933e-03 3.184628399860837e-16 4.014787266391478e-16
-1.360466801260397e-03 0.000000000000000e+00 0.000000000000000e+00
-1.360466801260579e-03 0.000000000000000e+00 0.000000000000000e+00
-1.814801405133545e-03 -3.058390193858612e-17 7.820188217914047e-17
-1.814801405132827e-03 -5.464382964020537e-16 -5.798073484521390e-16
-1.814801405132329e-03 0.000000000000000e+00 0.000000000000000e+00
-1.814801405132797e-03 0.000000000000000e+00 0.000000000000000e+00
-1.360466801260933e-03 3.184628399860837e-16 4.014787266391478e-16
-1.360466801260328e-03 0.000000000000000e+00 0.000000000000000e+00
-1.360466801259643e-03 0.000000000000000e+00 0.000000000000000e+00
-1.360466801260397e-03 0.000000000000000e+00 0.000000000000000e+00
-1.814801405132827e-03 -5.464382964020537e-16 -5.798073484521390e-16
-1.814801405132322e-03 0.000000000000000e+00 0.000000000000000e+00
-1.814801405132109e-03 0.000000000000000e+00 0.000000000000000e+00
-1.814801405132329e-03 0.000000000000000e+00 0.000000000000000e+00
-1.814801405133442e-03 0.000000000000000e+00 0.000000000000000e+00
-1.814801405132615e-03 0.000000000000000e+00 0.000000000000000e+00
-1.814801405133182e-03 -7.007126249844525e-16 5.990242305466744e-16
-1.814801405132633e-03 -4.776686640559282e-16 4.300741978807861e-16
-2.270846922506292e-03 0.000000000000000e+00 0.000000000000000e+00
-2.270846922507483e-03 0.000000000000000e+00 0.000000000000000e+00
-2.270846922507837e-03 7.421301574993264e-17 1.953767498379562e-16
-2.270846922508740e-03 6.111654494030197e-16 -2.937288231963122e-16
-1.814801405132615e-03 0.000000000000000e+00 0.000000000000000e+00
-1.814801405133510e-03 0.000000000000000e+00 0.000000000000000e+00
-1.814801405133347e-03 0.000000000000000e+00 0.000000000000000e+00
-1.814801405133182e-03 -7.007126249844525e-16 5.990242305466744e-16
-2.270846922507483e-03 0.000000000000000e+00 0.000000000000000e+00
-2.270846922509054e-03 0.000000000000000e+00 0.000000000000000e+00
-2.270846922506554e-03 0.000000000000000e+00 0.000000000000000e+00
-2.270846922507837e-03 7.421301574993264e-17 1.953767498379562e-16
-1.814801405132633e-03 -4.776686640559282e-16 4.300741978807861e-16
-1.814801405133182e-03 -7.007126249844525e-16 5.990242305466744e-16
-1.814801405132994e-03 6.186702960497856e-16 -3.167387258897495e-16
-1.814801405133487e-03 1.095387649074805e-15 -8.863038377945227e-17
-2.270846922508740e-03 6.111654494030197e-16 -2.937288231963122e-16
-2.270846922507837e-03 7.421301574993264e-17 1.953767498379562e-16
-2.270846922508070e-03 1.885769839795754e-16 -8.179954824468453e-16
-2.270846922507120e-03 6.568396951295748e-16 -2.582750060439580e-17
-1.814801405133182e-03 -7.007126249844525e-16 5.990242305466744e-16
-1.814801405133347e-03 0.000000000000000e+00 0.000000000000000e+00
-1.814801405133385e-03 0.000000000000000e+00 0.000000000000000e+00
-1.814801405132994e-03 6.186702960497856e-16 -3.167387258897495e-16
-2.270846922507837e-03 7.421301574993264e-17 1.953767498379562e-16
-2.270846922506554e-03 0.000000000000000e+00 0.000000000000000e+00
-2.270846922506301e-03 0.000000000000000e+00 0.000000000000000e+00
-2.270846922508070e-03 1.885769839795754e-16 -8.179954824468453e-16
-1.814801405133487e-03 1.095387649074805e-15 -8.863038377945227e-17
-1.814801405132994e-03 6.186702960497856e-16 -3.167387258897495e-16
-1.814801405133128e-03 5.206840583114478e-16 -3.406326857326319e-16
-1.814801405132446e-03 3.617934068135430e-16 6.742130962035172e-17
-2.270846922507120e-03 6.568396951295748e-16 -2.582750060439580e-17
-2.270846922508070e-03 1.885769839795754e-16 -8.179954824468453e-16
-2.270846922507646e-03 -6.139681272693786e-17 9.622158509714856e-16
-2.270846922507012e-03 -4.700124860015104e-17 -5.615888143113795e-16
-1.814801405132994e-03 6.186702960497856e-16 -3.167387258897495e-16
-1.814801405133385e-03 0.000000000000000e+00 0.000000000000000e+00
-1.814801405131949e-03 0.000000000000000e+00 0.000000000000000e+00
-1.814801405133128e-03 5.206840583114478e-16 -3.406326857326319e-16
-2.270846922508070e-03 1.885769839795754e-16 -8.179954824468453e-16
-2.270846922506301e-03 0.000000000000000e+00 0.000000000000000e+00
-2.270846922508538e-03 0.000000000000000e+00 0.000000000000000e+00
-2.270846922507646e-03 -6.139681272693786e-17 9.622158509714856e-16
-1.814801405132446e-03 3.617934068135430e-16 6.742130962035172e-17
-1.814801405133128e-03 5.206840583114478e-16 -3.406326857326319e-16
-1.814801405132827e-03 -5.464382964020537e-16 -5.798073484521390e-16
-1.814801405133545e-03 -3.058390193858612e-17 7.820188217914047e-17
-2.270846922507012e-03 -4.700124860015104e-17 -5.615888143113795e-16
-2.270846922507646e-03 -6.139681272693786e-17 9.622158509714856e-16
-2.270846922508216e-03 -4.833821801001891e-16 3.683250061833245e-16
-2.270846922508282e-03 6.243706181391896e-16 2.854055328221602e-16
-1.814801405133128e-03 5.206840583114478e-16 -3.406326857326319e-16
-1.814801405131949e-03 0.000000000000000e+00 0.000000000000000e+00
-1.814801405132322e-03 0.000000000000000e+00 0.000000000000000e+00
-1.814801405132827e-03 -5.464382964020537e-16 -5.798073484521390e-16
-2.270846922507646e-03 -6.139681272693786e-17 9.622158509714856e-16
-2.270846922508538e-03 0.000000000000000e+00 0.000000000000000e+00
-2.270846922506202e-03 0.000000000000000e+00 0.000000000000000e+00
-2.270846922508216e-03 -4.833821801001891e-16 3.683250061833245e-16
-1.814801405133545e-03 -3.058390193858612e-17 7.820188217914047e-17
-1.814801405132827e-03 -5.464382964020537e-16 -5.798073484521390e-16
-1.814801405132329e-03 0.000000000000000e+00 0.000000000000000e+00
-1.814801405132797e-03 0.000000000000000e+00 0.000000000000000e+00
-2.270846922508282e-03 6.243706181391896e-16 2.854055328221602e-16
-2.270846922508216e-03 -4.833821801001891e-16 3.683250061833245e-16
-2.270846922507333e-03 0.000000000000000e+00 0.000000000000000e+00
-2.270846922507125e-03 0.000000000000000e+00 0.000000000000000e+00
-1.814801405132827e-03 -5.464382964020537e-16 -5.798073484521390e-16
-1.814801405132322e-03 0.000000000000000e+00 0.000000000000000e+00
-1.814801405132109e-03 0.000000000000000e+00 0.000000000000000e+00
-1.814801405132329e-03 0.000000000000000e+00 0.000000000000000e+00
-2.270846922508216e-03 -4.833821801001891e-16 3.683250061833245e-16
-2.270846922506202e-03 0.000000000000000e+00 0.000000000000000e+00
-2.270846922505802e-03 0.000000000000000e+00 0.000000000000000e+00
-2.270846922507333e-03 0.000000000000000e+00 0.000000000000000e+00
        </DataArray>
        <DataArray type="Float64" Name="nodal_GL_strains_xyz" NumberOfComponents="6" format="ascii">
-2.268874572022499e-04 4.373815268076591e-16 -1.110223024625156e-16 3.714222365453490e-16 -7.542709879170907e-18 2.849589893044035e-18
-2.268874572030250e-04 1.110223024625155e-16 1.997333527100251e-16 1.567933224263325e-18 -2.748065488703158e-16 1.361760763851350e-16
-2.268874572021033e-04 4.350221856724875e-18 2.718444534494089e-16 -4.983679457562830e-17 8.953424168900136e-17 -1.469023043680718e-16
-2.268874572023697e-04 -7.855180447552936e-17 -1.759632984364885e-17 -2.074417051978749e-16 -3.064135571670398e-17 -3.637078092784897e-17
-2.267429635918446e-04 1.475760429999691e-16 1.235390094201744e-16 1.634611174307126e-17 -4.204048808859505e-17 1.666532695213705e-16
-2.267429635910921e-04 -5.284500382408472e-16 -1.025888380553239e-16 1.537164319847919e-16 -1.648780699511790e-17 1.801162908379168e-16
-2.267429635913004e-04 2.640915294672948e-16 7.868529412865816e-17 7.974517185194194e-17 -7.185344330008543e-18 2.105267959234281e-16
-2.267429635916631e-04 2.979719689086242e-17 -3.537500994461400e-17 -6.446766625548610e-17 4.386415116543293e-17 -6.032300678094627e-17
-2.268874572030250e-04 1.110223024625155e-16 1.997333527100251e-16 1.567933224263325e-18 -2.748065488703158e-16 1.361760763851350e-16
-2.268874572023891e-04 -1.153777611830138e-15 5.699856804559157e-16 3.990429575995765e-16 -9.834767554963445e-17 -3.514461559276047e-16
-2.268874572015701e-04 3.419627935177463e-16 -2.978742477002493e-16 -2.603380326593583e-16 -2.844523355357256e-16 2.549423799011044e-16
-2.268874572021033e-04 4.350221856724875e-18 2.718444534494089e-16 -4.983679457562830e-17 8.953424168900136e-17 -1.469023043680718e-16
-2.267429635910921e-04 -5.284500382408472e-16 -1.025888380553239e-16 1.537164319847919e-16 -1.648780699511790e-17 1.801162908379168e-16
-2.267429635919426e-04 1.253911267491408e-15 -2.877150019282692e-16 6.135917685831942e-16 5.078580213109128e-16 -1.678779125940879e-16
-2.267429635917995e-04 8.433464407191935e-18 8.834634973287672e-17 -7.517463482748529e-17 1.979491696219928e-16 -2.966569149850966e-18
-2.267429635913004e-04 2.640915294672948e-16 7.868529412865816e-17 7.974517185194194e-17 -7.185344330008543e-18 2.105267959234281e-16
-2.268874572023697e-04 -7.855180447552936e-17 -1.759632984364885e-17 -2.074417051978749e-16 -3.064135571670398e-17 -3.637078092784897e-17
-2.268874572021033e-04 4.350221856724875e-18 2.718444534494089e-16 -4.983679457562830e-17 8.953424168900136e-17 -1.469023043680718e-16
-2.268874572021145e-04 1.323371743419988e-16 3.247049798698623e-17 -9.075649963041694e-17 -5.679632589156394e-17 9.556714396891880e-17
-2.268874572023663e-04 -1.401389589283003e-16 2.366517937621111e-16 8.663078631658464e-17 2.539964132383108e-17 1.547370549533663e-16
-2.267429635916631e-04 2.979719689086242e-17 -3.537500994461400e-17 -6.446766625548610e-17 4.386415116543293e-17 -6.032300678094627e-17
-2.267429635913004e-04 2.640915294672948e-16 7.868529412865816e-17 7.974517185194194e-17 -7.185344330008543e-18 2.105267959234281e-16
-2.267429635916661e-04 -1.809452001141030e-17 -1.892094064234123e-16 -7.747754586879059e-17 1.036336551779465e-16 2.246572928270558e-16
-2.267429635908419e-04 -3.419627935177464e-17 -2.252649567931041e-16 2.079784803802401e-16 -1.930943211438380e-17 1.082466699911770e-16
-2.268874572021033e-04 4.350221856724875e-18 2.718444534494089e-16 -4.983679457562830e-17 8.953424168900136e-17 -1.469023043680718e-16
-2.268874572015701e-04 3.419627935177463e-16 -2.978742477002493e-16 -2.603380326593583e-16 -2.844523355357256e-16 2.549423799011044e-16
-2.268874572024801e-04 -1.144152324670673e-15 -2.661331507425284e-16 7.617504027045462e-17 -1.239659837057773e-16 -1.522656060327093e-17
-2.268874572021145e-04 1.323371743419988e-16 3.247049798698623e-17 -9.075649963041694e-17 -5.679632589156394e-17 9.556714396891880e-17
-2.267429635913004e-04 2.640915294672948e-16 7.868529412865816e-17 7.974517185194194e-17 -7.185344330008543e-18 2.105267959234281e-16
-2.267429635917995e-04 8.433464407191935e-18 8.834634973287672e-17 -7.517463482748529e-17 1.979491696219928e-16 -2.966569149850966e-18
-2.267429635907393e-04 1.120186827980386e-16 1.553778275862704e-16 4.823610942847424e-17 8.482073658547647e-17 9.334550140934851e-17
-2.267429635916661e-04 -1.809452001141030e-17 -1.892094064234123e-16 -7.747754586879059e-17 1.036336551779465e-16 2.246572928270558e-16
-2.268874572023663e-04 -1.401389589283003e-16 2.366517937621111e-16 8.663078631658464e-17 2.539964132383108e-17 1.547370549533663e-16
-2.268874572021145e-04 1.323371743419988e-16 3.247049798698623e-17 -9.075649963041694e-17 -5.679632589156394e-17 9.556714396891880e-17
-2.268874572019303e-04 1.225426290846514e-16 -1.493018243647572e-16 3.272744122200738e-17 -2.175089790232281e-17 3.670380190162562e-16
-2.268874572022120e-04 -2.044482750813824e-16 -2.224093054396640e-16 -2.035775781441676e-17 1.150587594329175e-17 5.015605311621255e-17
-2.267429635908419e-04 -3.419627935177464e-17 -2.252649567931041e-16 2.079784803802401e-16 -1.930943211438380e-17 1.082466699911770e-16
-2.267429635916661e-04 -1.809452001141030e-17 -1.892094064234123e-16 -7.747754586879059e-17 1.036336551779465e-16 2.246572928270558e-16
-2.267429635913866e-04 1.796103035828152e-17 -2.175110928362413e-18 1.842173645057855e-17 -1.531119907851508e-16 3.867056185169799e-17
-2.267429635915496e-04 5.922969326709217e-17 -3.417315826562425e-16 -1.005421195025126e-16 -9.987084790667281e-17 1.272661654868049e-16
-2.268874572021145e-04 1.323371743419988e-16 3.247049798698623e-17 -9.075649963041694e-17 -5.679632589156394e-17 9.556714396891880e-17
-2.268874572024801e-04 -1.144152324670673e-15 -2.661331507425284e-16 7.617504027045462e-17 -1.239659837057773e-16 -1.522656060327093e-17
-2.268874572023955e-04 -2.302110900259654e-16 9.736333496348081e-16 -8.102389600992125e-17 -3.985752343873192e-17 -3.419478358651601e-16
-2.268874572019303e-04 1.225426290846514e-16 -1.493018243647572e-16 3.272744122200738e-17 -2.175089790232281e-17 3.670380190162562e-16
-2.267429635916661e-04 -1.809452001141030e-17 -1.892094064234123e-16 -7.747754586879059e-17 1.036336551779465e-16 2.246572928270558e-16
-2.267429635907393e-04 1.120186827980386e-16 1.553778275862704e-16 4.823610942847424e-17 8.482073658547647e-17 9.334550140934851e-17
-2.267429635913929e-04 -7.310748107490673e-17 -9.070381091855536e-17 1.103941393254872e-16 -5.757943833638219e-17 -7.612063121808037e-16
-2.267429635913866e-04 1.796103035828152e-17 -2.175110928362413e-18 1.842173645057855e-17 -1.531119907851508e-16 3.867056185169799e-17
-2.268874572022120e-04 -2.044482750813824e-16 -2.224093054396640e-16 -2.035775781441676e-17 1.150587594329175e-17 5.015605311621255e-17
-2.268874572019303e-04 1.225426290846514e-16 -1.493018243647572e-16 3.272744122200738e-17 -2.175089790232281e-17 3.670380190162562e-16
-2.268874572012874e-04 2.196871437393526e-16 -3.774224325113016e-16 1.028026533556197e-16 1.285268581696384e-16 -2.194522894503378e-16
-2.268874572020769e-04 2.603241268272730e-16 -1.882130260878893e-16 2.415132846909796e-16 -3.104147429453085e-18 -3.041093682027667e-16
-2.267429635915496e-04 5.922969326709217e-17 -3.417315826562425e-16 -1.005421195025126e-16 -9.987084790667281e-17 1.272661654868049e-16
-2.267429635913866e-04 1.796103035828152e-17 -2.175110928362413e-18 1.842173645057855e-17 -1.531119907851508e-16 3.867056185169799e-17
-2.267429635917584e-04 -2.267595272963886e-17 -4.656352925910496e-16 1.661587546010982e-16 -1.672928591575197e-16 1.402263083682892e-16
-2.267429635913715e-04 5.805096267425278e-17 4.119834123777090e-16 -2.476858385612436e-16 -6.205075950440883e-17 -1.729092852036435e-16
-2.268874572019303e-04 1.225426290846514e-16 -1.493018243647572e-16 3.272744122200738e-17 -2.175089790232281e-17 3.670380190162562e-16
-2.268874572023955e-04 -2.302110900259654e-16 9.736333496348081e-16 -8.102389600992125e-17 -3.985752343873192e-17 -3.419478358651601e-16
-2.268874572033033e-04 7.855180447552929e-17 -3.330669073875470e-16 2.107985279389847e-16 -1.603573332324135e-16 -3.651976038299213e-16
-2.268874572012874e-04 2.196871437393526e-16 -3.774224325113016e-16 1.028026533556197e-16 1.285268581696384e-16 -2.194522894503378e-16
-2.267429635913866e-04 1.796103035828152e-17 -2.175110928362413e-18 1.842173645057855e-17 -1.531119907851508e-16 3.867056185169799e-17
-2.267429635913929e-04 -7.310748107490673e-17 -9.070381091855536e-17 1.103941393254872e-16 -5.757943833638219e-17 -7.612063121808037e-16
-2.267429635909648e-04 -1.178277067132939e-16 -5.859801344620197e-17 8.268567928246993e-18 2.095401131184193e-16 2.704776132384037e-16
-2.267429635917584e-04 -2.267595272963886e-17 -4.656352925910496e-16 1.661587546010982e-16 -1.672928591575197e-16 1.402263083682892e-16
-2.268874572020769e-04 2.603241268272730e-16 -1.882130260878893e-16 2.415132846909796e-16 -3.104147429453085e-18 -3.041093682027667e-16
-2.268874572012874e-04 2.196871437393526e-16 -3.774224325113016e-16 1.028026533556197e-16 1.285268581696384e-16 -2.194522894503378e-16
-2.268874572022072e-04 2.857222412572231e-16 -1.746999387947077e-16 7.763594361255752e-18 -1.205154584882617e-16 2.017070204487749e-16
-2.268874572018159e-04 3.724405308336866e-16 -4.475407725796394e-16 -3.675657378053526e-16 5.917129154384832e-17 -1.290850834086794e-16
-2.267429635913715e-04 5.805096267425278e-17 4.119834123777090e-16 -2.476858385612436e-16 -6.205075950440883e-17 -1.729092852036435e-16
-2.267429635917584e-04 -2.267595272963886e-17 -4.656352925910496e-16 1.661587546010982e-16 -1.672928591575197e-16 1.402263083682892e-16
-2.267429635905984e-04 -2.061740564461708e-16 5.415007038110213e-17 -5.346305602144644e-17 4.505091654539552e-16 -5.445343006959881e-17
-2.267429635913293e-04 -3.943870825340601e-16 2.875195595115194e-17 3.395744368023114e-16 2.145384308729527e-16 -1.173023568482811e-16
-2.268874572012874e-04 2.196871437393526e-16 -3.774224325113016e-16 1.028026533556197e-16 1.285268581696384e-16 -2.194522894503378e-16
-2.268874572033033e-04 7.855180447552929e-17 -3.330669073875470e-16 2.107985279389847e-16 -1.603573332324135e-16 -3.651976038299213e-16
-2.268874572015728e-04 -9.897708774199258e-16 -2.166002815244085e-16 -5.404874430065664e-16 -1.301197488891659e-16 3.450669159168528e-16
-2.268874572022072e-04 2.857222412572231e-16 -1.746999387947077e-16 7.763594361255752e-18 -1.205154584882617e-16 2.017070204487749e-16
-2.267429635917584e-04 -2.267595272963886e-17 -4.656352925910496e-16 1.661587546010982e-16 -1.672928591575197e-16 1.402263083682892e-16
-2.267429635909648e-04 -1.178277067132939e-16 -5.859801344620197e-17 8.268567928246993e-18 2.095401131184193e-16 2.704776132384037e-16
-2.267429635907960e-04 4.535190545927759e-17 4.522556949509966e-16 -3.322391089604834e-16 3.463666680416022e-17 2.556817371020271e-16
-2.267429635905984e-04 -2.061740564461708e-16 5.415007038110213e-17 -5.346305602144644e-17 4.505091654539552e-16 -5.445343006959881e-17
-2.267429635918446e-04 1.475760429999691e-16 1.235390094201744e-16 1.634611174307126e-17 -4.204048808859505e-17 1.666532695213705e-16
-2.267429635910921e-04 -5.284500382408472e-16 -1.025888380553239e-16 1.537164319847919e-16 -1.648780699511790e-17 1.801162908379168e-16
-2.267429635913004e-04 2.640915294672948e-16 7.868529412865816e-17 7.974517185194194e-17 -7.185344330008543e-18 2.105267959234281e-16
-2.267429635916631e-04 2.979719689086242e-17 -3.537500994461400e-17 -6.446766625548610e-17 4.386415116543293e-17 -6.032300678094627e-17
-2.266344119126875e-04 2.579666656415943e-16 2.095017136485050e-17 3.951085519959388e-16 8.237515405890125e-17 -1.670982048425268e-16
-2.266344119123345e-04 -1.266258716351185e-16 -7.682602311074103e-17 -1.038438231328480e-16 7.277708085956919e-17 -5.695949412176145e-17
-2.266344119129374e-04 -6.449166641039851e-17 5.823331293156922e-17 -1.344308227663786e-16 -1.315343533859596e-18 -1.695724988815191e-16
-2.266344119129011e-04 -1.218620886595735e-16 -1.546972871611925e-16 1.865870538587711e-16 1.184224473389360e-18 5.426313095175515e-17
-2.267429635910921e-04 -5.284500382408472e-16 -1.025888380553239e-16 1.537164319847919e-16 -1.648780699511790e-17 1.801162908379168e-16
-2.267429635919426e-04 1.253911267491408e-15 -2.877150019282692e-16 6.135917685831942e-16 5.078580213109128e-16 -1.678779125940879e-16
-2.267429635917995e-04 8.433464407191935e-18 8.834634973287672e-17 -7.517463482748529e-17 1.979491696219928e-16 -2.966569149850966e-18
-2.267429635913004e-04 2.640915294672948e-16 7.868529412865816e-17 7.974517185194194e-17 -7.185344330008543e-18 2.105267959234281e-16
-2.266344119123345e-04 -1.266258716351185e-16 -7.682602311074103e-17 -1.038438231328480e-16 7.277708085956919e-17 -5.695949412176145e-17
-2.266344119126110e-04 2.341966113680574e-16 -4.319372034070364e-16 1.137482155781514e-16 -1.586527091298607e-16 7.443248612708458e-17
-2.266344119129387e-04 -1.973758915243464e-16 3.981056245698945e-16 -1.560563389287045e-16 5.697175031339225e-17 -1.799722903321490e-16
-2.266344119129374e-04 -6.449166641039851e-17 5.823331293156922e-17 -1.344308227663786e-16 -1.315343533859596e-18 -1.695724988815191e-16
-2.267429635916631e-04 2.979719689086242e-17 -3.537500994461400e-17 -6.446766625548610e-17 4.386415116543293e-17 -6.032300678094627e-17
-2.267429635913004e-04 2.640915294672948e-16 7.868529412865816e-17 7.974517185194194e-17 -7.185344330008543e-18 2.105267959234281e-16
-2.267429635916661e-04 -1.809452001141030e-17 -1.892094064234123e-16 -7.747754586879059e-17 1.036336551779465e-16 2.246572928270558e-16
-2.267429635908419e-04 -3.419627935177464e-17 -2.252649567931041e-16 2.079784803802401e-16 -1.930943211438380e-17 1.082466699911770e-16
-2.266344119129011e-04 -1.218620886595735e-16 -1.546972871611925e-16 1.865870538587711e-16 1.184224473389360e-18 5.426313095175515e-17
-2.266344119129374e-04 -6.449166641039851e-17 5.823331293156922e-17 -1.344308227663786e-16 -1.315343533859596e-18 -1.695724988815191e-16
-2.266344119130105e-04 -1.623524899349316e-17 1.734723475976807e-16 9.691457137341708e-17 1.872571045048117e-17 1.913231309819798e-16
-2.266344119130300e-04 -2.351083626546391e-16 2.675919528010596e-17 1.204920216919498e-16 -1.073303714435480e-16 9.158958386728290e-17
-2.267429635913004e-04 2.640915294672948e-16 7.868529412865816e-17 7.974517185194194e-17 -7.185344330008543e-18 2.105267959234281e-16
-2.267429635917995e-04 8.433464407191935e-18 8.834634973287672e-17 -7.517463482748529e-17 1.979491696219928e-16 -2.966569149850966e-18
-2.267429635907393e-04 1.120186827980386e-16 1.553778275862704e-16 4.823610942847424e-17 8.482073658547647e-17 9.334550140934851e-17
-2.267429635916661e-04 -1.809452001141030e-17 -1.892094064234123e-16 -7.747754586879059e-17 1.036336551779465e-16 2.246572928270558e-16
-2.266344119129374e-04 -6.449166641039851e-17 5.823331293156922e-17 -1.344308227663786e-16 -1.315343533859596e-18 -1.695724988815191e-16
-2.266344119129387e-04 -1.973758915243464e-16 3.981056245698945e-16 -1.560563389287045e-16 5.697175031339225e-17 -1.799722903321490e-16
-2.266344119126767e-04 1.624502111433064e-16 -1.970111910097137e-16 -6.845331420160722e-17 2.011695214900657e-16 -2.153902246292611e-16
-2.266344119130105e-04 -1.623524899349316e-17 1.734723475976807e-16 9.691457137341708e-17 1.872571045048117e-17 1.913231309819798e-16
-2.267429635908419e-04 -3.419627935177464e-17 -2.252649567931041e-16 2.079784803802401e-16 -1.930943211438380e-17 1.082466699911770e-16
-2.267429635916661e-04 -1.809452001141030e-17 -1.892094064234123e-16 -7.747754586879059e-17 1.036336551779465e-16 2.246572928270558e-16
-2.267429635913866e-04 1.796103035828152e-17 -2.175110928362413e-18 1.842173645057855e-17 -1.531119907851508e-16 3.867056185169799e-17
-2.267429635915496e-04 5.922969326709217e-17 -3.417315826562425e-16 -1.005421195025126e-16 -9.987084790667281e-17 1.272661654868049e-16
-2.266344119130300e-04 -2.351083626546391e-16 2.675919528010596e-17 1.204920216919498e-16 -1.073303714435480e-16 9.158958386728290e-17
-2.266344119130105e-04 -1.623524899349316e-17 1.734723475976807e-16 9.691457137341708e-17 1.872571045048117e-17 1.913231309819798e-16
-2.266344119125995e-04 -7.328983133222301e-17 -1.066232200016034e-16 1.168413398648710e-16 5.878120740229589e-17 -9.141058564548793e-17
-2.266344119128339e-04 -1.667158039510898e-16 5.433242063841845e-17 -6.275574487503393e-17 -1.748938210079676e-16 -2.566026143754260e-17
-2.267429635916661e-04 -1.809452001141030e-17 -1.892094064234123e-16 -7.747754586879059e-17 1.036336551779465e-16 2.246572928270558e-16
-2.267429635907393e-04 1.120186827980386e-16 1.553778275862704e-16 4.823610942847424e-17 8.482073658547647e-17 9.334550140934851e-17
-2.267429635913929e-04 -7.310748107490673e-17 -9.070381091855536e-17 1.103941393254872e-16 -5.757943833638219e-17 -7.612063121808037e-16
-2.267429635913866e-04 1.796103035828152e-17 -2.175110928362413e-18 1.842173645057855e-17 -1.531119907851508e-16 3.867056185169799e-17
-2.266344119130105e-04 -1.623524899349316e-17 1.734723475976807e-16 9.691457137341708e-17 1.872571045048117e-17 1.913231309819798e-16
-2.266344119126767e-04 1.624502111433064e-16 -1.970111910097137e-16 -6.845331420160722e-17 2.011695214900657e-16 -2.153902246292611e-16
-2.266344119126820e-04 -3.183881816609593e-17 -3.625482643679642e-16 -1.262483567459627e-17 1.798796789205442e-16 2.556932359818784e-16
-2.266344119125995e-04 -7.328983133222301e-17 -1.066232200016034e-16 1.168413398648710e-16 5.878120740229589e-17 -9.141058564548793e-17
-2.267429635915496e-04 5.922969326709217e-17 -3.417315826562425e-16 -1.005421195025126e-16 -9.987084790667281e-17 1.272661654868049e-16
-2.267429635913866e-04 1.796103035828152e-17 -2.175110928362413e-18 1.842173645057855e-17 -1.531119907851508e-16 3.867056185169799e-17
-2.267429635917584e-04 -2.267595272963886e-17 -4.656352925910496e-16 1.661587546010982e-16 -1.672928591575197e-16 1.402263083682892e-16
-2.267429635913715e-04 5.805096267425278e-17 4.119834123777090e-16 -2.476858385612436e-16 -6.205075950440883e-17 -1.729092852036435e-16
-2.266344119128339e-04 -1.667158039510898e-16 5.433242063841845e-17 -6.275574487503393e-17 -1.748938210079676e-16 -2.566026143754260e-17
-2.266344119125995e-04 -7.328983133222301e-17 -1.066232200016034e-16 1.168413398648710e-16 5.878120740229589e-17 -9.141058564548793e-17
-2.266344119128377e-04 -6.802785818891655e-17 -4.825641741690548e-17 5.651645852954730e-17 1.478497729509346e-16 1.310682186428359e-16
-2.266344119128875e-04 -1.482565834250467e-16 -9.782505507977904e-17 -3.394492314198397e-17 -3.602392410238681e-18 1.316617310252972e-16
-2.267429635913866e-04 1.796103035828152e-17 -2.175110928362413e-18 1.842173645057855e-17 -1.531119907851508e-16 3.867056185169799e-17
-2.267429635913929e-04 -7.310748107490673e-17 -9.070381091855536e-17 1.103941393254872e-16 -5.757943833638219e-17 -7.612063121808037e-16
-2.267429635909648e-04 -1.178277067132939e-16 -5.859801344620197e-17 8.268567928246993e-18 2.095401131184193e-16 2.704776132384037e-16
-2.267429635917584e-04 -2.267595272963886e-17 -4.656352925910496e-16 1.661587546010982e-16 -1.672928591575197e-16 1.402263083682892e-16
-2.266344119125995e-04 -7.328983133222301e-17 -1.066232200016034e-16 1.168413398648710e-16 5.878120740229589e-17 -9.141058564548793e-17
-2.266344119126820e-04 -3.183881816609593e-17 -3.625482643679642e-16 -1.262483567459627e-17 1.798796789205442e-16 2.556932359818784e-16
-2.266344119130068e-04 -1.083001407622044e-16 -1.895741069380450e-16 1.547939021053729e-16 7.499357842639054e-18 -8.928473897578531e-17
-2.266344119128377e-04 -6.802785818891655e-17 -4.825641741690548e-17 5.651645852954730e-17 1.478497729509346e-16 1.310682186428359e-16
-2.267429635913715e-04 5.805096267425278e-17 4.119834123777090e-16 -2.476858385612436e-16 -6.205075950440883e-17 -1.729092852036435e-16
-2.267429635917584e-04 -2.267595272963886e-17 -4.656352925910496e-16 1.661587546010982e-16 -1.672928591575197e-16 1.402263083682892e-16
-2.267429635905984e-04 -2.061740564461708e-16 5.415007038110213e-17 -5.346305602144644e-17 4.505091654539552e-16 -5.445343006959881e-17
-2.267429635913293e-04 -3.943870825340601e-16 2.875195595115194e-17 3.395744368023114e-16 2.145384308729527e-16 -1.173023568482811e-16
-2.266344119128875e-04 -1.482565834250467e-16 -9.782505507977904e-17 -3.394492314198397e-17 -3.602392410238681e-18 1.316617310252972e-16
-2.266344119128377e-04 -6.802785818891655e-17 -4.825641741690548e-17 5.651645852954730e-17 1.478497729509346e-16 1.310682186428359e-16
-2.266344119129800e-04 3.791482138760900e-16 -1.184593865341844e-16 6.820422016789500e-17 -4.387636631647982e-17 1.486609189914504e-17
-2.266344119129410e-04 2.302110900259653e-16 -2.131487187948314e-17 3.969231833477942e-16 -1.759215829198857e-17 -1.490357714717380e-16
-2.267429635917584e-04 -2.267595272963886e-17 -4.656352925910496e-16 1.661587546010982e-16 -1.672928591575197e-16 1.402263083682892e-16
-2.267429635909648e-04 -1.178277067132939e-16 -5.859801344620197e-17 8.268567928246993e-18 2.095401131184193e-16 2.704776132384037e-16
-2.267429635907960e-04 4.535190545927759e-17 4.522556949509966e-16 -3.322391089604834e-16 3.463666680416022e-17 2.556817371020271e-16
-2.267429635905984e-04 -2.061740564461708e-16 5.415007038110213e-17 -5.346305602144644e-17 4.505091654539552e-16 -5.445343006959881e-17
-2.266344119128377e-04 -6.802785818891655e-17 -4.825641741690548e-17 5.651645852954730e-17 1.478497729509346e-16 1.310682186428359e-16
-2.266344119130068e-04 -1.083001407622044e-16 -1.895741069380450e-16 1.547939021053729e-16 7.499357842639054e-18 -8.928473897578531e-17
-2.266344119124790e-04 -4.772891088663140e-16 -2.220446049250312e-16 -9.162904894022718e-17 -3.986526753418430e-17 2.720537635482206e-16
-2.266344119129800e-04 3.791482138760900e-16 -1.184593865341844e-16 6.820422016789500e-17 -4.387636631647982e-17 1.486609189914504e-17
-2.266344119126875e-04 2.579666656415943e-16 2.095017136485050e-17 3.951085519959388e-16 8.237515405890125e-17 -1.670982048425268e-16
-2.266344119123345e-04 -1.266258716351185e-16 -7.682602311074103e-17 -1.038438231328480e-16 7.277708085956919e-17 -5.695949412176145e-17
-2.266344119129374e-04 -6.449166641039851e-17 5.823331293156922e-17 -1.344308227663786e-16 -1.315343533859596e-18 -1.695724988815191e-16
-2.266344119129011e-04 -1.218620886595735e-16 -1.546972871611925e-16 1.865870538587711e-16 1.184224473389360e-18 5.426313095175515e-17
-2.269059266446467e-04 3.240017631594651e-16 -8.326672684688672e-17 9.631292145885607e-17 -2.946303425384690e-17 8.948824039908277e-17
-2.269059266448315e-04 1.025888380553239e-16 2.284853086611771e-16 4.680505629644665e-16 -9.139280407300218e-17 5.952754418898771e-17
-2.269059266446535e-04 3.333338866938051e-17 -2.317414289740037e-17 -1.151286649047152e-16 1.350179200296414e-16 1.033846345443745e-16
-2.269059266444108e-04 3.090787344119398e-16 8.598888854719811e-17 -1.466214356482415e-16 4.595618537754786e-17 1.159905076260870e-16
-2.266344119123345e-04 -1.266258716351185e-16 -7.682602311074103e-17 -1.038438231328480e-16 7.277708085956919e-17 -5.695949412176145e-17
-2.266344119126110e-04 2.341966113680574e-16 -4.319372034070364e-16 1.137482155781514e-16 -1.586527091298607e-16 7.443248612708458e-17
-2.266344119129387e-04 -1.973758915243464e-16 3.981056245698945e-16 -1.560563389287045e-16 5.697175031339225e-17 -1.799722903321490e-16
-2.266344119129374e-04 -6.449166641039851e-17 5.823331293156922e-17 -1.344308227663786e-16 -1.315343533859596e-18 -1.695724988815191e-16
-2.269059266448315e-04 1.025888380553239e-16 2.284853086611771e-16 4.680505629644665e-16 -9.139280407300218e-17 5.952754418898771e-17
-2.269059266446419e-04 1.841297835374224e-16 2.924299242996265e-16 8.841044682213994e-17 2.571949500878583e-16 -2.058826645322121e-16
-2.269059266448376e-04 -3.083981939868621e-16 -3.256298233158782e-16 1.074657543279838e-17 -1.485651177442327e-16 -1.370636312452441e-16
-2.269059266446535e-04 3.333338866938051e-17 -2.317414289740037e-17 -1.151286649047152e-16 1.350179200296414e-16 1.033846345443745e-16
-2.266344119129011e-04 -1.218620886595735e-16 -1.546972871611925e-16 1.865870538587711e-16 1.184224473389360e-18 5.426313095175515e-17
-2.266344119129374e-04 -6.449166641039851e-17 5.823331293156922e-17 -1.344308227663786e-16 -1.315343533859596e-18 -1.695724988815191e-16
-2.266344119130105e-04 -1.623524899349316e-17 1.734723475976807e-16 9.691457137341708e-17 1.872571045048117e-17 1.913231309819798e-16
-2.266344119130300e-04 -2.351083626546391e-16 2.675919528010596e-17 1.204920216919498e-16 -1.073303714435480e-16 9.158958386728290e-17
-2.269059266444108e-04 3.090787344119398e-16 8.598888854719811e-17 -1.466214356482415e-16 4.595618537754786e-17 1.159905076260870e-16
-2.269059266446535e-04 3.333338866938051e-17 -2.317414289740037e-17 -1.151286649047152e-16 1.350179200296414e-16 1.033846345443745e-16
-2.269059266445636e-04 2.247667666253427e-16 -6.703147785339359e-17 8.648206510475892e-17 7.594620153079600e-17 5.463963274943712e-17
-2.269059266450333e-04 -2.027713543207816e-16 -2.330667413794056e-16 -3.252502934939600e-18 -2.171039508856143e-17 -1.295219481198761e-16
-2.266344119129374e-04 -6.449166641039851e-17 5.823331293156922e-17 -1.344308227663786e-16 -1.315343533859596e-18 -1.695724988815191e-16
-2.266344119129387e-04 -1.973758915243464e-16 3.981056245698945e-16 -1.560563389287045e-16 5.697175031339225e-17 -1.799722903321490e-16
-2.266344119126767e-04 1.624502111433064e-16 -1.970111910097137e-16 -6.845331420160722e-17 2.011695214900657e-16 -2.153902246292611e-16
-2.266344119130105e-04 -1.623524899349316e-17 1.734723475976807e-16 9.691457137341708e-17 1.872571045048117e-17 1.913231309819798e-16
-2.269059266446535e-04 3.333338866938051e-17 -2.317414289740037e-17 -1.151286649047152e-16 1.350179200296414e-16 1.033846345443745e-16
-2.269059266448376e-04 -3.083981939868621e-16 -3.256298233158782e-16 1.074657543279838e-17 -1.485651177442327e-16 -1.370636312452441e-16
-2.269059266446924e-04 7.954818481105232e-17 2.136111405178395e-16 -1.044730494862923e-17 1.960668053179773e-16 -3.785499078077511e-16
-2.269059266445636e-04 2.247667666253427e-16 -6.703147785339359e-17 8.648206510475892e-17 7.594620153079600e-17 5.463963274943712e-17
-2.266344119130300e-04 -2.351083626546391e-16 2.675919528010596e-17 1.204920216919498e-16 -1.073303714435480e-16 9.158958386728290e-17
-2.266344119130105e-04 -1.623524899349316e-17 1.734723475976807e-16 9.691457137341708e-17 1.872571045048117e-17 1.913231309819798e-16
-2.266344119125995e-04 -7.328983133222301e-17 -1.066232200016034e-16 1.168413398648710e-16 5.878120740229589e-17 -9.141058564548793e-17
-2.266344119128339e-04 -1.667158039510898e-16 5.433242063841845e-17 -6.275574487503393e-17 -1.748938210079676e-16 -2.566026143754260e-17
-2.269059266450333e-04 -2.027713543207816e-16 -2.330667413794056e-16 -3.252502934939600e-18 -2.171039508856143e-17 -1.295219481198761e-16
-2.269059266445636e-04 2.247667666253427e-16 -6.703147785339359e-17 8.648206510475892e-17 7.594620153079600e-17 5.463963274943712e-17
-2.269059266448147e-04 2.217776256187732e-17 -2.539811442995089e-18 2.159846256245125e-17 3.715643874881844e-17 6.852432020954520e-18
-2.269059266444341e-04 8.227034651136368e-17 7.075001988922798e-17 9.599294427073881e-18 1.282187329804349e-17 -1.241933320499897e-16
-2.266344119130105e-04 -1.623524899349316e-17 1.734723475976807e-16 9.691457137341708e-17 1.872571045048117e-17 1.913231309819798e-16
-2.266344119126767e-04 1.624502111433064e-16 -1.970111910097137e-16 -6.845331420160722e-17 2.011695214900657e-16 -2.153902246292611e-16
-2.266344119126820e-04 -3.183881816609593e-17 -3.625482643679642e-16 -1.262483567459627e-17 1.798796789205442e-16 2.556932359818784e-16
-2.266344119125995e-04 -7.328983133222301e-17 -1.066232200016034e-16 1.168413398648710e-16 5.878120740229589e-17 -9.141058564548793e-17
-2.269059266445636e-04 2.247667666253427e-16 -6.703147785339359e-17 8.648206510475892e-17 7.594620153079600e-17 5.463963274943712e-17
-2.269059266446924e-04 7.954818481105232e-17 2.136111405178395e-16 -1.044730494862923e-17 1.960668053179773e-16 -3.785499078077511e-16
-2.269059266443664e-04 -2.974833628667485e-17 -1.540167467361147e-16 -2.558493512088297e-18 1.650444720099818e-16 1.130795668946804e-18
-2.269059266448147e-04 2.217776256187732e-17 -2.539811442995089e-18 2.159846256245125e-17 3.715643874881844e-17 6.852432020954520e-18
-2.266344119128339e-04 -1.667158039510898e-16 5.433242063841845e-17 -6.275574487503393e-17 -1.748938210079676e-16 -2.566026143754260e-17
-2.266344119125995e-04 -7.328983133222301e-17 -1.066232200016034e-16 1.168413398648710e-16 5.878120740229589e-17 -9.141058564548793e-17
-2.266344119128377e-04 -6.802785818891655e-17 -4.825641741690548e-17 5.651645852954730e-17 1.478497729509346e-16 1.310682186428359e-16
-2.266344119128875e-04 -1.482565834250467e-16 -9.782505507977904e-17 -3.394492314198397e-17 -3.602392410238681e-18 1.316617310252972e-16
-2.269059266444341e-04 8.227034651136368e-17 7.075001988922798e-17 9.599294427073881e-18 1.282187329804349e-17 -1.241933320499897e-16
-2.269059266448147e-04 2.217776256187732e-17 -2.539811442995089e-18 2.159846256245125e-17 3.715643874881844e-17 6.852432020954520e-18
-2.269059266447028e-04 -1.646741826758562e-16 -1.357398764673880e-16 -1.619243414981524e-16 1.734834449848290e-16 -8.526579399956825e-17
-2.269059266445255e-04 -1.387778780781446e-17 -3.872658383728366e-16 -7.387308882266196e-17 1.144716002900839e-17 -6.551270571058975e-17
-2.266344119125995e-04 -7.328983133222301e-17 -1.066232200016034e-16 1.168413398648710e-16 5.878120740229589e-17 -9.141058564548793e-17
-2.266344119126820e-04 -3.183881816609593e-17 -3.625482643679642e-16 -1.262483567459627e-17 1.798796789205442e-16 2.556932359818784e-16
-2.266344119130068e-04 -1.083001407622044e-16 -1.895741069380450e-16 1.547939021053729e-16 7.499357842639054e-18 -8.928473897578531e-17
-2.266344119128377e-04 -6.802785818891655e-17 -4.825641741690548e-17 5.651645852954730e-17 1.478497729509346e-16 1.310682186428359e-16
-2.269059266448147e-04 2.217776256187732e-17 -2.539811442995089e-18 2.159846256245125e-17 3.715643874881844e-17 6.852432020954520e-18
-2.269059266443664e-04 -2.974833628667485e-17 -1.540167467361147e-16 -2.558493512088297e-18 1.650444720099818e-16 1.130795668946804e-18
-2.269059266443989e-04 2.474427193549815e-16 1.188240870488170e-16 1.274098046646584e-16 1.749868773474648e-16 -5.845268251731460e-17
-2.269059266447028e-04 -1.646741826758562e-16 -1.357398764673880e-16 -1.619243414981524e-16 1.734834449848290e-16 -8.526579399956825e-17
-2.266344119128875e-04 -1.482565834250467e-16 -9.782505507977904e-17 -3.394492314198397e-17 -3.602392410238681e-18 1.316617310252972e-16
-2.266344119128377e-04 -6.802785818891655e-17 -4.825641741690548e-17 5.651645852954730e-17 1.478497729509346e-16 1.310682186428359e-16
-2.266344119129800e-04 3.791482138760900e-16 -1.184593865341844e-16 6.820422016789500e-17 -4.387636631647982e-17 1.486609189914504e-17
-2.266344119129410e-04 2.302110900259653e-16 -2.131487187948314e-17 3.969231833477942e-16 -1.759215829198857e-17 -1.490357714717380e-16
-2.269059266445255e-04 -1.387778780781446e-17 -3.872658383728366e-16 -7.387308882266196e-17 1.144716002900839e-17 -6.551270571058975e-17
-2.269059266447028e-04 -1.646741826758562e-16 -1.357398764673880e-16 -1.619243414981524e-16 1.734834449848290e-16 -8.526579399956825e-17
-2.269059266447012e-04 6.839255870354925e-17 -2.904371636285806e-16 3.340256905375449e-17 -9.404505753293908e-17 5.033645622099698e-17
-2.269059266449663e-04 -4.498982337653180e-16 -1.623524899349317e-17 2.210310353760452e-16 9.007913718499040e-17 -4.314530580667522e-17
-2.266344119128377e-04 -6.802785818891655e-17 -4.825641741690548e-17 5.651645852954730e-17 1.478497729509346e-16 1.310682186428359e-16
-2.266344119130068e-04 -1.083001407622044e-16 -1.895741069380450e-16 1.547939021053729e-16 7.499357842639054e-18 -8.928473897578531e-17
-2.266344119124790e-04 -4.772891088663140e-16 -2.220446049250312e-16 -9.162904894022718e-17 -3.986526753418430e-17 2.720537635482206e-16
-2.266344119129800e-04 3.791482138760900e-16 -1.184593865341844e-16 6.820422016789500e-17 -4.387636631647982e-17 1.486609189914504e-17
-2.269059266447028e-04 -1.646741826758562e-16 -1.357398764673880e-16 -1.619243414981524e-16 1.734834449848290e-16 -8.526579399956825e-17
-2.269059266443989e-04 2.474427193549815e-16 1.188240870488170e-16 1.274098046646584e-16 1.749868773474648e-16 -5.845268251731460e-17
-2.269059266449195e-04 -2.024555144103366e-16 -2.423630964689915e-16 2.720801973436202e-16 -1.749579759897768e-16 8.937087882948286e-17
-2.269059266447012e-04 6.839255870354925e-17 -2.904371636285806e-16 3.340256905375449e-17 -9.404505753293908e-17 5.033645622099698e-17
-2.269059266446467e-04 3.240017631594651e-16 -8.326672684688672e-17 9.631292145885607e-17 -2.946303425384690e-17 8.948824039908277e-17
-2.269059266448315e-04 1.025888380553239e-16 2.284853086611771e-16 4.680505629644665e-16 -9.139280407300218e-17 5.952754418898771e-17
-2.269059266446535e-04 3.333338866938051e-17 -2.317414289740037e-17 -1.151286649047152e-16 1.350179200296414e-16 1.033846345443745e-16
-2.269059266444108e-04 3.090787344119398e-16 8.598888854719811e-17 -1.466214356482415e-16 4.595618537754786e-17 1.159905076260870e-16
-2.275691304710333e-04 -4.884447349738173e-16 -1.487416814333741e-17 6.889271151826382e-16 2.158106817482956e-16 -1.102225644607595e-16
-2.275691304714748e-04 2.122500596676839e-16 -6.666677733876082e-17 -2.237278921144227e-16 9.482266141010182e-17 1.349912154143980e-16
-2.275691304710017e-04 -1.083978619705795e-17 1.812741321839821e-16 -5.947597074291920e-17 -2.391269060284540e-17 2.042798267496176e-16
-2.275691304715274e-04 1.765592098126248e-16 9.614813431917824e-17 -2.271839364114329e-16 9.710849758363961e-17 3.140507347324626e-17
-2.269059266448315e-04 1.025888380553239e-16 2.284853086611771e-16 4.680505629644665e-16 -9.139280407300218e-17 5.952754418898771e-17
-2.269059266446419e-04 1.841297835374224e-16 2.924299242996265e-16 8.841044682213994e-17 2.571949500878583e-16 -2.058826645322121e-16
-2.269059266448376e-04 -3.083981939868621e-16 -3.256298233158782e-16 1.074657543279838e-17 -1.485651177442327e-16 -1.370636312452441e-16
-2.269059266446535e-04 3.333338866938051e-17 -2.317414289740037e-17 -1.151286649047152e-16 1.350179200296414e-16 1.033846345443745e-16
-2.275691304714748e-04 2.122500596676839e-16 -6.666677733876082e-17 -2.237278921144227e-16 9.482266141010182e-17 1.349912154143980e-16
-2.275691304710059e-04 3.521220392897264e-16 3.920296213483815e-16 1.174569770169511e-16 -3.548734233550744e-17 -4.866183549473760e-16
-2.275691304708604e-04 -3.564722611464511e-16 3.219112812800439e-16 -1.110399824676360e-16 -1.659957835372063e-16 -5.669314793072267e-17
-2.275691304710017e-04 -1.083978619705795e-17 1.812741321839821e-16 -5.947597074291920e-17 -2.391269060284540e-17 2.042798267496176e-16
-2.269059266444108e-04 3.090787344119398e-16 8.598888854719811e-17 -1.466214356482415e-16 4.595618537754786e-17 1.159905076260870e-16
-2.269059266446535e-04 3.333338866938051e-17 -2.317414289740037e-17 -1.151286649047152e-16 1.350179200296414e-16 1.033846345443745e-16
-2.269059266445636e-04 2.247667666253427e-16 -6.703147785339359e-17 8.648206510475892e-17 7.594620153079600e-17 5.463963274943712e-17
-2.269059266450333e-04 -2.027713543207816e-16 -2.330667413794056e-16 -3.252502934939600e-18 -2.171039508856143e-17 -1.295219481198761e-16
-2.275691304715274e-04 1.765592098126248e-16 9.614813431917824e-17 -2.271839364114329e-16 9.710849758363961e-17 3.140507347324626e-17
-2.275691304710017e-04 -1.083978619705795e-17 1.812741321839821e-16 -5.947597074291920e-17 -2.391269060284540e-17 2.042798267496176e-16
-2.275691304714521e-04 2.212305748468246e-16 -2.435287349023971e-17 -1.111304146735091e-17 7.204592293261879e-17 -4.822349749468104e-17
-2.275691304711286e-04 7.093237014654428e-17 1.895741069380448e-17 -8.975689211741133e-17 1.891411347029671e-17 2.554524189627758e-17
-2.269059266446535e-04 3.333338866938051e-17 -2.317414289740037e-17 -1.151286649047152e-16 1.350179200296414e-16 1.033846345443745e-16
-2.269059266448376e-04 -3.083981939868621e-16 -3.256298233158782e-16 1.074657543279838e-17 -1.485651177442327e-16 -1.370636312452441e-16
-2.269059266446924e-04 7.954818481105232e-17 2.136111405178395e-16 -1.044730494862923e-17 1.960668053179773e-16 -3.785499078077511e-16
-2.269059266445636e-04 2.247667666253427e-16 -6.703147785339359e-17 8.648206510475892e-17 7.594620153079600e-17 5.463963274943712e-17
-2.275691304710017e-04 -1.083978619705795e-17 1.812741321839821e-16 -5.947597074291920e-17 -2.391269060284540e-17 2.042798267496176e-16
-2.275691304708604e-04 -3.564722611464511e-16 3.219112812800439e-16 -1.110399824676360e-16 -1.659957835372063e-16 -5.669314793072267e-17
-2.275691304709747e-04 -9.162865436457054e-18 -1.651723728436178e-16 1.509518252673870e-16 2.494668361636093e-16 6.319780465841915e-17
-2.275691304714521e-04 2.212305748468246e-16 -2.435287349023971e-17 -1.111304146735091e-17 7.204592293261879e-17 -4.822349749468104e-17
-2.269059266450333e-04 -2.027713543207816e-16 -2.330667413794056e-16 -3.252502934939600e-18 -2.171039508856143e-17 -1.295219481198761e-16
-2.269059266445636e-04 2.247667666253427e-16 -6.703147785339359e-17 8.648206510475892e-17 7.594620153079600e-17 5.463963274943712e-17
-2.269059266448147e-04 2.217776256187732e-17 -2.539811442995089e-18 2.159846256245125e-17 3.715643874881844e-17 6.852432020954520e-18
-2.269059266444341e-04 8.227034651136368e-17 7.075001988922798e-17 9.599294427073881e-18 1.282187329804349e-17 -1.241933320499897e-16
-2.275691304711286e-04 7.093237014654428e-17 1.895741069380448e-17 -8.975689211741133e-17 1.891411347029671e-17 2.554524189627758e-17
-2.275691304714521e-04 2.212305748468246e-16 -2.435287349023971e-17 -1.111304146735091e-17 7.204592293261879e-17 -4.822349749468104e-17
-2.275691304712122e-04 -2.797797276888390e-16 5.111206877034560e-17 -9.206297785982036e-17 3.751944793049764e-17 1.933809495309275e-16
-2.275691304711914e-04 -2.677612108989418e-16 -1.437597797557594e-17 -3.252055408474171e-17 -7.678456697215360e-17 2.235665267609185e-17
-2.269059266445636e-04 2.247667666253427e-16 -6.703147785339359e-17 8.648206510475892e-17 7.594620153079600e-17 5.463963274943712e-17
-2.269059266446924e-04 7.954818481105232e-17 2.136111405178395e-16 -1.044730494862923e-17 1.960668053179773e-16 -3.785499078077511e-16
-2.269059266443664e-04 -2.974833628667485e-17 -1.540167467361147e-16 -2.558493512088297e-18 1.650444720099818e-16 1.130795668946804e-18
-2.269059266448147e-04 2.217776256187732e-17 -2.539811442995089e-18 2.159846256245125e-17 3.715643874881844e-17 6.852432020954520e-18
-2.275691304714521e-04 2.212305748468246e-16 -2.435287349023971e-17 -1.111304146735091e-17 7.204592293261879e-17 -4.822349749468104e-17
-2.275691304709747e-04 -9.162865436457054e-18 -1.651723728436178e-16 1.509518252673870e-16 2.494668361636093e-16 6.319780465841915e-17
-2.275691304714199e-04 -6.440703736145750e-18 -1.567389084364261e-16 5.355454407753470e-17 8.275937531584009e-17 -4.538266612879262e-16
-2.275691304712122e-04 -2.797797276888390e-16 5.111206877034560e-17 -9.206297785982036e-17 3.751944793049764e-17 1.933809495309275e-16
-2.269059266444341e-04 8.227034651136368e-17 7.075001988922798e-17 9.599294427073881e-18 1.282187329804349e-17 -1.241933320499897e-16
-2.269059266448147e-04 2.217776256187732e-17 -2.539811442995089e-18 2.159846256245125e-17 3.715643874881844e-17 6.852432020954520e-18
-2.269059266447028e-04 -1.646741826758562e-16 -1.357398764673880e-16 -1.619243414981524e-16 1.734834449848290e-16 -8.526579399956825e-17
-2.269059266445255e-04 -1.387778780781446e-17 -3.872658383728366e-16 -7.387308882266196e-17 1.144716002900839e-17 -6.551270571058975e-17
-2.275691304711914e-04 -2.677612108989418e-16 -1.437597797557594e-17 -3.252055408474171e-17 -7.678456697215360e-17 2.235665267609185e-17
-2.275691304712122e-04 -2.797797276888390e-16 5.111206877034560e-17 -9.206297785982036e-17 3.751944793049764e-17 1.933809495309275e-16
-2.275691304717337e-04 -2.181306204724470e-17 -1.165381627526461e-17 8.788039207472653e-18 -4.760034741983993e-17 -6.507632631577139e-17
-2.275691304715722e-04 -2.268083879005760e-16 6.907309912862707e-17 -1.438112627869473e-16 1.286365459027524e-16 1.272545432822559e-16
-2.269059266448147e-04 2.217776256187732e-17 -2.539811442995089e-18 2.159846256245125e-17 3.715643874881844e-17 6.852432020954520e-18
-2.269059266443664e-04 -2.974833628667485e-17 -1.540167467361147e-16 -2.558493512088297e-18 1.650444720099818e-16 1.130795668946804e-18
-2.269059266443989e-04 2.474427193549815e-16 1.188240870488170e-16 1.274098046646584e-16 1.749868773474648e-16 -5.845268251731460e-17
-2.269059266447028e-04 -1.646741826758562e-16 -1.357398764673880e-16 -1.619243414981524e-16 1.734834449848290e-16 -8.526579399956825e-17
-2.275691304712122e-04 -2.797797276888390e-16 5.111206877034560e-17 -9.206297785982036e-17 3.751944793049764e-17 1.933809495309275e-16
-2.275691304714199e-04 -6.440703736145750e-18 -1.567389084364261e-16 5.355454407753470e-17 8.275937531584009e-17 -4.538266612879262e-16
-2.275691304712341e-04 -3.337963084168123e-16 -2.802779178566005e-16 4.867486651530085e-17 -1.333702001306624e-16 -3.059338363957585e-16
-2.275691304717337e-04 -2.181306204724470e-17 -1.165381627526461e-17 8.788039207472653e-18 -4.760034741983993e-17 -6.507632631577139e-17
-2.269059266445255e-04 -1.387778780781446e-17 -3.872658383728366e-16 -7.387308882266196e-17 1.144716002900839e-17 -6.551270571058975e-17
-2.269059266447028e-04 -1.646741826758562e-16 -1.357398764673880e-16 -1.619243414981524e-16 1.734834449848290e-16 -8.526579399956825e-17
-2.269059266447012e-04 6.839255870354925e-17 -2.904371636285806e-16 3.340256905375449e-17 -9.404505753293908e-17 5.033645622099698e-17
-2.269059266449663e-04 -4.498982337653180e-16 -1.623524899349317e-17 2.210310353760452e-16 9.007913718499040e-17 -4.314530580667522e-17
-2.275691304715722e-04 -2.268083879005760e-16 6.907309912862707e-17 -1.438112627869473e-16 1.286365459027524e-16 1.272545432822559e-16
-2.275691304717337e-04 -2.181306204724470e-17 -1.165381627526461e-17 8.788039207472653e-18 -4.760034741983993e-17 -6.507632631577139e-17
-2.275691304715140e-04 9.950197584038000e-17 -1.794148611660649e-16 1.231621260815167e-16 1.992459016770551e-17 1.129046325375446e-16
-2.275691304712201e-04 6.252298523809157e-16 -1.929279484592467e-16 1.325358751300006e-17 -5.436426615781978e-17 -1.449666005400620e-16
-2.269059266447028e-04 -1.646741826758562e-16 -1.357398764673880e-16 -1.619243414981524e-16 1.734834449848290e-16 -8.526579399956825e-17
-2.269059266443989e-04 2.474427193549815e-16 1.188240870488170e-16 1.274098046646584e-16 1.749868773474648e-16 -5.845268251731460e-17
-2.269059266449195e-04 -2.024555144103366e-16 -2.423630964689915e-16 2.720801973436202e-16 -1.749579759897768e-16 8.937087882948286e-17
-2.269059266447012e-04 6.839255870354925e-17 -2.904371636285806e-16 3.340256905375449e-17 -9.404505753293908e-17 5.033645622099698e-17
-2.275691304717337e-04 -2.181306204724470e-17 -1.165381627526461e-17 8.788039207472653e-18 -4.760034741983993e-17 -6.507632631577139e-17
-2.275691304712341e-04 -3.337963084168123e-16 -2.802779178566005e-16 4.867486651530085e-17 -1.333702001306624e-16 -3.059338363957585e-16
-2.275691304707446e-04 1.516592855504359e-16 -1.313407940064759e-16 1.388854924616366e-16 2.492108152442401e-17 -1.298883967872776e-16
-2.275691304715140e-04 9.950197584038000e-17 -1.794148611660649e-16 1.231621260815167e-16 1.992459016770551e-17 1.129046325375446e-16
-2.275691304710333e-04 -4.884447349738173e-16 -1.487416814333741e-17 6.889271151826382e-16 2.158106817482956e-16 -1.102225644607595e-16
-2.275691304714748e-04 2.122500596676839e-16 -6.666677733876082e-17 -2.237278921144227e-16 9.482266141010182e-17 1.349912154143980e-16
-2.275691304710017e-04 -1.083978619705795e-17 1.812741321839821e-16 -5.947597074291920e-17 -2.391269060284540e-17 2.042798267496176e-16
-2.275691304715274e-04 1.765592098126248e-16 9.614813431917824e-17 -2.271839364114329e-16 9.710849758363961e-17 3.140507347324626e-17
-2.279967614975296e-04 3.337963084168122e-16 9.614813431917812e-17 -2.274074322463925e-16 -6.746374145455540e-17 1.996247635925774e-16
-2.279967614981328e-04 -7.622819490942720e-16 -1.184593865341844e-16 3.111294543743669e-16 -8.499610225888242e-18 2.844093216725360e-16
-2.279967614977916e-04 -2.728408337849318e-16 -6.839255870354928e-17 7.186215220413176e-17 -3.364069559861944e-17 -1.872374053185317e-16
-2.279967614981514e-04 9.133549073944574e-17 2.031849154396018e-17 -1.704807052394145e-16 -5.659118185208336e-18 -1.475050721883577e-16
-2.275691304714748e-04 2.122500596676839e-16 -6.666677733876082e-17 -2.237278921144227e-16 9.482266141010182e-17 1.349912154143980e-16
-2.275691304710059e-04 3.521220392897264e-16 3.920296213483815e-16 1.174569770169511e-16 -3.548734233550744e-17 -4.866183549473760e-16
-2.275691304708604e-04 -3.564722611464511e-16 3.219112812800439e-16 -1.110399824676360e-16 -1.659957835372063e-16 -5.669314793072267e-17
-2.275691304710017e-04 -1.083978619705795e-17 1.812741321839821e-16 -5.947597074291920e-17 -2.391269060284540e-17 2.042798267496176e-16
-2.279967614981328e-04 -7.622819490942720e-16 -1.184593865341844e-16 3.111294543743669e-16 -8.499610225888242e-18 2.844093216725360e-16
-2.279967614984145e-04 -5.696995328978835e-17 -1.219109492637611e-16 3.671475303842562e-16 3.770804082819952e-17 3.672838059049227e-16
-2.279967614972167e-04 4.535190545927752e-17 -7.782240344626398e-17 3.984705149282993e-16 -2.175853237172730e-17 7.953415401524501e-17
-2.279967614977916e-04 -2.728408337849318e-16 -6.839255870354928e-17 7.186215220413176e-17 -3.364069559861944e-17 -1.872374053185317e-16
-2.275691304715274e-04 1.765592098126248e-16 9.614813431917824e-17 -2.271839364114329e-16 9.710849758363961e-17 3.140507347324626e-17
-2.275691304710017e-04 -1.083978619705795e-17 1.812741321839821e-16 -5.947597074291920e-17 -2.391269060284540e-17 2.042798267496176e-16
-2.275691304714521e-04 2.212305748468246e-16 -2.435287349023971e-17 -1.111304146735091e-17 7.204592293261879e-17 -4.822349749468104e-17
-2.275691304711286e-04 7.093237014654428e-17 1.895741069380448e-17 -8.975689211741133e-17 1.891411347029671e-17 2.554524189627758e-17
-2.279967614981514e-04 9.133549073944574e-17 2.031849154396018e-17 -1.704807052394145e-16 -5.659118185208336e-18 -1.475050721883577e-16
-2.279967614977916e-04 -2.728408337849318e-16 -6.839255870354928e-17 7.186215220413176e-17 -3.364069559861944e-17 -1.872374053185317e-16
-2.279967614977903e-04 8.798164921824402e-18 -1.225426290846514e-16 -3.125501193930599e-17 1.819797019190215e-16 -2.537723251825775e-16
-2.279967614980984e-04 -6.666677733876097e-17 1.729741574299192e-16 6.763407169472246e-17 -6.006439122571471e-17 -8.090798308660719e-17
-2.275691304710017e-04 -1.083978619705795e-17 1.812741321839821e-16 -5.947597074291920e-17 -2.391269060284540e-17 2.042798267496176e-16
-2.275691304708604e-04 -3.564722611464511e-16 3.219112812800439e-16 -1.110399824676360e-16 -1.659957835372063e-16 -5.669314793072267e-17
-2.275691304709747e-04 -9.162865436457054e-18 -1.651723728436178e-16 1.509518252673870e-16 2.494668361636093e-16 6.319780465841915e-17
-2.275691304714521e-04 2.212305748468246e-16 -2.435287349023971e-17 -1.111304146735091e-17 7.204592293261879e-17 -4.822349749468104e-17
-2.279967614977916e-04 -2.728408337849318e-16 -6.839255870354928e-17 7.186215220413176e-17 -3.364069559861944e-17 -1.872374053185317e-16
-2.279967614972167e-04 4.535190545927752e-17 -7.782240344626398e-17 3.984705149282993e-16 -2.175853237172730e-17 7.953415401524501e-17
-2.279967614975324e-04 -6.086299028727898e-16 -2.450852581693028e-16 -3.369377816359147e-16 -2.162400520653680e-17 -9.601603714038057e-16
-2.279967614977903e-04 8.798164921824402e-18 -1.225426290846514e-16 -3.125501193930599e-17 1.819797019190215e-16 -2.537723251825775e-16
-2.275691304711286e-04 7.093237014654428e-17 1.895741069380448e-17 -8.975689211741133e-17 1.891411347029671e-17 2.554524189627758e-17
-2.275691304714521e-04 2.212305748468246e-16 -2.435287349023971e-17 -1.111304146735091e-17 7.204592293261879e-17 -4.822349749468104e-17
-2.275691304712122e-04 -2.797797276888390e-16 5.111206877034560e-17 -9.206297785982036e-17 3.751944793049764e-17 1.933809495309275e-16
-2.275691304711914e-04 -2.677612108989418e-16 -1.437597797557594e-17 -3.252055408474171e-17 -7.678456697215360e-17 2.235665267609185e-17
-2.279967614980984e-04 -6.666677733876097e-17 1.729741574299192e-16 6.763407169472246e-17 -6.006439122571471e-17 -8.090798308660719e-17
-2.279967614977903e-04 8.798164921824402e-18 -1.225426290846514e-16 -3.125501193930599e-17 1.819797019190215e-16 -2.537723251825775e-16
-2.279967614980591e-04 -2.131487187948326e-17 -4.684909439444897e-16 8.700536073296228e-17 4.804058512025862e-17 4.252594061961500e-16
-2.279967614981385e-04 -8.462780769704244e-17 -3.967445437197389e-16 -2.110939343465562e-16 -5.032031371827285e-17 -1.825192807950169e-16
-2.275691304714521e-04 2.212305748468246e-16 -2.435287349023971e-17 -1.111304146735091e-17 7.204592293261879e-17 -4.822349749468104e-17
-2.275691304709747e-04 -9.162865436457054e-18 -1.651723728436178e-16 1.509518252673870e-16 2.494668361636093e-16 6.319780465841915e-17
-2.275691304714199e-04 -6.440703736145750e-18 -1.567389084364261e-16 5.355454407753470e-17 8.275937531584009e-17 -4.538266612879262e-16
-2.275691304712122e-04 -2.797797276888390e-16 5.111206877034560e-17 -9.206297785982036e-17 3.751944793049764e-17 1.933809495309275e-16
-2.279967614977903e-04 8.798164921824402e-18 -1.225426290846514e-16 -3.125501193930599e-17 1.819797019190215e-16 -2.537723251825775e-16
-2.279967614975324e-04 -6.086299028727898e-16 -2.450852581693028e-16 -3.369377816359147e-16 -2.162400520653680e-17 -9.601603714038057e-16
-2.279967614983914e-04 1.848591845666876e-16 1.266258716351184e-16 -3.158234993431609e-16 1.775472470448271e-16 8.886217146346560e-17
-2.279967614980591e-04 -2.131487187948326e-17 -4.684909439444897e-16 8.700536073296228e-17 4.804058512025862e-17 4.252594061961500e-16
-2.275691304711914e-04 -2.677612108989418e-16 -1.437597797557594e-17 -3.252055408474171e-17 -7.678456697215360e-17 2.235665267609185e-17
-2.275691304712122e-04 -2.797797276888390e-16 5.111206877034560e-17 -9.206297785982036e-17 3.751944793049764e-17 1.933809495309275e-16
-2.275691304717337e-04 -2.181306204724470e-17 -1.165381627526461e-17 8.788039207472653e-18 -4.760034741983993e-17 -6.507632631577139e-17
-2.275691304715722e-04 -2.268083879005760e-16 6.907309912862707e-17 -1.438112627869473e-16 1.286365459027524e-16 1.272545432822559e-16
-2.279967614981385e-04 -8.462780769704244e-17 -3.967445437197389e-16 -2.110939343465562e-16 -5.032031371827285e-17 -1.825192807950169e-16
-2.279967614980591e-04 -2.131487187948326e-17 -4.684909439444897e-16 8.700536073296228e-17 4.804058512025862e-17 4.252594061961500e-16
-2.279967614985110e-04 5.886499275245952e-17 9.986667635501249e-17 -6.083880757118772e-17 -4.097032746497132e-17 -5.041168963005583e-17
-2.279967614981562e-04 -6.440703736145811e-18 -2.664001300487860e-16 -1.172037291572123e-16 2.995329044827024e-17 -1.159126174278568e-17
-2.275691304712122e-04 -2.797797276888390e-16 5.111206877034560e-17 -9.206297785982036e-17 3.751944793049764e-17 1.933809495309275e-16
-2.275691304714199e-04 -6.440703736145750e-18 -1.567389084364261e-16 5.355454407753470e-17 8.275937531584009e-17 -4.538266612879262e-16
-2.275691304712341e-04 -3.337963084168123e-16 -2.802779178566005e-16 4.867486651530085e-17 -1.333702001306624e-16 -3.059338363957585e-16
-2.275691304717337e-04 -2.181306204724470e-17 -1.165381627526461e-17 8.788039207472653e-18 -4.760034741983993e-17 -6.507632631577139e-17
-2.279967614980591e-04 -2.131487187948326e-17 -4.684909439444897e-16 8.700536073296228e-17 4.804058512025862e-17 4.252594061961500e-16
-2.279967614983914e-04 1.848591845666876e-16 1.266258716351184e-16 -3.158234993431609e-16 1.775472470448271e-16 8.886217146346560e-17
-2.279967614965689e-04 1.489371238501246e-16 5.511259909704861e-16 4.042638793899680e-16 6.723171233308341e-18 -7.047302316722459e-16
-2.279967614985110e-04 5.886499275245952e-17 9.986667635501249e-17 -6.083880757118772e-17 -4.097032746497132e-17 -5.041168963005583e-17
-2.275691304715722e-04 -2.268083879005760e-16 6.907309912862707e-17 -1.438112627869473e-16 1.286365459027524e-16 1.272545432822559e-16
-2.275691304717337e-04 -2.181306204724470e-17 -1.165381627526461e-17 8.788039207472653e-18 -4.760034741983993e-17 -6.507632631577139e-17
-2.275691304715140e-04 9.950197584038000e-17 -1.794148611660649e-16 1.231621260815167e-16 1.992459016770551e-17 1.129046325375446e-16
-2.275691304712201e-04 6.252298523809157e-16 -1.929279484592467e-16 1.325358751300006e-17 -5.436426615781978e-17 -1.449666005400620e-16
-2.279967614981562e-04 -6.440703736145811e-18 -2.664001300487860e-16 -1.172037291572123e-16 2.995329044827024e-17 -1.159126174278568e-17
-2.279967614985110e-04 5.886499275245952e-17 9.986667635501249e-17 -6.083880757118772e-17 -4.097032746497132e-17 -5.041168963005583e-17
-2.279967614982338e-04 3.811409745471359e-16 2.403703357979454e-16 6.656000453276745e-16 1.296805594525160e-16 -1.484921870883238e-16
-2.279967614980176e-04 -8.165297406837490e-16 1.110223024625156e-16 4.829951336252295e-17 1.250580102255526e-16 -5.370185595342976e-17
-2.275691304717337e-04 -2.181306204724470e-17 -1.165381627526461e-17 8.788039207472653e-18 -4.760034741983993e-17 -6.507632631577139e-17
-2.275691304712341e-04 -3.337963084168123e-16 -2.802779178566005e-16 4.867486651530085e-17 -1.333702001306624e-16 -3.059338363957585e-16
-2.275691304707446e-04 1.516592855504359e-16 -1.313407940064759e-16 1.388854924616366e-16 2.492108152442401e-17 -1.298883967872776e-16
-2.275691304715140e-04 9.950197584038000e-17 -1.794148611660649e-16 1.231621260815167e-16 1.992459016770551e-17 1.129046325375446e-16
-2.279967614985110e-04 5.886499275245952e-17 9.986667635501249e-17 -6.083880757118772e-17 -4.097032746497132e-17 -5.041168963005583e-17
-2.279967614965689e-04 1.489371238501246e-16 5.511259909704861e-16 4.042638793899680e-16 6.723171233308341e-18 -7.047302316722459e-16
-2.279967614979934e-04 -1.422294408077212e-16 1.487416814333752e-17 -3.872211879071467e-16 -1.555601778435868e-16 8.852982186001513e-17
-2.279967614982338e-04 3.811409745471359e-16 2.403703357979454e-16 6.656000453276745e-16 1.296805594525160e-16 -1.484921870883238e-16
        </DataArray>
        <DataArray type="Float64" Name="nodal_cauchy_stresses_xyz" NumberOfComponents="6" format="ascii">
-6.110935005485028e+02 -2.619566503223170e+02 -2.619566503231596e+02 5.715412952746359e-10 -1.160680278166252e-11 4.388203861011773e-12
-6.110935005506770e+02 -2.619566503237622e+02 -2.619566503236371e+02 2.401911932288602e-12 -4.228752619340652e-10 2.094895428593225e-10
-6.110935005481372e+02 -2.619566503227645e+02 -2.619566503223140e+02 -7.671074624501975e-11 1.377762504640007e-10 -2.261185382400537e-10
-6.110935005492280e+02 -2.619566503234843e+02 -2.619566503234083e+02 -3.191674092089723e-10 -4.715124649678870e-11 -5.595507941390303e-11
-6.107041703445632e+02 -2.617897188412693e+02 -2.617897188413290e+02 2.516027808228445e-11 -6.469235589738808e-11 2.564615118589560e-10
-6.107041703436187e+02 -2.617897188424171e+02 -2.617897188418063e+02 2.364556573145675e-10 -2.537157929286132e-11 2.771660740033646e-10
-6.107041703431901e+02 -2.617897188405493e+02 -2.617897188407911e+02 1.227163543798385e-10 -1.105686926228012e-11 3.239391624697186e-10
-6.107041703446079e+02 -2.617897188417732e+02 -2.617897188417858e+02 -9.921385101035015e-11 6.749860760147340e-11 -9.284392024789289e-11
-6.110935005506770e+02 -2.619566503237622e+02 -2.619566503236371e+02 2.401911932288602e-12 -4.228752619340652e-10 2.094895428593225e-10
-6.110935005498285e+02 -2.619566503257790e+02 -2.619566503230972e+02 6.138885550939452e-10 -1.513384569240536e-10 -5.405968839933839e-10
-6.110935005469717e+02 -2.619566503217827e+02 -2.619566503227530e+02 -4.004916915676478e-10 -4.377183018087088e-10 3.922593904666373e-10
-6.110935005481372e+02 -2.619566503227645e+02 -2.619566503223140e+02 -7.671074624501975e-11 1.377762504640007e-10 -2.261185382400537e-10
-6.107041703436187e+02 -2.617897188424171e+02 -2.617897188418063e+02 2.364556573145675e-10 -2.537157929286132e-11 2.771660740033646e-10
-6.107041703443174e+02 -2.617897188393022e+02 -2.617897188415117e+02 9.442871184956453e-10 7.814972509448359e-10 -2.580956392666641e-10
-6.107041703447288e+02 -2.617897188416434e+02 -2.617897188416470e+02 -1.156054239823141e-10 3.046062674375730e-10 -4.622846333003341e-12
-6.107041703431901e+02 -2.617897188405493e+02 -2.617897188407911e+02 1.227163543798385e-10 -1.105686926228012e-11 3.239391624697186e-10
-6.110935005492280e+02 -2.619566503234843e+02 -2.619566503234083e+02 -3.191674092089723e-10 -4.715124649678870e-11 -5.595507941390303e-11
-6.110935005481372e+02 -2.619566503227645e+02 -2.619566503223140e+02 -7.671074624501975e-11 1.377762504640007e-10 -2.261185382400537e-10
-6.110935005483792e+02 -2.619566503227070e+02 -2.619566503228423e+02 -1.396808912327901e-10 -8.739879485048894e-11 1.470403733522316e-10
-6.110935005491423e+02 -2.619566503235300e+02 -2.619566503229983e+02 1.332683394159273e-10 3.908524022444282e-11 2.380805369672574e-10
-6.107041703446079e+02 -2.617897188417732e+02 -2.617897188417858e+02 -9.921385101035015e-11 6.749860760147340e-11 -9.284392024789289e-11
-6.107041703431901e+02 -2.617897188405493e+02 -2.617897188407911e+02 1.227163543798385e-10 -1.105686926228012e-11 3.239391624697186e-10
-6.107041703447378e+02 -2.617897188419606e+02 -2.617897188422306e+02 -1.192775500112215e-10 1.594725588010627e-10 3.457164345110894e-10
-6.107041703425753e+02 -2.617897188411119e+02 -2.617897188413604e+02 3.200279402742122e-10 -2.971355900624060e-11 1.665078455755621e-10
-6.110935005481372e+02 -2.619566503227645e+02 -2.619566503223140e+02 -7.671074624501975e-11 1.377762504640007e-10 -2.261185382400537e-10
-6.110935005469717e+02 -2.619566503217827e+02 -2.619566503227530e+02 -4.004916915676478e-10 -4.377183018087088e-10 3.922593904666373e-10
-6.110935005510885e+02 -2.619566503268521e+02 -2.619566503253862e+02 1.171953862747663e-10 -1.907601840130573e-10 -2.346335308640505e-11
-6.110935005483792e+02 -2.619566503227070e+02 -2.619566503228423e+02 -1.396808912327901e-10 -8.739879485048894e-11 1.470403733522316e-10
-6.107041703431901e+02 -2.617897188405493e+02 -2.617897188407911e+02 1.227163543798385e-10 -1.105686926228012e-11 3.239391624697186e-10
-6.107041703447288e+02 -2.617897188416434e+02 -2.617897188416470e+02 -1.156054239823141e-10 3.046062674375730e-10 -4.622846333003341e-12
-6.107041703418968e+02 -2.617897188403271e+02 -2.617897188402932e+02 7.425276030446574e-11 1.305230163558764e-10 1.438047475143553e-10
-6.107041703447378e+02 -2.617897188419606e+02 -2.617897188422306e+02 -1.192775500112215e-10 1.594725588010627e-10 3.457164345110894e-10
-6.110935005491423e+02 -2.619566503235300e+02 -2.619566503229983e+02 1.332683394159273e-10 3.908524022444282e-11 2.380805369672574e-10
-6.110935005483792e+02 -2.619566503227070e+02 -2.619566503228423e+02 -1.396808912327901e-10 -8.739879485048894e-11 1.470403733522316e-10
-6.110935005480952e+02 -2.619566503227541e+02 -2.619566503231490e+02 5.035177002412644e-11 -3.347051475140242e-11 5.646788627606969e-10
-6.110935005491224e+02 -2.619566503238079e+02 -2.619566503238985e+02 -3.132028507634060e-11 1.770536518617128e-11 7.716731552804634e-11
-6.107041703425753e+02 -2.617897188411119e+02 -2.617897188413604e+02 3.200279402742122e-10 -2.971355900624060e-11 1.665078455755621e-10
-6.107041703447378e+02 -2.617897188419606e+02 -2.617897188422306e+02 -1.192775500112215e-10 1.594725588010627e-10 3.457164345110894e-10
-6.107041703437437e+02 -2.617897188413214e+02 -2.617897188413570e+02 2.832370518602660e-11 -2.356103331418407e-10 5.945901475952504e-11
-6.107041703446758e+02 -2.617897188419272e+02 -2.617897188425052e+02 -1.547371907160727e-10 -1.536823093485711e-10 1.958673553867462e-10
-6.110935005483792e+02 -2.619566503227070e+02 -2.619566503228423e+02 -1.396808912327901e-10 -8.739879485048894e-11 1.470403733522316e-10
-6.110935005510885e+02 -2.619566503268521e+02 -2.619566503253862e+02 1.171953862747663e-10 -1.907601840130573e-10 -2.346335308640505e-11
-6.110935005485865e+02 -2.619566503231015e+02 -2.619566503211498e+02 -1.246269562914327e-10 -6.133318413801960e-11 -5.260444437172127e-10
-6.110935005480952e+02 -2.619566503227541e+02 -2.619566503231490e+02 5.035177002412644e-11 -3.347051475140242e-11 5.646788627606969e-10
-6.107041703447378e+02 -2.617897188419606e+02 -2.617897188422306e+02 -1.192775500112215e-10 1.594725588010627e-10 3.457164345110894e-10
-6.107041703418968e+02 -2.617897188403271e+02 -2.617897188402932e+02 7.425276030446574e-11 1.305230163558764e-10 1.438047475143553e-10
-6.107041703439540e+02 -2.617897188416773e+02 -2.617897188416852e+02 1.699565289308107e-10 -8.860384998978563e-11 -1.171296131539463e-09
-6.107041703437437e+02 -2.617897188413214e+02 -2.617897188413570e+02 2.832370518602660e-11 -2.356103331418407e-10 5.945901475952504e-11
-6.110935005491224e+02 -2.619566503238079e+02 -2.619566503238985e+02 -3.132028507634060e-11 1.770536518617128e-11 7.716731552804634e-11
-6.110935005480952e+02 -2.619566503227541e+02 -2.619566503231490e+02 5.035177002412644e-11 -3.347051475140242e-11 5.646788627606969e-10
-6.110935005464906e+02 -2.619566503220320e+02 -2.619566503229558e+02 1.580611017357029e-10 1.977785065074885e-10 -3.376417870533404e-10
-6.110935005481954e+02 -2.619566503224078e+02 -2.619566503230967e+02 3.716314202111861e-10 -4.776695325159075e-12 -4.679148623400090e-10
-6.107041703446758e+02 -2.617897188419272e+02 -2.617897188425052e+02 -1.547371907160727e-10 -1.536823093485711e-10 1.958673553867462e-10
-6.107041703437437e+02 -2.617897188413214e+02 -2.617897188413570e+02 2.832370518602660e-11 -2.356103331418407e-10 5.945901475952504e-11
-6.107041703453556e+02 -2.617897188424384e+02 -2.617897188430617e+02 2.557963437747053e-10 -2.574320023535577e-10 2.157102816303156e-10
-6.107041703431977e+02 -2.617897188408142e+02 -2.617897188402690e+02 -3.810924889975515e-10 -9.548437325496593e-11 -2.661099594139921e-10
-6.110935005480952e+02 -2.619566503227541e+02 -2.619566503231490e+02 5.035177002412644e-11 -3.347051475140242e-11 5.646788627606969e-10
-6.110935005485865e+02 -2.619566503231015e+02 -2.619566503211498e+02 -1.246269562914327e-10 -6.133318413801960e-11 -5.260444437172127e-10
-6.110935005516569e+02 -2.619566503242330e+02 -2.619566503248711e+02 3.243683055396903e-10 -2.467595825953405e-10 -5.618510972465809e-10
-6.110935005464906e+02 -2.619566503220320e+02 -2.619566503229558e+02 1.580611017357029e-10 1.977785065074885e-10 -3.376417870533404e-10
-6.107041703437437e+02 -2.617897188413214e+02 -2.617897188413570e+02 2.832370518602660e-11 -2.356103331418407e-10 5.945901475952504e-11
-6.107041703439540e+02 -2.617897188416773e+02 -2.617897188416852e+02 1.699565289308107e-10 -8.860384998978563e-11 -1.171296131539463e-09
-6.107041703429759e+02 -2.617897188413602e+02 -2.617897188413049e+02 1.265810372525716e-11 3.224425054330183e-10 4.163246470755379e-10
-6.107041703453556e+02 -2.617897188424384e+02 -2.617897188430617e+02 2.557963437747053e-10 -2.574320023535577e-10 2.157102816303156e-10
-6.110935005481954e+02 -2.619566503224078e+02 -2.619566503230967e+02 3.716314202111861e-10 -4.776695325159075e-12 -4.679148623400090e-10
-6.110935005464906e+02 -2.619566503220320e+02 -2.619566503229558e+02 1.580611017357029e-10 1.977785065074885e-10 -3.376417870533404e-10
-6.110935005485230e+02 -2.619566503225194e+02 -2.619566503231958e+02 1.184604900730761e-11 -1.854504788362145e-10 3.102915025098864e-10
-6.110935005478825e+02 -2.619566503222927e+02 -2.619566503235051e+02 -5.656118945874838e-10 9.105341744381074e-11 -1.986199630847800e-10
-6.107041703431977e+02 -2.617897188408142e+02 -2.617897188402690e+02 -3.810924889975515e-10 -9.548437325496593e-11 -2.661099594139921e-10
-6.107041703453556e+02 -2.617897188424384e+02 -2.617897188430617e+02 2.557963437747053e-10 -2.574320023535577e-10 2.157102816303156e-10
-6.107041703417938e+02 -2.617897188409451e+02 -2.617897188405223e+02 -8.228084951276240e-11 6.932482299016548e-10 -8.367078418814701e-11
-6.107041703439597e+02 -2.617897188422443e+02 -2.617897188417066e+02 5.226318053619839e-10 3.301339796344337e-10 -1.805386701227423e-10
-6.110935005464906e+02 -2.619566503220320e+02 -2.619566503229558e+02 1.580611017357029e-10 1.977785065074885e-10 -3.376417870533404e-10
-6.110935005516569e+02 -2.619566503242330e+02 -2.619566503248711e+02 3.243683055396903e-10 -2.467595825953405e-10 -5.618510972465809e-10
-6.110935005485592e+02 -2.619566503253966e+02 -2.619566503243107e+02 -8.315160542644001e-10 -2.002296638144073e-10 5.309291332903968e-10
-6.110935005485230e+02 -2.619566503225194e+02 -2.619566503231958e+02 1.184604900730761e-11 -1.854504788362145e-10 3.102915025098864e-10
-6.107041703453556e+02 -2.617897188424384e+02 -2.617897188430617e+02 2.557963437747053e-10 -2.574320023535577e-10 2.157102816303156e-10
-6.107041703429759e+02 -2.617897188413602e+02 -2.617897188413049e+02 1.265810372525716e-11 3.224425054330183e-10 4.163246470755379e-10
-6.107041703416527e+02 -2.617897188400680e+02 -2.617897188396784e+02 -5.112589996722703e-10 5.329927474428376e-11 3.934721139231612e-10
-6.107041703417938e+02 -2.617897188409451e+02 -2.617897188405223e+02 -8.228084951276240e-11 6.932482299016548e-10 -8.367078418814701e-11
-6.107041703445632e+02 -2.617897188412693e+02 -2.617897188413290e+02 2.516027808228445e-11 -6.469235589738808e-11 2.564615118589560e-10
-6.107041703436187e+02 -2.617897188424171e+02 -2.617897188418063e+02 2.364556573145675e-10 -2.537157929286132e-11 2.771660740033646e-10
-6.107041703431901e+02 -2.617897188405493e+02 -2.617897188407911e+02 1.227163543798385e-10 -1.105686926228012e-11 3.239391624697186e-10
-6.107041703446079e+02 -2.617897188417732e+02 -2.617897188417858e+02 -9.921385101035015e-11 6.749860760147340e-11 -9.284392024789289e-11
-6.104116836902906e+02 -2.616643105541442e+02 -2.616643105544833e+02 6.079353133022744e-10 1.267597423197880e-10 -2.571900130692366e-10
-6.104116836899053e+02 -2.616643105548628e+02 -2.616643105547190e+02 -1.599947580894140e-10 1.119901235118946e-10 -8.769682025088710e-11
-6.104116836911350e+02 -2.616643105550928e+02 -2.616643105549252e+02 -2.069105237338857e-10 -2.024065136956204e-12 -2.609286119810916e-10
-6.104116836915915e+02 -2.616643105556312e+02 -2.616643105557609e+02 2.871973629268254e-10 1.822297903047432e-12 8.351616680419433e-11
-6.107041703436187e+02 -2.617897188424171e+02 -2.617897188418063e+02 2.364556573145675e-10 -2.537157929286132e-11 2.771660740033646e-10
-6.107041703443174e+02 -2.617897188393022e+02 -2.617897188415117e+02 9.442871184956453e-10 7.814972509448359e-10 -2.580956392666641e-10
-6.107041703447288e+02 -2.617897188416434e+02 -2.617897188416470e+02 -1.156054239823141e-10 3.046062674375730e-10 -4.622846333003341e-12
-6.107041703431901e+02 -2.617897188405493e+02 -2.617897188407911e+02 1.227163543798385e-10 -1.105686926228012e-11 3.239391624697186e-10
-6.104116836899053e+02 -2.616643105548628e+02 -2.616643105547190e+02 -1.599947580894140e-10 1.119901235118946e-10 -8.769682025088710e-11
-6.104116836906719e+02 -2.616643105545101e+02 -2.616643105556615e+02 1.749419166416299e-10 -2.441364269426894e-10 1.146482061532930e-10
-6.104116836909695e+02 -2.616643105551187e+02 -2.616643105541604e+02 -2.400556673226478e-10 8.766872188056329e-11 -2.769418081777184e-10
-6.104116836911350e+02 -2.616643105550928e+02 -2.616643105549252e+02 -2.069105237338857e-10 -2.024065136956204e-12 -2.609286119810916e-10
-6.107041703446079e+02 -2.617897188417732e+02 -2.617897188417858e+02 -9.921385101035015e-11 6.749860760147340e-11 -9.284392024789289e-11
-6.107041703431901e+02 -2.617897188405493e+02 -2.617897188407911e+02 1.227163543798385e-10 -1.105686926228012e-11 3.239391624697186e-10
-6.107041703447378e+02 -2.617897188419606e+02 -2.617897188422306e+02 -1.192775500112215e-10 1.594725588010627e-10 3.457164345110894e-10
-6.107041703425753e+02 -2.617897188411119e+02 -2.617897188413604e+02 3.200279402742122e-10 -2.971355900624060e-11 1.665078455755621e-10
-6.104116836915915e+02 -2.616643105556312e+02 -2.616643105557609e+02 2.871973629268254e-10 1.822297903047432e-12 8.351616680419433e-11
-6.104116836911350e+02 -2.616643105550928e+02 -2.616643105549252e+02 -2.069105237338857e-10 -2.024065136956204e-12 -2.609286119810916e-10
-6.104116836912347e+02 -2.616643105550143e+02 -2.616643105547156e+02 1.491676849268627e-10 2.881531890595333e-11 2.943817905340169e-10
-6.104116836918249e+02 -2.616643105558136e+02 -2.616643105555237e+02 1.853948342960975e-10 -1.651610848301141e-10 1.409266648136788e-10
-6.107041703431901e+02 -2.617897188405493e+02 -2.617897188407911e+02 1.227163543798385e-10 -1.105686926228012e-11 3.239391624697186e-10
-6.107041703447288e+02 -2.617897188416434e+02 -2.617897188416470e+02 -1.156054239823141e-10 3.046062674375730e-10 -4.622846333003341e-12
-6.107041703418968e+02 -2.617897188403271e+02 -2.617897188402932e+02 7.425276030446574e-11 1.305230163558764e-10 1.438047475143553e-10
-6.107041703447378e+02 -2.617897188419606e+02 -2.617897188422306e+02 -1.192775500112215e-10 1.594725588010627e-10 3.457164345110894e-10
-6.104116836911350e+02 -2.616643105550928e+02 -2.616643105549252e+02 -2.069105237338857e-10 -2.024065136956204e-12 -2.609286119810916e-10
-6.104116836909695e+02 -2.616643105551187e+02 -2.616643105541604e+02 -2.400556673226478e-10 8.766872188056329e-11 -2.769418081777184e-10
-6.104116836906439e+02 -2.616643105545321e+02 -2.616643105551829e+02 -1.053290412116661e-10 3.095617372006766e-10 -3.314538136011065e-10
-6.104116836912347e+02 -2.616643105550143e+02 -2.616643105547156e+02 1.491676849268627e-10 2.881531890595333e-11 2.943817905340169e-10
-6.107041703425753e+02 -2.617897188411119e+02 -2.617897188413604e+02 3.200279402742122e-10 -2.971355900624060e-11 1.665078455755621e-10
-6.107041703447378e+02 -2.617897188419606e+02 -2.617897188422306e+02 -1.192775500112215e-10 1.594725588010627e-10 3.457164345110894e-10
-6.107041703437437e+02 -2.617897188413214e+02 -2.617897188413570e+02 2.832370518602660e-11 -2.356103331418407e-10 5.945901475952504e-11
-6.107041703446758e+02 -2.617897188419272e+02 -2.617897188425052e+02 -1.547371907160727e-10 -1.536823093485711e-10 1.958673553867462e-10
-6.104116836918249e+02 -2.616643105558136e+02 -2.616643105555237e+02 1.853948342960975e-10 -1.651610848301141e-10 1.409266648136788e-10
-6.104116836912347e+02 -2.616643105550143e+02 -2.616643105547156e+02 1.491676849268627e-10 2.881531890595333e-11 2.943817905340169e-10
-6.104116836905903e+02 -2.616643105550419e+02 -2.616643105551789e+02 1.797886035566992e-10 9.045312639142902e-11 -1.406383263225662e-10
-6.104116836910374e+02 -2.616643105552984e+02 -2.616643105549699e+02 -9.662628872228952e-11 -2.691284191954069e-10 -3.943355263290161e-11
-6.107041703447378e+02 -2.617897188419606e+02 -2.617897188422306e+02 -1.192775500112215e-10 1.594725588010627e-10 3.457164345110894e-10
-6.107041703418968e+02 -2.617897188403271e+02 -2.617897188402932e+02 7.425276030446574e-11 1.305230163558764e-10 1.438047475143553e-10
-6.107041703439540e+02 -2.617897188416773e+02 -2.617897188416852e+02 1.699565289308107e-10 -8.860384998978563e-11 -1.171296131539463e-09
-6.107041703437437e+02 -2.617897188413214e+02 -2.617897188413570e+02 2.832370518602660e-11 -2.356103331418407e-10 5.945901475952504e-11
-6.104116836912347e+02 -2.616643105550143e+02 -2.616643105547156e+02 1.491676849268627e-10 2.881531890595333e-11 2.943817905340169e-10
-6.104116836906439e+02 -2.616643105545321e+02 -2.616643105551829e+02 -1.053290412116661e-10 3.095617372006766e-10 -3.314538136011065e-10
-6.104116836910290e+02 -2.616643105552868e+02 -2.616643105558798e+02 -1.948274663820616e-11 2.768007018641787e-10 3.934255526278228e-10
-6.104116836905903e+02 -2.616643105550419e+02 -2.616643105551789e+02 1.797886035566992e-10 9.045312639142902e-11 -1.406383263225662e-10
-6.107041703446758e+02 -2.617897188419272e+02 -2.617897188425052e+02 -1.547371907160727e-10 -1.536823093485711e-10 1.958673553867462e-10
-6.107041703437437e+02 -2.617897188413214e+02 -2.617897188413570e+02 2.832370518602660e-11 -2.356103331418407e-10 5.945901475952504e-11
-6.107041703453556e+02 -2.617897188424384e+02 -2.617897188430617e+02 2.557963437747053e-10 -2.574320023535577e-10 2.157102816303156e-10
-6.107041703431977e+02 -2.617897188408142e+02 -2.617897188402690e+02 -3.810924889975515e-10 -9.548437325496593e-11 -2.661099594139921e-10
-6.104116836910374e+02 -2.616643105552984e+02 -2.616643105549699e+02 -9.662628872228952e-11 -2.691284191954069e-10 -3.943355263290161e-11
-6.104116836905903e+02 -2.616643105550419e+02 -2.616643105551789e+02 1.797886035566992e-10 9.045312639142902e-11 -1.406383263225662e-10
-6.104116836911478e+02 -2.616643105551843e+02 -2.616643105552180e+02 8.703146921310186e-11 2.275127526302896e-10 2.016369266783160e-10
-6.104116836915470e+02 -2.616643105555964e+02 -2.616643105556112e+02 -5.216464145690470e-11 -5.543398368839232e-12 2.025868891022898e-10
-6.107041703437437e+02 -2.617897188413214e+02 -2.617897188413570e+02 2.832370518602660e-11 -2.356103331418407e-10 5.945901475952504e-11
-6.107041703439540e+02 -2.617897188416773e+02 -2.617897188416852e+02 1.699565289308107e-10 -8.860384998978563e-11 -1.171296131539463e-09
-6.107041703429759e+02 -2.617897188413602e+02 -2.617897188413049e+02 1.265810372525716e-11 3.224425054330183e-10 4.163246470755379e-10
-6.107041703453556e+02 -2.617897188424384e+02 -2.617897188430617e+02 2.557963437747053e-10 -2.574320023535577e-10 2.157102816303156e-10
-6.104116836905903e+02 -2.616643105550419e+02 -2.616643105551789e+02 1.797886035566992e-10 9.045312639142902e-11 -1.406383263225662e-10
-6.104116836910290e+02 -2.616643105552868e+02 -2.616643105558798e+02 -1.948274663820616e-11 2.768007018641787e-10 3.934255526278228e-10
-6.104116836918492e+02 -2.616643105558052e+02 -2.616643105558907e+02 2.382748896415662e-10 1.154008571357942e-11 -1.372922486074679e-10
-6.104116836911478e+02 -2.616643105551843e+02 -2.616643105552180e+02 8.703146921310186e-11 2.275127526302896e-10 2.016369266783160e-10
-6.107041703431977e+02 -2.617897188408142e+02 -2.617897188402690e+02 -3.810924889975515e-10 -9.548437325496593e-11 -2.661099594139921e-10
-6.107041703453556e+02 -2.617897188424384e+02 -2.617897188430617e+02 2.557963437747053e-10 -2.574320023535577e-10 2.157102816303156e-10
-6.107041703417938e+02 -2.617897188409451e+02 -2.617897188405223e+02 -8.228084951276240e-11 6.932482299016548e-10 -8.367078418814701e-11
-6.107041703439597e+02 -2.617897188422443e+02 -2.617897188417066e+02 5.226318053619839e-10 3.301339796344337e-10 -1.805386701227423e-10
-6.104116836915470e+02 -2.616643105555964e+02 -2.616643105556112e+02 -5.216464145690470e-11 -5.543398368839232e-12 2.025868891022898e-10
-6.104116836911478e+02 -2.616643105551843e+02 -2.616643105552180e+02 8.703146921310186e-11 2.275127526302896e-10 2.016369266783160e-10
-6.104116836912176e+02 -2.616643105543727e+02 -2.616643105550718e+02 1.051506240614047e-10 -6.751740085802376e-11 2.279902509659283e-11
-6.104116836910172e+02 -2.616643105545234e+02 -2.616643105548520e+02 6.107780029064477e-10 -2.707099596497606e-11 -2.293808583671123e-10
-6.107041703453556e+02 -2.617897188424384e+02 -2.617897188430617e+02 2.557963437747053e-10 -2.574320023535577e-10 2.157102816303156e-10
-6.107041703429759e+02 -2.617897188413602e+02 -2.617897188413049e+02 1.265810372525716e-11 3.224425054330183e-10 4.163246470755379e-10
-6.107041703416527e+02 -2.617897188400680e+02 -2.617897188396784e+02 -5.112589996722703e-10 5.329927474428376e-11 3.934721139231612e-10
-6.107041703417938e+02 -2.617897188409451e+02 -2.617897188405223e+02 -8.228084951276240e-11 6.932482299016548e-10 -8.367078418814701e-11
-6.104116836911478e+02 -2.616643105551843e+02 -2.616643105552180e+02 8.703146921310186e-11 2.275127526302896e-10 2.016369266783160e-10
-6.104116836918492e+02 -2.616643105558052e+02 -2.616643105558907e+02 2.382748896415662e-10 1.154008571357942e-11 -1.372922486074679e-10
-6.104116836906801e+02 -2.616643105560512e+02 -2.616643105554790e+02 -1.407596312251808e-10 -6.134507549406793e-11 4.185864661298653e-10
-6.104116836912176e+02 -2.616643105543727e+02 -2.616643105550718e+02 1.051506240614047e-10 -6.751740085802376e-11 2.279902509659283e-11
-6.104116836902906e+02 -2.616643105541442e+02 -2.616643105544833e+02 6.079353133022744e-10 1.267597423197880e-10 -2.571900130692366e-10
-6.104116836899053e+02 -2.616643105548628e+02 -2.616643105547190e+02 -1.599947580894140e-10 1.119901235118946e-10 -8.769682025088710e-11
-6.104116836911350e+02 -2.616643105550928e+02 -2.616643105549252e+02 -2.069105237338857e-10 -2.024065136956204e-12 -2.609286119810916e-10
-6.104116836915915e+02 -2.616643105556312e+02 -2.616643105557609e+02 2.871973629268254e-10 1.822297903047432e-12 8.351616680419433e-11
-6.111432657491014e+02 -2.619779880098384e+02 -2.619779880104602e+02 1.481563701362495e-10 -4.533802065857517e-11 1.377559508126814e-10
-6.111432657492935e+02 -2.619779880100410e+02 -2.619779880098960e+02 7.201551286131874e-10 -1.406362287883993e-10 9.156294923986408e-11
-6.111432657494732e+02 -2.619779880105501e+02 -2.619779880106408e+02 -1.770921647402513e-10 2.077670209299269e-10 1.590525939832417e-10
-6.111432657480883e+02 -2.619779880092121e+02 -2.619779880095098e+02 -2.255504559578537e-10 7.071787591727375e-11 1.784913989605341e-10
-6.104116836899053e+02 -2.616643105548628e+02 -2.616643105547190e+02 -1.599947580894140e-10 1.119901235118946e-10 -8.769682025088710e-11
-6.104116836906719e+02 -2.616643105545101e+02 -2.616643105556615e+02 1.749419166416299e-10 -2.441364269426894e-10 1.146482061532930e-10
-6.104116836909695e+02 -2.616643105551187e+02 -2.616643105541604e+02 -2.400556673226478e-10 8.766872188056329e-11 -2.769418081777184e-10
-6.104116836911350e+02 -2.616643105550928e+02 -2.616643105549252e+02 -2.069105237338857e-10 -2.024065136956204e-12 -2.609286119810916e-10
-6.111432657492935e+02 -2.619779880100410e+02 -2.619779880098960e+02 7.201551286131874e-10 -1.406362287883993e-10 9.156294923986408e-11
-6.111432657487150e+02 -2.619779880097507e+02 -2.619779880095285e+02 1.360136538917753e-10 3.957743636668183e-10 -3.168181789748688e-10
-6.111432657504988e+02 -2.619779880119086e+02 -2.619779880118787e+02 1.656076986039632e-11 -2.286135752517557e-10 -2.108937248315653e-10
-6.111432657494732e+02 -2.619779880105501e+02 -2.619779880106408e+02 -1.770921647402513e-10 2.077670209299269e-10 1.590525939832417e-10
-6.104116836915915e+02 -2.616643105556312e+02 -2.616643105557609e+02 2.871973629268254e-10 1.822297903047432e-12 8.351616680419433e-11
-6.104116836911350e+02 -2.616643105550928e+02 -2.616643105549252e+02 -2.069105237338857e-10 -2.024065136956204e-12 -2.609286119810916e-10
-6.104116836912347e+02 -2.616643105550143e+02 -2.616643105547156e+02 1.491676849268627e-10 2.881531890595333e-11 2.943817905340169e-10
-6.104116836918249e+02 -2.616643105558136e+02 -2.616643105555237e+02 1.853948342960975e-10 -1.651610848301141e-10 1.409266648136788e-10
-6.111432657480883e+02 -2.619779880092121e+02 -2.619779880095098e+02 -2.255504559578537e-10 7.071787591727375e-11 1.784913989605341e-10
-6.111432657494732e+02 -2.619779880105501e+02 -2.619779880106408e+02 -1.770921647402513e-10 2.077670209299269e-10 1.590525939832417e-10
-6.111432657488729e+02 -2.619779880098672e+02 -2.619779880103346e+02 1.331068785143921e-10 1.168668227812027e-10 8.404934989725863e-11
-6.111432657507434e+02 -2.619779880116280e+02 -2.619779880116736e+02 -4.988983085094711e-12 -3.340819033282631e-11 -1.992863794534479e-10
-6.104116836911350e+02 -2.616643105550928e+02 -2.616643105549252e+02 -2.069105237338857e-10 -2.024065136956204e-12 -2.609286119810916e-10
-6.104116836909695e+02 -2.616643105551187e+02 -2.616643105541604e+02 -2.400556673226478e-10 8.766872188056329e-11 -2.769418081777184e-10
-6.104116836906439e+02 -2.616643105545321e+02 -2.616643105551829e+02 -1.053290412116661e-10 3.095617372006766e-10 -3.314538136011065e-10
-6.104116836912347e+02 -2.616643105550143e+02 -2.616643105547156e+02 1.491676849268627e-10 2.881531890595333e-11 2.943817905340169e-10
-6.111432657494732e+02 -2.619779880105501e+02 -2.619779880106408e+02 -1.770921647402513e-10 2.077670209299269e-10 1.590525939832417e-10
-6.111432657504988e+02 -2.619779880119086e+02 -2.619779880118787e+02 1.656076986039632e-11 -2.286135752517557e-10 -2.108937248315653e-10
-6.111432657491293e+02 -2.619779880101966e+02 -2.619779880099367e+02 -1.605808773249463e-11 3.017096868204360e-10 -5.824692924145674e-10
-6.111432657488729e+02 -2.619779880098672e+02 -2.619779880103346e+02 1.331068785143921e-10 1.168668227812027e-10 8.404934989725863e-11
-6.104116836918249e+02 -2.616643105558136e+02 -2.616643105555237e+02 1.853948342960975e-10 -1.651610848301141e-10 1.409266648136788e-10
-6.104116836912347e+02 -2.616643105550143e+02 -2.616643105547156e+02 1.491676849268627e-10 2.881531890595333e-11 2.943817905340169e-10
-6.104116836905903e+02 -2.616643105550419e+02 -2.616643105551789e+02 1.797886035566992e-10 9.045312639142902e-11 -1.406383263225662e-10
-6.104116836910374e+02 -2.616643105552984e+02 -2.616643105549699e+02 -9.662628872228952e-11 -2.691284191954069e-10 -3.943355263290161e-11
-6.111432657507434e+02 -2.619779880116280e+02 -2.619779880116736e+02 -4.988983085094711e-12 -3.340819033282631e-11 -1.992863794534479e-10
-6.111432657488729e+02 -2.619779880098672e+02 -2.619779880103346e+02 1.331068785143921e-10 1.168668227812027e-10 8.404934989725863e-11
-6.111432657497246e+02 -2.619779880104909e+02 -2.619779880105187e+02 3.325192579763863e-11 5.717671927867802e-11 1.051582901964027e-11
-6.111432657484482e+02 -2.619779880099742e+02 -2.619779880099373e+02 1.474399619458926e-11 1.973043313715288e-11 -1.911498619966894e-10
-6.104116836912347e+02 -2.616643105550143e+02 -2.616643105547156e+02 1.491676849268627e-10 2.881531890595333e-11 2.943817905340169e-10
-6.104116836906439e+02 -2.616643105545321e+02 -2.616643105551829e+02 -1.053290412116661e-10 3.095617372006766e-10 -3.314538136011065e-10
-6.104116836910290e+02 -2.616643105552868e+02 -2.616643105558798e+02 -1.948274663820616e-11 2.768007018641787e-10 3.934255526278228e-10
-6.104116836905903e+02 -2.616643105550419e+02 -2.616643105551789e+02 1.797886035566992e-10 9.045312639142902e-11 -1.406383263225662e-10
-6.111432657488729e+02 -2.619779880098672e+02 -2.619779880103346e+02 1.331068785143921e-10 1.168668227812027e-10 8.404934989725863e-11
-6.111432657491293e+02 -2.619779880101966e+02 -2.619779880099367e+02 -1.605808773249463e-11 3.017096868204360e-10 -5.824692924145674e-10
-6.111432657486573e+02 -2.619779880103537e+02 -2.619779880104645e+02 -3.909026720963361e-12 2.539722454854219e-10 1.779462439384143e-12
-6.111432657497246e+02 -2.619779880104909e+02 -2.619779880105187e+02 3.325192579763863e-11 5.717671927867802e-11 1.051582901964027e-11
-6.104116836910374e+02 -2.616643105552984e+02 -2.616643105549699e+02 -9.662628872228952e-11 -2.691284191954069e-10 -3.943355263290161e-11
-6.104116836905903e+02 -2.616643105550419e+02 -2.616643105551789e+02 1.797886035566992e-10 9.045312639142902e-11 -1.406383263225662e-10
-6.104116836911478e+02 -2.616643105551843e+02 -2.616643105552180e+02 8.703146921310186e-11 2.275127526302896e-10 2.016369266783160e-10
-6.104116836915470e+02 -2.616643105555964e+02 -2.616643105556112e+02 -5.216464145690470e-11 -5.543398368839232e-12 2.025868891022898e-10
-6.111432657484482e+02 -2.619779880099742e+02 -2.619779880099373e+02 1.474399619458926e-11 1.973043313715288e-11 -1.911498619966894e-10
-6.111432657497246e+02 -2.619779880104909e+02 -2.619779880105187e+02 3.325192579763863e-11 5.717671927867802e-11 1.051582901964027e-11
-6.111432657497321e+02 -2.619779880111346e+02 -2.619779880111042e+02 -2.491281923420255e-10 2.669581918565113e-10 -1.312511600598330e-10
-6.111432657493466e+02 -2.619779880107316e+02 -2.619779880113690e+02 -1.136178924345098e-10 1.761501676422366e-11 -1.008428620231406e-10
-6.104116836905903e+02 -2.616643105550419e+02 -2.616643105551789e+02 1.797886035566992e-10 9.045312639142902e-11 -1.406383263225662e-10
-6.104116836910290e+02 -2.616643105552868e+02 -2.616643105558798e+02 -1.948274663820616e-11 2.768007018641787e-10 3.934255526278228e-10
-6.104116836918492e+02 -2.616643105558052e+02 -2.616643105558907e+02 2.382748896415662e-10 1.154008571357942e-11 -1.372922486074679e-10
-6.104116836911478e+02 -2.616643105551843e+02 -2.616643105552180e+02 8.703146921310186e-11 2.275127526302896e-10 2.016369266783160e-10
-6.111432657497246e+02 -2.619779880104909e+02 -2.619779880105187e+02 3.325192579763863e-11 5.717671927867802e-11 1.051582901964027e-11
-6.111432657486573e+02 -2.619779880103537e+02 -2.619779880104645e+02 -3.909026720963361e-12 2.539722454854219e-10 1.779462439384143e-12
-6.111432657481137e+02 -2.619779880093523e+02 -2.619779880095134e+02 1.961055202523912e-10 2.692717048180037e-10 -9.003403233186648e-11
-6.111432657497321e+02 -2.619779880111346e+02 -2.619779880111042e+02 -2.491281923420255e-10 2.669581918565113e-10 -1.312511600598330e-10
-6.104116836915470e+02 -2.616643105555964e+02 -2.616643105556112e+02 -5.216464145690470e-11 -5.543398368839232e-12 2.025868891022898e-10
-6.104116836911478e+02 -2.616643105551843e+02 -2.616643105552180e+02 8.703146921310186e-11 2.275127526302896e-10 2.016369266783160e-10
-6.104116836912176e+02 -2.616643105543727e+02 -2.616643105550718e+02 1.051506240614047e-10 -6.751740085802376e-11 2.279902509659283e-11
-6.104116836910172e+02 -2.616643105545234e+02 -2.616643105548520e+02 6.107780029064477e-10 -2.707099596497606e-11 -2.293808583671123e-10
-6.111432657493466e+02 -2.619779880107316e+02 -2.619779880113690e+02 -1.136178924345098e-10 1.761501676422366e-11 -1.008428620231406e-10
-6.111432657497321e+02 -2.619779880111346e+02 -2.619779880111042e+02 -2.491281923420255e-10 2.669581918565113e-10 -1.312511600598330e-10
-6.111432657495182e+02 -2.619779880105787e+02 -2.619779880110077e+02 5.144089658339677e-11 -1.447175488836204e-10 7.738918369245120e-11
-6.111432657508783e+02 -2.619779880123272e+02 -2.619779880115913e+02 3.401617253109006e-10 1.386147296942677e-10 -6.636874156695411e-11
-6.104116836911478e+02 -2.616643105551843e+02 -2.616643105552180e+02 8.703146921310186e-11 2.275127526302896e-10 2.016369266783160e-10
-6.104116836918492e+02 -2.616643105558052e+02 -2.616643105558907e+02 2.382748896415662e-10 1.154008571357942e-11 -1.372922486074679e-10
-6.104116836906801e+02 -2.616643105560512e+02 -2.616643105554790e+02 -1.407596312251808e-10 -6.134507549406793e-11 4.185864661298653e-10
-6.104116836912176e+02 -2.616643105543727e+02 -2.616643105550718e+02 1.051506240614047e-10 -6.751740085802376e-11 2.279902509659283e-11
-6.111432657497321e+02 -2.619779880111346e+02 -2.619779880111042e+02 -2.491281923420255e-10 2.669581918565113e-10 -1.312511600598330e-10
-6.111432657481137e+02 -2.619779880093523e+02 -2.619779880095134e+02 1.961055202523912e-10 2.692717048180037e-10 -9.003403233186648e-11
-6.111432657506098e+02 -2.619779880116176e+02 -2.619779880118020e+02 4.187099055630993e-10 -2.692271551563292e-10 1.373813643348544e-10
-6.111432657495182e+02 -2.619779880105787e+02 -2.619779880110077e+02 5.144089658339677e-11 -1.447175488836204e-10 7.738918369245120e-11
-6.111432657491014e+02 -2.619779880098384e+02 -2.619779880104602e+02 1.481563701362495e-10 -4.533802065857517e-11 1.377559508126814e-10
-6.111432657492935e+02 -2.619779880100410e+02 -2.619779880098960e+02 7.201551286131874e-10 -1.406362287883993e-10 9.156294923986408e-11
-6.111432657494732e+02 -2.619779880105501e+02 -2.619779880106408e+02 -1.770921647402513e-10 2.077670209299269e-10 1.590525939832417e-10
-6.111432657480883e+02 -2.619779880092121e+02 -2.619779880095098e+02 -2.255504559578537e-10 7.071787591727375e-11 1.784913989605341e-10
-6.129302362205202e+02 -2.627441807629397e+02 -2.627441807622420e+02 1.060140597633664e-09 3.320920396303296e-10 -1.696973355370858e-10
-6.129302362207867e+02 -2.627441807614234e+02 -2.627441807618444e+02 -3.444577366459401e-10 1.459142081452015e-10 2.076701896524942e-10
-6.129302362195056e+02 -2.627441807613017e+02 -2.627441807610579e+02 -9.155153037243050e-11 -3.679710069918241e-11 3.143325485781624e-10
-6.129302362208658e+02 -2.627441807615692e+02 -2.627441807617112e+02 -3.495330965728704e-10 1.494316943075551e-10 4.838956857097380e-11
-6.111432657492935e+02 -2.619779880100410e+02 -2.619779880098960e+02 7.201551286131874e-10 -1.406362287883993e-10 9.156294923986408e-11
-6.111432657487150e+02 -2.619779880097507e+02 -2.619779880095285e+02 1.360136538917753e-10 3.957743636668183e-10 -3.168181789748688e-10
-6.111432657504988e+02 -2.619779880119086e+02 -2.619779880118787e+02 1.656076986039632e-11 -2.286135752517557e-10 -2.108937248315653e-10
-6.111432657494732e+02 -2.619779880105501e+02 -2.619779880106408e+02 -1.770921647402513e-10 2.077670209299269e-10 1.590525939832417e-10
-6.129302362207867e+02 -2.627441807614234e+02 -2.627441807618444e+02 -3.444577366459401e-10 1.459142081452015e-10 2.076701896524942e-10
-6.129302362191873e+02 -2.627441807604317e+02 -2.627441807604140e+02 1.807591843682190e-10 -5.460838909205495e-11 -7.484121950561381e-10
-6.129302362192650e+02 -2.627441807617429e+02 -2.627441807608848e+02 -1.708574724358117e-10 -2.554363034887065e-10 -8.727528357012447e-11
-6.129302362195056e+02 -2.627441807613017e+02 -2.627441807610579e+02 -9.155153037243050e-11 -3.679710069918241e-11 3.143325485781624e-10
-6.111432657480883e+02 -2.619779880092121e+02 -2.619779880095098e+02 -2.255504559578537e-10 7.071787591727375e-11 1.784913989605341e-10
-6.111432657494732e+02 -2.619779880105501e+02 -2.619779880106408e+02 -1.770921647402513e-10 2.077670209299269e-10 1.590525939832417e-10
-6.111432657488729e+02 -2.619779880098672e+02 -2.619779880103346e+02 1.331068785143921e-10 1.168668227812027e-10 8.404934989725863e-11
-6.111432657507434e+02 -2.619779880116280e+02 -2.619779880116736e+02 -4.988983085094711e-12 -3.340819033282631e-11 -1.992863794534479e-10
-6.129302362208658e+02 -2.627441807615692e+02 -2.627441807617112e+02 -3.495330965728704e-10 1.494316943075551e-10 4.838956857097380e-11
-6.129302362195056e+02 -2.627441807613017e+02 -2.627441807610579e+02 -9.155153037243050e-11 -3.679710069918241e-11 3.143325485781624e-10
-6.129302362207485e+02 -2.627441807614872e+02 -2.627441807618063e+02 -1.707570723057317e-11 1.108651432342815e-10 -7.418339901054034e-11
-6.129302362200052e+02 -2.627441807615297e+02 -2.627441807615279e+02 -1.381299319193626e-10 2.910524726948643e-11 3.931776774255834e-11
-6.111432657494732e+02 -2.619779880105501e+02 -2.619779880106408e+02 -1.770921647402513e-10 2.077670209299269e-10 1.590525939832417e-10
-6.111432657504988e+02 -2.619779880119086e+02 -2.619779880118787e+02 1.656076986039632e-11 -2.286135752517557e-10 -2.108937248315653e-10
-6.111432657491293e+02 -2.619779880101966e+02 -2.619779880099367e+02 -1.605808773249463e-11 3.017096868204360e-10 -5.824692924145674e-10
-6.111432657488729e+02 -2.619779880098672e+02 -2.619779880103346e+02 1.331068785143921e-10 1.168668227812027e-10 8.404934989725863e-11
-6.129302362195056e+02 -2.627441807613017e+02 -2.627441807610579e+02 -9.155153037243050e-11 -3.679710069918241e-11 3.143325485781624e-10
-6.129302362192650e+02 -2.627441807617429e+02 -2.627441807608848e+02 -1.708574724358117e-10 -2.554363034887065e-10 -8.727528357012447e-11
-6.129302362199130e+02 -2.627441807617630e+02 -2.627441807619703e+02 2.323348744326017e-10 3.838824035643807e-10 9.734238702020098e-11
-6.129302362207485e+02 -2.627441807614872e+02 -2.627441807618063e+02 -1.707570723057317e-11 1.108651432342815e-10 -7.418339901054034e-11
-6.111432657507434e+02 -2.619779880116280e+02 -2.619779880116736e+02 -4.988983085094711e-12 -3.340819033282631e-11 -1.992863794534479e-10
-6.111432657488729e+02 -2.619779880098672e+02 -2.619779880103346e+02 1.331068785143921e-10 1.168668227812027e-10 8.404934989725863e-11
-6.111432657497246e+02 -2.619779880104909e+02 -2.619779880105187e+02 3.325192579763863e-11 5.717671927867802e-11 1.051582901964027e-11
-6.111432657484482e+02 -2.619779880099742e+02 -2.619779880099373e+02 1.474399619458926e-11 1.973043313715288e-11 -1.911498619966894e-10
-6.129302362200052e+02 -2.627441807615297e+02 -2.627441807615279e+02 -1.381299319193626e-10 2.910524726948643e-11 3.931776774255834e-11
-6.129302362207485e+02 -2.627441807614872e+02 -2.627441807618063e+02 -1.707570723057317e-11 1.108651432342815e-10 -7.418339901054034e-11
-6.129302362206274e+02 -2.627441807624327e+02 -2.627441807619931e+02 -1.416113283172323e-10 5.773536728467678e-11 2.974785662981686e-10
-6.129302362205233e+02 -2.627441807623376e+02 -2.627441807620130e+02 -5.004983979431849e-11 -1.181569790910021e-10 3.445856592556893e-11
-6.111432657488729e+02 -2.619779880098672e+02 -2.619779880103346e+02 1.331068785143921e-10 1.168668227812027e-10 8.404934989725863e-11
-6.111432657491293e+02 -2.619779880101966e+02 -2.619779880099367e+02 -1.605808773249463e-11 3.017096868204360e-10 -5.824692924145674e-10
-6.111432657486573e+02 -2.619779880103537e+02 -2.619779880104645e+02 -3.909026720963361e-12 2.539722454854219e-10 1.779462439384143e-12
-6.111432657497246e+02 -2.619779880104909e+02 -2.619779880105187e+02 3.325192579763863e-11 5.717671927867802e-11 1.051582901964027e-11
-6.129302362207485e+02 -2.627441807614872e+02 -2.627441807618063e+02 -1.707570723057317e-11 1.108651432342815e-10 -7.418339901054034e-11
-6.129302362199130e+02 -2.627441807617630e+02 -2.627441807619703e+02 2.323348744326017e-10 3.838824035643807e-10 9.734238702020098e-11
-6.129302362210907e+02 -2.627441807622051e+02 -2.627441807623957e+02 8.244597407312794e-11 1.273510446604711e-10 -6.984645302027546e-10
-6.129302362206274e+02 -2.627441807624327e+02 -2.627441807619931e+02 -1.416113283172323e-10 5.773536728467678e-11 2.974785662981686e-10
-6.111432657484482e+02 -2.619779880099742e+02 -2.619779880099373e+02 1.474399619458926e-11 1.973043313715288e-11 -1.911498619966894e-10
-6.111432657497246e+02 -2.619779880104909e+02 -2.619779880105187e+02 3.325192579763863e-11 5.717671927867802e-11 1.051582901964027e-11
-6.111432657497321e+02 -2.619779880111346e+02 -2.619779880111042e+02 -2.491281923420255e-10 2.669581918565113e-10 -1.312511600598330e-10
-6.111432657493466e+02 -2.619779880107316e+02 -2.619779880113690e+02 -1.136178924345098e-10 1.761501676422366e-11 -1.008428620231406e-10
-6.129302362205233e+02 -2.627441807623376e+02 -2.627441807620130e+02 -5.004983979431849e-11 -1.181569790910021e-10 3.445856592556893e-11
-6.129302362206274e+02 -2.627441807624327e+02 -2.627441807619931e+02 -1.416113283172323e-10 5.773536728467678e-11 2.974785662981686e-10
-6.129302362216475e+02 -2.627441807623861e+02 -2.627441807623105e+02 1.360508593207364e-11 -7.324798169699612e-11 -1.001949995669737e-10
-6.129302362216723e+02 -2.627441807628408e+02 -2.627441807624244e+02 -2.212620140377299e-10 1.979474172135833e-10 1.958309129466462e-10
-6.111432657497246e+02 -2.619779880104909e+02 -2.619779880105187e+02 3.325192579763863e-11 5.717671927867802e-11 1.051582901964027e-11
-6.111432657486573e+02 -2.619779880103537e+02 -2.619779880104645e+02 -3.909026720963361e-12 2.539722454854219e-10 1.779462439384143e-12
-6.111432657481137e+02 -2.619779880093523e+02 -2.619779880095134e+02 1.961055202523912e-10 2.692717048180037e-10 -9.003403233186648e-11
-6.111432657497321e+02 -2.619779880111346e+02 -2.619779880111042e+02 -2.491281923420255e-10 2.669581918565113e-10 -1.312511600598330e-10
-6.129302362206274e+02 -2.627441807624327e+02 -2.627441807619931e+02 -1.416113283172323e-10 5.773536728467678e-11 2.974785662981686e-10
-6.129302362210907e+02 -2.627441807622051e+02 -2.627441807623957e+02 8.244597407312794e-11 1.273510446604711e-10 -6.984645302027546e-10
-6.129302362212150e+02 -2.627441807629762e+02 -2.627441807629769e+02 7.490057232300701e-11 -2.052316771213608e-10 -4.707483726104376e-10
-6.129302362216475e+02 -2.627441807623861e+02 -2.627441807623105e+02 1.360508593207364e-11 -7.324798169699612e-11 -1.001949995669737e-10
-6.111432657493466e+02 -2.619779880107316e+02 -2.619779880113690e+02 -1.136178924345098e-10 1.761501676422366e-11 -1.008428620231406e-10
-6.111432657497321e+02 -2.619779880111346e+02 -2.619779880111042e+02 -2.491281923420255e-10 2.669581918565113e-10 -1.312511600598330e-10
-6.111432657495182e+02 -2.619779880105787e+02 -2.619779880110077e+02 5.144089658339677e-11 -1.447175488836204e-10 7.738918369245120e-11
-6.111432657508783e+02 -2.619779880123272e+02 -2.619779880115913e+02 3.401617253109006e-10 1.386147296942677e-10 -6.636874156695411e-11
-6.129302362216723e+02 -2.627441807628408e+02 -2.627441807624244e+02 -2.212620140377299e-10 1.979474172135833e-10 1.958309129466462e-10
-6.129302362216475e+02 -2.627441807623861e+02 -2.627441807623105e+02 1.360508593207364e-11 -7.324798169699612e-11 -1.001949995669737e-10
-6.129302362214939e+02 -2.627441807623456e+02 -2.627441807627160e+02 1.896304519390171e-10 3.066011194947475e-11 1.736137953421131e-10
-6.129302362197080e+02 -2.627441807602252e+02 -2.627441807614059e+02 2.044598344596106e-11 -8.365639029279497e-11 -2.230647935604539e-10
-6.111432657497321e+02 -2.619779880111346e+02 -2.619779880111042e+02 -2.491281923420255e-10 2.669581918565113e-10 -1.312511600598330e-10
-6.111432657481137e+02 -2.619779880093523e+02 -2.619779880095134e+02 1.961055202523912e-10 2.692717048180037e-10 -9.003403233186648e-11
-6.111432657506098e+02 -2.619779880116176e+02 -2.619779880118020e+02 4.187099055630993e-10 -2.692271551563292e-10 1.373813643348544e-10
-6.111432657495182e+02 -2.619779880105787e+02 -2.619779880110077e+02 5.144089658339677e-11 -1.447175488836204e-10 7.738918369245120e-11
-6.129302362216475e+02 -2.627441807623861e+02 -2.627441807623105e+02 1.360508593207364e-11 -7.324798169699612e-11 -1.001949995669737e-10
-6.129302362212150e+02 -2.627441807629762e+02 -2.627441807629769e+02 7.490057232300701e-11 -2.052316771213608e-10 -4.707483726104376e-10
-6.129302362188319e+02 -2.627441807608892e+02 -2.627441807611248e+02 2.137220963670937e-10 3.834885329667912e-11 -1.999314334163466e-10
-6.129302362214939e+02 -2.627441807623456e+02 -2.627441807627160e+02 1.896304519390171e-10 3.066011194947475e-11 1.736137953421131e-10
-6.129302362205202e+02 -2.627441807629397e+02 -2.627441807622420e+02 1.060140597633664e-09 3.320920396303296e-10 -1.696973355370858e-10
-6.129302362207867e+02 -2.627441807614234e+02 -2.627441807618444e+02 -3.444577366459401e-10 1.459142081452015e-10 2.076701896524942e-10
-6.129302362195056e+02 -2.627441807613017e+02 -2.627441807610579e+02 -9.155153037243050e-11 -3.679710069918241e-11 3.143325485781624e-10
-6.129302362208658e+02 -2.627441807615692e+02 -2.627441807617112e+02 -3.495330965728704e-10 1.494316943075551e-10 4.838956857097380e-11
-6.140824681829206e+02 -2.632382192512034e+02 -2.632382192515000e+02 -3.502761765846042e-10 -1.038140434331207e-10 3.072713045843347e-10
-6.140824681858933e+02 -2.632382192547258e+02 -2.632382192537358e+02 4.787353959427214e-10 -1.307930580383465e-11 4.378648861165221e-10
-6.140824681845904e+02 -2.632382192533355e+02 -2.632382192529345e+02 1.105692059247637e-10 -5.176672029593840e-11 -2.881696048585911e-10
-6.140824681849415e+02 -2.632382192525024e+02 -2.632382192525740e+02 -2.624128164730606e-10 -8.708321365012394e-12 -2.269109941080589e-10
-6.129302362207867e+02 -2.627441807614234e+02 -2.627441807618444e+02 -3.444577366459401e-10 1.459142081452015e-10 2.076701896524942e-10
-6.129302362191873e+02 -2.627441807604317e+02 -2.627441807604140e+02 1.807591843682190e-10 -5.460838909205495e-11 -7.484121950561381e-10
-6.129302362192650e+02 -2.627441807617429e+02 -2.627441807608848e+02 -1.708574724358117e-10 -2.554363034887065e-10 -8.727528357012447e-11
-6.129302362195056e+02 -2.627441807613017e+02 -2.627441807610579e+02 -9.155153037243050e-11 -3.679710069918241e-11 3.143325485781624e-10
-6.140824681858933e+02 -2.632382192547258e+02 -2.632382192537358e+02 4.787353959427214e-10 -1.307930580383465e-11 4.378648861165221e-10
-6.140824681860458e+02 -2.632382192532981e+02 -2.632382192534030e+02 5.653486181921988e-10 5.802560166268703e-11 5.653443078449147e-10
-6.140824681826269e+02 -2.632382192517159e+02 -2.632382192518528e+02 6.132620433582896e-10 -3.348229991366616e-11 1.222906454503776e-10
-6.140824681845904e+02 -2.632382192533355e+02 -2.632382192529345e+02 1.105692059247637e-10 -5.176672029593840e-11 -2.881696048585911e-10
-6.129302362208658e+02 -2.627441807615692e+02 -2.627441807617112e+02 -3.495330965728704e-10 1.494316943075551e-10 4.838956857097380e-11
-6.129302362195056e+02 -2.627441807613017e+02 -2.627441807610579e+02 -9.155153037243050e-11 -3.679710069918241e-11 3.143325485781624e-10
-6.129302362207485e+02 -2.627441807614872e+02 -2.627441807618063e+02 -1.707570723057317e-11 1.108651432342815e-10 -7.418339901054034e-11
-6.129302362200052e+02 -2.627441807615297e+02 -2.627441807615279e+02 -1.381299319193626e-10 2.910524726948643e-11 3.931776774255834e-11
-6.140824681849415e+02 -2.632382192525024e+02 -2.632382192525740e+02 -2.624128164730606e-10 -8.708321365012394e-12 -2.269109941080589e-10
-6.140824681845904e+02 -2.632382192533355e+02 -2.632382192529345e+02 1.105692059247637e-10 -5.176672029593840e-11 -2.881696048585911e-10
-6.140824681841125e+02 -2.632382192524543e+02 -2.632382192525841e+02 -4.801710059900826e-11 2.800326259950122e-10 -3.905739057373812e-10
-6.140824681847450e+02 -2.632382192526326e+02 -2.632382192523668e+02 1.041435198738459e-10 -9.242783138095972e-11 -1.245222356643924e-10
-6.129302362195056e+02 -2.627441807613017e+02 -2.627441807610579e+02 -9.155153037243050e-11 -3.679710069918241e-11 3.143325485781624e-10
-6.129302362192650e+02 -2.627441807617429e+02 -2.627441807608848e+02 -1.708574724358117e-10 -2.554363034887065e-10 -8.727528357012447e-11
-6.129302362199130e+02 -2.627441807617630e+02 -2.627441807619703e+02 2.323348744326017e-10 3.838824035643807e-10 9.734238702020098e-11
-6.129302362207485e+02 -2.627441807614872e+02 -2.627441807618063e+02 -1.707570723057317e-11 1.108651432342815e-10 -7.418339901054034e-11
-6.140824681845904e+02 -2.632382192533355e+02 -2.632382192529345e+02 1.105692059247637e-10 -5.176672029593840e-11 -2.881696048585911e-10
-6.140824681826269e+02 -2.632382192517159e+02 -2.632382192518528e+02 6.132620433582896e-10 -3.348229991366616e-11 1.222906454503776e-10
-6.140824681843919e+02 -2.632382192538511e+02 -2.632382192533584e+02 -5.186129104353742e-10 -3.327528784067862e-11 -1.477614890530960e-09
-6.140824681841125e+02 -2.632382192524543e+02 -2.632382192525841e+02 -4.801710059900826e-11 2.800326259950122e-10 -3.905739057373812e-10
-6.129302362200052e+02 -2.627441807615297e+02 -2.627441807615279e+02 -1.381299319193626e-10 2.910524726948643e-11 3.931776774255834e-11
-6.129302362207485e+02 -2.627441807614872e+02 -2.627441807618063e+02 -1.707570723057317e-11 1.108651432342815e-10 -7.418339901054034e-11
-6.129302362206274e+02 -2.627441807624327e+02 -2.627441807619931e+02 -1.416113283172323e-10 5.773536728467678e-11 2.974785662981686e-10
-6.129302362205233e+02 -2.627441807623376e+02 -2.627441807620130e+02 -5.004983979431849e-11 -1.181569790910021e-10 3.445856592556893e-11
-6.140824681847450e+02 -2.632382192526326e+02 -2.632382192523668e+02 1.041435198738459e-10 -9.242783138095972e-11 -1.245222356643924e-10
-6.140824681841125e+02 -2.632382192524543e+02 -2.632382192525841e+02 -4.801710059900826e-11 2.800326259950122e-10 -3.905739057373812e-10
-6.140824681853981e+02 -2.632382192533386e+02 -2.632382192539663e+02 1.339419184168966e-10 7.392544917756430e-11 6.542928841365293e-10
-6.140824681856426e+02 -2.632382192535142e+02 -2.632382192540043e+02 -3.248302844559576e-10 -7.743352386460771e-11 -2.807911765668855e-10
-6.129302362207485e+02 -2.627441807614872e+02 -2.627441807618063e+02 -1.707570723057317e-11 1.108651432342815e-10 -7.418339901054034e-11
-6.129302362199130e+02 -2.627441807617630e+02 -2.627441807619703e+02 2.323348744326017e-10 3.838824035643807e-10 9.734238702020098e-11
-6.129302362210907e+02 -2.627441807622051e+02 -2.627441807623957e+02 8.244597407312794e-11 1.273510446604711e-10 -6.984645302027546e-10
-6.129302362206274e+02 -2.627441807624327e+02 -2.627441807619931e+02 -1.416113283172323e-10 5.773536728467678e-11 2.974785662981686e-10
-6.140824681841125e+02 -2.632382192524543e+02 -2.632382192525841e+02 -4.801710059900826e-11 2.800326259950122e-10 -3.905739057373812e-10
-6.140824681843919e+02 -2.632382192538511e+02 -2.632382192533584e+02 -5.186129104353742e-10 -3.327528784067862e-11 -1.477614890530960e-09
-6.140824681852976e+02 -2.632382192523771e+02 -2.632382192524993e+02 -4.860118517327426e-10 2.732119093714768e-10 1.369648640467777e-10
-6.140824681853981e+02 -2.632382192533386e+02 -2.632382192539663e+02 1.339419184168966e-10 7.392544917756430e-11 6.542928841365293e-10
-6.129302362205233e+02 -2.627441807623376e+02 -2.627441807620130e+02 -5.004983979431849e-11 -1.181569790910021e-10 3.445856592556893e-11
-6.129302362206274e+02 -2.627441807624327e+02 -2.627441807619931e+02 -1.416113283172323e-10 5.773536728467678e-11 2.974785662981686e-10
-6.129302362216475e+02 -2.627441807623861e+02 -2.627441807623105e+02 1.360508593207364e-11 -7.324798169699612e-11 -1.001949995669737e-10
-6.129302362216723e+02 -2.627441807628408e+02 -2.627441807624244e+02 -2.212620140377299e-10 1.979474172135833e-10 1.958309129466462e-10
-6.140824681856426e+02 -2.632382192535142e+02 -2.632382192540043e+02 -3.248302844559576e-10 -7.743352386460771e-11 -2.807911765668855e-10
-6.140824681853981e+02 -2.632382192533386e+02 -2.632382192539663e+02 1.339419184168966e-10 7.392544917756430e-11 6.542928841365293e-10
-6.140824681857232e+02 -2.632382192528526e+02 -2.632382192528121e+02 -9.362022710343221e-11 -6.304564886581021e-11 -7.773990714364264e-11
-6.140824681853117e+02 -2.632382192530357e+02 -2.632382192534261e+02 -1.803823515117817e-10 4.609249544299679e-11 -1.784926672036502e-11
-6.129302362206274e+02 -2.627441807624327e+02 -2.627441807619931e+02 -1.416113283172323e-10 5.773536728467678e-11 2.974785662981686e-10
-6.129302362210907e+02 -2.627441807622051e+02 -2.627441807623957e+02 8.244597407312794e-11 1.273510446604711e-10 -6.984645302027546e-10
-6.129302362212150e+02 -2.627441807629762e+02 -2.627441807629769e+02 7.490057232300701e-11 -2.052316771213608e-10 -4.707483726104376e-10
-6.129302362216475e+02 -2.627441807623861e+02 -2.627441807623105e+02 1.360508593207364e-11 -7.324798169699612e-11 -1.001949995669737e-10
-6.140824681853981e+02 -2.632382192533386e+02 -2.632382192539663e+02 1.339419184168966e-10 7.392544917756430e-11 6.542928841365293e-10
-6.140824681852976e+02 -2.632382192523771e+02 -2.632382192524993e+02 -4.860118517327426e-10 2.732119093714768e-10 1.369648640467777e-10
-6.140824681797199e+02 -2.632382192496848e+02 -2.632382192491014e+02 6.222148714606095e-10 1.034569941385745e-11 -1.084497824564876e-09
-6.140824681857232e+02 -2.632382192528526e+02 -2.632382192528121e+02 -9.362022710343221e-11 -6.304564886581021e-11 -7.773990714364264e-11
-6.129302362216723e+02 -2.627441807628408e+02 -2.627441807624244e+02 -2.212620140377299e-10 1.979474172135833e-10 1.958309129466462e-10
-6.129302362216475e+02 -2.627441807623861e+02 -2.627441807623105e+02 1.360508593207364e-11 -7.324798169699612e-11 -1.001949995669737e-10
-6.129302362214939e+02 -2.627441807623456e+02 -2.627441807627160e+02 1.896304519390171e-10 3.066011194947475e-11 1.736137953421131e-10
-6.129302362197080e+02 -2.627441807602252e+02 -2.627441807614059e+02 2.044598344596106e-11 -8.365639029279497e-11 -2.230647935604539e-10
-6.140824681853117e+02 -2.632382192530357e+02 -2.632382192534261e+02 -1.803823515117817e-10 4.609249544299679e-11 -1.784926672036502e-11
-6.140824681857232e+02 -2.632382192528526e+02 -2.632382192528121e+02 -9.362022710343221e-11 -6.304564886581021e-11 -7.773990714364264e-11
-6.140824681846027e+02 -2.632382192515487e+02 -2.632382192517012e+02 1.024259914390725e-09 1.995540558701976e-10 -2.285611781070757e-10
-6.140824681856110e+02 -2.632382192546934e+02 -2.632382192533155e+02 7.441730708644835e-11 1.924408196951336e-10 -8.262353099247433e-11
-6.129302362216475e+02 -2.627441807623861e+02 -2.627441807623105e+02 1.360508593207364e-11 -7.324798169699612e-11 -1.001949995669737e-10
-6.129302362212150e+02 -2.627441807629762e+02 -2.627441807629769e+02 7.490057232300701e-11 -2.052316771213608e-10 -4.707483726104376e-10
-6.129302362188319e+02 -2.627441807608892e+02 -2.627441807611248e+02 2.137220963670937e-10 3.834885329667912e-11 -1.999314334163466e-10
-6.129302362214939e+02 -2.627441807623456e+02 -2.627441807627160e+02 1.896304519390171e-10 3.066011194947475e-11 1.736137953421131e-10
-6.140824681857232e+02 -2.632382192528526e+02 -2.632382192528121e+02 -9.362022710343221e-11 -6.304564886581021e-11 -7.773990714364264e-11
-6.140824681797199e+02 -2.632382192496848e+02 -2.632382192491014e+02 6.222148714606095e-10 1.034569941385745e-11 -1.084497824564876e-09
-6.140824681849272e+02 -2.632382192529540e+02 -2.632382192527735e+02 -5.956569140711247e-10 -2.393779341455079e-10 1.359157027883660e-10
-6.140824681846027e+02 -2.632382192515487e+02 -2.632382192517012e+02 1.024259914390725e-09 1.995540558701976e-10 -2.285611781070757e-10
        </DataArray>
  </PointData>
  <CellData>
        <DataArray type="Float64" Name="element_GL_strains_xyz" NumberOfComponents="6" format="ascii">
-2.268874572022572e-04 5.551115123125783e-17 1.110223024625157e-16 2.607399241355308e-18 1.235990476633476e-17 7.263564108165097e-17
-2.268874572023127e-04 1.665334536937735e-16 0.000000000000000e+00 4.335490023885960e-17 -1.821459649775645e-17 1.188139937330459e-16
-2.268874572022017e-04 -1.249000902703301e-16 -1.387778780781446e-16 -3.490816090076506e-17 -3.968179951296946e-17 1.974113943572370e-17
-2.268874572021601e-04 5.551115123125783e-17 1.665334536937735e-16 2.145795267123769e-17 7.892991815694475e-17 1.500398035639455e-16
-2.268874572020907e-04 -5.551115123125783e-17 -2.498001805406602e-16 -8.324114078908276e-17 1.409462824231154e-17 2.081524495616807e-16
-2.268874572023127e-04 -6.938893903907228e-17 0.000000000000000e+00 1.235793660804215e-17 -8.673617379884070e-19 4.249796973982209e-17
-2.268874572019935e-04 8.326672684688674e-17 -1.665334536937735e-16 7.285149743700177e-17 -1.804112415015879e-16 -4.726255482388050e-17
-2.268874572019519e-04 8.326672684688674e-17 -1.387778780781446e-17 1.431018937391846e-16 -7.199102425303747e-17 -3.728887891616015e-17
-2.268874572018548e-04 -2.775557561562891e-17 -1.387778780781446e-16 -8.738566603540535e-19 6.505213034913028e-17 -2.250573435559671e-16
-2.268874572019380e-04 -4.163336342344337e-17 -6.938893903907228e-17 -1.560640999308418e-17 1.170938346284345e-16 2.078381346823502e-17
-2.265984699808266e-04 1.387778780781446e-17 4.163336342344337e-17 2.083397944192518e-17 2.341876692568692e-17 -4.659838327621648e-17
-2.265984699805351e-04 1.110223024625157e-16 -6.938893903907228e-17 4.315326125736157e-17 4.597017211338536e-17 1.179499921548138e-16
-2.265984699810208e-04 6.938893903907228e-17 -8.326672684688674e-17 2.241785120921532e-16 -1.040834085586084e-17 3.902459499553589e-17
-2.265984699809792e-04 2.775557561562891e-17 0.000000000000000e+00 7.415672582766419e-17 5.724587470723463e-17 -1.153484966361964e-16
-2.265984699807849e-04 -1.110223024625157e-16 1.110223024625157e-16 2.235387727584338e-17 -2.580401170515503e-17 2.990265264551943e-17
-2.265984699807155e-04 -9.714451465470120e-17 8.326672684688674e-17 7.567387174995911e-17 1.101549407245273e-16 -4.339167471333388e-18
-2.265984699808821e-04 0.000000000000000e+00 -4.163336342344337e-17 3.467913744049209e-17 -1.240327285323417e-16 -7.110027126625115e-17
-2.265984699808543e-04 -5.551115123125783e-17 -2.081668171172169e-16 4.768976007543411e-17 4.943961906533901e-17 6.069763079875291e-18
-2.265984699811596e-04 -4.163336342344337e-17 -5.551115123125783e-17 9.255337073439475e-17 1.433315272025836e-16 -1.144430012657138e-16
-2.265984699808959e-04 -2.775557561562891e-17 0.000000000000000e+00 -7.182221487778470e-18 9.801187639268963e-17 2.701378731241614e-16
-2.266703538447434e-04 5.551115123125783e-17 1.110223024625157e-16 -4.974991619101102e-18 1.212138028838794e-16 -1.615277390310165e-16
-2.266703538448406e-04 -1.387778780781446e-17 0.000000000000000e+00 -9.929315793799274e-17 -6.071532165918825e-17 -5.767788424265396e-17
-2.266703538447296e-04 8.326672684688674e-17 1.110223024625157e-16 1.192414456174592e-16 1.481020167615199e-16 2.014944707248158e-17
-2.266703538447018e-04 1.110223024625157e-16 2.775557561562891e-17 3.555141000111646e-17 1.361757928641794e-16 -7.350257553989827e-18
-2.266703538447018e-04 -1.942890293094024e-16 8.326672684688674e-17 -2.016734017310676e-17 -1.639313684798083e-16 1.842534148039224e-17
-2.266703538446047e-04 0.000000000000000e+00 -1.942890293094024e-16 2.080699780836134e-17 1.309716224362489e-16 6.245653384198514e-17
-2.266703538446324e-04 0.000000000000000e+00 -5.551115123125783e-17 2.690453395843052e-17 5.507747036226363e-17 -2.340205358993810e-17
-2.266703538444520e-04 -8.326672684688674e-17 -1.249000902703301e-16 -9.314749721234086e-18 1.188285581044113e-16 6.678390441291614e-17
-2.266703538448406e-04 -6.938893903907228e-17 -1.665334536937735e-16 1.838376270355535e-16 -2.602085213965250e-18 -4.291248206647315e-17
-2.266703538447989e-04 -5.551115123125783e-17 -2.775557561562891e-17 1.842586254321265e-16 1.647987302177966e-17 4.814594998883381e-17
-2.271414994445553e-04 -9.714451465470120e-17 -8.326672684688674e-17 6.064044789337609e-18 1.218643241873707e-16 1.405055082499918e-16
-2.271414994445969e-04 -2.775557561562891e-17 1.110223024625157e-16 -9.105859884429739e-17 1.040834085586084e-17 5.203894577214273e-17
-2.271414994446247e-04 2.220446049250313e-16 5.551115123125783e-17 -8.477948694649509e-17 1.400789206851272e-16 5.484920182666889e-17
-2.271414994448329e-04 1.387778780781446e-16 -8.326672684688674e-17 5.204012798949764e-17 1.214306433183765e-17 2.342152543284839e-17
-2.271414994447080e-04 -1.110223024625157e-16 0.000000000000000e+00 9.127603038747196e-17 -5.767955557622884e-17 -8.896762973607424e-18
-2.271414994446108e-04 5.551115123125783e-17 -5.551115123125783e-17 5.549282686225642e-17 1.374768354711620e-16 -1.396255361935508e-16
-2.271414994446525e-04 -1.665334536937735e-16 5.551115123125783e-17 -1.812604759068007e-16 9.107298248878237e-17 -1.886630001860271e-17
-2.271414994446247e-04 -1.942890293094024e-16 -1.387778780781446e-16 -9.800990603043136e-17 1.309716224362489e-16 -1.682360602649414e-16
-2.271414994446247e-04 -2.775557561562891e-17 -1.387778780781446e-16 -5.379751063144392e-17 6.678685382510707e-17 -1.079676209018774e-16
-2.271414994446108e-04 4.163336342344337e-17 -2.775557561562891e-17 -5.380145135596036e-17 3.556183125752451e-17 -1.569589784175114e-16
-2.279967614978451e-04 -2.636779683484747e-16 -8.326672684688674e-17 -6.415925522124232e-17 1.196959198423996e-16 -4.901582710715857e-17
-2.279967614977479e-04 -6.938893903907228e-17 8.326672684688674e-17 1.040592796162228e-16 -7.806255641895587e-18 7.976642649319407e-17
-2.279967614980533e-04 5.551115123125783e-17 5.551115123125783e-17 7.653834447455581e-17 2.385244779468107e-18 -9.259482109458761e-17
-2.279967614976924e-04 0.000000000000000e+00 -2.775557561562891e-17 1.084953729707352e-17 -8.326672684688672e-17 -1.430771089069942e-16
-2.279967614978451e-04 -1.804112415015879e-16 -5.551115123125783e-17 -2.213868880962950e-17 1.446325698095663e-16 6.027293854867789e-17
-2.279967614979422e-04 8.326672684688674e-17 -2.636779683484747e-16 -5.139790743516626e-17 1.773754754186285e-16 -5.114981804249762e-17
-2.279967614981643e-04 -1.526556658859590e-16 -2.775557561562891e-16 -1.439521839954173e-16 6.375108774214765e-17 8.542089116028587e-17
-2.279967614980533e-04 -1.110223024625157e-16 1.387778780781446e-16 2.687001828174311e-17 -1.249000902703302e-16 -1.049036990811231e-16
-2.279967614981920e-04 3.469446951953614e-16 -1.110223024625157e-16 2.046548478487639e-16 4.857225732735060e-17 -1.256349406034136e-17
-2.279967614979422e-04 6.938893903907228e-17 -1.387778780781446e-16 1.474123353712060e-16 -3.816391647148984e-17 -1.569380855664252e-16
        </DataArray>
        <DataArray type="Float64" Name="element_cauchy_stresses_xyz" NumberOfComponents="6" format="ascii">
-6.110935005486240e+02 -2.619566503228945e+02 -2.619566503228071e+02 3.995030739197641e-12 1.901955388992727e-11 1.117653098023292e-10
-6.110935005488276e+02 -2.619566503228218e+02 -2.619566503230691e+02 6.674042546598035e-11 -2.802881625884023e-11 1.828355781251921e-10
-6.110935005490609e+02 -2.619566503236950e+02 -2.619566503237095e+02 -5.371455341850054e-11 -6.106277827818762e-11 3.034433488808895e-11
-6.110935005483331e+02 -2.619566503227343e+02 -2.619566503225597e+02 3.304070070567676e-11 1.214582037883076e-10 2.308728629337836e-10
-6.110935005487844e+02 -2.619566503234475e+02 -2.619566503237823e+02 -1.281420287874197e-10 2.168896496219780e-11 3.202787506672015e-10
-6.110935005491189e+02 -2.619566503234767e+02 -2.619566503233457e+02 1.901826672512280e-11 -1.334705536135247e-12 6.538997108988444e-11
-6.110935005482897e+02 -2.619566503229381e+02 -2.619566503233019e+02 1.121004247823210e-10 -2.776187515161316e-10 -7.273827166514822e-11
-6.110935005479258e+02 -2.619566503226179e+02 -2.619566503227634e+02 2.201961272316224e-10 -1.107805594992256e-10 -5.739112660458791e-11
-6.110935005479843e+02 -2.619566503229672e+02 -2.619566503231418e+02 -1.324408217699433e-12 1.001029152101436e-10 -3.463129287483586e-10
-6.110935005481150e+02 -2.619566503230254e+02 -2.619566503230545e+02 -2.402863686042463e-11 1.801852473782584e-10 3.207624217713770e-11
-6.103148401395399e+02 -2.616227873599096e+02 -2.616227873598660e+02 3.199904624699415e-11 3.603703905668158e-11 -7.175847479184563e-11
-6.103148401386965e+02 -2.616227873593856e+02 -2.616227873596475e+02 6.638343263966224e-11 7.073937296311568e-11 1.814960047965422e-10
-6.103148401401219e+02 -2.616227873601572e+02 -2.616227873603900e+02 3.449961757961802e-10 -1.601646180296957e-11 6.005840452052531e-11
-6.103148401399762e+02 -2.616227873600989e+02 -2.616227873601280e+02 1.140955876630841e-10 8.809053991633273e-11 -1.774918893457999e-10
-6.103148401394528e+02 -2.616227873600551e+02 -2.616227873597932e+02 3.433115054289734e-11 -3.970747821986210e-11 4.606971093855486e-11
-6.103148401393072e+02 -2.616227873600114e+02 -2.616227873597641e+02 1.164319266288555e-10 1.695075540814281e-10 -6.668383652111760e-12
-6.103148401397581e+02 -2.616227873600698e+02 -2.616227873601425e+02 5.339970011382640e-11 -1.908628364853876e-10 -1.094570139478008e-10
-6.103148401399475e+02 -2.616227873603754e+02 -2.616227873605791e+02 7.341543774483199e-11 7.607819356410552e-11 9.343541004570547e-12
-6.103148401406311e+02 -2.616227873605647e+02 -2.616227873605938e+02 1.425051828081258e-10 2.205600260783937e-10 -1.762161670972871e-10
-6.103148401398018e+02 -2.616227873601134e+02 -2.616227873600843e+02 -1.096806336160274e-11 1.508216819779636e-10 4.157361537121343e-10
-6.105085272419591e+02 -2.617058337495741e+02 -2.617058337495014e+02 -7.691801793016122e-12 1.865250581613050e-10 -2.485607885205243e-10
-6.105085272424247e+02 -2.617058337499963e+02 -2.617058337499818e+02 -1.528195146801878e-10 -9.342936723643183e-11 -8.874034967503746e-11
-6.105085272418863e+02 -2.617058337494577e+02 -2.617058337494141e+02 1.835123646833727e-10 2.279009207945819e-10 3.105058082105460e-11
-6.105085272419155e+02 -2.617058337495159e+02 -2.617058337496323e+02 5.472654596450143e-11 2.095487236588541e-10 -1.137676469567016e-11
-6.105085272421629e+02 -2.617058337503018e+02 -2.617058337498071e+02 -3.102304673206971e-11 -2.522592915383659e-10 2.836543656345090e-11
-6.105085272420322e+02 -2.617058337499381e+02 -2.617058337502727e+02 3.204056586289604e-11 2.015404921814457e-10 9.606700762622655e-11
-6.105085272418720e+02 -2.617058337497343e+02 -2.617058337498798e+02 4.134136937894427e-11 8.475378313590602e-11 -3.605459084791077e-11
-6.105085272415813e+02 -2.617058337498943e+02 -2.617058337499670e+02 -1.435927657606125e-11 1.828546187341594e-10 1.027535444708765e-10
-6.105085272426577e+02 -2.617058337503456e+02 -2.617058337505494e+02 2.829596302086100e-10 -4.004115738704225e-12 -6.608666917781810e-11
-6.105085272424103e+02 -2.617058337501418e+02 -2.617058337500545e+02 2.836463474657387e-10 2.535939967846004e-11 7.404800193223037e-11
-6.117780042565430e+02 -2.622501422713990e+02 -2.622501422713553e+02 9.352340375036373e-12 1.875261754882060e-10 2.161841484153598e-10
-6.117780042563683e+02 -2.622501422710496e+02 -2.622501422708750e+02 -1.401344144638515e-10 1.601647050433072e-11 8.006840525115497e-11
-6.117780042561791e+02 -2.622501422704821e+02 -2.622501422707295e+02 -1.304457446065647e-10 2.155549988707848e-10 8.441855480853067e-11
-6.117780042570665e+02 -2.622501422711517e+02 -2.622501422714282e+02 8.006658604195948e-11 1.868588225505257e-11 3.602462737190826e-11
-6.117780042569358e+02 -2.622501422715300e+02 -2.622501422714137e+02 1.404671055277109e-10 -8.875794071149970e-11 -1.366792495769753e-11
-6.117780042564701e+02 -2.622501422710206e+02 -2.622501422711952e+02 8.542996886754236e-11 2.115508812447022e-10 -2.148691506396168e-10
-6.117780042567175e+02 -2.622501422715154e+02 -2.622501422712244e+02 -2.789180533711152e-10 1.401441169128943e-10 -2.902143894657033e-11
-6.117780042569505e+02 -2.622501422718066e+02 -2.622501422717338e+02 -1.507905341579253e-10 2.015405871794955e-10 -2.589235405725040e-10
-6.117780042567612e+02 -2.622501422713553e+02 -2.622501422715446e+02 -8.270052321336893e-11 1.027723524027891e-10 -1.661622402387531e-10
-6.117780042564848e+02 -2.622501422710497e+02 -2.622501422711370e+02 -8.269445918271723e-11 5.472294088979677e-11 -2.415784282234640e-10
-6.140824681846140e+02 -2.632382192531998e+02 -2.632382192528941e+02 -9.878505818461828e-11 1.841895684018156e-10 -7.537853389249234e-11
-6.140824681839155e+02 -2.632382192523555e+02 -2.632382192521519e+02 1.601654507756876e-10 -1.201236315664013e-11 1.228125235900839e-10
-6.140824681846863e+02 -2.632382192525012e+02 -2.632382192524867e+02 1.177707749597854e-10 3.670444297862274e-12 -1.424413985596495e-10
-6.140824681838865e+02 -2.632382192523410e+02 -2.632382192523555e+02 1.666846836696029e-11 -1.281318736708282e-10 -2.202342664611396e-10
-6.140824681845266e+02 -2.632382192529669e+02 -2.632382192528069e+02 -3.399500776355033e-11 2.225623951521939e-10 9.275437694841831e-11
-6.140824681847010e+02 -2.632382192526468e+02 -2.632382192530978e+02 -7.905301074273857e-11 2.729475850592123e-10 -7.876749635931274e-11
-6.140824681856176e+02 -2.632382192535201e+02 -2.632382192537239e+02 -2.215567997354984e-10 9.810096577922792e-11 1.314605761095715e-10
-6.140824681847155e+02 -2.632382192527340e+02 -2.632382192523993e+02 4.139448249768335e-11 -1.921978105062424e-10 -1.615351573043491e-10
-6.140824681849044e+02 -2.632382192520792e+02 -2.632382192527194e+02 3.149844648923537e-10 7.474359297464980e-11 -1.936922979011244e-11
-6.140824681845846e+02 -2.632382192525304e+02 -2.632382192528067e+02 2.269087145788906e-10 -5.872710876579629e-11 -2.416105784463653e-10
        </DataArray>
      </CellData>

    </Piece>
  </UnstructuredGrid>
</VTKFile>
