<?xml version="1.0" ?> 
<!-- 
# vtk DataFile Version 3.0
-->
<VTKFile type="UnstructuredGrid" version="0.1" compressor="vtkZLibDataCompressor" byte_order="LittleEndian">
  <UnstructuredGrid>
    <FieldData>
      <DataArray type="Float64" Name="TIME" NumberOfTuples="1" format="ascii">
9.999999999999999e-02 
      </DataArray>
    </FieldData>

    <Piece NumberOfPoints="600" NumberOfCells="75" >
      <Points>
        <DataArray type="Float64" NumberOfComponents="3" format="ascii">
-5.000000000000000e+00 -5.000000000000000e+00 5.000000000000000e+00
-5.000000000000000e+00 -5.000000000000000e+00 3.000000000000000e+00
-5.000000000000000e+00 -3.000000000000000e+00 3.000000000000000e+00
-5.000000000000000e+00 -3.000000000000000e+00 5.000000000000000e+00
-3.000000000000000e+00 -5.000000000000000e+00 5.000000000000000e+00
-3.000000000000000e+00 -5.000000000000000e+00 3.000000000000000e+00
-3.000000000000000e+00 -3.000000000000000e+00 3.000000000000000e+00
-3.000000000000000e+00 -3.000000000000000e+00 4.999999999999999e+00
-5.000000000000000e+00 -5.000000000000000e+00 3.000000000000000e+00
-5.000000000000000e+00 -5.000000000000000e+00 1.000000000000000e+00
-5.000000000000000e+00 -3.000000000000000e+00 1.000000000000000e+00
-5.000000000000000e+00 -3.000000000000000e+00 3.000000000000000e+00
-3.000000000000000e+00 -5.000000000000000e+00 3.000000000000000e+00
-3.000000000000000e+00 -5.000000000000000e+00 1.000000000000000e+00
-3.000000000000000e+00 -3.000000000000000e+00 1.000000000000000e+00
-3.000000000000000e+00 -3.000000000000000e+00 3.000000000000000e+00
-5.000000000000000e+00 -5.000000000000000e+00 1.000000000000000e+00
-5.000000000000000e+00 -5.000000000000000e+00 -1.000000000000000e+00
-5.000000000000000e+00 -3.000000000000000e+00 -1.000000000000000e+00
-5.000000000000000e+00 -3.000000000000000e+00 1.000000000000000e+00
-3.000000000000000e+00 -5.000000000000000e+00 1.000000000000000e+00
-3.000000000000000e+00 -5.000000000000000e+00 -1.000000000000000e+00
-3.000000000000000e+00 -3.000000000000000e+00 -1.000000000000000e+00
-3.000000000000000e+00 -3.000000000000000e+00 1.000000000000000e+00
-5.000000000000000e+00 -3.000000000000000e+00 5.000000000000000e+00
-5.000000000000000e+00 -3.000000000000000e+00 3.000000000000000e+00
-5.000000000000000e+00 -1.000000000000000e+00 3.000000000000000e+00
-5.000000000000000e+00 -1.000000000000000e+00 5.000000000000000e+00
-3.000000000000000e+00 -3.000000000000000e+00 4.999999999999999e+00
-3.000000000000000e+00 -3.000000000000000e+00 3.000000000000000e+00
-3.000000000000000e+00 -1.000000000000001e+00 3.000000000000000e+00
-3.000000000000000e+00 -1.000000000000000e+00 5.000000000000000e+00
-5.000000000000000e+00 -3.000000000000000e+00 3.000000000000000e+00
-5.000000000000000e+00 -3.000000000000000e+00 1.000000000000000e+00
-5.000000000000000e+00 -1.000000000000000e+00 1.000000000000000e+00
-5.000000000000000e+00 -1.000000000000000e+00 3.000000000000000e+00
-3.000000000000000e+00 -3.000000000000000e+00 3.000000000000000e+00
-3.000000000000000e+00 -3.000000000000000e+00 1.000000000000000e+00
-3.000000000000000e+00 -1.000000000000000e+00 1.000000000000000e+00
-3.000000000000000e+00 -1.000000000000001e+00 3.000000000000000e+00
-5.000000000000000e+00 -3.000000000000000e+00 1.000000000000000e+00
-5.000000000000000e+00 -3.000000000000000e+00 -1.000000000000000e+00
-5.000000000000000e+00 -1.000000000000000e+00 -1.000000000000000e+00
-5.000000000000000e+00 -1.000000000000000e+00 1.000000000000000e+00
-3.000000000000000e+00 -3.000000000000000e+00 1.000000000000000e+00
-3.000000000000000e+00 -3.000000000000000e+00 -1.000000000000000e+00
-3.000000000000000e+00 -1.000000000000000e+00 -1.000000000000000e+00
-3.000000000000000e+00 -1.000000000000000e+00 1.000000000000000e+00
-5.000000000000000e+00 -1.000000000000000e+00 5.000000000000000e+00
-5.000000000000000e+00 -1.000000000000000e+00 3.000000000000000e+00
-5.000000000000000e+00 1.000000000000000e+00 3.000000000000000e+00
-5.000000000000000e+00 1.000000000000000e+00 5.000000000000000e+00
-3.000000000000000e+00 -1.000000000000000e+00 5.000000000000000e+00
-3.000000000000000e+00 -1.000000000000001e+00 3.000000000000000e+00
-3.000000000000000e+00 1.000000000000000e+00 3.000000000000000e+00
-3.000000000000000e+00 1.000000000000000e+00 5.000000000000000e+00
-5.000000000000000e+00 -1.000000000000000e+00 3.000000000000000e+00
-5.000000000000000e+00 -1.000000000000000e+00 1.000000000000000e+00
-5.000000000000000e+00 1.000000000000000e+00 1.000000000000000e+00
-5.000000000000000e+00 1.000000000000000e+00 3.000000000000000e+00
-3.000000000000000e+00 -1.000000000000001e+00 3.000000000000000e+00
-3.000000000000000e+00 -1.000000000000000e+00 1.000000000000000e+00
-3.000000000000000e+00 1.000000000000000e+00 1.000000000000000e+00
-3.000000000000000e+00 1.000000000000000e+00 3.000000000000000e+00
-5.000000000000000e+00 -1.000000000000000e+00 1.000000000000000e+00
-5.000000000000000e+00 -1.000000000000000e+00 -1.000000000000000e+00
-5.000000000000000e+00 1.000000000000000e+00 -1.000000000000000e+00
-5.000000000000000e+00 1.000000000000000e+00 1.000000000000000e+00
-3.000000000000000e+00 -1.000000000000000e+00 1.000000000000000e+00
-3.000000000000000e+00 -1.000000000000000e+00 -1.000000000000000e+00
-3.000000000000000e+00 1.000000000000000e+00 -1.000000000000000e+00
-3.000000000000000e+00 1.000000000000000e+00 1.000000000000000e+00
-5.000000000000000e+00 1.000000000000000e+00 5.000000000000000e+00
-5.000000000000000e+00 1.000000000000000e+00 3.000000000000000e+00
-5.000000000000000e+00 3.000000000000000e+00 3.000000000000000e+00
-5.000000000000000e+00 3.000000000000000e+00 5.000000000000000e+00
-3.000000000000000e+00 1.000000000000000e+00 5.000000000000000e+00
-3.000000000000000e+00 1.000000000000000e+00 3.000000000000000e+00
-3.000000000000000e+00 3.000000000000000e+00 3.000000000000000e+00
-3.000000000000000e+00 3.000000000000000e+00 5.000000000000000e+00
-5.000000000000000e+00 1.000000000000000e+00 3.000000000000000e+00
-5.000000000000000e+00 1.000000000000000e+00 1.000000000000000e+00
-5.000000000000000e+00 3.000000000000000e+00 1.000000000000000e+00
-5.000000000000000e+00 3.000000000000000e+00 3.000000000000000e+00
-3.000000000000000e+00 1.000000000000000e+00 3.000000000000000e+00
-3.000000000000000e+00 1.000000000000000e+00 1.000000000000000e+00
-3.000000000000000e+00 3.000000000000000e+00 1.000000000000000e+00
-3.000000000000000e+00 3.000000000000000e+00 3.000000000000000e+00
-5.000000000000000e+00 1.000000000000000e+00 1.000000000000000e+00
-5.000000000000000e+00 1.000000000000000e+00 -1.000000000000000e+00
-5.000000000000000e+00 3.000000000000000e+00 -1.000000000000000e+00
-5.000000000000000e+00 3.000000000000000e+00 1.000000000000000e+00
-3.000000000000000e+00 1.000000000000000e+00 1.000000000000000e+00
-3.000000000000000e+00 1.000000000000000e+00 -1.000000000000000e+00
-3.000000000000000e+00 3.000000000000000e+00 -9.999999999999999e-01
-3.000000000000000e+00 3.000000000000000e+00 1.000000000000000e+00
-5.000000000000000e+00 3.000000000000000e+00 5.000000000000000e+00
-5.000000000000000e+00 3.000000000000000e+00 3.000000000000000e+00
-5.000000000000000e+00 5.000000000000000e+00 3.000000000000000e+00
-5.000000000000000e+00 5.000000000000000e+00 5.000000000000000e+00
-3.000000000000000e+00 3.000000000000000e+00 5.000000000000000e+00
-3.000000000000000e+00 3.000000000000000e+00 3.000000000000000e+00
-3.000000000000000e+00 4.999999999999999e+00 3.000000000000000e+00
-3.000000000000000e+00 5.000000000000000e+00 5.000000000000000e+00
-5.000000000000000e+00 3.000000000000000e+00 3.000000000000000e+00
-5.000000000000000e+00 3.000000000000000e+00 1.000000000000000e+00
-5.000000000000000e+00 5.000000000000000e+00 1.000000000000000e+00
-5.000000000000000e+00 5.000000000000000e+00 3.000000000000000e+00
-3.000000000000000e+00 3.000000000000000e+00 3.000000000000000e+00
-3.000000000000000e+00 3.000000000000000e+00 1.000000000000000e+00
-3.000000000000000e+00 5.000000000000000e+00 1.000000000000000e+00
-3.000000000000000e+00 4.999999999999999e+00 3.000000000000000e+00
-5.000000000000000e+00 3.000000000000000e+00 1.000000000000000e+00
-5.000000000000000e+00 3.000000000000000e+00 -1.000000000000000e+00
-5.000000000000000e+00 5.000000000000000e+00 -1.000000000000000e+00
-5.000000000000000e+00 5.000000000000000e+00 1.000000000000000e+00
-3.000000000000000e+00 3.000000000000000e+00 1.000000000000000e+00
-3.000000000000000e+00 3.000000000000000e+00 -9.999999999999999e-01
-3.000000000000000e+00 5.000000000000000e+00 -1.000000000000000e+00
-3.000000000000000e+00 5.000000000000000e+00 1.000000000000000e+00
-3.000000000000000e+00 -5.000000000000000e+00 5.000000000000000e+00
-3.000000000000000e+00 -5.000000000000000e+00 3.000000000000000e+00
-3.000000000000000e+00 -3.000000000000000e+00 3.000000000000000e+00
-3.000000000000000e+00 -3.000000000000000e+00 4.999999999999999e+00
-1.000000000000000e+00 -5.000000000000000e+00 5.000000000000000e+00
-1.000000000000000e+00 -5.000000000000000e+00 3.000000000000000e+00
-1.000000000000000e+00 -3.000000000000000e+00 3.000000000000000e+00
-1.000000000000000e+00 -3.000000000000000e+00 5.000000000000000e+00
-3.000000000000000e+00 -5.000000000000000e+00 3.000000000000000e+00
-3.000000000000000e+00 -5.000000000000000e+00 1.000000000000000e+00
-3.000000000000000e+00 -3.000000000000000e+00 1.000000000000000e+00
-3.000000000000000e+00 -3.000000000000000e+00 3.000000000000000e+00
-1.000000000000000e+00 -5.000000000000000e+00 3.000000000000000e+00
-1.000000000000000e+00 -5.000000000000000e+00 1.000000000000000e+00
-1.000000000000000e+00 -3.000000000000000e+00 1.000000000000000e+00
-1.000000000000000e+00 -3.000000000000000e+00 3.000000000000000e+00
-3.000000000000000e+00 -5.000000000000000e+00 1.000000000000000e+00
-3.000000000000000e+00 -5.000000000000000e+00 -1.000000000000000e+00
-3.000000000000000e+00 -3.000000000000000e+00 -1.000000000000000e+00
-3.000000000000000e+00 -3.000000000000000e+00 1.000000000000000e+00
-1.000000000000000e+00 -5.000000000000000e+00 1.000000000000000e+00
-1.000000000000000e+00 -5.000000000000000e+00 -1.000000000000000e+00
-1.000000000000000e+00 -3.000000000000000e+00 -1.000000000000000e+00
-1.000000000000000e+00 -3.000000000000000e+00 1.000000000000000e+00
-3.000000000000000e+00 -3.000000000000000e+00 4.999999999999999e+00
-3.000000000000000e+00 -3.000000000000000e+00 3.000000000000000e+00
-3.000000000000000e+00 -1.000000000000001e+00 3.000000000000000e+00
-3.000000000000000e+00 -1.000000000000000e+00 5.000000000000000e+00
-1.000000000000000e+00 -3.000000000000000e+00 5.000000000000000e+00
-1.000000000000000e+00 -3.000000000000000e+00 3.000000000000000e+00
-1.000000000000000e+00 -1.000000000000000e+00 3.000000000000000e+00
-1.000000000000000e+00 -1.000000000000000e+00 5.000000000000000e+00
-3.000000000000000e+00 -3.000000000000000e+00 3.000000000000000e+00
-3.000000000000000e+00 -3.000000000000000e+00 1.000000000000000e+00
-3.000000000000000e+00 -1.000000000000000e+00 1.000000000000000e+00
-3.000000000000000e+00 -1.000000000000001e+00 3.000000000000000e+00
-1.000000000000000e+00 -3.000000000000000e+00 3.000000000000000e+00
-1.000000000000000e+00 -3.000000000000000e+00 1.000000000000000e+00
-1.000000000000000e+00 -1.000000000000000e+00 1.000000000000000e+00
-1.000000000000000e+00 -1.000000000000000e+00 3.000000000000000e+00
-3.000000000000000e+00 -3.000000000000000e+00 1.000000000000000e+00
-3.000000000000000e+00 -3.000000000000000e+00 -1.000000000000000e+00
-3.000000000000000e+00 -1.000000000000000e+00 -1.000000000000000e+00
-3.000000000000000e+00 -1.000000000000000e+00 1.000000000000000e+00
-1.000000000000000e+00 -3.000000000000000e+00 1.000000000000000e+00
-1.000000000000000e+00 -3.000000000000000e+00 -1.000000000000000e+00
-1.000000000000000e+00 -1.000000000000000e+00 -1.000000000000000e+00
-1.000000000000000e+00 -1.000000000000000e+00 1.000000000000000e+00
-3.000000000000000e+00 -1.000000000000000e+00 5.000000000000000e+00
-3.000000000000000e+00 -1.000000000000001e+00 3.000000000000000e+00
-3.000000000000000e+00 1.000000000000000e+00 3.000000000000000e+00
-3.000000000000000e+00 1.000000000000000e+00 5.000000000000000e+00
-1.000000000000000e+00 -1.000000000000000e+00 5.000000000000000e+00
-1.000000000000000e+00 -1.000000000000000e+00 3.000000000000000e+00
-1.000000000000000e+00 1.000000000000000e+00 3.000000000000000e+00
-1.000000000000000e+00 1.000000000000000e+00 5.000000000000000e+00
-3.000000000000000e+00 -1.000000000000001e+00 3.000000000000000e+00
-3.000000000000000e+00 -1.000000000000000e+00 1.000000000000000e+00
-3.000000000000000e+00 1.000000000000000e+00 1.000000000000000e+00
-3.000000000000000e+00 1.000000000000000e+00 3.000000000000000e+00
-1.000000000000000e+00 -1.000000000000000e+00 3.000000000000000e+00
-1.000000000000000e+00 -1.000000000000000e+00 1.000000000000000e+00
-1.000000000000000e+00 1.000000000000000e+00 1.000000000000000e+00
-1.000000000000000e+00 1.000000000000000e+00 3.000000000000000e+00
-3.000000000000000e+00 -1.000000000000000e+00 1.000000000000000e+00
-3.000000000000000e+00 -1.000000000000000e+00 -1.000000000000000e+00
-3.000000000000000e+00 1.000000000000000e+00 -1.000000000000000e+00
-3.000000000000000e+00 1.000000000000000e+00 1.000000000000000e+00
-1.000000000000000e+00 -1.000000000000000e+00 1.000000000000000e+00
-1.000000000000000e+00 -1.000000000000000e+00 -1.000000000000000e+00
-1.000000000000000e+00 1.000000000000000e+00 -1.000000000000000e+00
-1.000000000000000e+00 1.000000000000000e+00 1.000000000000000e+00
-3.000000000000000e+00 1.000000000000000e+00 5.000000000000000e+00
-3.000000000000000e+00 1.000000000000000e+00 3.000000000000000e+00
-3.000000000000000e+00 3.000000000000000e+00 3.000000000000000e+00
-3.000000000000000e+00 3.000000000000000e+00 5.000000000000000e+00
-1.000000000000000e+00 1.000000000000000e+00 5.000000000000000e+00
-1.000000000000000e+00 1.000000000000000e+00 3.000000000000000e+00
-1.000000000000000e+00 3.000000000000000e+00 3.000000000000000e+00
-1.000000000000000e+00 3.000000000000000e+00 5.000000000000000e+00
-3.000000000000000e+00 1.000000000000000e+00 3.000000000000000e+00
-3.000000000000000e+00 1.000000000000000e+00 1.000000000000000e+00
-3.000000000000000e+00 3.000000000000000e+00 1.000000000000000e+00
-3.000000000000000e+00 3.000000000000000e+00 3.000000000000000e+00
-1.000000000000000e+00 1.000000000000000e+00 3.000000000000000e+00
-1.000000000000000e+00 1.000000000000000e+00 1.000000000000000e+00
-1.000000000000000e+00 3.000000000000000e+00 1.000000000000000e+00
-1.000000000000000e+00 3.000000000000000e+00 3.000000000000000e+00
-3.000000000000000e+00 1.000000000000000e+00 1.000000000000000e+00
-3.000000000000000e+00 1.000000000000000e+00 -1.000000000000000e+00
-3.000000000000000e+00 3.000000000000000e+00 -9.999999999999999e-01
-3.000000000000000e+00 3.000000000000000e+00 1.000000000000000e+00
-1.000000000000000e+00 1.000000000000000e+00 1.000000000000000e+00
-1.000000000000000e+00 1.000000000000000e+00 -1.000000000000000e+00
-1.000000000000000e+00 3.000000000000000e+00 -1.000000000000000e+00
-1.000000000000000e+00 3.000000000000000e+00 1.000000000000000e+00
-3.000000000000000e+00 3.000000000000000e+00 5.000000000000000e+00
-3.000000000000000e+00 3.000000000000000e+00 3.000000000000000e+00
-3.000000000000000e+00 4.999999999999999e+00 3.000000000000000e+00
-3.000000000000000e+00 5.000000000000000e+00 5.000000000000000e+00
-1.000000000000000e+00 3.000000000000000e+00 5.000000000000000e+00
-1.000000000000000e+00 3.000000000000000e+00 3.000000000000000e+00
-1.000000000000000e+00 5.000000000000000e+00 3.000000000000000e+00
-1.000000000000000e+00 5.000000000000000e+00 5.000000000000000e+00
-3.000000000000000e+00 3.000000000000000e+00 3.000000000000000e+00
-3.000000000000000e+00 3.000000000000000e+00 1.000000000000000e+00
-3.000000000000000e+00 5.000000000000000e+00 1.000000000000000e+00
-3.000000000000000e+00 4.999999999999999e+00 3.000000000000000e+00
-1.000000000000000e+00 3.000000000000000e+00 3.000000000000000e+00
-1.000000000000000e+00 3.000000000000000e+00 1.000000000000000e+00
-1.000000000000000e+00 5.000000000000000e+00 1.000000000000000e+00
-1.000000000000000e+00 5.000000000000000e+00 3.000000000000000e+00
-3.000000000000000e+00 3.000000000000000e+00 1.000000000000000e+00
-3.000000000000000e+00 3.000000000000000e+00 -9.999999999999999e-01
-3.000000000000000e+00 5.000000000000000e+00 -1.000000000000000e+00
-3.000000000000000e+00 5.000000000000000e+00 1.000000000000000e+00
-1.000000000000000e+00 3.000000000000000e+00 1.000000000000000e+00
-1.000000000000000e+00 3.000000000000000e+00 -1.000000000000000e+00
-1.000000000000000e+00 5.000000000000000e+00 -1.000000000000000e+00
-1.000000000000000e+00 5.000000000000000e+00 1.000000000000000e+00
-1.000000000000000e+00 -5.000000000000000e+00 5.000000000000000e+00
-1.000000000000000e+00 -5.000000000000000e+00 3.000000000000000e+00
-1.000000000000000e+00 -3.000000000000000e+00 3.000000000000000e+00
-1.000000000000000e+00 -3.000000000000000e+00 5.000000000000000e+00
1.000000000000000e+00 -5.000000000000000e+00 5.000000000000000e+00
1.000000000000000e+00 -5.000000000000000e+00 3.000000000000000e+00
1.000000000000000e+00 -3.000000000000000e+00 3.000000000000000e+00
1.000000000000000e+00 -3.000000000000000e+00 5.000000000000000e+00
-1.000000000000000e+00 -5.000000000000000e+00 3.000000000000000e+00
-1.000000000000000e+00 -5.000000000000000e+00 1.000000000000000e+00
-1.000000000000000e+00 -3.000000000000000e+00 1.000000000000000e+00
-1.000000000000000e+00 -3.000000000000000e+00 3.000000000000000e+00
1.000000000000000e+00 -5.000000000000000e+00 3.000000000000000e+00
1.000000000000000e+00 -5.000000000000000e+00 1.000000000000000e+00
1.000000000000000e+00 -3.000000000000000e+00 1.000000000000000e+00
1.000000000000000e+00 -3.000000000000000e+00 3.000000000000000e+00
-1.000000000000000e+00 -5.000000000000000e+00 1.000000000000000e+00
-1.000000000000000e+00 -5.000000000000000e+00 -1.000000000000000e+00
-1.000000000000000e+00 -3.000000000000000e+00 -1.000000000000000e+00
-1.000000000000000e+00 -3.000000000000000e+00 1.000000000000000e+00
1.000000000000000e+00 -5.000000000000000e+00 1.000000000000000e+00
1.000000000000000e+00 -5.000000000000000e+00 -1.000000000000000e+00
1.000000000000000e+00 -3.000000000000000e+00 -1.000000000000000e+00
1.000000000000000e+00 -3.000000000000000e+00 1.000000000000000e+00
-1.000000000000000e+00 -3.000000000000000e+00 5.000000000000000e+00
-1.000000000000000e+00 -3.000000000000000e+00 3.000000000000000e+00
-1.000000000000000e+00 -1.000000000000000e+00 3.000000000000000e+00
-1.000000000000000e+00 -1.000000000000000e+00 5.000000000000000e+00
1.000000000000000e+00 -3.000000000000000e+00 5.000000000000000e+00
1.000000000000000e+00 -3.000000000000000e+00 3.000000000000000e+00
1.000000000000000e+00 -1.000000000000000e+00 3.000000000000000e+00
1.000000000000000e+00 -1.000000000000000e+00 5.000000000000000e+00
-1.000000000000000e+00 -3.000000000000000e+00 3.000000000000000e+00
-1.000000000000000e+00 -3.000000000000000e+00 1.000000000000000e+00
-1.000000000000000e+00 -1.000000000000000e+00 1.000000000000000e+00
-1.000000000000000e+00 -1.000000000000000e+00 3.000000000000000e+00
1.000000000000000e+00 -3.000000000000000e+00 3.000000000000000e+00
1.000000000000000e+00 -3.000000000000000e+00 1.000000000000000e+00
1.000000000000000e+00 -1.000000000000000e+00 1.000000000000000e+00
1.000000000000000e+00 -1.000000000000000e+00 3.000000000000000e+00
-1.000000000000000e+00 -3.000000000000000e+00 1.000000000000000e+00
-1.000000000000000e+00 -3.000000000000000e+00 -1.000000000000000e+00
-1.000000000000000e+00 -1.000000000000000e+00 -1.000000000000000e+00
-1.000000000000000e+00 -1.000000000000000e+00 1.000000000000000e+00
1.000000000000000e+00 -3.000000000000000e+00 1.000000000000000e+00
1.000000000000000e+00 -3.000000000000000e+00 -1.000000000000000e+00
1.000000000000000e+00 -1.000000000000000e+00 -1.000000000000000e+00
1.000000000000000e+00 -1.000000000000000e+00 1.000000000000000e+00
-1.000000000000000e+00 -1.000000000000000e+00 5.000000000000000e+00
-1.000000000000000e+00 -1.000000000000000e+00 3.000000000000000e+00
-1.000000000000000e+00 1.000000000000000e+00 3.000000000000000e+00
-1.000000000000000e+00 1.000000000000000e+00 5.000000000000000e+00
1.000000000000000e+00 -1.000000000000000e+00 5.000000000000000e+00
1.000000000000000e+00 -1.000000000000000e+00 3.000000000000000e+00
1.000000000000000e+00 1.000000000000000e+00 3.000000000000000e+00
1.000000000000000e+00 1.000000000000000e+00 5.000000000000000e+00
-1.000000000000000e+00 -1.000000000000000e+00 3.000000000000000e+00
-1.000000000000000e+00 -1.000000000000000e+00 1.000000000000000e+00
-1.000000000000000e+00 1.000000000000000e+00 1.000000000000000e+00
-1.000000000000000e+00 1.000000000000000e+00 3.000000000000000e+00
1.000000000000000e+00 -1.000000000000000e+00 3.000000000000000e+00
1.000000000000000e+00 -1.000000000000000e+00 1.000000000000000e+00
1.000000000000000e+00 1.000000000000000e+00 1.000000000000000e+00
1.000000000000000e+00 1.000000000000000e+00 3.000000000000000e+00
-1.000000000000000e+00 -1.000000000000000e+00 1.000000000000000e+00
-1.000000000000000e+00 -1.000000000000000e+00 -1.000000000000000e+00
-1.000000000000000e+00 1.000000000000000e+00 -1.000000000000000e+00
-1.000000000000000e+00 1.000000000000000e+00 1.000000000000000e+00
1.000000000000000e+00 -1.000000000000000e+00 1.000000000000000e+00
1.000000000000000e+00 -1.000000000000000e+00 -1.000000000000000e+00
1.000000000000000e+00 1.000000000000000e+00 -1.000000000000000e+00
1.000000000000000e+00 1.000000000000000e+00 1.000000000000000e+00
-1.000000000000000e+00 1.000000000000000e+00 5.000000000000000e+00
-1.000000000000000e+00 1.000000000000000e+00 3.000000000000000e+00
-1.000000000000000e+00 3.000000000000000e+00 3.000000000000000e+00
-1.000000000000000e+00 3.000000000000000e+00 5.000000000000000e+00
1.000000000000000e+00 1.000000000000000e+00 5.000000000000000e+00
1.000000000000000e+00 1.000000000000000e+00 3.000000000000000e+00
1.000000000000000e+00 3.000000000000000e+00 3.000000000000000e+00
1.000000000000000e+00 3.000000000000000e+00 5.000000000000000e+00
-1.000000000000000e+00 1.000000000000000e+00 3.000000000000000e+00
-1.000000000000000e+00 1.000000000000000e+00 1.000000000000000e+00
-1.000000000000000e+00 3.000000000000000e+00 1.000000000000000e+00
-1.000000000000000e+00 3.000000000000000e+00 3.000000000000000e+00
1.000000000000000e+00 1.000000000000000e+00 3.000000000000000e+00
1.000000000000000e+00 1.000000000000000e+00 1.000000000000000e+00
1.000000000000000e+00 3.000000000000000e+00 1.000000000000000e+00
1.000000000000000e+00 3.000000000000000e+00 3.000000000000000e+00
-1.000000000000000e+00 1.000000000000000e+00 1.000000000000000e+00
-1.000000000000000e+00 1.000000000000000e+00 -1.000000000000000e+00
-1.000000000000000e+00 3.000000000000000e+00 -1.000000000000000e+00
-1.000000000000000e+00 3.000000000000000e+00 1.000000000000000e+00
1.000000000000000e+00 1.000000000000000e+00 1.000000000000000e+00
1.000000000000000e+00 1.000000000000000e+00 -1.000000000000000e+00
1.000000000000000e+00 3.000000000000000e+00 -1.000000000000000e+00
1.000000000000000e+00 3.000000000000000e+00 1.000000000000000e+00
-1.000000000000000e+00 3.000000000000000e+00 5.000000000000000e+00
-1.000000000000000e+00 3.000000000000000e+00 3.000000000000000e+00
-1.000000000000000e+00 5.000000000000000e+00 3.000000000000000e+00
-1.000000000000000e+00 5.000000000000000e+00 5.000000000000000e+00
1.000000000000000e+00 3.000000000000000e+00 5.000000000000000e+00
1.000000000000000e+00 3.000000000000000e+00 3.000000000000000e+00
1.000000000000000e+00 5.000000000000000e+00 3.000000000000000e+00
1.000000000000000e+00 5.000000000000000e+00 5.000000000000000e+00
-1.000000000000000e+00 3.000000000000000e+00 3.000000000000000e+00
-1.000000000000000e+00 3.000000000000000e+00 1.000000000000000e+00
-1.000000000000000e+00 5.000000000000000e+00 1.000000000000000e+00
-1.000000000000000e+00 5.000000000000000e+00 3.000000000000000e+00
1.000000000000000e+00 3.000000000000000e+00 3.000000000000000e+00
1.000000000000000e+00 3.000000000000000e+00 1.000000000000000e+00
1.000000000000000e+00 5.000000000000000e+00 1.000000000000000e+00
1.000000000000000e+00 5.000000000000000e+00 3.000000000000000e+00
-1.000000000000000e+00 3.000000000000000e+00 1.000000000000000e+00
-1.000000000000000e+00 3.000000000000000e+00 -1.000000000000000e+00
-1.000000000000000e+00 5.000000000000000e+00 -1.000000000000000e+00
-1.000000000000000e+00 5.000000000000000e+00 1.000000000000000e+00
1.000000000000000e+00 3.000000000000000e+00 1.000000000000000e+00
1.000000000000000e+00 3.000000000000000e+00 -1.000000000000000e+00
1.000000000000000e+00 5.000000000000000e+00 -1.000000000000000e+00
1.000000000000000e+00 5.000000000000000e+00 1.000000000000000e+00
1.000000000000000e+00 -5.000000000000000e+00 5.000000000000000e+00
1.000000000000000e+00 -5.000000000000000e+00 3.000000000000000e+00
1.000000000000000e+00 -3.000000000000000e+00 3.000000000000000e+00
1.000000000000000e+00 -3.000000000000000e+00 5.000000000000000e+00
3.000000000000000e+00 -5.000000000000000e+00 5.000000000000000e+00
3.000000000000000e+00 -4.999999999999999e+00 3.000000000000000e+00
3.000000000000000e+00 -3.000000000000000e+00 3.000000000000000e+00
3.000000000000000e+00 -3.000000000000000e+00 5.000000000000000e+00
1.000000000000000e+00 -5.000000000000000e+00 3.000000000000000e+00
1.000000000000000e+00 -5.000000000000000e+00 1.000000000000000e+00
1.000000000000000e+00 -3.000000000000000e+00 1.000000000000000e+00
1.000000000000000e+00 -3.000000000000000e+00 3.000000000000000e+00
3.000000000000000e+00 -4.999999999999999e+00 3.000000000000000e+00
3.000000000000000e+00 -5.000000000000000e+00 1.000000000000000e+00
3.000000000000000e+00 -3.000000000000000e+00 1.000000000000000e+00
3.000000000000000e+00 -3.000000000000000e+00 3.000000000000000e+00
1.000000000000000e+00 -5.000000000000000e+00 1.000000000000000e+00
1.000000000000000e+00 -5.000000000000000e+00 -1.000000000000000e+00
1.000000000000000e+00 -3.000000000000000e+00 -1.000000000000000e+00
1.000000000000000e+00 -3.000000000000000e+00 1.000000000000000e+00
3.000000000000000e+00 -5.000000000000000e+00 1.000000000000000e+00
3.000000000000000e+00 -5.000000000000000e+00 -1.000000000000000e+00
3.000000000000000e+00 -3.000000000000000e+00 -1.000000000000000e+00
3.000000000000000e+00 -3.000000000000000e+00 1.000000000000000e+00
1.000000000000000e+00 -3.000000000000000e+00 5.000000000000000e+00
1.000000000000000e+00 -3.000000000000000e+00 3.000000000000000e+00
1.000000000000000e+00 -1.000000000000000e+00 3.000000000000000e+00
1.000000000000000e+00 -1.000000000000000e+00 5.000000000000000e+00
3.000000000000000e+00 -3.000000000000000e+00 5.000000000000000e+00
3.000000000000000e+00 -3.000000000000000e+00 3.000000000000000e+00
3.000000000000000e+00 -1.000000000000000e+00 3.000000000000000e+00
3.000000000000000e+00 -1.000000000000000e+00 5.000000000000000e+00
1.000000000000000e+00 -3.000000000000000e+00 3.000000000000000e+00
1.000000000000000e+00 -3.000000000000000e+00 1.000000000000000e+00
1.000000000000000e+00 -1.000000000000000e+00 1.000000000000000e+00
1.000000000000000e+00 -1.000000000000000e+00 3.000000000000000e+00
3.000000000000000e+00 -3.000000000000000e+00 3.000000000000000e+00
3.000000000000000e+00 -3.000000000000000e+00 1.000000000000000e+00
3.000000000000000e+00 -1.000000000000000e+00 1.000000000000000e+00
3.000000000000000e+00 -1.000000000000000e+00 3.000000000000000e+00
1.000000000000000e+00 -3.000000000000000e+00 1.000000000000000e+00
1.000000000000000e+00 -3.000000000000000e+00 -1.000000000000000e+00
1.000000000000000e+00 -1.000000000000000e+00 -1.000000000000000e+00
1.000000000000000e+00 -1.000000000000000e+00 1.000000000000000e+00
3.000000000000000e+00 -3.000000000000000e+00 1.000000000000000e+00
3.000000000000000e+00 -3.000000000000000e+00 -1.000000000000000e+00
3.000000000000000e+00 -1.000000000000000e+00 -1.000000000000000e+00
3.000000000000000e+00 -1.000000000000000e+00 1.000000000000000e+00
1.000000000000000e+00 -1.000000000000000e+00 5.000000000000000e+00
1.000000000000000e+00 -1.000000000000000e+00 3.000000000000000e+00
1.000000000000000e+00 1.000000000000000e+00 3.000000000000000e+00
1.000000000000000e+00 1.000000000000000e+00 5.000000000000000e+00
3.000000000000000e+00 -1.000000000000000e+00 5.000000000000000e+00
3.000000000000000e+00 -1.000000000000000e+00 3.000000000000000e+00
3.000000000000000e+00 1.000000000000000e+00 3.000000000000000e+00
3.000000000000000e+00 1.000000000000000e+00 5.000000000000000e+00
1.000000000000000e+00 -1.000000000000000e+00 3.000000000000000e+00
1.000000000000000e+00 -1.000000000000000e+00 1.000000000000000e+00
1.000000000000000e+00 1.000000000000000e+00 1.000000000000000e+00
1.000000000000000e+00 1.000000000000000e+00 3.000000000000000e+00
3.000000000000000e+00 -1.000000000000000e+00 3.000000000000000e+00
3.000000000000000e+00 -1.000000000000000e+00 1.000000000000000e+00
3.000000000000000e+00 1.000000000000000e+00 1.000000000000000e+00
3.000000000000000e+00 1.000000000000000e+00 3.000000000000000e+00
1.000000000000000e+00 -1.000000000000000e+00 1.000000000000000e+00
1.000000000000000e+00 -1.000000000000000e+00 -1.000000000000000e+00
1.000000000000000e+00 1.000000000000000e+00 -1.000000000000000e+00
1.000000000000000e+00 1.000000000000000e+00 1.000000000000000e+00
3.000000000000000e+00 -1.000000000000000e+00 1.000000000000000e+00
3.000000000000000e+00 -1.000000000000000e+00 -1.000000000000000e+00
3.000000000000000e+00 1.000000000000000e+00 -1.000000000000000e+00
3.000000000000000e+00 1.000000000000000e+00 1.000000000000000e+00
1.000000000000000e+00 1.000000000000000e+00 5.000000000000000e+00
1.000000000000000e+00 1.000000000000000e+00 3.000000000000000e+00
1.000000000000000e+00 3.000000000000000e+00 3.000000000000000e+00
1.000000000000000e+00 3.000000000000000e+00 5.000000000000000e+00
3.000000000000000e+00 1.000000000000000e+00 5.000000000000000e+00
3.000000000000000e+00 1.000000000000000e+00 3.000000000000000e+00
3.000000000000000e+00 3.000000000000000e+00 3.000000000000000e+00
3.000000000000000e+00 3.000000000000000e+00 5.000000000000000e+00
1.000000000000000e+00 1.000000000000000e+00 3.000000000000000e+00
1.000000000000000e+00 1.000000000000000e+00 1.000000000000000e+00
1.000000000000000e+00 3.000000000000000e+00 1.000000000000000e+00
1.000000000000000e+00 3.000000000000000e+00 3.000000000000000e+00
3.000000000000000e+00 1.000000000000000e+00 3.000000000000000e+00
3.000000000000000e+00 1.000000000000000e+00 1.000000000000000e+00
3.000000000000000e+00 3.000000000000000e+00 1.000000000000000e+00
3.000000000000000e+00 3.000000000000000e+00 3.000000000000000e+00
1.000000000000000e+00 1.000000000000000e+00 1.000000000000000e+00
1.000000000000000e+00 1.000000000000000e+00 -1.000000000000000e+00
1.000000000000000e+00 3.000000000000000e+00 -1.000000000000000e+00
1.000000000000000e+00 3.000000000000000e+00 1.000000000000000e+00
3.000000000000000e+00 1.000000000000000e+00 1.000000000000000e+00
3.000000000000000e+00 1.000000000000000e+00 -1.000000000000000e+00
3.000000000000000e+00 3.000000000000000e+00 -1.000000000000000e+00
3.000000000000000e+00 3.000000000000000e+00 1.000000000000000e+00
1.000000000000000e+00 3.000000000000000e+00 5.000000000000000e+00
1.000000000000000e+00 3.000000000000000e+00 3.000000000000000e+00
1.000000000000000e+00 5.000000000000000e+00 3.000000000000000e+00
1.000000000000000e+00 5.000000000000000e+00 5.000000000000000e+00
3.000000000000000e+00 3.000000000000000e+00 5.000000000000000e+00
3.000000000000000e+00 3.000000000000000e+00 3.000000000000000e+00
3.000000000000000e+00 5.000000000000000e+00 3.000000000000000e+00
3.000000000000000e+00 5.000000000000000e+00 5.000000000000000e+00
1.000000000000000e+00 3.000000000000000e+00 3.000000000000000e+00
1.000000000000000e+00 3.000000000000000e+00 1.000000000000000e+00
1.000000000000000e+00 5.000000000000000e+00 1.000000000000000e+00
1.000000000000000e+00 5.000000000000000e+00 3.000000000000000e+00
3.000000000000000e+00 3.000000000000000e+00 3.000000000000000e+00
3.000000000000000e+00 3.000000000000000e+00 1.000000000000000e+00
3.000000000000000e+00 5.000000000000000e+00 1.000000000000000e+00
3.000000000000000e+00 5.000000000000000e+00 3.000000000000000e+00
1.000000000000000e+00 3.000000000000000e+00 1.000000000000000e+00
1.000000000000000e+00 3.000000000000000e+00 -1.000000000000000e+00
1.000000000000000e+00 5.000000000000000e+00 -1.000000000000000e+00
1.000000000000000e+00 5.000000000000000e+00 1.000000000000000e+00
3.000000000000000e+00 3.000000000000000e+00 1.000000000000000e+00
3.000000000000000e+00 3.000000000000000e+00 -1.000000000000000e+00
3.000000000000000e+00 5.000000000000000e+00 -1.000000000000000e+00
3.000000000000000e+00 5.000000000000000e+00 1.000000000000000e+00
3.000000000000000e+00 -5.000000000000000e+00 5.000000000000000e+00
3.000000000000000e+00 -4.999999999999999e+00 3.000000000000000e+00
3.000000000000000e+00 -3.000000000000000e+00 3.000000000000000e+00
3.000000000000000e+00 -3.000000000000000e+00 5.000000000000000e+00
5.000000000000000e+00 -5.000000000000000e+00 5.000000000000000e+00
5.000000000000000e+00 -5.000000000000000e+00 3.000000000000000e+00
5.000000000000000e+00 -3.000000000000000e+00 3.000000000000000e+00
5.000000000000000e+00 -3.000000000000000e+00 5.000000000000000e+00
3.000000000000000e+00 -4.999999999999999e+00 3.000000000000000e+00
3.000000000000000e+00 -5.000000000000000e+00 1.000000000000000e+00
3.000000000000000e+00 -3.000000000000000e+00 1.000000000000000e+00
3.000000000000000e+00 -3.000000000000000e+00 3.000000000000000e+00
5.000000000000000e+00 -5.000000000000000e+00 3.000000000000000e+00
5.000000000000000e+00 -5.000000000000000e+00 1.000000000000000e+00
5.000000000000000e+00 -3.000000000000000e+00 1.000000000000000e+00
5.000000000000000e+00 -3.000000000000000e+00 3.000000000000000e+00
3.000000000000000e+00 -5.000000000000000e+00 1.000000000000000e+00
3.000000000000000e+00 -5.000000000000000e+00 -1.000000000000000e+00
3.000000000000000e+00 -3.000000000000000e+00 -1.000000000000000e+00
3.000000000000000e+00 -3.000000000000000e+00 1.000000000000000e+00
5.000000000000000e+00 -5.000000000000000e+00 1.000000000000000e+00
5.000000000000000e+00 -5.000000000000000e+00 -1.000000000000000e+00
5.000000000000000e+00 -3.000000000000000e+00 -1.000000000000000e+00
5.000000000000000e+00 -3.000000000000000e+00 1.000000000000000e+00
3.000000000000000e+00 -3.000000000000000e+00 5.000000000000000e+00
3.000000000000000e+00 -3.000000000000000e+00 3.000000000000000e+00
3.000000000000000e+00 -1.000000000000000e+00 3.000000000000000e+00
3.000000000000000e+00 -1.000000000000000e+00 5.000000000000000e+00
5.000000000000000e+00 -3.000000000000000e+00 5.000000000000000e+00
5.000000000000000e+00 -3.000000000000000e+00 3.000000000000000e+00
5.000000000000000e+00 -1.000000000000000e+00 3.000000000000000e+00
5.000000000000000e+00 -1.000000000000000e+00 5.000000000000000e+00
3.000000000000000e+00 -3.000000000000000e+00 3.000000000000000e+00
3.000000000000000e+00 -3.000000000000000e+00 1.000000000000000e+00
3.000000000000000e+00 -1.000000000000000e+00 1.000000000000000e+00
3.000000000000000e+00 -1.000000000000000e+00 3.000000000000000e+00
5.000000000000000e+00 -3.000000000000000e+00 3.000000000000000e+00
5.000000000000000e+00 -3.000000000000000e+00 1.000000000000000e+00
5.000000000000000e+00 -1.000000000000000e+00 1.000000000000000e+00
5.000000000000000e+00 -1.000000000000000e+00 3.000000000000000e+00
3.000000000000000e+00 -3.000000000000000e+00 1.000000000000000e+00
3.000000000000000e+00 -3.000000000000000e+00 -1.000000000000000e+00
3.000000000000000e+00 -1.000000000000000e+00 -1.000000000000000e+00
3.000000000000000e+00 -1.000000000000000e+00 1.000000000000000e+00
5.000000000000000e+00 -3.000000000000000e+00 1.000000000000000e+00
5.000000000000000e+00 -3.000000000000000e+00 -1.000000000000000e+00
5.000000000000000e+00 -1.000000000000000e+00 -1.000000000000000e+00
5.000000000000000e+00 -1.000000000000000e+00 1.000000000000000e+00
3.000000000000000e+00 -1.000000000000000e+00 5.000000000000000e+00
3.000000000000000e+00 -1.000000000000000e+00 3.000000000000000e+00
3.000000000000000e+00 1.000000000000000e+00 3.000000000000000e+00
3.000000000000000e+00 1.000000000000000e+00 5.000000000000000e+00
5.000000000000000e+00 -1.000000000000000e+00 5.000000000000000e+00
5.000000000000000e+00 -1.000000000000000e+00 3.000000000000000e+00
5.000000000000000e+00 1.000000000000000e+00 3.000000000000000e+00
5.000000000000000e+00 1.000000000000000e+00 5.000000000000000e+00
3.000000000000000e+00 -1.000000000000000e+00 3.000000000000000e+00
3.000000000000000e+00 -1.000000000000000e+00 1.000000000000000e+00
3.000000000000000e+00 1.000000000000000e+00 1.000000000000000e+00
3.000000000000000e+00 1.000000000000000e+00 3.000000000000000e+00
5.000000000000000e+00 -1.000000000000000e+00 3.000000000000000e+00
5.000000000000000e+00 -1.000000000000000e+00 1.000000000000000e+00
5.000000000000000e+00 1.000000000000000e+00 1.000000000000000e+00
5.000000000000000e+00 1.000000000000000e+00 3.000000000000000e+00
3.000000000000000e+00 -1.000000000000000e+00 1.000000000000000e+00
3.000000000000000e+00 -1.000000000000000e+00 -1.000000000000000e+00
3.000000000000000e+00 1.000000000000000e+00 -1.000000000000000e+00
3.000000000000000e+00 1.000000000000000e+00 1.000000000000000e+00
5.000000000000000e+00 -1.000000000000000e+00 1.000000000000000e+00
5.000000000000000e+00 -1.000000000000000e+00 -1.000000000000000e+00
5.000000000000000e+00 1.000000000000000e+00 -1.000000000000000e+00
5.000000000000000e+00 1.000000000000000e+00 1.000000000000000e+00
3.000000000000000e+00 1.000000000000000e+00 5.000000000000000e+00
3.000000000000000e+00 1.000000000000000e+00 3.000000000000000e+00
3.000000000000000e+00 3.000000000000000e+00 3.000000000000000e+00
3.000000000000000e+00 3.000000000000000e+00 5.000000000000000e+00
5.000000000000000e+00 1.000000000000000e+00 5.000000000000000e+00
5.000000000000000e+00 1.000000000000000e+00 3.000000000000000e+00
5.000000000000000e+00 3.000000000000000e+00 3.000000000000000e+00
5.000000000000000e+00 3.000000000000000e+00 5.000000000000000e+00
3.000000000000000e+00 1.000000000000000e+00 3.000000000000000e+00
3.000000000000000e+00 1.000000000000000e+00 1.000000000000000e+00
3.000000000000000e+00 3.000000000000000e+00 1.000000000000000e+00
3.000000000000000e+00 3.000000000000000e+00 3.000000000000000e+00
5.000000000000000e+00 1.000000000000000e+00 3.000000000000000e+00
5.000000000000000e+00 1.000000000000000e+00 1.000000000000000e+00
5.000000000000000e+00 3.000000000000000e+00 1.000000000000000e+00
5.000000000000000e+00 3.000000000000000e+00 3.000000000000000e+00
3.000000000000000e+00 1.000000000000000e+00 1.000000000000000e+00
3.000000000000000e+00 1.000000000000000e+00 -1.000000000000000e+00
3.000000000000000e+00 3.000000000000000e+00 -1.000000000000000e+00
3.000000000000000e+00 3.000000000000000e+00 1.000000000000000e+00
5.000000000000000e+00 1.000000000000000e+00 1.000000000000000e+00
5.000000000000000e+00 1.000000000000000e+00 -1.000000000000000e+00
5.000000000000000e+00 3.000000000000000e+00 -1.000000000000000e+00
5.000000000000000e+00 3.000000000000000e+00 1.000000000000000e+00
3.000000000000000e+00 3.000000000000000e+00 5.000000000000000e+00
3.000000000000000e+00 3.000000000000000e+00 3.000000000000000e+00
3.000000000000000e+00 5.000000000000000e+00 3.000000000000000e+00
3.000000000000000e+00 5.000000000000000e+00 5.000000000000000e+00
5.000000000000000e+00 3.000000000000000e+00 5.000000000000000e+00
5.000000000000000e+00 3.000000000000000e+00 3.000000000000000e+00
5.000000000000000e+00 5.000000000000000e+00 3.000000000000000e+00
5.000000000000000e+00 5.000000000000000e+00 5.000000000000000e+00
3.000000000000000e+00 3.000000000000000e+00 3.000000000000000e+00
3.000000000000000e+00 3.000000000000000e+00 1.000000000000000e+00
3.000000000000000e+00 5.000000000000000e+00 1.000000000000000e+00
3.000000000000000e+00 5.000000000000000e+00 3.000000000000000e+00
5.000000000000000e+00 3.000000000000000e+00 3.000000000000000e+00
5.000000000000000e+00 3.000000000000000e+00 1.000000000000000e+00
5.000000000000000e+00 5.000000000000000e+00 1.000000000000000e+00
5.000000000000000e+00 5.000000000000000e+00 3.000000000000000e+00
3.000000000000000e+00 3.000000000000000e+00 1.000000000000000e+00
3.000000000000000e+00 3.000000000000000e+00 -1.000000000000000e+00
3.000000000000000e+00 5.000000000000000e+00 -1.000000000000000e+00
3.000000000000000e+00 5.000000000000000e+00 1.000000000000000e+00
5.000000000000000e+00 3.000000000000000e+00 1.000000000000000e+00
5.000000000000000e+00 3.000000000000000e+00 -1.000000000000000e+00
5.000000000000000e+00 5.000000000000000e+00 -1.000000000000000e+00
5.000000000000000e+00 5.000000000000000e+00 1.000000000000000e+00
        </DataArray>
      </Points>

      <Cells>
        <DataArray type="Int32" Name="connectivity" format="ascii">
0 1 2 3 4 5 6 7 8 9 10 11 12 13 14 15 16 17 18 19 20 21 22 23 24 25 26 27 28 29 30 31 32 33 34 35 36 37 38 39 40 41 42 43 44 45 46 47 48 49 50 51 52 53 54 55 56 57 58 59 60 61 62 63 64 65 66 67 68 69 70 71 72 73 74 75 76 77 78 79 80 81 82 83 84 85 86 87 88 89 90 91 92 93 94 95 96 97 98 99 100 101 102 103 104 105 106 107 108 109 110 111 112 113 114 115 116 117 118 119 120 121 122 123 124 125 126 127 128 129 130 131 132 133 134 135 136 137 138 139 140 141 142 143 144 145 146 147 148 149 150 151 152 153 154 155 156 157 158 159 160 161 162 163 164 165 166 167 168 169 170 171 172 173 174 175 176 177 178 179 180 181 182 183 184 185 186 187 188 189 190 191 192 193 194 195 196 197 198 199 200 201 202 203 204 205 206 207 208 209 210 211 212 213 214 215 216 217 218 219 220 221 222 223 224 225 226 227 228 229 230 231 232 233 234 235 236 237 238 239 240 241 242 243 244 245 246 247 248 249 250 251 252 253 254 255 256 257 258 259 260 261 262 263 264 265 266 267 268 269 270 271 272 273 274 275 276 277 278 279 280 281 282 283 284 285 286 287 288 289 290 291 292 293 294 295 296 297 298 299 300 301 302 303 304 305 306 307 308 309 310 311 312 313 314 315 316 317 318 319 320 321 322 323 324 325 326 327 328 329 330 331 332 333 334 335 336 337 338 339 340 341 342 343 344 345 346 347 348 349 350 351 352 353 354 355 356 357 358 359 360 361 362 363 364 365 366 367 368 369 370 371 372 373 374 375 376 377 378 379 380 381 382 383 384 385 386 387 388 389 390 391 392 393 394 395 396 397 398 399 400 401 402 403 404 405 406 407 408 409 410 411 412 413 414 415 416 417 418 419 420 421 422 423 424 425 426 427 428 429 430 431 432 433 434 435 436 437 438 439 440 441 442 443 444 445 446 447 448 449 450 451 452 453 454 455 456 457 458 459 460 461 462 463 464 465 466 467 468 469 470 471 472 473 474 475 476 477 478 479 480 481 482 483 484 485 486 487 488 489 490 491 492 493 494 495 496 497 498 499 500 501 502 503 504 505 506 507 508 509 510 511 512 513 514 515 516 517 518 519 520 521 522 523 524 525 526 527 528 529 530 531 532 533 534 535 536 537 538 539 540 541 542 543 544 545 546 547 548 549 550 551 552 553 554 555 556 557 558 559 560 561 562 563 564 565 566 567 568 569 570 571 572 573 574 575 576 577 578 579 580 581 582 583 584 585 586 587 588 589 590 591 592 593 594 595 596 597 598 599 
        </DataArray>
        <DataArray type="Int32" Name="offsets" format="ascii">
8 16 24 32 40 48 56 64 72 80 88 96 104 112 120 128 136 144 152 160 168 176 184 192 200 208 216 224 232 240 248 256 264 272 280 288 296 304 312 320 328 336 344 352 360 368 376 384 392 400 408 416 424 432 440 448 456 464 472 480 488 496 504 512 520 528 536 544 552 560 568 576 584 592 600 
        </DataArray>
        <DataArray type="UInt8" Name="types" format="ascii">
12 12 12 12 12 12 12 12 12 12 12 12 12 12 12 12 12 12 12 12 12 12 12 12 12 12 12 12 12 12 12 12 12 12 12 12 12 12 12 12 12 12 12 12 12 12 12 12 12 12 12 12 12 12 12 12 12 12 12 12 12 12 12 12 12 12 12 12 12 12 12 12 12 12 12 
        </DataArray>
      </Cells>

  <PointData>
        <DataArray type="Float64" Name="displacement" NumberOfComponents="3" format="ascii">
0.000000000000000e+00 0.000000000000000e+00 0.000000000000000e+00
0.000000000000000e+00 0.000000000000000e+00 0.000000000000000e+00
0.000000000000000e+00 0.000000000000000e+00 0.000000000000000e+00
0.000000000000000e+00 0.000000000000000e+00 0.000000000000000e+00
-4.538264040059894e-04 0.000000000000000e+00 0.000000000000000e+00
-4.538264040056072e-04 0.000000000000000e+00 0.000000000000000e+00
-4.538264040055616e-04 -7.068826473837461e-16 -6.429720669789206e-16
-4.538264040056730e-04 0.000000000000000e+00 0.000000000000000e+00
0.000000000000000e+00 0.000000000000000e+00 0.000000000000000e+00
0.000000000000000e+00 0.000000000000000e+00 0.000000000000000e+00
0.000000000000000e+00 0.000000000000000e+00 0.000000000000000e+00
0.000000000000000e+00 0.000000000000000e+00 0.000000000000000e+00
-4.538264040056072e-04 0.000000000000000e+00 0.000000000000000e+00
-4.538264040055726e-04 0.000000000000000e+00 0.000000000000000e+00
-4.538264040064265e-04 -3.731719584145836e-16 -2.529231195031050e-17
-4.538264040055616e-04 -7.068826473837461e-16 -6.429720669789206e-16
0.000000000000000e+00 0.000000000000000e+00 0.000000000000000e+00
0.000000000000000e+00 0.000000000000000e+00 0.000000000000000e+00
0.000000000000000e+00 0.000000000000000e+00 0.000000000000000e+00
0.000000000000000e+00 0.000000000000000e+00 0.000000000000000e+00
-4.538264040055726e-04 0.000000000000000e+00 0.000000000000000e+00
-4.538264040063082e-04 0.000000000000000e+00 0.000000000000000e+00
-4.538264040062039e-04 1.773557427896145e-16 -7.086128576426333e-17
-4.538264040064265e-04 -3.731719584145836e-16 -2.529231195031050e-17
0.000000000000000e+00 0.000000000000000e+00 0.000000000000000e+00
0.000000000000000e+00 0.000000000000000e+00 0.000000000000000e+00
0.000000000000000e+00 0.000000000000000e+00 0.000000000000000e+00
0.000000000000000e+00 0.000000000000000e+00 0.000000000000000e+00
-4.538264040056730e-04 0.000000000000000e+00 0.000000000000000e+00
-4.538264040055616e-04 -7.068826473837461e-16 -6.429720669789206e-16
-4.538264040060215e-04 1.142505104143914e-16 6.571077815008055e-16
-4.538264040052294e-04 0.000000000000000e+00 0.000000000000000e+00
0.000000000000000e+00 0.000000000000000e+00 0.000000000000000e+00
0.000000000000000e+00 0.000000000000000e+00 0.000000000000000e+00
0.000000000000000e+00 0.000000000000000e+00 0.000000000000000e+00
0.000000000000000e+00 0.000000000000000e+00 0.000000000000000e+00
-4.538264040055616e-04 -7.068826473837461e-16 -6.429720669789206e-16
-4.538264040064265e-04 -3.731719584145836e-16 -2.529231195031050e-17
-4.538264040062671e-04 -7.209911542845887e-17 -1.985084119661553e-16
-4.538264040060215e-04 1.142505104143914e-16 6.571077815008055e-16
0.000000000000000e+00 0.000000000000000e+00 0.000000000000000e+00
0.000000000000000e+00 0.000000000000000e+00 0.000000000000000e+00
0.000000000000000e+00 0.000000000000000e+00 0.000000000000000e+00
0.000000000000000e+00 0.000000000000000e+00 0.000000000000000e+00
-4.538264040064265e-04 -3.731719584145836e-16 -2.529231195031050e-17
-4.538264040062039e-04 1.773557427896145e-16 -7.086128576426333e-17
-4.538264040060556e-04 1.824589821302426e-16 1.163843506393484e-17
-4.538264040062671e-04 -7.209911542845887e-17 -1.985084119661553e-16
0.000000000000000e+00 0.000000000000000e+00 0.000000000000000e+00
0.000000000000000e+00 0.000000000000000e+00 0.000000000000000e+00
0.000000000000000e+00 0.000000000000000e+00 0.000000000000000e+00
0.000000000000000e+00 0.000000000000000e+00 0.000000000000000e+00
-4.538264040052294e-04 0.000000000000000e+00 0.000000000000000e+00
-4.538264040060215e-04 1.142505104143914e-16 6.571077815008055e-16
-4.538264040058720e-04 1.328184626979245e-16 -1.338091609777172e-16
-4.538264040058538e-04 0.000000000000000e+00 0.000000000000000e+00
0.000000000000000e+00 0.000000000000000e+00 0.000000000000000e+00
0.000000000000000e+00 0.000000000000000e+00 0.000000000000000e+00
0.000000000000000e+00 0.000000000000000e+00 0.000000000000000e+00
0.000000000000000e+00 0.000000000000000e+00 0.000000000000000e+00
-4.538264040060215e-04 1.142505104143914e-16 6.571077815008055e-16
-4.538264040062671e-04 -7.209911542845887e-17 -1.985084119661553e-16
-4.538264040059458e-04 1.278394644771285e-16 -5.347745060087409e-16
-4.538264040058720e-04 1.328184626979245e-16 -1.338091609777172e-16
0.000000000000000e+00 0.000000000000000e+00 0.000000000000000e+00
0.000000000000000e+00 0.000000000000000e+00 0.000000000000000e+00
0.000000000000000e+00 0.000000000000000e+00 0.000000000000000e+00
0.000000000000000e+00 0.000000000000000e+00 0.000000000000000e+00
-4.538264040062671e-04 -7.209911542845887e-17 -1.985084119661553e-16
-4.538264040060556e-04 1.824589821302426e-16 1.163843506393484e-17
-4.538264040060583e-04 3.141134639273684e-17 4.721605688985773e-16
-4.538264040059458e-04 1.278394644771285e-16 -5.347745060087409e-16
0.000000000000000e+00 0.000000000000000e+00 0.000000000000000e+00
0.000000000000000e+00 0.000000000000000e+00 0.000000000000000e+00
0.000000000000000e+00 0.000000000000000e+00 0.000000000000000e+00
0.000000000000000e+00 0.000000000000000e+00 0.000000000000000e+00
-4.538264040058538e-04 0.000000000000000e+00 0.000000000000000e+00
-4.538264040058720e-04 1.328184626979245e-16 -1.338091609777172e-16
-4.538264040058883e-04 -3.208940006275103e-17 9.056844457746475e-17
-4.538264040062662e-04 0.000000000000000e+00 0.000000000000000e+00
0.000000000000000e+00 0.000000000000000e+00 0.000000000000000e+00
0.000000000000000e+00 0.000000000000000e+00 0.000000000000000e+00
0.000000000000000e+00 0.000000000000000e+00 0.000000000000000e+00
0.000000000000000e+00 0.000000000000000e+00 0.000000000000000e+00
-4.538264040058720e-04 1.328184626979245e-16 -1.338091609777172e-16
-4.538264040059458e-04 1.278394644771285e-16 -5.347745060087409e-16
-4.538264040061350e-04 3.302357504769335e-16 -2.883778146337524e-18
-4.538264040058883e-04 -3.208940006275103e-17 9.056844457746475e-17
0.000000000000000e+00 0.000000000000000e+00 0.000000000000000e+00
0.000000000000000e+00 0.000000000000000e+00 0.000000000000000e+00
0.000000000000000e+00 0.000000000000000e+00 0.000000000000000e+00
0.000000000000000e+00 0.000000000000000e+00 0.000000000000000e+00
-4.538264040059458e-04 1.278394644771285e-16 -5.347745060087409e-16
-4.538264040060583e-04 3.141134639273684e-17 4.721605688985773e-16
-4.538264040063762e-04 5.334471358503137e-16 -8.841195395966753e-16
-4.538264040061350e-04 3.302357504769335e-16 -2.883778146337524e-18
0.000000000000000e+00 0.000000000000000e+00 0.000000000000000e+00
0.000000000000000e+00 0.000000000000000e+00 0.000000000000000e+00
0.000000000000000e+00 0.000000000000000e+00 0.000000000000000e+00
0.000000000000000e+00 0.000000000000000e+00 0.000000000000000e+00
-4.538264040062662e-04 0.000000000000000e+00 0.000000000000000e+00
-4.538264040058883e-04 -3.208940006275103e-17 9.056844457746475e-17
-4.538264040059309e-04 0.000000000000000e+00 0.000000000000000e+00
-4.538264040050506e-04 0.000000000000000e+00 0.000000000000000e+00
0.000000000000000e+00 0.000000000000000e+00 0.000000000000000e+00
0.000000000000000e+00 0.000000000000000e+00 0.000000000000000e+00
0.000000000000000e+00 0.000000000000000e+00 0.000000000000000e+00
0.000000000000000e+00 0.000000000000000e+00 0.000000000000000e+00
-4.538264040058883e-04 -3.208940006275103e-17 9.056844457746475e-17
-4.538264040061350e-04 3.302357504769335e-16 -2.883778146337524e-18
-4.538264040062267e-04 0.000000000000000e+00 0.000000000000000e+00
-4.538264040059309e-04 0.000000000000000e+00 0.000000000000000e+00
0.000000000000000e+00 0.000000000000000e+00 0.000000000000000e+00
0.000000000000000e+00 0.000000000000000e+00 0.000000000000000e+00
0.000000000000000e+00 0.000000000000000e+00 0.000000000000000e+00
0.000000000000000e+00 0.000000000000000e+00 0.000000000000000e+00
-4.538264040061350e-04 3.302357504769335e-16 -2.883778146337524e-18
-4.538264040063762e-04 5.334471358503137e-16 -8.841195395966753e-16
-4.538264040053611e-04 0.000000000000000e+00 0.000000000000000e+00
-4.538264040062267e-04 0.000000000000000e+00 0.000000000000000e+00
-4.538264040059894e-04 0.000000000000000e+00 0.000000000000000e+00
-4.538264040056072e-04 0.000000000000000e+00 0.000000000000000e+00
-4.538264040055616e-04 -7.068826473837461e-16 -6.429720669789206e-16
-4.538264040056730e-04 0.000000000000000e+00 0.000000000000000e+00
-9.070747024732322e-04 0.000000000000000e+00 0.000000000000000e+00
-9.070747024710747e-04 0.000000000000000e+00 0.000000000000000e+00
-9.070747024716978e-04 3.586067254825191e-16 -1.081744607551052e-15
-9.070747024716112e-04 0.000000000000000e+00 0.000000000000000e+00
-4.538264040056072e-04 0.000000000000000e+00 0.000000000000000e+00
-4.538264040055726e-04 0.000000000000000e+00 0.000000000000000e+00
-4.538264040064265e-04 -3.731719584145836e-16 -2.529231195031050e-17
-4.538264040055616e-04 -7.068826473837461e-16 -6.429720669789206e-16
-9.070747024710747e-04 0.000000000000000e+00 0.000000000000000e+00
-9.070747024728337e-04 0.000000000000000e+00 0.000000000000000e+00
-9.070747024725109e-04 -8.537596991514820e-16 4.013871040802993e-16
-9.070747024716978e-04 3.586067254825191e-16 -1.081744607551052e-15
-4.538264040055726e-04 0.000000000000000e+00 0.000000000000000e+00
-4.538264040063082e-04 0.000000000000000e+00 0.000000000000000e+00
-4.538264040062039e-04 1.773557427896145e-16 -7.086128576426333e-17
-4.538264040064265e-04 -3.731719584145836e-16 -2.529231195031050e-17
-9.070747024728337e-04 0.000000000000000e+00 0.000000000000000e+00
-9.070747024729878e-04 0.000000000000000e+00 0.000000000000000e+00
-9.070747024727602e-04 -5.825287500078618e-17 1.313327777377070e-16
-9.070747024725109e-04 -8.537596991514820e-16 4.013871040802993e-16
-4.538264040056730e-04 0.000000000000000e+00 0.000000000000000e+00
-4.538264040055616e-04 -7.068826473837461e-16 -6.429720669789206e-16
-4.538264040060215e-04 1.142505104143914e-16 6.571077815008055e-16
-4.538264040052294e-04 0.000000000000000e+00 0.000000000000000e+00
-9.070747024716112e-04 0.000000000000000e+00 0.000000000000000e+00
-9.070747024716978e-04 3.586067254825191e-16 -1.081744607551052e-15
-9.070747024720456e-04 -2.731602287290223e-16 5.422189982487820e-16
-9.070747024716054e-04 0.000000000000000e+00 0.000000000000000e+00
-4.538264040055616e-04 -7.068826473837461e-16 -6.429720669789206e-16
-4.538264040064265e-04 -3.731719584145836e-16 -2.529231195031050e-17
-4.538264040062671e-04 -7.209911542845887e-17 -1.985084119661553e-16
-4.538264040060215e-04 1.142505104143914e-16 6.571077815008055e-16
-9.070747024716978e-04 3.586067254825191e-16 -1.081744607551052e-15
-9.070747024725109e-04 -8.537596991514820e-16 4.013871040802993e-16
-9.070747024723988e-04 2.662808120373158e-16 4.120008092105021e-17
-9.070747024720456e-04 -2.731602287290223e-16 5.422189982487820e-16
-4.538264040064265e-04 -3.731719584145836e-16 -2.529231195031050e-17
-4.538264040062039e-04 1.773557427896145e-16 -7.086128576426333e-17
-4.538264040060556e-04 1.824589821302426e-16 1.163843506393484e-17
-4.538264040062671e-04 -7.209911542845887e-17 -1.985084119661553e-16
-9.070747024725109e-04 -8.537596991514820e-16 4.013871040802993e-16
-9.070747024727602e-04 -5.825287500078618e-17 1.313327777377070e-16
-9.070747024717782e-04 8.526121462556483e-16 8.488185425459381e-16
-9.070747024723988e-04 2.662808120373158e-16 4.120008092105021e-17
-4.538264040052294e-04 0.000000000000000e+00 0.000000000000000e+00
-4.538264040060215e-04 1.142505104143914e-16 6.571077815008055e-16
-4.538264040058720e-04 1.328184626979245e-16 -1.338091609777172e-16
-4.538264040058538e-04 0.000000000000000e+00 0.000000000000000e+00
-9.070747024716054e-04 0.000000000000000e+00 0.000000000000000e+00
-9.070747024720456e-04 -2.731602287290223e-16 5.422189982487820e-16
-9.070747024719665e-04 -5.962230326379781e-17 2.537987506609473e-17
-9.070747024716363e-04 0.000000000000000e+00 0.000000000000000e+00
-4.538264040060215e-04 1.142505104143914e-16 6.571077815008055e-16
-4.538264040062671e-04 -7.209911542845887e-17 -1.985084119661553e-16
-4.538264040059458e-04 1.278394644771285e-16 -5.347745060087409e-16
-4.538264040058720e-04 1.328184626979245e-16 -1.338091609777172e-16
-9.070747024720456e-04 -2.731602287290223e-16 5.422189982487820e-16
-9.070747024723988e-04 2.662808120373158e-16 4.120008092105021e-17
-9.070747024718679e-04 -7.559355988253263e-18 -2.789205591450488e-16
-9.070747024719665e-04 -5.962230326379781e-17 2.537987506609473e-17
-4.538264040062671e-04 -7.209911542845887e-17 -1.985084119661553e-16
-4.538264040060556e-04 1.824589821302426e-16 1.163843506393484e-17
-4.538264040060583e-04 3.141134639273684e-17 4.721605688985773e-16
-4.538264040059458e-04 1.278394644771285e-16 -5.347745060087409e-16
-9.070747024723988e-04 2.662808120373158e-16 4.120008092105021e-17
-9.070747024717782e-04 8.526121462556483e-16 8.488185425459381e-16
-9.070747024725828e-04 2.067212669242185e-16 1.449160282089165e-16
-9.070747024718679e-04 -7.559355988253263e-18 -2.789205591450488e-16
-4.538264040058538e-04 0.000000000000000e+00 0.000000000000000e+00
-4.538264040058720e-04 1.328184626979245e-16 -1.338091609777172e-16
-4.538264040058883e-04 -3.208940006275103e-17 9.056844457746475e-17
-4.538264040062662e-04 0.000000000000000e+00 0.000000000000000e+00
-9.070747024716363e-04 0.000000000000000e+00 0.000000000000000e+00
-9.070747024719665e-04 -5.962230326379781e-17 2.537987506609473e-17
-9.070747024725196e-04 -1.087746508101821e-16 1.299273589715637e-17
-9.070747024719744e-04 0.000000000000000e+00 0.000000000000000e+00
-4.538264040058720e-04 1.328184626979245e-16 -1.338091609777172e-16
-4.538264040059458e-04 1.278394644771285e-16 -5.347745060087409e-16
-4.538264040061350e-04 3.302357504769335e-16 -2.883778146337524e-18
-4.538264040058883e-04 -3.208940006275103e-17 9.056844457746475e-17
-9.070747024719665e-04 -5.962230326379781e-17 2.537987506609473e-17
-9.070747024718679e-04 -7.559355988253263e-18 -2.789205591450488e-16
-9.070747024722045e-04 4.834554437652017e-16 2.205986571015675e-17
-9.070747024725196e-04 -1.087746508101821e-16 1.299273589715637e-17
-4.538264040059458e-04 1.278394644771285e-16 -5.347745060087409e-16
-4.538264040060583e-04 3.141134639273684e-17 4.721605688985773e-16
-4.538264040063762e-04 5.334471358503137e-16 -8.841195395966753e-16
-4.538264040061350e-04 3.302357504769335e-16 -2.883778146337524e-18
-9.070747024718679e-04 -7.559355988253263e-18 -2.789205591450488e-16
-9.070747024725828e-04 2.067212669242185e-16 1.449160282089165e-16
-9.070747024725466e-04 1.632011842837341e-16 -2.193243065865742e-16
-9.070747024722045e-04 4.834554437652017e-16 2.205986571015675e-17
-4.538264040062662e-04 0.000000000000000e+00 0.000000000000000e+00
-4.538264040058883e-04 -3.208940006275103e-17 9.056844457746475e-17
-4.538264040059309e-04 0.000000000000000e+00 0.000000000000000e+00
-4.538264040050506e-04 0.000000000000000e+00 0.000000000000000e+00
-9.070747024719744e-04 0.000000000000000e+00 0.000000000000000e+00
-9.070747024725196e-04 -1.087746508101821e-16 1.299273589715637e-17
-9.070747024720005e-04 0.000000000000000e+00 0.000000000000000e+00
-9.070747024722217e-04 0.000000000000000e+00 0.000000000000000e+00
-4.538264040058883e-04 -3.208940006275103e-17 9.056844457746475e-17
-4.538264040061350e-04 3.302357504769335e-16 -2.883778146337524e-18
-4.538264040062267e-04 0.000000000000000e+00 0.000000000000000e+00
-4.538264040059309e-04 0.000000000000000e+00 0.000000000000000e+00
-9.070747024725196e-04 -1.087746508101821e-16 1.299273589715637e-17
-9.070747024722045e-04 4.834554437652017e-16 2.205986571015675e-17
-9.070747024719516e-04 0.000000000000000e+00 0.000000000000000e+00
-9.070747024720005e-04 0.000000000000000e+00 0.000000000000000e+00
-4.538264040061350e-04 3.302357504769335e-16 -2.883778146337524e-18
-4.538264040063762e-04 5.334471358503137e-16 -8.841195395966753e-16
-4.538264040053611e-04 0.000000000000000e+00 0.000000000000000e+00
-4.538264040062267e-04 0.000000000000000e+00 0.000000000000000e+00
-9.070747024722045e-04 4.834554437652017e-16 2.205986571015675e-17
-9.070747024725466e-04 1.632011842837341e-16 -2.193243065865742e-16
-9.070747024720985e-04 0.000000000000000e+00 0.000000000000000e+00
-9.070747024719516e-04 0.000000000000000e+00 0.000000000000000e+00
-9.070747024732322e-04 0.000000000000000e+00 0.000000000000000e+00
-9.070747024710747e-04 0.000000000000000e+00 0.000000000000000e+00
-9.070747024716978e-04 3.586067254825191e-16 -1.081744607551052e-15
-9.070747024716112e-04 0.000000000000000e+00 0.000000000000000e+00
-1.360466801259546e-03 0.000000000000000e+00 0.000000000000000e+00
-1.360466801260529e-03 0.000000000000000e+00 0.000000000000000e+00
-1.360466801260605e-03 5.443002259599680e-16 -2.066403834542116e-16
-1.360466801260830e-03 0.000000000000000e+00 0.000000000000000e+00
-9.070747024710747e-04 0.000000000000000e+00 0.000000000000000e+00
-9.070747024728337e-04 0.000000000000000e+00 0.000000000000000e+00
-9.070747024725109e-04 -8.537596991514820e-16 4.013871040802993e-16
-9.070747024716978e-04 3.586067254825191e-16 -1.081744607551052e-15
-1.360466801260529e-03 0.000000000000000e+00 0.000000000000000e+00
-1.360466801260383e-03 0.000000000000000e+00 0.000000000000000e+00
-1.360466801260502e-03 -1.735118935903439e-16 -1.000155815767734e-16
-1.360466801260605e-03 5.443002259599680e-16 -2.066403834542116e-16
-9.070747024728337e-04 0.000000000000000e+00 0.000000000000000e+00
-9.070747024729878e-04 0.000000000000000e+00 0.000000000000000e+00
-9.070747024727602e-04 -5.825287500078618e-17 1.313327777377070e-16
-9.070747024725109e-04 -8.537596991514820e-16 4.013871040802993e-16
-1.360466801260383e-03 0.000000000000000e+00 0.000000000000000e+00
-1.360466801260876e-03 0.000000000000000e+00 0.000000000000000e+00
-1.360466801260828e-03 6.928654483740025e-16 2.380414875816993e-16
-1.360466801260502e-03 -1.735118935903439e-16 -1.000155815767734e-16
-9.070747024716112e-04 0.000000000000000e+00 0.000000000000000e+00
-9.070747024716978e-04 3.586067254825191e-16 -1.081744607551052e-15
-9.070747024720456e-04 -2.731602287290223e-16 5.422189982487820e-16
-9.070747024716054e-04 0.000000000000000e+00 0.000000000000000e+00
-1.360466801260830e-03 0.000000000000000e+00 0.000000000000000e+00
-1.360466801260605e-03 5.443002259599680e-16 -2.066403834542116e-16
-1.360466801261955e-03 2.789579797188469e-16 -3.974886524252374e-16
-1.360466801260681e-03 0.000000000000000e+00 0.000000000000000e+00
-9.070747024716978e-04 3.586067254825191e-16 -1.081744607551052e-15
-9.070747024725109e-04 -8.537596991514820e-16 4.013871040802993e-16
-9.070747024723988e-04 2.662808120373158e-16 4.120008092105021e-17
-9.070747024720456e-04 -2.731602287290223e-16 5.422189982487820e-16
-1.360466801260605e-03 5.443002259599680e-16 -2.066403834542116e-16
-1.360466801260502e-03 -1.735118935903439e-16 -1.000155815767734e-16
-1.360466801261187e-03 5.202641177814105e-16 -7.256286863981029e-17
-1.360466801261955e-03 2.789579797188469e-16 -3.974886524252374e-16
-9.070747024725109e-04 -8.537596991514820e-16 4.013871040802993e-16
-9.070747024727602e-04 -5.825287500078618e-17 1.313327777377070e-16
-9.070747024717782e-04 8.526121462556483e-16 8.488185425459381e-16
-9.070747024723988e-04 2.662808120373158e-16 4.120008092105021e-17
-1.360466801260502e-03 -1.735118935903439e-16 -1.000155815767734e-16
-1.360466801260828e-03 6.928654483740025e-16 2.380414875816993e-16
-1.360466801260658e-03 6.929418900891907e-16 8.133836756597542e-17
-1.360466801261187e-03 5.202641177814105e-16 -7.256286863981029e-17
-9.070747024716054e-04 0.000000000000000e+00 0.000000000000000e+00
-9.070747024720456e-04 -2.731602287290223e-16 5.422189982487820e-16
-9.070747024719665e-04 -5.962230326379781e-17 2.537987506609473e-17
-9.070747024716363e-04 0.000000000000000e+00 0.000000000000000e+00
-1.360466801260681e-03 0.000000000000000e+00 0.000000000000000e+00
-1.360466801261955e-03 2.789579797188469e-16 -3.974886524252374e-16
-1.360466801261005e-03 3.509196913181083e-17 1.690101610866675e-16
-1.360466801260951e-03 0.000000000000000e+00 0.000000000000000e+00
-9.070747024720456e-04 -2.731602287290223e-16 5.422189982487820e-16
-9.070747024723988e-04 2.662808120373158e-16 4.120008092105021e-17
-9.070747024718679e-04 -7.559355988253263e-18 -2.789205591450488e-16
-9.070747024719665e-04 -5.962230326379781e-17 2.537987506609473e-17
-1.360466801261955e-03 2.789579797188469e-16 -3.974886524252374e-16
-1.360466801261187e-03 5.202641177814105e-16 -7.256286863981029e-17
-1.360466801261152e-03 7.347681142388965e-16 -1.442619278441957e-17
-1.360466801261005e-03 3.509196913181083e-17 1.690101610866675e-16
-9.070747024723988e-04 2.662808120373158e-16 4.120008092105021e-17
-9.070747024717782e-04 8.526121462556483e-16 8.488185425459381e-16
-9.070747024725828e-04 2.067212669242185e-16 1.449160282089165e-16
-9.070747024718679e-04 -7.559355988253263e-18 -2.789205591450488e-16
-1.360466801261187e-03 5.202641177814105e-16 -7.256286863981029e-17
-1.360466801260658e-03 6.929418900891907e-16 8.133836756597542e-17
-1.360466801260662e-03 2.723610247044269e-16 -2.818813016860706e-16
-1.360466801261152e-03 7.347681142388965e-16 -1.442619278441957e-17
-9.070747024716363e-04 0.000000000000000e+00 0.000000000000000e+00
-9.070747024719665e-04 -5.962230326379781e-17 2.537987506609473e-17
-9.070747024725196e-04 -1.087746508101821e-16 1.299273589715637e-17
-9.070747024719744e-04 0.000000000000000e+00 0.000000000000000e+00
-1.360466801260951e-03 0.000000000000000e+00 0.000000000000000e+00
-1.360466801261005e-03 3.509196913181083e-17 1.690101610866675e-16
-1.360466801260852e-03 3.878717889111252e-16 1.743886095570782e-16
-1.360466801261019e-03 0.000000000000000e+00 0.000000000000000e+00
-9.070747024719665e-04 -5.962230326379781e-17 2.537987506609473e-17
-9.070747024718679e-04 -7.559355988253263e-18 -2.789205591450488e-16
-9.070747024722045e-04 4.834554437652017e-16 2.205986571015675e-17
-9.070747024725196e-04 -1.087746508101821e-16 1.299273589715637e-17
-1.360466801261005e-03 3.509196913181083e-17 1.690101610866675e-16
-1.360466801261152e-03 7.347681142388965e-16 -1.442619278441957e-17
-1.360466801261422e-03 -1.132069538238792e-16 -6.295364790938242e-16
-1.360466801260852e-03 3.878717889111252e-16 1.743886095570782e-16
-9.070747024718679e-04 -7.559355988253263e-18 -2.789205591450488e-16
-9.070747024725828e-04 2.067212669242185e-16 1.449160282089165e-16
-9.070747024725466e-04 1.632011842837341e-16 -2.193243065865742e-16
-9.070747024722045e-04 4.834554437652017e-16 2.205986571015675e-17
-1.360466801261152e-03 7.347681142388965e-16 -1.442619278441957e-17
-1.360466801260662e-03 2.723610247044269e-16 -2.818813016860706e-16
-1.360466801260955e-03 9.156979099409148e-16 3.518819267793625e-18
-1.360466801261422e-03 -1.132069538238792e-16 -6.295364790938242e-16
-9.070747024719744e-04 0.000000000000000e+00 0.000000000000000e+00
-9.070747024725196e-04 -1.087746508101821e-16 1.299273589715637e-17
-9.070747024720005e-04 0.000000000000000e+00 0.000000000000000e+00
-9.070747024722217e-04 0.000000000000000e+00 0.000000000000000e+00
-1.360466801261019e-03 0.000000000000000e+00 0.000000000000000e+00
-1.360466801260852e-03 3.878717889111252e-16 1.743886095570782e-16
-1.360466801261428e-03 0.000000000000000e+00 0.000000000000000e+00
-1.360466801260618e-03 0.000000000000000e+00 0.000000000000000e+00
-9.070747024725196e-04 -1.087746508101821e-16 1.299273589715637e-17
-9.070747024722045e-04 4.834554437652017e-16 2.205986571015675e-17
-9.070747024719516e-04 0.000000000000000e+00 0.000000000000000e+00
-9.070747024720005e-04 0.000000000000000e+00 0.000000000000000e+00
-1.360466801260852e-03 3.878717889111252e-16 1.743886095570782e-16
-1.360466801261422e-03 -1.132069538238792e-16 -6.295364790938242e-16
-1.360466801260590e-03 0.000000000000000e+00 0.000000000000000e+00
-1.360466801261428e-03 0.000000000000000e+00 0.000000000000000e+00
-9.070747024722045e-04 4.834554437652017e-16 2.205986571015675e-17
-9.070747024725466e-04 1.632011842837341e-16 -2.193243065865742e-16
-9.070747024720985e-04 0.000000000000000e+00 0.000000000000000e+00
-9.070747024719516e-04 0.000000000000000e+00 0.000000000000000e+00
-1.360466801261422e-03 -1.132069538238792e-16 -6.295364790938242e-16
-1.360466801260955e-03 9.156979099409148e-16 3.518819267793625e-18
-1.360466801260596e-03 0.000000000000000e+00 0.000000000000000e+00
-1.360466801260590e-03 0.000000000000000e+00 0.000000000000000e+00
-1.360466801259546e-03 0.000000000000000e+00 0.000000000000000e+00
-1.360466801260529e-03 0.000000000000000e+00 0.000000000000000e+00
-1.360466801260605e-03 5.443002259599680e-16 -2.066403834542116e-16
-1.360466801260830e-03 0.000000000000000e+00 0.000000000000000e+00
-1.814801405133430e-03 0.000000000000000e+00 0.000000000000000e+00
-1.814801405133469e-03 0.000000000000000e+00 0.000000000000000e+00
-1.814801405133259e-03 7.169594615517298e-17 5.253428180363489e-17
-1.814801405133077e-03 0.000000000000000e+00 0.000000000000000e+00
-1.360466801260529e-03 0.000000000000000e+00 0.000000000000000e+00
-1.360466801260383e-03 0.000000000000000e+00 0.000000000000000e+00
-1.360466801260502e-03 -1.735118935903439e-16 -1.000155815767734e-16
-1.360466801260605e-03 5.443002259599680e-16 -2.066403834542116e-16
-1.814801405133469e-03 0.000000000000000e+00 0.000000000000000e+00
-1.814801405133178e-03 0.000000000000000e+00 0.000000000000000e+00
-1.814801405132646e-03 1.556326695767623e-16 2.678587220965514e-16
-1.814801405133259e-03 7.169594615517298e-17 5.253428180363489e-17
-1.360466801260383e-03 0.000000000000000e+00 0.000000000000000e+00
-1.360466801260876e-03 0.000000000000000e+00 0.000000000000000e+00
-1.360466801260828e-03 6.928654483740025e-16 2.380414875816993e-16
-1.360466801260502e-03 -1.735118935903439e-16 -1.000155815767734e-16
-1.814801405133178e-03 0.000000000000000e+00 0.000000000000000e+00
-1.814801405133440e-03 0.000000000000000e+00 0.000000000000000e+00
-1.814801405132630e-03 -4.793473596124393e-16 4.360883310922262e-16
-1.814801405132646e-03 1.556326695767623e-16 2.678587220965514e-16
-1.360466801260830e-03 0.000000000000000e+00 0.000000000000000e+00
-1.360466801260605e-03 5.443002259599680e-16 -2.066403834542116e-16
-1.360466801261955e-03 2.789579797188469e-16 -3.974886524252374e-16
-1.360466801260681e-03 0.000000000000000e+00 0.000000000000000e+00
-1.814801405133077e-03 0.000000000000000e+00 0.000000000000000e+00
-1.814801405133259e-03 7.169594615517298e-17 5.253428180363489e-17
-1.814801405133466e-03 1.431500059702989e-16 3.577619949119621e-16
-1.814801405133220e-03 0.000000000000000e+00 0.000000000000000e+00
-1.360466801260605e-03 5.443002259599680e-16 -2.066403834542116e-16
-1.360466801260502e-03 -1.735118935903439e-16 -1.000155815767734e-16
-1.360466801261187e-03 5.202641177814105e-16 -7.256286863981029e-17
-1.360466801261955e-03 2.789579797188469e-16 -3.974886524252374e-16
-1.814801405133259e-03 7.169594615517298e-17 5.253428180363489e-17
-1.814801405132646e-03 1.556326695767623e-16 2.678587220965514e-16
-1.814801405132897e-03 8.357474034799166e-16 -1.760853851738465e-16
-1.814801405133466e-03 1.431500059702989e-16 3.577619949119621e-16
-1.360466801260502e-03 -1.735118935903439e-16 -1.000155815767734e-16
-1.360466801260828e-03 6.928654483740025e-16 2.380414875816993e-16
-1.360466801260658e-03 6.929418900891907e-16 8.133836756597542e-17
-1.360466801261187e-03 5.202641177814105e-16 -7.256286863981029e-17
-1.814801405132646e-03 1.556326695767623e-16 2.678587220965514e-16
-1.814801405132630e-03 -4.793473596124393e-16 4.360883310922262e-16
-1.814801405133469e-03 1.088340748938671e-15 -9.156092438998255e-17
-1.814801405132897e-03 8.357474034799166e-16 -1.760853851738465e-16
-1.360466801260681e-03 0.000000000000000e+00 0.000000000000000e+00
-1.360466801261955e-03 2.789579797188469e-16 -3.974886524252374e-16
-1.360466801261005e-03 3.509196913181083e-17 1.690101610866675e-16
-1.360466801260951e-03 0.000000000000000e+00 0.000000000000000e+00
-1.814801405133220e-03 0.000000000000000e+00 0.000000000000000e+00
-1.814801405133466e-03 1.431500059702989e-16 3.577619949119621e-16
-1.814801405133610e-03 2.004728206780620e-16 5.439328993522154e-16
-1.814801405132232e-03 0.000000000000000e+00 0.000000000000000e+00
-1.360466801261955e-03 2.789579797188469e-16 -3.974886524252374e-16
-1.360466801261187e-03 5.202641177814105e-16 -7.256286863981029e-17
-1.360466801261152e-03 7.347681142388965e-16 -1.442619278441957e-17
-1.360466801261005e-03 3.509196913181083e-17 1.690101610866675e-16
-1.814801405133466e-03 1.431500059702989e-16 3.577619949119621e-16
-1.814801405132897e-03 8.357474034799166e-16 -1.760853851738465e-16
-1.814801405132745e-03 -4.703844902268930e-16 -1.112940370642842e-17
-1.814801405133610e-03 2.004728206780620e-16 5.439328993522154e-16
-1.360466801261187e-03 5.202641177814105e-16 -7.256286863981029e-17
-1.360466801260658e-03 6.929418900891907e-16 8.133836756597542e-17
-1.360466801260662e-03 2.723610247044269e-16 -2.818813016860706e-16
-1.360466801261152e-03 7.347681142388965e-16 -1.442619278441957e-17
-1.814801405132897e-03 8.357474034799166e-16 -1.760853851738465e-16
-1.814801405133469e-03 1.088340748938671e-15 -9.156092438998255e-17
-1.814801405132443e-03 3.380800488287002e-16 6.834741101793819e-17
-1.814801405132745e-03 -4.703844902268930e-16 -1.112940370642842e-17
-1.360466801260951e-03 0.000000000000000e+00 0.000000000000000e+00
-1.360466801261005e-03 3.509196913181083e-17 1.690101610866675e-16
-1.360466801260852e-03 3.878717889111252e-16 1.743886095570782e-16
-1.360466801261019e-03 0.000000000000000e+00 0.000000000000000e+00
-1.814801405132232e-03 0.000000000000000e+00 0.000000000000000e+00
-1.814801405133610e-03 2.004728206780620e-16 5.439328993522154e-16
-1.814801405133782e-03 1.782600519118597e-16 -8.095694593188824e-17
-1.814801405132357e-03 0.000000000000000e+00 0.000000000000000e+00
-1.360466801261005e-03 3.509196913181083e-17 1.690101610866675e-16
-1.360466801261152e-03 7.347681142388965e-16 -1.442619278441957e-17
-1.360466801261422e-03 -1.132069538238792e-16 -6.295364790938242e-16
-1.360466801260852e-03 3.878717889111252e-16 1.743886095570782e-16
-1.814801405133610e-03 2.004728206780620e-16 5.439328993522154e-16
-1.814801405132745e-03 -4.703844902268930e-16 -1.112940370642842e-17
-1.814801405132563e-03 8.499554921581687e-16 -3.090405195641349e-16
-1.814801405133782e-03 1.782600519118597e-16 -8.095694593188824e-17
-1.360466801261152e-03 7.347681142388965e-16 -1.442619278441957e-17
-1.360466801260662e-03 2.723610247044269e-16 -2.818813016860706e-16
-1.360466801260955e-03 9.156979099409148e-16 3.518819267793625e-18
-1.360466801261422e-03 -1.132069538238792e-16 -6.295364790938242e-16
-1.814801405132745e-03 -4.703844902268930e-16 -1.112940370642842e-17
-1.814801405132443e-03 3.380800488287002e-16 6.834741101793819e-17
-1.814801405133597e-03 -2.767028377848041e-17 9.176648411795899e-17
-1.814801405132563e-03 8.499554921581687e-16 -3.090405195641349e-16
-1.360466801261019e-03 0.000000000000000e+00 0.000000000000000e+00
-1.360466801260852e-03 3.878717889111252e-16 1.743886095570782e-16
-1.360466801261428e-03 0.000000000000000e+00 0.000000000000000e+00
-1.360466801260618e-03 0.000000000000000e+00 0.000000000000000e+00
-1.814801405132357e-03 0.000000000000000e+00 0.000000000000000e+00
-1.814801405133782e-03 1.782600519118597e-16 -8.095694593188824e-17
-1.814801405133506e-03 0.000000000000000e+00 0.000000000000000e+00
-1.814801405133166e-03 0.000000000000000e+00 0.000000000000000e+00
-1.360466801260852e-03 3.878717889111252e-16 1.743886095570782e-16
-1.360466801261422e-03 -1.132069538238792e-16 -6.295364790938242e-16
-1.360466801260590e-03 0.000000000000000e+00 0.000000000000000e+00
-1.360466801261428e-03 0.000000000000000e+00 0.000000000000000e+00
-1.814801405133782e-03 1.782600519118597e-16 -8.095694593188824e-17
-1.814801405132563e-03 8.499554921581687e-16 -3.090405195641349e-16
-1.814801405132841e-03 0.000000000000000e+00 0.000000000000000e+00
-1.814801405133506e-03 0.000000000000000e+00 0.000000000000000e+00
-1.360466801261422e-03 -1.132069538238792e-16 -6.295364790938242e-16
-1.360466801260955e-03 9.156979099409148e-16 3.518819267793625e-18
-1.360466801260596e-03 0.000000000000000e+00 0.000000000000000e+00
-1.360466801260590e-03 0.000000000000000e+00 0.000000000000000e+00
-1.814801405132563e-03 8.499554921581687e-16 -3.090405195641349e-16
-1.814801405133597e-03 -2.767028377848041e-17 9.176648411795899e-17
-1.814801405132811e-03 0.000000000000000e+00 0.000000000000000e+00
-1.814801405132841e-03 0.000000000000000e+00 0.000000000000000e+00
-1.814801405133430e-03 0.000000000000000e+00 0.000000000000000e+00
-1.814801405133469e-03 0.000000000000000e+00 0.000000000000000e+00
-1.814801405133259e-03 7.169594615517298e-17 5.253428180363489e-17
-1.814801405133077e-03 0.000000000000000e+00 0.000000000000000e+00
-2.270846922507594e-03 0.000000000000000e+00 0.000000000000000e+00
-2.270846922507538e-03 0.000000000000000e+00 0.000000000000000e+00
-2.270846922508233e-03 1.295960821529656e-16 8.057407441859756e-18
-2.270846922506579e-03 0.000000000000000e+00 0.000000000000000e+00
-1.814801405133469e-03 0.000000000000000e+00 0.000000000000000e+00
-1.814801405133178e-03 0.000000000000000e+00 0.000000000000000e+00
-1.814801405132646e-03 1.556326695767623e-16 2.678587220965514e-16
-1.814801405133259e-03 7.169594615517298e-17 5.253428180363489e-17
-2.270846922507538e-03 0.000000000000000e+00 0.000000000000000e+00
-2.270846922506638e-03 0.000000000000000e+00 0.000000000000000e+00
-2.270846922507823e-03 -4.975606915084987e-17 3.502021835626684e-17
-2.270846922508233e-03 1.295960821529656e-16 8.057407441859756e-18
-1.814801405133178e-03 0.000000000000000e+00 0.000000000000000e+00
-1.814801405133440e-03 0.000000000000000e+00 0.000000000000000e+00
-1.814801405132630e-03 -4.793473596124393e-16 4.360883310922262e-16
-1.814801405132646e-03 1.556326695767623e-16 2.678587220965514e-16
-2.270846922506638e-03 0.000000000000000e+00 0.000000000000000e+00
-2.270846922506289e-03 0.000000000000000e+00 0.000000000000000e+00
-2.270846922508733e-03 6.081950023073178e-16 -2.955108249366289e-16
-2.270846922507823e-03 -4.975606915084987e-17 3.502021835626684e-17
-1.814801405133077e-03 0.000000000000000e+00 0.000000000000000e+00
-1.814801405133259e-03 7.169594615517298e-17 5.253428180363489e-17
-1.814801405133466e-03 1.431500059702989e-16 3.577619949119621e-16
-1.814801405133220e-03 0.000000000000000e+00 0.000000000000000e+00
-2.270846922506579e-03 0.000000000000000e+00 0.000000000000000e+00
-2.270846922508233e-03 1.295960821529656e-16 8.057407441859756e-18
-2.270846922509681e-03 2.024405797434643e-16 -1.508335236437978e-16
-2.270846922507431e-03 0.000000000000000e+00 0.000000000000000e+00
-1.814801405133259e-03 7.169594615517298e-17 5.253428180363489e-17
-1.814801405132646e-03 1.556326695767623e-16 2.678587220965514e-16
-1.814801405132897e-03 8.357474034799166e-16 -1.760853851738465e-16
-1.814801405133466e-03 1.431500059702989e-16 3.577619949119621e-16
-2.270846922508233e-03 1.295960821529656e-16 8.057407441859756e-18
-2.270846922507823e-03 -4.975606915084987e-17 3.502021835626684e-17
-2.270846922508400e-03 6.258606203348895e-17 -3.089674830016660e-16
-2.270846922509681e-03 2.024405797434643e-16 -1.508335236437978e-16
-1.814801405132646e-03 1.556326695767623e-16 2.678587220965514e-16
-1.814801405132630e-03 -4.793473596124393e-16 4.360883310922262e-16
-1.814801405133469e-03 1.088340748938671e-15 -9.156092438998255e-17
-1.814801405132897e-03 8.357474034799166e-16 -1.760853851738465e-16
-2.270846922507823e-03 -4.975606915084987e-17 3.502021835626684e-17
-2.270846922508733e-03 6.081950023073178e-16 -2.955108249366289e-16
-2.270846922507107e-03 6.573324890212030e-16 -2.683279982332985e-17
-2.270846922508400e-03 6.258606203348895e-17 -3.089674830016660e-16
-1.814801405133220e-03 0.000000000000000e+00 0.000000000000000e+00
-1.814801405133466e-03 1.431500059702989e-16 3.577619949119621e-16
-1.814801405133610e-03 2.004728206780620e-16 5.439328993522154e-16
-1.814801405132232e-03 0.000000000000000e+00 0.000000000000000e+00
-2.270846922507431e-03 0.000000000000000e+00 0.000000000000000e+00
-2.270846922509681e-03 2.024405797434643e-16 -1.508335236437978e-16
-2.270846922507616e-03 8.209092353879726e-16 3.727240522281730e-16
-2.270846922508411e-03 0.000000000000000e+00 0.000000000000000e+00
-1.814801405133466e-03 1.431500059702989e-16 3.577619949119621e-16
-1.814801405132897e-03 8.357474034799166e-16 -1.760853851738465e-16
-1.814801405132745e-03 -4.703844902268930e-16 -1.112940370642842e-17
-1.814801405133610e-03 2.004728206780620e-16 5.439328993522154e-16
-2.270846922509681e-03 2.024405797434643e-16 -1.508335236437978e-16
-2.270846922508400e-03 6.258606203348895e-17 -3.089674830016660e-16
-2.270846922507767e-03 -3.894097501987717e-17 -2.479388263427351e-16
-2.270846922507616e-03 8.209092353879726e-16 3.727240522281730e-16
-1.814801405132897e-03 8.357474034799166e-16 -1.760853851738465e-16
-1.814801405133469e-03 1.088340748938671e-15 -9.156092438998255e-17
-1.814801405132443e-03 3.380800488287002e-16 6.834741101793819e-17
-1.814801405132745e-03 -4.703844902268930e-16 -1.112940370642842e-17
-2.270846922508400e-03 6.258606203348895e-17 -3.089674830016660e-16
-2.270846922507107e-03 6.573324890212030e-16 -2.683279982332985e-17
-2.270846922507018e-03 -3.006207375320036e-17 -5.564307865381951e-16
-2.270846922507767e-03 -3.894097501987717e-17 -2.479388263427351e-16
-1.814801405132232e-03 0.000000000000000e+00 0.000000000000000e+00
-1.814801405133610e-03 2.004728206780620e-16 5.439328993522154e-16
-1.814801405133782e-03 1.782600519118597e-16 -8.095694593188824e-17
-1.814801405132357e-03 0.000000000000000e+00 0.000000000000000e+00
-2.270846922508411e-03 0.000000000000000e+00 0.000000000000000e+00
-2.270846922507616e-03 8.209092353879726e-16 3.727240522281730e-16
-2.270846922507419e-03 2.294739807324629e-17 -3.853558789774561e-16
-2.270846922507586e-03 0.000000000000000e+00 0.000000000000000e+00
-1.814801405133610e-03 2.004728206780620e-16 5.439328993522154e-16
-1.814801405132745e-03 -4.703844902268930e-16 -1.112940370642842e-17
-1.814801405132563e-03 8.499554921581687e-16 -3.090405195641349e-16
-1.814801405133782e-03 1.782600519118597e-16 -8.095694593188824e-17
-2.270846922507616e-03 8.209092353879726e-16 3.727240522281730e-16
-2.270846922507767e-03 -3.894097501987717e-17 -2.479388263427351e-16
-2.270846922508142e-03 1.394492651496312e-16 -2.373841488632980e-16
-2.270846922507419e-03 2.294739807324629e-17 -3.853558789774561e-16
-1.814801405132745e-03 -4.703844902268930e-16 -1.112940370642842e-17
-1.814801405132443e-03 3.380800488287002e-16 6.834741101793819e-17
-1.814801405133597e-03 -2.767028377848041e-17 9.176648411795899e-17
-1.814801405132563e-03 8.499554921581687e-16 -3.090405195641349e-16
-2.270846922507767e-03 -3.894097501987717e-17 -2.479388263427351e-16
-2.270846922507018e-03 -3.006207375320036e-17 -5.564307865381951e-16
-2.270846922508318e-03 6.285255451111060e-16 2.942097396188234e-16
-2.270846922508142e-03 1.394492651496312e-16 -2.373841488632980e-16
-1.814801405132357e-03 0.000000000000000e+00 0.000000000000000e+00
-1.814801405133782e-03 1.782600519118597e-16 -8.095694593188824e-17
-1.814801405133506e-03 0.000000000000000e+00 0.000000000000000e+00
-1.814801405133166e-03 0.000000000000000e+00 0.000000000000000e+00
-2.270846922507586e-03 0.000000000000000e+00 0.000000000000000e+00
-2.270846922507419e-03 2.294739807324629e-17 -3.853558789774561e-16
-2.270846922508849e-03 0.000000000000000e+00 0.000000000000000e+00
-2.270846922507523e-03 0.000000000000000e+00 0.000000000000000e+00
-1.814801405133782e-03 1.782600519118597e-16 -8.095694593188824e-17
-1.814801405132563e-03 8.499554921581687e-16 -3.090405195641349e-16
-1.814801405132841e-03 0.000000000000000e+00 0.000000000000000e+00
-1.814801405133506e-03 0.000000000000000e+00 0.000000000000000e+00
-2.270846922507419e-03 2.294739807324629e-17 -3.853558789774561e-16
-2.270846922508142e-03 1.394492651496312e-16 -2.373841488632980e-16
-2.270846922507876e-03 0.000000000000000e+00 0.000000000000000e+00
-2.270846922508849e-03 0.000000000000000e+00 0.000000000000000e+00
-1.814801405132563e-03 8.499554921581687e-16 -3.090405195641349e-16
-1.814801405133597e-03 -2.767028377848041e-17 9.176648411795899e-17
-1.814801405132811e-03 0.000000000000000e+00 0.000000000000000e+00
-1.814801405132841e-03 0.000000000000000e+00 0.000000000000000e+00
-2.270846922508142e-03 1.394492651496312e-16 -2.373841488632980e-16
-2.270846922508318e-03 6.285255451111060e-16 2.942097396188234e-16
-2.270846922507160e-03 0.000000000000000e+00 0.000000000000000e+00
-2.270846922507876e-03 0.000000000000000e+00 0.000000000000000e+00
        </DataArray>
        <DataArray type="Float64" Name="nodal_GL_strains_xyz" NumberOfComponents="6" format="ascii">
-2.268874572014633e-04 2.017261133810714e-16 1.908374665798256e-16 -2.296213520271956e-17 -2.978075028736849e-16 3.527574059940317e-18
-2.268874572014782e-04 4.678592641235994e-16 1.583669685928393e-16 -4.504219626201493e-17 2.169226675145706e-16 8.153309749658032e-18
-2.268874572020945e-04 -2.542481236057599e-16 -2.003650325309154e-16 -3.380728032817097e-16 -5.144399587956400e-17 -1.883506940560211e-17
-2.268874572014950e-04 -4.081671491334998e-16 -5.124817685536119e-16 -2.916529229716092e-16 1.850761052530219e-16 2.700188415098996e-16
-2.267429635923341e-04 4.096259511920302e-16 -8.544445620713583e-16 2.407324902964088e-16 -2.412511107027162e-16 1.089199467326920e-16
-2.267429635908432e-04 -5.016908429607413e-16 -9.342597261886687e-17 9.185878593070370e-17 9.047750961683910e-17 6.424245829549768e-17
-2.267429635914969e-04 -1.396407687605388e-16 5.577813053751506e-18 -2.309070606789191e-16 6.356635220506727e-17 8.817027189146841e-17
-2.267429635914303e-04 2.914335439641035e-16 9.106851143318814e-17 1.956251021624848e-16 2.435498706612174e-16 -2.475866559456876e-16
-2.268874572014782e-04 4.678592641235994e-16 1.583669685928393e-16 -4.504219626201493e-17 2.169226675145706e-16 8.153309749658032e-18
-2.268874572015857e-04 -2.775557561562891e-17 1.110223024625156e-16 5.511791592911520e-16 -6.469435566998561e-17 1.405913965518647e-17
-2.268874572021087e-04 5.079622885990046e-17 -4.770936664495641e-17 -2.512815249378226e-16 -2.873761489835629e-17 -3.455276600348585e-17
-2.268874572020945e-04 -2.542481236057599e-16 -2.003650325309154e-16 -3.380728032817097e-16 -5.144399587956400e-17 -1.883506940560211e-17
-2.267429635908432e-04 -5.016908429607413e-16 -9.342597261886687e-17 9.185878593070370e-17 9.047750961683910e-17 6.424245829549768e-17
-2.267429635922379e-04 -2.091631974527397e-16 -9.714451465470112e-17 -2.427017809220388e-16 1.749122279217726e-17 2.494701358837206e-17
-2.267429635909841e-04 2.423630964689915e-16 -7.787126405045156e-17 -3.875225917962167e-16 -1.267008098130365e-16 2.185712117934456e-16
-2.267429635914969e-04 -1.396407687605388e-16 5.577813053751506e-18 -2.309070606789191e-16 6.356635220506727e-17 8.817027189146841e-17
-2.268874572015857e-04 -2.775557561562891e-17 1.110223024625156e-16 5.511791592911520e-16 -6.469435566998561e-17 1.405913965518647e-17
-2.268874572022499e-04 4.373815268076591e-16 -1.110223024625156e-16 3.714222365453490e-16 -7.542709879170907e-18 2.849589893044035e-18
-2.268874572023697e-04 -7.855180447552936e-17 -1.759632984364885e-17 -2.074417051978749e-16 -3.064135571670398e-17 -3.637078092784897e-17
-2.268874572021087e-04 5.079622885990046e-17 -4.770936664495641e-17 -2.512815249378226e-16 -2.873761489835629e-17 -3.455276600348585e-17
-2.267429635922379e-04 -2.091631974527397e-16 -9.714451465470112e-17 -2.427017809220388e-16 1.749122279217726e-17 2.494701358837206e-17
-2.267429635918446e-04 1.475760429999691e-16 1.221779285700187e-16 1.634611174307126e-17 -3.947259354787665e-17 1.667664201722286e-16
-2.267429635916631e-04 2.979719689086242e-17 -1.573705882573166e-17 -6.400284850100680e-17 4.059236353552289e-17 -8.920267368784864e-17
-2.267429635909841e-04 2.423630964689915e-16 -7.787126405045156e-17 -3.875225917962167e-16 -1.267008098130365e-16 2.185712117934456e-16
-2.268874572014950e-04 -4.081671491334998e-16 -5.124817685536119e-16 -2.916529229716092e-16 1.850761052530219e-16 2.700188415098996e-16
-2.268874572020945e-04 -2.542481236057599e-16 -2.003650325309154e-16 -3.380728032817097e-16 -5.144399587956400e-17 -1.883506940560211e-17
-2.268874572019932e-04 -1.608221509868931e-16 -7.855180447552936e-17 -9.169676661814130e-17 8.659076849859859e-17 1.286863585629995e-16
-2.268874572014489e-04 -3.161999785731634e-16 6.695853775046707e-16 1.437805352246972e-17 1.351299529166009e-16 -1.169503327255190e-16
-2.267429635914303e-04 2.914335439641035e-16 9.106851143318814e-17 1.956251021624848e-16 2.435498706612174e-16 -2.475866559456876e-16
-2.267429635914969e-04 -1.396407687605388e-16 5.577813053751506e-18 -2.309070606789191e-16 6.356635220506727e-17 8.817027189146841e-17
-2.267429635913268e-04 -6.598623691368308e-17 -2.740195643777711e-16 -5.251077311046060e-17 -3.551817971705865e-17 6.059461062848681e-17
-2.267429635918276e-04 2.464463390194586e-16 4.535190545927772e-17 -1.819252143366193e-16 -1.551370756057102e-16 5.110995971063855e-16
-2.268874572020945e-04 -2.542481236057599e-16 -2.003650325309154e-16 -3.380728032817097e-16 -5.144399587956400e-17 -1.883506940560211e-17
-2.268874572021087e-04 5.079622885990046e-17 -4.770936664495641e-17 -2.512815249378226e-16 -2.873761489835629e-17 -3.455276600348585e-17
-2.268874572024547e-04 -1.424964201139789e-16 2.616852076774286e-16 5.989701357961137e-17 -7.284862561987284e-18 5.496271244446767e-18
-2.268874572019932e-04 -1.608221509868931e-16 -7.855180447552936e-17 -9.169676661814130e-17 8.659076849859859e-17 1.286863585629995e-16
-2.267429635914969e-04 -1.396407687605388e-16 5.577813053751506e-18 -2.309070606789191e-16 6.356635220506727e-17 8.817027189146841e-17
-2.267429635909841e-04 2.423630964689915e-16 -7.787126405045156e-17 -3.875225917962167e-16 -1.267008098130365e-16 2.185712117934456e-16
-2.267429635914124e-04 2.015926237279423e-16 8.245269676868004e-17 8.667672612525194e-17 -2.004772044181347e-17 -2.161646558242396e-17
-2.267429635913268e-04 -6.598623691368308e-17 -2.740195643777711e-16 -5.251077311046060e-17 -3.551817971705865e-17 6.059461062848681e-17
-2.268874572021087e-04 5.079622885990046e-17 -4.770936664495641e-17 -2.512815249378226e-16 -2.873761489835629e-17 -3.455276600348585e-17
-2.268874572023697e-04 -7.855180447552936e-17 -1.759632984364885e-17 -2.074417051978749e-16 -3.064135571670398e-17 -3.637078092784897e-17
-2.268874572023663e-04 -1.401389589283003e-16 2.366517937621111e-16 8.663078631658464e-17 2.539964132383108e-17 1.547370549533663e-16
-2.268874572024547e-04 -1.424964201139789e-16 2.616852076774286e-16 5.989701357961137e-17 -7.284862561987284e-18 5.496271244446767e-18
-2.267429635909841e-04 2.423630964689915e-16 -7.787126405045156e-17 -3.875225917962167e-16 -1.267008098130365e-16 2.185712117934456e-16
-2.267429635916631e-04 2.979719689086242e-17 -1.573705882573166e-17 -6.400284850100680e-17 4.059236353552289e-17 -8.920267368784864e-17
-2.267429635908463e-04 -3.927590223776469e-17 -2.322038506970113e-16 2.040422357095923e-16 -1.150373535443744e-17 1.180294749131566e-16
-2.267429635914124e-04 2.015926237279423e-16 8.245269676868004e-17 8.667672612525194e-17 -2.004772044181347e-17 -2.161646558242396e-17
-2.268874572014489e-04 -3.161999785731634e-16 6.695853775046707e-16 1.437805352246972e-17 1.351299529166009e-16 -1.169503327255190e-16
-2.268874572019932e-04 -1.608221509868931e-16 -7.855180447552936e-17 -9.169676661814130e-17 8.659076849859859e-17 1.286863585629995e-16
-2.268874572020017e-04 -1.127480838273040e-16 3.199185206089978e-16 6.891545061545387e-17 2.664857966097886e-17 -5.767839732935235e-17
-2.268874572023359e-04 1.801442621953302e-16 -3.154705775438980e-16 1.520827548874867e-16 -5.306475044471812e-17 -1.132074076004512e-17
-2.267429635918276e-04 2.464463390194586e-16 4.535190545927772e-17 -1.819252143366193e-16 -1.551370756057102e-16 5.110995971063855e-16
-2.267429635913268e-04 -6.598623691368308e-17 -2.740195643777711e-16 -5.251077311046060e-17 -3.551817971705865e-17 6.059461062848681e-17
-2.267429635916284e-04 -4.262974375896644e-17 9.882143541530207e-17 4.995468190247391e-17 -1.645161129686668e-16 2.470717250499748e-17
-2.267429635914305e-04 -1.631796121725718e-16 6.839255870354923e-17 -2.221832908327792e-16 4.770459608542822e-17 -7.641663253530863e-17
-2.268874572019932e-04 -1.608221509868931e-16 -7.855180447552936e-17 -9.169676661814130e-17 8.659076849859859e-17 1.286863585629995e-16
-2.268874572024547e-04 -1.424964201139789e-16 2.616852076774286e-16 5.989701357961137e-17 -7.284862561987284e-18 5.496271244446767e-18
-2.268874572023539e-04 -3.110941713683062e-17 -2.894407832930575e-16 1.212809412986202e-16 5.312713384173662e-17 -1.043413064803815e-16
-2.268874572020017e-04 -1.127480838273040e-16 3.199185206089978e-16 6.891545061545387e-17 2.664857966097886e-17 -5.767839732935235e-17
-2.267429635913268e-04 -6.598623691368308e-17 -2.740195643777711e-16 -5.251077311046060e-17 -3.551817971705865e-17 6.059461062848681e-17
-2.267429635914124e-04 2.015926237279423e-16 8.245269676868004e-17 8.667672612525194e-17 -2.004772044181347e-17 -2.161646558242396e-17
-2.267429635915593e-04 7.242694064982884e-17 -5.092971851302929e-17 8.028476883500033e-17 4.258869675036124e-17 -3.482744147703839e-17
-2.267429635916284e-04 -4.262974375896644e-17 9.882143541530207e-17 4.995468190247391e-17 -1.645161129686668e-16 2.470717250499748e-17
-2.268874572024547e-04 -1.424964201139789e-16 2.616852076774286e-16 5.989701357961137e-17 -7.284862561987284e-18 5.496271244446767e-18
-2.268874572023663e-04 -1.401389589283003e-16 2.366517937621111e-16 8.663078631658464e-17 2.539964132383108e-17 1.547370549533663e-16
-2.268874572022462e-04 -2.044482750813824e-16 -2.224093054396640e-16 -2.219992451887334e-17 9.654948028695126e-18 5.559953094651507e-17
-2.268874572023539e-04 -3.110941713683062e-17 -2.894407832930575e-16 1.212809412986202e-16 5.312713384173662e-17 -1.043413064803815e-16
-2.267429635914124e-04 2.015926237279423e-16 8.245269676868004e-17 8.667672612525194e-17 -2.004772044181347e-17 -2.161646558242396e-17
-2.267429635908463e-04 -3.927590223776469e-17 -2.322038506970113e-16 2.040422357095923e-16 -1.150373535443744e-17 1.180294749131566e-16
-2.267429635915160e-04 6.059077411724786e-17 -3.341121483272575e-16 -9.334329292435387e-17 -7.725828671190272e-17 1.118296500413883e-16
-2.267429635915593e-04 7.242694064982884e-17 -5.092971851302929e-17 8.028476883500033e-17 4.258869675036124e-17 -3.482744147703839e-17
-2.268874572023359e-04 1.801442621953302e-16 -3.154705775438980e-16 1.520827548874867e-16 -5.306475044471812e-17 -1.132074076004512e-17
-2.268874572020017e-04 -1.127480838273040e-16 3.199185206089978e-16 6.891545061545387e-17 2.664857966097886e-17 -5.767839732935235e-17
-2.268874572020231e-04 3.767907526904111e-16 -1.178277067132941e-16 -2.406860149020503e-17 -6.645269118809161e-17 6.271862730941989e-17
-2.268874572014802e-04 -2.782851571855544e-16 2.247667666253427e-16 2.308753371294369e-16 -1.979587107410490e-17 -3.976939268635786e-17
-2.267429635914305e-04 -1.631796121725718e-16 6.839255870354923e-17 -2.221832908327792e-16 4.770459608542822e-17 -7.641663253530863e-17
-2.267429635916284e-04 -4.262974375896644e-17 9.882143541530207e-17 4.995468190247391e-17 -1.645161129686668e-16 2.470717250499748e-17
-2.267429635912770e-04 -2.161509519608344e-16 -2.328843911220893e-16 -7.509210674566387e-17 4.284710294949410e-17 -2.063188463857365e-16
-2.267429635920781e-04 2.539811442995016e-17 -3.957481633842158e-16 -8.271072298480303e-17 -2.011339135489864e-16 2.469800194642039e-16
-2.268874572020017e-04 -1.127480838273040e-16 3.199185206089978e-16 6.891545061545387e-17 2.664857966097886e-17 -5.767839732935235e-17
-2.268874572023539e-04 -3.110941713683062e-17 -2.894407832930575e-16 1.212809412986202e-16 5.312713384173662e-17 -1.043413064803815e-16
-2.268874572015549e-04 1.723162932901640e-17 4.571660597391047e-17 -1.797467961089955e-17 -1.393395400326119e-17 -3.714776500827479e-17
-2.268874572020231e-04 3.767907526904111e-16 -1.178277067132941e-16 -2.406860149020503e-17 -6.645269118809161e-17 6.271862730941989e-17
-2.267429635916284e-04 -4.262974375896644e-17 9.882143541530207e-17 4.995468190247391e-17 -1.645161129686668e-16 2.470717250499748e-17
-2.267429635915593e-04 7.242694064982884e-17 -5.092971851302929e-17 8.028476883500033e-17 4.258869675036124e-17 -3.482744147703839e-17
-2.267429635919609e-04 -2.503341391531762e-17 2.797797276888390e-16 -7.435771878672964e-17 -3.318083828155353e-18 1.638105103327736e-18
-2.267429635912770e-04 -2.161509519608344e-16 -2.328843911220893e-16 -7.509210674566387e-17 4.284710294949410e-17 -2.063188463857365e-16
-2.268874572023539e-04 -3.110941713683062e-17 -2.894407832930575e-16 1.212809412986202e-16 5.312713384173662e-17 -1.043413064803815e-16
-2.268874572022462e-04 -2.044482750813824e-16 -2.224093054396640e-16 -2.219992451887334e-17 9.654948028695126e-18 5.559953094651507e-17
-2.268874572017323e-04 2.603241268272730e-16 -1.780537803159092e-16 2.377044320016075e-16 6.025944601589722e-18 -2.719376763664403e-16
-2.268874572015549e-04 1.723162932901640e-17 4.571660597391047e-17 -1.797467961089955e-17 -1.393395400326119e-17 -3.714776500827479e-17
-2.267429635915593e-04 7.242694064982884e-17 -5.092971851302929e-17 8.028476883500033e-17 4.258869675036124e-17 -3.482744147703839e-17
-2.267429635915160e-04 6.059077411724786e-17 -3.341121483272575e-16 -9.334329292435387e-17 -7.725828671190272e-17 1.118296500413883e-16
-2.267429635913588e-04 5.805096267425278e-17 4.353399055324257e-16 -2.206719796114131e-16 -6.562084245223971e-17 -1.585769712241688e-16
-2.267429635919609e-04 -2.503341391531762e-17 2.797797276888390e-16 -7.435771878672964e-17 -3.318083828155353e-18 1.638105103327736e-18
-2.268874572014802e-04 -2.782851571855544e-16 2.247667666253427e-16 2.308753371294369e-16 -1.979587107410490e-17 -3.976939268635786e-17
-2.268874572020231e-04 3.767907526904111e-16 -1.178277067132941e-16 -2.406860149020503e-17 -6.645269118809161e-17 6.271862730941989e-17
-2.268874572013811e-04 -6.445519635893528e-16 -4.714922371357341e-18 -1.532868956019052e-16 -7.457195220476732e-17 -4.191236821926214e-17
-2.268874572032153e-04 -1.516592855504360e-16 -1.502004834919052e-16 -1.756880256970531e-16 6.877514344055880e-17 -1.832339734178238e-16
-2.267429635920781e-04 2.539811442995016e-17 -3.957481633842158e-16 -8.271072298480303e-17 -2.011339135489864e-16 2.469800194642039e-16
-2.267429635912770e-04 -2.161509519608344e-16 -2.328843911220893e-16 -7.509210674566387e-17 4.284710294949410e-17 -2.063188463857365e-16
-2.267429635917180e-04 4.600574795372981e-16 -8.462780769704241e-17 -9.052857956758049e-17 -1.146118259008154e-16 1.793684899411043e-16
-2.267429635920239e-04 5.551115123125778e-17 6.539818083320676e-16 4.363761015857719e-16 2.916158942214199e-16 7.246590842587975e-17
-2.268874572020231e-04 3.767907526904111e-16 -1.178277067132941e-16 -2.406860149020503e-17 -6.645269118809161e-17 6.271862730941989e-17
-2.268874572015549e-04 1.723162932901640e-17 4.571660597391047e-17 -1.797467961089955e-17 -1.393395400326119e-17 -3.714776500827479e-17
-2.268874572022370e-04 5.511259909704859e-16 5.750391190230380e-17 -2.746427528506619e-17 -2.665133394480667e-17 4.822701678101923e-17
-2.268874572013811e-04 -6.445519635893528e-16 -4.714922371357341e-18 -1.532868956019052e-16 -7.457195220476732e-17 -4.191236821926214e-17
-2.267429635912770e-04 -2.161509519608344e-16 -2.328843911220893e-16 -7.509210674566387e-17 4.284710294949410e-17 -2.063188463857365e-16
-2.267429635919609e-04 -2.503341391531762e-17 2.797797276888390e-16 -7.435771878672964e-17 -3.318083828155353e-18 1.638105103327736e-18
-2.267429635909360e-04 -3.131131163582193e-16 -1.100259221269927e-16 -1.878982423237938e-16 -9.372899837039718e-17 -1.525155343332151e-17
-2.267429635917180e-04 4.600574795372981e-16 -8.462780769704241e-17 -9.052857956758049e-17 -1.146118259008154e-16 1.793684899411043e-16
-2.268874572015549e-04 1.723162932901640e-17 4.571660597391047e-17 -1.797467961089955e-17 -1.393395400326119e-17 -3.714776500827479e-17
-2.268874572017323e-04 2.603241268272730e-16 -1.780537803159092e-16 2.377044320016075e-16 6.025944601589722e-18 -2.719376763664403e-16
-2.268874572020000e-04 3.724405308336866e-16 -4.529850959802620e-16 -3.682794886474645e-16 5.570184459189472e-17 -1.518471505783787e-16
-2.268874572022370e-04 5.511259909704859e-16 5.750391190230380e-17 -2.746427528506619e-17 -2.665133394480667e-17 4.822701678101923e-17
-2.267429635919609e-04 -2.503341391531762e-17 2.797797276888390e-16 -7.435771878672964e-17 -3.318083828155353e-18 1.638105103327736e-18
-2.267429635913588e-04 5.805096267425278e-17 4.353399055324257e-16 -2.206719796114131e-16 -6.562084245223971e-17 -1.585769712241688e-16
-2.267429635914102e-04 -3.943870825340601e-16 9.963803355230388e-19 3.034336850965624e-16 1.376090174825066e-16 -1.307091176456723e-16
-2.267429635909360e-04 -3.131131163582193e-16 -1.100259221269927e-16 -1.878982423237938e-16 -9.372899837039718e-17 -1.525155343332151e-17
-2.267429635923341e-04 4.096259511920302e-16 -8.544445620713583e-16 2.407324902964088e-16 -2.412511107027162e-16 1.089199467326920e-16
-2.267429635908432e-04 -5.016908429607413e-16 -9.342597261886687e-17 9.185878593070370e-17 9.047750961683910e-17 6.424245829549768e-17
-2.267429635914969e-04 -1.396407687605388e-16 5.577813053751506e-18 -2.309070606789191e-16 6.356635220506727e-17 8.817027189146841e-17
-2.267429635914303e-04 2.914335439641035e-16 9.106851143318814e-17 1.956251021624848e-16 2.435498706612174e-16 -2.475866559456876e-16
-2.266344119127249e-04 -8.415631545990668e-16 -1.970111910097138e-16 7.393724437947150e-16 1.792903136241241e-16 -4.391244064195641e-16
-2.266344119129282e-04 8.022872523613021e-16 -7.075001988922795e-17 -2.347502822556197e-16 -2.278381406493811e-17 7.732371808713577e-17
-2.266344119128608e-04 -4.356557454428707e-16 -3.959174214820983e-17 9.842844633656446e-17 8.808306334816728e-17 -5.846459475617770e-17
-2.266344119128791e-04 -9.750921516933392e-17 7.477724814655674e-16 1.572651310705602e-17 -8.803579913799038e-17 2.836500653984833e-16
-2.267429635908432e-04 -5.016908429607413e-16 -9.342597261886687e-17 9.185878593070370e-17 9.047750961683910e-17 6.424245829549768e-17
-2.267429635922379e-04 -2.091631974527397e-16 -9.714451465470112e-17 -2.427017809220388e-16 1.749122279217726e-17 2.494701358837206e-17
-2.267429635909841e-04 2.423630964689915e-16 -7.787126405045156e-17 -3.875225917962167e-16 -1.267008098130365e-16 2.185712117934456e-16
-2.267429635914969e-04 -1.396407687605388e-16 5.577813053751506e-18 -2.309070606789191e-16 6.356635220506727e-17 8.817027189146841e-17
-2.266344119129282e-04 8.022872523613021e-16 -7.075001988922795e-17 -2.347502822556197e-16 -2.278381406493811e-17 7.732371808713577e-17
-2.266344119128906e-04 -1.513923062441783e-16 -2.386445544331571e-16 3.628103689997200e-16 1.107847138957656e-16 2.414294844033758e-16
-2.266344119128270e-04 2.410020156188357e-16 -1.858555649022106e-16 -4.919412892538527e-17 2.996392389241201e-17 1.494764271103577e-16
-2.266344119128608e-04 -4.356557454428707e-16 -3.959174214820983e-17 9.842844633656446e-17 8.808306334816728e-17 -5.846459475617770e-17
-2.267429635922379e-04 -2.091631974527397e-16 -9.714451465470112e-17 -2.427017809220388e-16 1.749122279217726e-17 2.494701358837206e-17
-2.267429635918446e-04 1.475760429999691e-16 1.221779285700187e-16 1.634611174307126e-17 -3.947259354787665e-17 1.667664201722286e-16
-2.267429635916631e-04 2.979719689086242e-17 -1.573705882573166e-17 -6.400284850100680e-17 4.059236353552289e-17 -8.920267368784864e-17
-2.267429635909841e-04 2.423630964689915e-16 -7.787126405045156e-17 -3.875225917962167e-16 -1.267008098130365e-16 2.185712117934456e-16
-2.266344119128906e-04 -1.513923062441783e-16 -2.386445544331571e-16 3.628103689997200e-16 1.107847138957656e-16 2.414294844033758e-16
-2.266344119127014e-04 2.579666656415943e-16 8.798164921824411e-17 3.939509416465981e-16 2.352022118152875e-17 -1.792443239078004e-16
-2.266344119128052e-04 -1.357398764673880e-16 -6.059077411724786e-17 1.881233933213416e-16 6.622330672440298e-18 6.397750892639953e-17
-2.266344119128270e-04 2.410020156188357e-16 -1.858555649022106e-16 -4.919412892538527e-17 2.996392389241201e-17 1.494764271103577e-16
-2.267429635914303e-04 2.914335439641035e-16 9.106851143318814e-17 1.956251021624848e-16 2.435498706612174e-16 -2.475866559456876e-16
-2.267429635914969e-04 -1.396407687605388e-16 5.577813053751506e-18 -2.309070606789191e-16 6.356635220506727e-17 8.817027189146841e-17
-2.267429635913268e-04 -6.598623691368308e-17 -2.740195643777711e-16 -5.251077311046060e-17 -3.551817971705865e-17 6.059461062848681e-17
-2.267429635918276e-04 2.464463390194586e-16 4.535190545927772e-17 -1.819252143366193e-16 -1.551370756057102e-16 5.110995971063855e-16
-2.266344119128791e-04 -9.750921516933392e-17 7.477724814655674e-16 1.572651310705602e-17 -8.803579913799038e-17 2.836500653984833e-16
-2.266344119128608e-04 -4.356557454428707e-16 -3.959174214820983e-17 9.842844633656446e-17 8.808306334816728e-17 -5.846459475617770e-17
-2.266344119129379e-04 4.897272628673727e-18 -4.907044749511209e-17 -5.322048408443200e-17 3.367768068161270e-17 -1.395025186392275e-16
-2.266344119132370e-04 1.875813462669990e-16 -1.942890293094024e-16 5.492650191745731e-17 3.054986718408593e-16 -3.100388307355793e-17
-2.267429635914969e-04 -1.396407687605388e-16 5.577813053751506e-18 -2.309070606789191e-16 6.356635220506727e-17 8.817027189146841e-17
-2.267429635909841e-04 2.423630964689915e-16 -7.787126405045156e-17 -3.875225917962167e-16 -1.267008098130365e-16 2.185712117934456e-16
-2.267429635914124e-04 2.015926237279423e-16 8.245269676868004e-17 8.667672612525194e-17 -2.004772044181347e-17 -2.161646558242396e-17
-2.267429635913268e-04 -6.598623691368308e-17 -2.740195643777711e-16 -5.251077311046060e-17 -3.551817971705865e-17 6.059461062848681e-17
-2.266344119128608e-04 -4.356557454428707e-16 -3.959174214820983e-17 9.842844633656446e-17 8.808306334816728e-17 -5.846459475617770e-17
-2.266344119128270e-04 2.410020156188357e-16 -1.858555649022106e-16 -4.919412892538527e-17 2.996392389241201e-17 1.494764271103577e-16
-2.266344119129883e-04 -3.165646790877962e-17 -2.802779178566005e-16 8.214967654555029e-17 -2.610575750950447e-16 -6.889582281783997e-17
-2.266344119129379e-04 4.897272628673727e-18 -4.907044749511209e-17 -5.322048408443200e-17 3.367768068161270e-17 -1.395025186392275e-16
-2.267429635909841e-04 2.423630964689915e-16 -7.787126405045156e-17 -3.875225917962167e-16 -1.267008098130365e-16 2.185712117934456e-16
-2.267429635916631e-04 2.979719689086242e-17 -1.573705882573166e-17 -6.400284850100680e-17 4.059236353552289e-17 -8.920267368784864e-17
-2.267429635908463e-04 -3.927590223776469e-17 -2.322038506970113e-16 2.040422357095923e-16 -1.150373535443744e-17 1.180294749131566e-16
-2.267429635914124e-04 2.015926237279423e-16 8.245269676868004e-17 8.667672612525194e-17 -2.004772044181347e-17 -2.161646558242396e-17
-2.266344119128270e-04 2.410020156188357e-16 -1.858555649022106e-16 -4.919412892538527e-17 2.996392389241201e-17 1.494764271103577e-16
-2.266344119128052e-04 -1.357398764673880e-16 -6.059077411724786e-17 1.881233933213416e-16 6.622330672440298e-18 6.397750892639953e-17
-2.266344119130438e-04 -2.136111405178396e-16 1.845922052604305e-17 1.200672326364019e-16 -1.138319718087500e-16 7.257380601786333e-17
-2.266344119129883e-04 -3.165646790877962e-17 -2.802779178566005e-16 8.214967654555029e-17 -2.610575750950447e-16 -6.889582281783997e-17
-2.267429635918276e-04 2.464463390194586e-16 4.535190545927772e-17 -1.819252143366193e-16 -1.551370756057102e-16 5.110995971063855e-16
-2.267429635913268e-04 -6.598623691368308e-17 -2.740195643777711e-16 -5.251077311046060e-17 -3.551817971705865e-17 6.059461062848681e-17
-2.267429635916284e-04 -4.262974375896644e-17 9.882143541530207e-17 4.995468190247391e-17 -1.645161129686668e-16 2.470717250499748e-17
-2.267429635914305e-04 -1.631796121725718e-16 6.839255870354923e-17 -2.221832908327792e-16 4.770459608542822e-17 -7.641663253530863e-17
-2.266344119132370e-04 1.875813462669990e-16 -1.942890293094024e-16 5.492650191745731e-17 3.054986718408593e-16 -3.100388307355793e-17
-2.266344119129379e-04 4.897272628673727e-18 -4.907044749511209e-17 -5.322048408443200e-17 3.367768068161270e-17 -1.395025186392275e-16
-2.266344119128803e-04 -9.379067313349948e-17 5.265549987781763e-17 -6.916024537237956e-17 -8.860989549560150e-17 2.448158409497569e-17
-2.266344119130498e-04 1.706166962442405e-16 1.242684104494398e-16 -1.766452351809901e-17 -5.847354615609879e-17 2.223867577983509e-16
-2.267429635913268e-04 -6.598623691368308e-17 -2.740195643777711e-16 -5.251077311046060e-17 -3.551817971705865e-17 6.059461062848681e-17
-2.267429635914124e-04 2.015926237279423e-16 8.245269676868004e-17 8.667672612525194e-17 -2.004772044181347e-17 -2.161646558242396e-17
-2.267429635915593e-04 7.242694064982884e-17 -5.092971851302929e-17 8.028476883500033e-17 4.258869675036124e-17 -3.482744147703839e-17
-2.267429635916284e-04 -4.262974375896644e-17 9.882143541530207e-17 4.995468190247391e-17 -1.645161129686668e-16 2.470717250499748e-17
-2.266344119129379e-04 4.897272628673727e-18 -4.907044749511209e-17 -5.322048408443200e-17 3.367768068161270e-17 -1.395025186392275e-16
-2.266344119129883e-04 -3.165646790877962e-17 -2.802779178566005e-16 8.214967654555029e-17 -2.610575750950447e-16 -6.889582281783997e-17
-2.266344119130313e-04 5.687223208141350e-17 -4.181571368075970e-17 1.079794343584434e-16 3.304710787291320e-18 1.851287548965105e-16
-2.266344119128803e-04 -9.379067313349948e-17 5.265549987781763e-17 -6.916024537237956e-17 -8.860989549560150e-17 2.448158409497569e-17
-2.267429635914124e-04 2.015926237279423e-16 8.245269676868004e-17 8.667672612525194e-17 -2.004772044181347e-17 -2.161646558242396e-17
-2.267429635908463e-04 -3.927590223776469e-17 -2.322038506970113e-16 2.040422357095923e-16 -1.150373535443744e-17 1.180294749131566e-16
-2.267429635915160e-04 6.059077411724786e-17 -3.341121483272575e-16 -9.334329292435387e-17 -7.725828671190272e-17 1.118296500413883e-16
-2.267429635915593e-04 7.242694064982884e-17 -5.092971851302929e-17 8.028476883500033e-17 4.258869675036124e-17 -3.482744147703839e-17
-2.266344119129883e-04 -3.165646790877962e-17 -2.802779178566005e-16 8.214967654555029e-17 -2.610575750950447e-16 -6.889582281783997e-17
-2.266344119130438e-04 -2.136111405178396e-16 1.845922052604305e-17 1.200672326364019e-16 -1.138319718087500e-16 7.257380601786333e-17
-2.266344119128282e-04 -1.673963443761676e-16 5.229079936318493e-17 -6.668067156809423e-17 -1.744290032534883e-16 -6.391078976586537e-17
-2.266344119130313e-04 5.687223208141350e-17 -4.181571368075970e-17 1.079794343584434e-16 3.304710787291320e-18 1.851287548965105e-16
-2.267429635914305e-04 -1.631796121725718e-16 6.839255870354923e-17 -2.221832908327792e-16 4.770459608542822e-17 -7.641663253530863e-17
-2.267429635916284e-04 -4.262974375896644e-17 9.882143541530207e-17 4.995468190247391e-17 -1.645161129686668e-16 2.470717250499748e-17
-2.267429635912770e-04 -2.161509519608344e-16 -2.328843911220893e-16 -7.509210674566387e-17 4.284710294949410e-17 -2.063188463857365e-16
-2.267429635920781e-04 2.539811442995016e-17 -3.957481633842158e-16 -8.271072298480303e-17 -2.011339135489864e-16 2.469800194642039e-16
-2.266344119130498e-04 1.706166962442405e-16 1.242684104494398e-16 -1.766452351809901e-17 -5.847354615609879e-17 2.223867577983509e-16
-2.266344119128803e-04 -9.379067313349948e-17 5.265549987781763e-17 -6.916024537237956e-17 -8.860989549560150e-17 2.448158409497569e-17
-2.266344119128487e-04 -4.077047274104920e-17 -4.317679453091539e-17 -9.698749899327034e-17 -2.527885620356870e-17 -6.796956822631185e-17
-2.266344119127251e-04 3.047773731594038e-17 -9.206489176871114e-17 -6.073279389661012e-17 -3.798156621417347e-17 2.765180592306885e-16
-2.267429635916284e-04 -4.262974375896644e-17 9.882143541530207e-17 4.995468190247391e-17 -1.645161129686668e-16 2.470717250499748e-17
-2.267429635915593e-04 7.242694064982884e-17 -5.092971851302929e-17 8.028476883500033e-17 4.258869675036124e-17 -3.482744147703839e-17
-2.267429635919609e-04 -2.503341391531762e-17 2.797797276888390e-16 -7.435771878672964e-17 -3.318083828155353e-18 1.638105103327736e-18
-2.267429635912770e-04 -2.161509519608344e-16 -2.328843911220893e-16 -7.509210674566387e-17 4.284710294949410e-17 -2.063188463857365e-16
-2.266344119128803e-04 -9.379067313349948e-17 5.265549987781763e-17 -6.916024537237956e-17 -8.860989549560150e-17 2.448158409497569e-17
-2.266344119130313e-04 5.687223208141350e-17 -4.181571368075970e-17 1.079794343584434e-16 3.304710787291320e-18 1.851287548965105e-16
-2.266344119130325e-04 1.787343207409871e-16 1.152032662213582e-17 -8.367756179802566e-18 1.045407014697317e-16 -7.856495681832764e-17
-2.266344119128487e-04 -4.077047274104920e-17 -4.317679453091539e-17 -9.698749899327034e-17 -2.527885620356870e-17 -6.796956822631185e-17
-2.267429635915593e-04 7.242694064982884e-17 -5.092971851302929e-17 8.028476883500033e-17 4.258869675036124e-17 -3.482744147703839e-17
-2.267429635915160e-04 6.059077411724786e-17 -3.341121483272575e-16 -9.334329292435387e-17 -7.725828671190272e-17 1.118296500413883e-16
-2.267429635913588e-04 5.805096267425278e-17 4.353399055324257e-16 -2.206719796114131e-16 -6.562084245223971e-17 -1.585769712241688e-16
-2.267429635919609e-04 -2.503341391531762e-17 2.797797276888390e-16 -7.435771878672964e-17 -3.318083828155353e-18 1.638105103327736e-18
-2.266344119130313e-04 5.687223208141350e-17 -4.181571368075970e-17 1.079794343584434e-16 3.304710787291320e-18 1.851287548965105e-16
-2.266344119128282e-04 -1.673963443761676e-16 5.229079936318493e-17 -6.668067156809423e-17 -1.744290032534883e-16 -6.391078976586537e-17
-2.266344119127448e-04 -1.482565834250467e-16 -1.091630314445985e-16 -5.684753382125243e-17 -8.364538865854359e-18 1.223639792828818e-16
-2.266344119130325e-04 1.787343207409871e-16 1.152032662213582e-17 -8.367756179802566e-18 1.045407014697317e-16 -7.856495681832764e-17
-2.267429635920781e-04 2.539811442995016e-17 -3.957481633842158e-16 -8.271072298480303e-17 -2.011339135489864e-16 2.469800194642039e-16
-2.267429635912770e-04 -2.161509519608344e-16 -2.328843911220893e-16 -7.509210674566387e-17 4.284710294949410e-17 -2.063188463857365e-16
-2.267429635917180e-04 4.600574795372981e-16 -8.462780769704241e-17 -9.052857956758049e-17 -1.146118259008154e-16 1.793684899411043e-16
-2.267429635920239e-04 5.551115123125778e-17 6.539818083320676e-16 4.363761015857719e-16 2.916158942214199e-16 7.246590842587975e-17
-2.266344119127251e-04 3.047773731594038e-17 -9.206489176871114e-17 -6.073279389661012e-17 -3.798156621417347e-17 2.765180592306885e-16
-2.266344119128487e-04 -4.077047274104920e-17 -4.317679453091539e-17 -9.698749899327034e-17 -2.527885620356870e-17 -6.796956822631185e-17
-2.266344119129640e-04 1.571036089510588e-16 6.802785818891656e-17 9.761058272789177e-17 8.652819522369445e-17 -2.012179389786327e-16
-2.266344119129996e-04 4.569706173223539e-16 1.387778780781446e-16 1.561738324537732e-16 -1.007629394506889e-16 -4.168263254870781e-17
-2.267429635912770e-04 -2.161509519608344e-16 -2.328843911220893e-16 -7.509210674566387e-17 4.284710294949410e-17 -2.063188463857365e-16
-2.267429635919609e-04 -2.503341391531762e-17 2.797797276888390e-16 -7.435771878672964e-17 -3.318083828155353e-18 1.638105103327736e-18
-2.267429635909360e-04 -3.131131163582193e-16 -1.100259221269927e-16 -1.878982423237938e-16 -9.372899837039718e-17 -1.525155343332151e-17
-2.267429635917180e-04 4.600574795372981e-16 -8.462780769704241e-17 -9.052857956758049e-17 -1.146118259008154e-16 1.793684899411043e-16
-2.266344119128487e-04 -4.077047274104920e-17 -4.317679453091539e-17 -9.698749899327034e-17 -2.527885620356870e-17 -6.796956822631185e-17
-2.266344119130325e-04 1.787343207409871e-16 1.152032662213582e-17 -8.367756179802566e-18 1.045407014697317e-16 -7.856495681832764e-17
-2.266344119124408e-04 -1.692556153940848e-16 1.401389589283002e-16 -2.519208039684464e-17 3.096635699043431e-17 6.194462286545114e-17
-2.266344119129640e-04 1.571036089510588e-16 6.802785818891656e-17 9.761058272789177e-17 8.652819522369445e-17 -2.012179389786327e-16
-2.267429635919609e-04 -2.503341391531762e-17 2.797797276888390e-16 -7.435771878672964e-17 -3.318083828155353e-18 1.638105103327736e-18
-2.267429635913588e-04 5.805096267425278e-17 4.353399055324257e-16 -2.206719796114131e-16 -6.562084245223971e-17 -1.585769712241688e-16
-2.267429635914102e-04 -3.943870825340601e-16 9.963803355230388e-19 3.034336850965624e-16 1.376090174825066e-16 -1.307091176456723e-16
-2.267429635909360e-04 -3.131131163582193e-16 -1.100259221269927e-16 -1.878982423237938e-16 -9.372899837039718e-17 -1.525155343332151e-17
-2.266344119130325e-04 1.787343207409871e-16 1.152032662213582e-17 -8.367756179802566e-18 1.045407014697317e-16 -7.856495681832764e-17
-2.266344119127448e-04 -1.482565834250467e-16 -1.091630314445985e-16 -5.684753382125243e-17 -8.364538865854359e-18 1.223639792828818e-16
-2.266344119132754e-04 2.302110900259653e-16 -1.115562610750307e-17 3.149760763048159e-16 -3.453060249246479e-18 -1.543702513055529e-16
-2.266344119124408e-04 -1.692556153940848e-16 1.401389589283002e-16 -2.519208039684464e-17 3.096635699043431e-17 6.194462286545114e-17
-2.266344119127249e-04 -8.415631545990668e-16 -1.970111910097138e-16 7.393724437947150e-16 1.792903136241241e-16 -4.391244064195641e-16
-2.266344119129282e-04 8.022872523613021e-16 -7.075001988922795e-17 -2.347502822556197e-16 -2.278381406493811e-17 7.732371808713577e-17
-2.266344119128608e-04 -4.356557454428707e-16 -3.959174214820983e-17 9.842844633656446e-17 8.808306334816728e-17 -5.846459475617770e-17
-2.266344119128791e-04 -9.750921516933392e-17 7.477724814655674e-16 1.572651310705602e-17 -8.803579913799038e-17 2.836500653984833e-16
-2.269059266447348e-04 6.066371422017442e-16 -1.422294408077212e-16 8.727938160155322e-17 1.203585760451005e-16 2.507430260978368e-17
-2.269059266450485e-04 4.671298630943342e-16 -5.687223208141353e-17 4.658406422229865e-17 -1.242850966560809e-16 1.928825205848268e-16
-2.269059266448734e-04 1.377814977426216e-16 -1.856732146448943e-16 -1.773014089999435e-16 -2.208241588155898e-17 1.144072851040378e-17
-2.269059266447249e-04 -2.417314166481011e-16 1.766926994657536e-16 -3.746274350690951e-16 -1.789428180721636e-16 1.221563127091277e-16
-2.266344119129282e-04 8.022872523613021e-16 -7.075001988922795e-17 -2.347502822556197e-16 -2.278381406493811e-17 7.732371808713577e-17
-2.266344119128906e-04 -1.513923062441783e-16 -2.386445544331571e-16 3.628103689997200e-16 1.107847138957656e-16 2.414294844033758e-16
-2.266344119128270e-04 2.410020156188357e-16 -1.858555649022106e-16 -4.919412892538527e-17 2.996392389241201e-17 1.494764271103577e-16
-2.266344119128608e-04 -4.356557454428707e-16 -3.959174214820983e-17 9.842844633656446e-17 8.808306334816728e-17 -5.846459475617770e-17
-2.269059266450485e-04 4.671298630943342e-16 -5.687223208141353e-17 4.658406422229865e-17 -1.242850966560809e-16 1.928825205848268e-16
-2.269059266446873e-04 -2.721114327556664e-16 5.079622885989907e-18 3.673600535512147e-16 1.759144965807228e-17 7.249439634627946e-17
-2.269059266444649e-04 -2.054935160210929e-16 -7.936583455373607e-17 -2.481592909081943e-16 -1.371083872219568e-16 -1.742484571689875e-17
-2.269059266448734e-04 1.377814977426216e-16 -1.856732146448943e-16 -1.773014089999435e-16 -2.208241588155898e-17 1.144072851040378e-17
-2.266344119128906e-04 -1.513923062441783e-16 -2.386445544331571e-16 3.628103689997200e-16 1.107847138957656e-16 2.414294844033758e-16
-2.266344119127014e-04 2.579666656415943e-16 8.798164921824411e-17 3.939509416465981e-16 2.352022118152875e-17 -1.792443239078004e-16
-2.266344119128052e-04 -1.357398764673880e-16 -6.059077411724786e-17 1.881233933213416e-16 6.622330672440298e-18 6.397750892639953e-17
-2.266344119128270e-04 2.410020156188357e-16 -1.858555649022106e-16 -4.919412892538527e-17 2.996392389241201e-17 1.494764271103577e-16
-2.269059266446873e-04 -2.721114327556664e-16 5.079622885989907e-18 3.673600535512147e-16 1.759144965807228e-17 7.249439634627946e-17
-2.269059266447364e-04 3.240017631594651e-16 -5.179260919542343e-17 1.487441511035695e-16 -1.927153383248315e-17 9.642876654921016e-17
-2.269059266443823e-04 3.127972764477742e-16 1.327018748566315e-16 -1.485686710733629e-16 4.277516374631368e-17 1.327539944945491e-16
-2.269059266444649e-04 -2.054935160210929e-16 -7.936583455373607e-17 -2.481592909081943e-16 -1.371083872219568e-16 -1.742484571689875e-17
-2.266344119128791e-04 -9.750921516933392e-17 7.477724814655674e-16 1.572651310705602e-17 -8.803579913799038e-17 2.836500653984833e-16
-2.266344119128608e-04 -4.356557454428707e-16 -3.959174214820983e-17 9.842844633656446e-17 8.808306334816728e-17 -5.846459475617770e-17
-2.266344119129379e-04 4.897272628673727e-18 -4.907044749511209e-17 -5.322048408443200e-17 3.367768068161270e-17 -1.395025186392275e-16
-2.266344119132370e-04 1.875813462669990e-16 -1.942890293094024e-16 5.492650191745731e-17 3.054986718408593e-16 -3.100388307355793e-17
-2.269059266447249e-04 -2.417314166481011e-16 1.766926994657536e-16 -3.746274350690951e-16 -1.789428180721636e-16 1.221563127091277e-16
-2.269059266448734e-04 1.377814977426216e-16 -1.856732146448943e-16 -1.773014089999435e-16 -2.208241588155898e-17 1.144072851040378e-17
-2.269059266448182e-04 1.171471662882161e-16 9.976895514663660e-18 -4.460646867257969e-17 -9.157601271620176e-17 -4.580674119019657e-17
-2.269059266452438e-04 -2.589630459771173e-16 -8.798164921824451e-18 3.684552381083303e-17 2.871578048538927e-19 3.413760417087939e-16
-2.266344119128608e-04 -4.356557454428707e-16 -3.959174214820983e-17 9.842844633656446e-17 8.808306334816728e-17 -5.846459475617770e-17
-2.266344119128270e-04 2.410020156188357e-16 -1.858555649022106e-16 -4.919412892538527e-17 2.996392389241201e-17 1.494764271103577e-16
-2.266344119129883e-04 -3.165646790877962e-17 -2.802779178566005e-16 8.214967654555029e-17 -2.610575750950447e-16 -6.889582281783997e-17
-2.266344119129379e-04 4.897272628673727e-18 -4.907044749511209e-17 -5.322048408443200e-17 3.367768068161270e-17 -1.395025186392275e-16
-2.269059266448734e-04 1.377814977426216e-16 -1.856732146448943e-16 -1.773014089999435e-16 -2.208241588155898e-17 1.144072851040378e-17
-2.269059266444649e-04 -2.054935160210929e-16 -7.936583455373607e-17 -2.481592909081943e-16 -1.371083872219568e-16 -1.742484571689875e-17
-2.269059266445731e-04 -5.315369004557915e-17 -3.264927139982723e-16 2.893568188136631e-18 -4.344939203087696e-17 -2.137306732663170e-16
-2.269059266448182e-04 1.171471662882161e-16 9.976895514663660e-18 -4.460646867257969e-17 -9.157601271620176e-17 -4.580674119019657e-17
-2.266344119128270e-04 2.410020156188357e-16 -1.858555649022106e-16 -4.919412892538527e-17 2.996392389241201e-17 1.494764271103577e-16
-2.266344119128052e-04 -1.357398764673880e-16 -6.059077411724786e-17 1.881233933213416e-16 6.622330672440298e-18 6.397750892639953e-17
-2.266344119130438e-04 -2.136111405178396e-16 1.845922052604305e-17 1.200672326364019e-16 -1.138319718087500e-16 7.257380601786333e-17
-2.266344119129883e-04 -3.165646790877962e-17 -2.802779178566005e-16 8.214967654555029e-17 -2.610575750950447e-16 -6.889582281783997e-17
-2.269059266444649e-04 -2.054935160210929e-16 -7.936583455373607e-17 -2.481592909081943e-16 -1.371083872219568e-16 -1.742484571689875e-17
-2.269059266443823e-04 3.127972764477742e-16 1.327018748566315e-16 -1.485686710733629e-16 4.277516374631368e-17 1.327539944945491e-16
-2.269059266450321e-04 -2.034518947458594e-16 -2.501648810552929e-16 -2.593306823929126e-17 -1.737511329250027e-17 -1.258895146703911e-16
-2.269059266445731e-04 -5.315369004557915e-17 -3.264927139982723e-16 2.893568188136631e-18 -4.344939203087696e-17 -2.137306732663170e-16
-2.266344119132370e-04 1.875813462669990e-16 -1.942890293094024e-16 5.492650191745731e-17 3.054986718408593e-16 -3.100388307355793e-17
-2.266344119129379e-04 4.897272628673727e-18 -4.907044749511209e-17 -5.322048408443200e-17 3.367768068161270e-17 -1.395025186392275e-16
-2.266344119128803e-04 -9.379067313349948e-17 5.265549987781763e-17 -6.916024537237956e-17 -8.860989549560150e-17 2.448158409497569e-17
-2.266344119130498e-04 1.706166962442405e-16 1.242684104494398e-16 -1.766452351809901e-17 -5.847354615609879e-17 2.223867577983509e-16
-2.269059266452438e-04 -2.589630459771173e-16 -8.798164921824451e-18 3.684552381083303e-17 2.871578048538927e-19 3.413760417087939e-16
-2.269059266448182e-04 1.171471662882161e-16 9.976895514663660e-18 -4.460646867257969e-17 -9.157601271620176e-17 -4.580674119019657e-17
-2.269059266449771e-04 1.003648665227740e-16 -5.991023369216998e-17 2.431215012194073e-16 -2.179887074641610e-17 1.423205313753690e-17
-2.269059266444927e-04 -2.539811442995021e-17 2.704833725992530e-16 -6.968640081476830e-17 -3.177907942685684e-17 3.761327505420166e-17
-2.266344119129379e-04 4.897272628673727e-18 -4.907044749511209e-17 -5.322048408443200e-17 3.367768068161270e-17 -1.395025186392275e-16
-2.266344119129883e-04 -3.165646790877962e-17 -2.802779178566005e-16 8.214967654555029e-17 -2.610575750950447e-16 -6.889582281783997e-17
-2.266344119130313e-04 5.687223208141350e-17 -4.181571368075970e-17 1.079794343584434e-16 3.304710787291320e-18 1.851287548965105e-16
-2.266344119128803e-04 -9.379067313349948e-17 5.265549987781763e-17 -6.916024537237956e-17 -8.860989549560150e-17 2.448158409497569e-17
-2.269059266448182e-04 1.171471662882161e-16 9.976895514663660e-18 -4.460646867257969e-17 -9.157601271620176e-17 -4.580674119019657e-17
-2.269059266445731e-04 -5.315369004557915e-17 -3.264927139982723e-16 2.893568188136631e-18 -4.344939203087696e-17 -2.137306732663170e-16
-2.269059266446125e-04 -2.726584835276154e-16 7.904999464329082e-17 -1.146568528765298e-16 -4.192326082501947e-17 -4.416469314213875e-17
-2.269059266449771e-04 1.003648665227740e-16 -5.991023369216998e-17 2.431215012194073e-16 -2.179887074641610e-17 1.423205313753690e-17
-2.266344119129883e-04 -3.165646790877962e-17 -2.802779178566005e-16 8.214967654555029e-17 -2.610575750950447e-16 -6.889582281783997e-17
-2.266344119130438e-04 -2.136111405178396e-16 1.845922052604305e-17 1.200672326364019e-16 -1.138319718087500e-16 7.257380601786333e-17
-2.266344119128282e-04 -1.673963443761676e-16 5.229079936318493e-17 -6.668067156809423e-17 -1.744290032534883e-16 -6.391078976586537e-17
-2.266344119130313e-04 5.687223208141350e-17 -4.181571368075970e-17 1.079794343584434e-16 3.304710787291320e-18 1.851287548965105e-16
-2.269059266445731e-04 -5.315369004557915e-17 -3.264927139982723e-16 2.893568188136631e-18 -4.344939203087696e-17 -2.137306732663170e-16
-2.269059266450321e-04 -2.034518947458594e-16 -2.501648810552929e-16 -2.593306823929126e-17 -1.737511329250027e-17 -1.258895146703911e-16
-2.269059266444852e-04 8.109161591852434e-17 7.075001988922798e-17 1.193521766419357e-17 1.235705554356420e-17 -1.363564294202300e-16
-2.269059266446125e-04 -2.726584835276154e-16 7.904999464329082e-17 -1.146568528765298e-16 -4.192326082501947e-17 -4.416469314213875e-17
-2.266344119130498e-04 1.706166962442405e-16 1.242684104494398e-16 -1.766452351809901e-17 -5.847354615609879e-17 2.223867577983509e-16
-2.266344119128803e-04 -9.379067313349948e-17 5.265549987781763e-17 -6.916024537237956e-17 -8.860989549560150e-17 2.448158409497569e-17
-2.266344119128487e-04 -4.077047274104920e-17 -4.317679453091539e-17 -9.698749899327034e-17 -2.527885620356870e-17 -6.796956822631185e-17
-2.266344119127251e-04 3.047773731594038e-17 -9.206489176871114e-17 -6.073279389661012e-17 -3.798156621417347e-17 2.765180592306885e-16
-2.269059266444927e-04 -2.539811442995021e-17 2.704833725992530e-16 -6.968640081476830e-17 -3.177907942685684e-17 3.761327505420166e-17
-2.269059266449771e-04 1.003648665227740e-16 -5.991023369216998e-17 2.431215012194073e-16 -2.179887074641610e-17 1.423205313753690e-17
-2.269059266447268e-04 -4.553425571659409e-17 1.750157787051527e-16 -1.694042141996158e-16 -3.416208867852780e-17 -1.190588765612578e-16
-2.269059266447133e-04 1.090295417914697e-16 -9.342597261886683e-17 4.045292629835975e-17 -5.654864807551570e-17 7.883554984870598e-17
-2.266344119128803e-04 -9.379067313349948e-17 5.265549987781763e-17 -6.916024537237956e-17 -8.860989549560150e-17 2.448158409497569e-17
-2.266344119130313e-04 5.687223208141350e-17 -4.181571368075970e-17 1.079794343584434e-16 3.304710787291320e-18 1.851287548965105e-16
-2.266344119130325e-04 1.787343207409871e-16 1.152032662213582e-17 -8.367756179802566e-18 1.045407014697317e-16 -7.856495681832764e-17
-2.266344119128487e-04 -4.077047274104920e-17 -4.317679453091539e-17 -9.698749899327034e-17 -2.527885620356870e-17 -6.796956822631185e-17
-2.269059266449771e-04 1.003648665227740e-16 -5.991023369216998e-17 2.431215012194073e-16 -2.179887074641610e-17 1.423205313753690e-17
-2.269059266446125e-04 -2.726584835276154e-16 7.904999464329082e-17 -1.146568528765298e-16 -4.192326082501947e-17 -4.416469314213875e-17
-2.269059266445368e-04 -2.571037749592001e-16 6.567039700323787e-17 6.736776367748582e-17 -7.951933826638854e-17 -4.488246211144384e-17
-2.269059266447268e-04 -4.553425571659409e-17 1.750157787051527e-16 -1.694042141996158e-16 -3.416208867852780e-17 -1.190588765612578e-16
-2.266344119130313e-04 5.687223208141350e-17 -4.181571368075970e-17 1.079794343584434e-16 3.304710787291320e-18 1.851287548965105e-16
-2.266344119128282e-04 -1.673963443761676e-16 5.229079936318493e-17 -6.668067156809423e-17 -1.744290032534883e-16 -6.391078976586537e-17
-2.266344119127448e-04 -1.482565834250467e-16 -1.091630314445985e-16 -5.684753382125243e-17 -8.364538865854359e-18 1.223639792828818e-16
-2.266344119130325e-04 1.787343207409871e-16 1.152032662213582e-17 -8.367756179802566e-18 1.045407014697317e-16 -7.856495681832764e-17
-2.269059266446125e-04 -2.726584835276154e-16 7.904999464329082e-17 -1.146568528765298e-16 -4.192326082501947e-17 -4.416469314213875e-17
-2.269059266444852e-04 8.109161591852434e-17 7.075001988922798e-17 1.193521766419357e-17 1.235705554356420e-17 -1.363564294202300e-16
-2.269059266446640e-04 -1.387778780781446e-17 -3.872658383728366e-16 -8.894577749403000e-17 1.144716002900840e-17 -5.821545931273914e-17
-2.269059266445368e-04 -2.571037749592001e-16 6.567039700323787e-17 6.736776367748582e-17 -7.951933826638854e-17 -4.488246211144384e-17
-2.266344119127251e-04 3.047773731594038e-17 -9.206489176871114e-17 -6.073279389661012e-17 -3.798156621417347e-17 2.765180592306885e-16
-2.266344119128487e-04 -4.077047274104920e-17 -4.317679453091539e-17 -9.698749899327034e-17 -2.527885620356870e-17 -6.796956822631185e-17
-2.266344119129640e-04 1.571036089510588e-16 6.802785818891656e-17 9.761058272789177e-17 8.652819522369445e-17 -2.012179389786327e-16
-2.266344119129996e-04 4.569706173223539e-16 1.387778780781446e-16 1.561738324537732e-16 -1.007629394506889e-16 -4.168263254870781e-17
-2.269059266447133e-04 1.090295417914697e-16 -9.342597261886683e-17 4.045292629835975e-17 -5.654864807551570e-17 7.883554984870598e-17
-2.269059266447268e-04 -4.553425571659409e-17 1.750157787051527e-16 -1.694042141996158e-16 -3.416208867852780e-17 -1.190588765612578e-16
-2.269059266448363e-04 -2.247667666253426e-16 -1.262611711204858e-16 6.582691493045078e-17 -1.626280903450285e-16 -8.442978614667124e-17
-2.269059266447021e-04 3.439555541887924e-16 -1.258964706058531e-16 -2.034292067319224e-17 1.197659377088225e-16 1.563597777892844e-16
-2.266344119128487e-04 -4.077047274104920e-17 -4.317679453091539e-17 -9.698749899327034e-17 -2.527885620356870e-17 -6.796956822631185e-17
-2.266344119130325e-04 1.787343207409871e-16 1.152032662213582e-17 -8.367756179802566e-18 1.045407014697317e-16 -7.856495681832764e-17
-2.266344119124408e-04 -1.692556153940848e-16 1.401389589283002e-16 -2.519208039684464e-17 3.096635699043431e-17 6.194462286545114e-17
-2.266344119129640e-04 1.571036089510588e-16 6.802785818891656e-17 9.761058272789177e-17 8.652819522369445e-17 -2.012179389786327e-16
-2.269059266447268e-04 -4.553425571659409e-17 1.750157787051527e-16 -1.694042141996158e-16 -3.416208867852780e-17 -1.190588765612578e-16
-2.269059266445368e-04 -2.571037749592001e-16 6.567039700323787e-17 6.736776367748582e-17 -7.951933826638854e-17 -4.488246211144384e-17
-2.269059266447906e-04 -8.054456514657544e-17 -1.073037604266813e-16 -7.132764776746398e-17 8.400313396347735e-17 -7.797638743999456e-17
-2.269059266448363e-04 -2.247667666253426e-16 -1.262611711204858e-16 6.582691493045078e-17 -1.626280903450285e-16 -8.442978614667124e-17
-2.266344119130325e-04 1.787343207409871e-16 1.152032662213582e-17 -8.367756179802566e-18 1.045407014697317e-16 -7.856495681832764e-17
-2.266344119127448e-04 -1.482565834250467e-16 -1.091630314445985e-16 -5.684753382125243e-17 -8.364538865854359e-18 1.223639792828818e-16
-2.266344119132754e-04 2.302110900259653e-16 -1.115562610750307e-17 3.149760763048159e-16 -3.453060249246479e-18 -1.543702513055529e-16
-2.266344119124408e-04 -1.692556153940848e-16 1.401389589283002e-16 -2.519208039684464e-17 3.096635699043431e-17 6.194462286545114e-17
-2.269059266445368e-04 -2.571037749592001e-16 6.567039700323787e-17 6.736776367748582e-17 -7.951933826638854e-17 -4.488246211144384e-17
-2.269059266446640e-04 -1.387778780781446e-17 -3.872658383728366e-16 -8.894577749403000e-17 1.144716002900840e-17 -5.821545931273914e-17
-2.269059266448220e-04 -4.498982337653180e-16 -1.623524899349317e-17 1.967443165421599e-16 9.007913718499038e-17 -5.225887623361104e-17
-2.269059266447906e-04 -8.054456514657544e-17 -1.073037604266813e-16 -7.132764776746398e-17 8.400313396347735e-17 -7.797638743999456e-17
-2.269059266447348e-04 6.066371422017442e-16 -1.422294408077212e-16 8.727938160155322e-17 1.203585760451005e-16 2.507430260978368e-17
-2.269059266450485e-04 4.671298630943342e-16 -5.687223208141353e-17 4.658406422229865e-17 -1.242850966560809e-16 1.928825205848268e-16
-2.269059266448734e-04 1.377814977426216e-16 -1.856732146448943e-16 -1.773014089999435e-16 -2.208241588155898e-17 1.144072851040378e-17
-2.269059266447249e-04 -2.417314166481011e-16 1.766926994657536e-16 -3.746274350690951e-16 -1.789428180721636e-16 1.221563127091277e-16
-2.275691304712530e-04 -3.561075606318185e-16 5.585630750421551e-16 3.359778002547528e-16 -2.241896164799697e-16 -1.476986473827976e-16
-2.275691304713201e-04 2.108889788175284e-16 1.076684609413139e-16 4.067594216306476e-17 -6.810234711093367e-17 -1.081629595837109e-16
-2.275691304715133e-04 4.355222557897420e-16 -2.330667413794056e-16 -8.695324455925409e-17 -1.842269164896369e-16 -3.554121119399594e-17
-2.275691304712002e-04 -4.096259511920302e-16 2.927946248142593e-16 2.080787008401203e-16 1.675806306573472e-16 2.472069284240163e-19
-2.269059266450485e-04 4.671298630943342e-16 -5.687223208141353e-17 4.658406422229865e-17 -1.242850966560809e-16 1.928825205848268e-16
-2.269059266446873e-04 -2.721114327556664e-16 5.079622885989907e-18 3.673600535512147e-16 1.759144965807228e-17 7.249439634627946e-17
-2.269059266444649e-04 -2.054935160210929e-16 -7.936583455373607e-17 -2.481592909081943e-16 -1.371083872219568e-16 -1.742484571689875e-17
-2.269059266448734e-04 1.377814977426216e-16 -1.856732146448943e-16 -1.773014089999435e-16 -2.208241588155898e-17 1.144072851040378e-17
-2.275691304713201e-04 2.108889788175284e-16 1.076684609413139e-16 4.067594216306476e-17 -6.810234711093367e-17 -1.081629595837109e-16
-2.275691304711670e-04 -3.297130658663453e-16 -1.577352887719491e-16 3.935543108758738e-16 1.762089599768360e-16 7.837211905685791e-18
-2.275691304712604e-04 4.126866290881072e-17 5.941204352440849e-17 1.110439947564140e-16 4.442593743305430e-17 -8.283162701445362e-17
-2.275691304715133e-04 4.355222557897420e-16 -2.330667413794056e-16 -8.695324455925409e-17 -1.842269164896369e-16 -3.554121119399594e-17
-2.269059266446873e-04 -2.721114327556664e-16 5.079622885989907e-18 3.673600535512147e-16 1.759144965807228e-17 7.249439634627946e-17
-2.269059266447364e-04 3.240017631594651e-16 -5.179260919542343e-17 1.487441511035695e-16 -1.927153383248315e-17 9.642876654921016e-17
-2.269059266443823e-04 3.127972764477742e-16 1.327018748566315e-16 -1.485686710733629e-16 4.277516374631368e-17 1.327539944945491e-16
-2.269059266444649e-04 -2.054935160210929e-16 -7.936583455373607e-17 -2.481592909081943e-16 -1.371083872219568e-16 -1.742484571689875e-17
-2.275691304711670e-04 -3.297130658663453e-16 -1.577352887719491e-16 3.935543108758738e-16 1.762089599768360e-16 7.837211905685791e-18
-2.275691304709954e-04 -4.884447349738173e-16 -1.487416814333741e-17 6.819897975685374e-16 2.158729555192658e-16 -1.094170824212897e-16
-2.275691304715653e-04 1.765592098126248e-16 8.920924041527101e-17 -2.252795105507714e-16 9.730976957539417e-17 3.921127631944430e-17
-2.275691304712604e-04 4.126866290881072e-17 5.941204352440849e-17 1.110439947564140e-16 4.442593743305430e-17 -8.283162701445362e-17
-2.269059266447249e-04 -2.417314166481011e-16 1.766926994657536e-16 -3.746274350690951e-16 -1.789428180721636e-16 1.221563127091277e-16
-2.269059266448734e-04 1.377814977426216e-16 -1.856732146448943e-16 -1.773014089999435e-16 -2.208241588155898e-17 1.144072851040378e-17
-2.269059266448182e-04 1.171471662882161e-16 9.976895514663660e-18 -4.460646867257969e-17 -9.157601271620176e-17 -4.580674119019657e-17
-2.269059266452438e-04 -2.589630459771173e-16 -8.798164921824451e-18 3.684552381083303e-17 2.871578048538927e-19 3.413760417087939e-16
-2.275691304712002e-04 -4.096259511920302e-16 2.927946248142593e-16 2.080787008401203e-16 1.675806306573472e-16 2.472069284240163e-19
-2.275691304715133e-04 4.355222557897420e-16 -2.330667413794056e-16 -8.695324455925409e-17 -1.842269164896369e-16 -3.554121119399594e-17
-2.275691304713553e-04 -9.918613592993467e-17 -3.660260114164075e-17 -1.160654896515900e-16 -8.864602219271151e-17 6.306644503052057e-18
-2.275691304712655e-04 -1.141091646774597e-16 1.571036089510587e-16 2.424562513725474e-16 5.527315353452541e-17 -2.290586839883627e-16
-2.269059266448734e-04 1.377814977426216e-16 -1.856732146448943e-16 -1.773014089999435e-16 -2.208241588155898e-17 1.144072851040378e-17
-2.269059266444649e-04 -2.054935160210929e-16 -7.936583455373607e-17 -2.481592909081943e-16 -1.371083872219568e-16 -1.742484571689875e-17
-2.269059266445731e-04 -5.315369004557915e-17 -3.264927139982723e-16 2.893568188136631e-18 -4.344939203087696e-17 -2.137306732663170e-16
-2.269059266448182e-04 1.171471662882161e-16 9.976895514663660e-18 -4.460646867257969e-17 -9.157601271620176e-17 -4.580674119019657e-17
-2.275691304715133e-04 4.355222557897420e-16 -2.330667413794056e-16 -8.695324455925409e-17 -1.842269164896369e-16 -3.554121119399594e-17
-2.275691304712604e-04 4.126866290881072e-17 5.941204352440849e-17 1.110439947564140e-16 4.442593743305430e-17 -8.283162701445362e-17
-2.275691304715117e-04 -1.540167467361148e-16 6.957128929638858e-17 -7.116632387106140e-18 -1.490108493252013e-16 -7.618596885856339e-17
-2.275691304713553e-04 -9.918613592993467e-17 -3.660260114164075e-17 -1.160654896515900e-16 -8.864602219271151e-17 6.306644503052057e-18
-2.269059266444649e-04 -2.054935160210929e-16 -7.936583455373607e-17 -2.481592909081943e-16 -1.371083872219568e-16 -1.742484571689875e-17
-2.269059266443823e-04 3.127972764477742e-16 1.327018748566315e-16 -1.485686710733629e-16 4.277516374631368e-17 1.327539944945491e-16
-2.269059266450321e-04 -2.034518947458594e-16 -2.501648810552929e-16 -2.593306823929126e-17 -1.737511329250027e-17 -1.258895146703911e-16
-2.269059266445731e-04 -5.315369004557915e-17 -3.264927139982723e-16 2.893568188136631e-18 -4.344939203087696e-17 -2.137306732663170e-16
-2.275691304712604e-04 4.126866290881072e-17 5.941204352440849e-17 1.110439947564140e-16 4.442593743305430e-17 -8.283162701445362e-17
-2.275691304715653e-04 1.765592098126248e-16 8.920924041527101e-17 -2.252795105507714e-16 9.730976957539417e-17 3.921127631944430e-17
-2.275691304711267e-04 6.585274726055423e-17 2.081668171172167e-17 -8.518662675122622e-17 1.828124638537810e-17 1.577195949256068e-17
-2.275691304715117e-04 -1.540167467361148e-16 6.957128929638858e-17 -7.116632387106140e-18 -1.490108493252013e-16 -7.618596885856339e-17
-2.269059266452438e-04 -2.589630459771173e-16 -8.798164921824451e-18 3.684552381083303e-17 2.871578048538927e-19 3.413760417087939e-16
-2.269059266448182e-04 1.171471662882161e-16 9.976895514663660e-18 -4.460646867257969e-17 -9.157601271620176e-17 -4.580674119019657e-17
-2.269059266449771e-04 1.003648665227740e-16 -5.991023369216998e-17 2.431215012194073e-16 -2.179887074641610e-17 1.423205313753690e-17
-2.269059266444927e-04 -2.539811442995021e-17 2.704833725992530e-16 -6.968640081476830e-17 -3.177907942685684e-17 3.761327505420166e-17
-2.275691304712655e-04 -1.141091646774597e-16 1.571036089510587e-16 2.424562513725474e-16 5.527315353452541e-17 -2.290586839883627e-16
-2.275691304713553e-04 -9.918613592993467e-17 -3.660260114164075e-17 -1.160654896515900e-16 -8.864602219271151e-17 6.306644503052057e-18
-2.275691304713852e-04 -4.789171690227278e-17 -6.412696589576596e-17 8.914026251525411e-17 -1.517269983889320e-16 1.196657186738142e-16
-2.275691304714690e-04 1.415000397784559e-16 -2.386445544331570e-16 2.183536546003315e-16 1.371599580486556e-17 2.699467312425471e-16
-2.269059266448182e-04 1.171471662882161e-16 9.976895514663660e-18 -4.460646867257969e-17 -9.157601271620176e-17 -4.580674119019657e-17
-2.269059266445731e-04 -5.315369004557915e-17 -3.264927139982723e-16 2.893568188136631e-18 -4.344939203087696e-17 -2.137306732663170e-16
-2.269059266446125e-04 -2.726584835276154e-16 7.904999464329082e-17 -1.146568528765298e-16 -4.192326082501947e-17 -4.416469314213875e-17
-2.269059266449771e-04 1.003648665227740e-16 -5.991023369216998e-17 2.431215012194073e-16 -2.179887074641610e-17 1.423205313753690e-17
-2.275691304713553e-04 -9.918613592993467e-17 -3.660260114164075e-17 -1.160654896515900e-16 -8.864602219271151e-17 6.306644503052057e-18
-2.275691304715117e-04 -1.540167467361148e-16 6.957128929638858e-17 -7.116632387106140e-18 -1.490108493252013e-16 -7.618596885856339e-17
-2.275691304710089e-04 2.979719689086250e-17 -1.519751254608811e-16 8.460624836643884e-18 -4.125493555098853e-17 -1.176365621439830e-16
-2.275691304713852e-04 -4.789171690227278e-17 -6.412696589576596e-17 8.914026251525411e-17 -1.517269983889320e-16 1.196657186738142e-16
-2.269059266445731e-04 -5.315369004557915e-17 -3.264927139982723e-16 2.893568188136631e-18 -4.344939203087696e-17 -2.137306732663170e-16
-2.269059266450321e-04 -2.034518947458594e-16 -2.501648810552929e-16 -2.593306823929126e-17 -1.737511329250027e-17 -1.258895146703911e-16
-2.269059266444852e-04 8.109161591852434e-17 7.075001988922798e-17 1.193521766419357e-17 1.235705554356420e-17 -1.363564294202300e-16
-2.269059266446125e-04 -2.726584835276154e-16 7.904999464329082e-17 -1.146568528765298e-16 -4.192326082501947e-17 -4.416469314213875e-17
-2.275691304715117e-04 -1.540167467361148e-16 6.957128929638858e-17 -7.116632387106140e-18 -1.490108493252013e-16 -7.618596885856339e-17
-2.275691304711267e-04 6.585274726055423e-17 2.081668171172167e-17 -8.518662675122622e-17 1.828124638537810e-17 1.577195949256068e-17
-2.275691304711649e-04 -2.779204566709218e-16 -1.437597797557594e-17 -8.423155512800312e-17 -7.781427959504017e-17 1.861616875541378e-17
-2.275691304710089e-04 2.979719689086250e-17 -1.519751254608811e-16 8.460624836643884e-18 -4.125493555098853e-17 -1.176365621439830e-16
-2.269059266444927e-04 -2.539811442995021e-17 2.704833725992530e-16 -6.968640081476830e-17 -3.177907942685684e-17 3.761327505420166e-17
-2.269059266449771e-04 1.003648665227740e-16 -5.991023369216998e-17 2.431215012194073e-16 -2.179887074641610e-17 1.423205313753690e-17
-2.269059266447268e-04 -4.553425571659409e-17 1.750157787051527e-16 -1.694042141996158e-16 -3.416208867852780e-17 -1.190588765612578e-16
-2.269059266447133e-04 1.090295417914697e-16 -9.342597261886683e-17 4.045292629835975e-17 -5.654864807551570e-17 7.883554984870598e-17
-2.275691304714690e-04 1.415000397784559e-16 -2.386445544331570e-16 2.183536546003315e-16 1.371599580486556e-17 2.699467312425471e-16
-2.275691304713852e-04 -4.789171690227278e-17 -6.412696589576596e-17 8.914026251525411e-17 -1.517269983889320e-16 1.196657186738142e-16
-2.275691304710863e-04 -1.299797131563201e-16 -4.993333817750627e-17 -2.217112272938793e-17 -1.918100743695451e-16 -7.681556512394904e-17
-2.275691304712469e-04 2.298463895113327e-16 3.519265968729768e-17 -3.351196042548860e-16 7.581906414410030e-17 3.114156892713303e-16
-2.269059266449771e-04 1.003648665227740e-16 -5.991023369216998e-17 2.431215012194073e-16 -2.179887074641610e-17 1.423205313753690e-17
-2.269059266446125e-04 -2.726584835276154e-16 7.904999464329082e-17 -1.146568528765298e-16 -4.192326082501947e-17 -4.416469314213875e-17
-2.269059266445368e-04 -2.571037749592001e-16 6.567039700323787e-17 6.736776367748582e-17 -7.951933826638854e-17 -4.488246211144384e-17
-2.269059266447268e-04 -4.553425571659409e-17 1.750157787051527e-16 -1.694042141996158e-16 -3.416208867852780e-17 -1.190588765612578e-16
-2.275691304713852e-04 -4.789171690227278e-17 -6.412696589576596e-17 8.914026251525411e-17 -1.517269983889320e-16 1.196657186738142e-16
-2.275691304710089e-04 2.979719689086250e-17 -1.519751254608811e-16 8.460624836643884e-18 -4.125493555098853e-17 -1.176365621439830e-16
-2.275691304714933e-04 7.904999464329080e-17 7.564729251790167e-17 -1.949391239858423e-16 5.440817707630108e-17 -2.387429778010055e-17
-2.275691304710863e-04 -1.299797131563201e-16 -4.993333817750627e-17 -2.217112272938793e-17 -1.918100743695451e-16 -7.681556512394904e-17
-2.269059266446125e-04 -2.726584835276154e-16 7.904999464329082e-17 -1.146568528765298e-16 -4.192326082501947e-17 -4.416469314213875e-17
-2.269059266444852e-04 8.109161591852434e-17 7.075001988922798e-17 1.193521766419357e-17 1.235705554356420e-17 -1.363564294202300e-16
-2.269059266446640e-04 -1.387778780781446e-17 -3.872658383728366e-16 -8.894577749403000e-17 1.144716002900840e-17 -5.821545931273914e-17
-2.269059266445368e-04 -2.571037749592001e-16 6.567039700323787e-17 6.736776367748582e-17 -7.951933826638854e-17 -4.488246211144384e-17
-2.275691304710089e-04 2.979719689086250e-17 -1.519751254608811e-16 8.460624836643884e-18 -4.125493555098853e-17 -1.176365621439830e-16
-2.275691304711649e-04 -2.779204566709218e-16 -1.437597797557594e-17 -8.423155512800312e-17 -7.781427959504017e-17 1.861616875541378e-17
-2.275691304715672e-04 -2.254473070504204e-16 6.907309912862707e-17 -1.666893055728958e-16 1.256630535907632e-16 9.385426960153833e-17
-2.275691304714933e-04 7.904999464329080e-17 7.564729251790167e-17 -1.949391239858423e-16 5.440817707630108e-17 -2.387429778010055e-17
-2.269059266447133e-04 1.090295417914697e-16 -9.342597261886683e-17 4.045292629835975e-17 -5.654864807551570e-17 7.883554984870598e-17
-2.269059266447268e-04 -4.553425571659409e-17 1.750157787051527e-16 -1.694042141996158e-16 -3.416208867852780e-17 -1.190588765612578e-16
-2.269059266448363e-04 -2.247667666253426e-16 -1.262611711204858e-16 6.582691493045078e-17 -1.626280903450285e-16 -8.442978614667124e-17
-2.269059266447021e-04 3.439555541887924e-16 -1.258964706058531e-16 -2.034292067319224e-17 1.197659377088225e-16 1.563597777892844e-16
-2.275691304712469e-04 2.298463895113327e-16 3.519265968729768e-17 -3.351196042548860e-16 7.581906414410030e-17 3.114156892713303e-16
-2.275691304710863e-04 -1.299797131563201e-16 -4.993333817750627e-17 -2.217112272938793e-17 -1.918100743695451e-16 -7.681556512394904e-17
-2.275691304715513e-04 -1.415000397784559e-16 -8.090926566120808e-17 1.500619652245076e-16 7.231460825893529e-17 -1.588186639709347e-16
-2.275691304712056e-04 3.541147999607724e-16 -2.837294805861771e-16 -9.601972552103123e-17 2.640670991652010e-17 -1.960055503940005e-17
-2.269059266447268e-04 -4.553425571659409e-17 1.750157787051527e-16 -1.694042141996158e-16 -3.416208867852780e-17 -1.190588765612578e-16
-2.269059266445368e-04 -2.571037749592001e-16 6.567039700323787e-17 6.736776367748582e-17 -7.951933826638854e-17 -4.488246211144384e-17
-2.269059266447906e-04 -8.054456514657544e-17 -1.073037604266813e-16 -7.132764776746398e-17 8.400313396347735e-17 -7.797638743999456e-17
-2.269059266448363e-04 -2.247667666253426e-16 -1.262611711204858e-16 6.582691493045078e-17 -1.626280903450285e-16 -8.442978614667124e-17
-2.275691304710863e-04 -1.299797131563201e-16 -4.993333817750627e-17 -2.217112272938793e-17 -1.918100743695451e-16 -7.681556512394904e-17
-2.275691304714933e-04 7.904999464329080e-17 7.564729251790167e-17 -1.949391239858423e-16 5.440817707630108e-17 -2.387429778010055e-17
-2.275691304711606e-04 -3.994667054200502e-16 -1.096612216123599e-16 7.958477798774240e-17 7.899148329399864e-17 -6.448309606171564e-17
-2.275691304715513e-04 -1.415000397784559e-16 -8.090926566120808e-17 1.500619652245076e-16 7.231460825893529e-17 -1.588186639709347e-16
-2.269059266445368e-04 -2.571037749592001e-16 6.567039700323787e-17 6.736776367748582e-17 -7.951933826638854e-17 -4.488246211144384e-17
-2.269059266446640e-04 -1.387778780781446e-17 -3.872658383728366e-16 -8.894577749403000e-17 1.144716002900840e-17 -5.821545931273914e-17
-2.269059266448220e-04 -4.498982337653180e-16 -1.623524899349317e-17 1.967443165421599e-16 9.007913718499038e-17 -5.225887623361104e-17
-2.269059266447906e-04 -8.054456514657544e-17 -1.073037604266813e-16 -7.132764776746398e-17 8.400313396347735e-17 -7.797638743999456e-17
-2.275691304714933e-04 7.904999464329080e-17 7.564729251790167e-17 -1.949391239858423e-16 5.440817707630108e-17 -2.387429778010055e-17
-2.275691304715672e-04 -2.254473070504204e-16 6.907309912862707e-17 -1.666893055728958e-16 1.256630535907632e-16 9.385426960153833e-17
-2.275691304712899e-04 6.252298523809157e-16 -1.929279484592467e-16 2.615026695877236e-16 -5.436426615781980e-17 -1.341414701920352e-16
-2.275691304711606e-04 -3.994667054200502e-16 -1.096612216123599e-16 7.958477798774240e-17 7.899148329399864e-17 -6.448309606171564e-17
-2.275691304712530e-04 -3.561075606318185e-16 5.585630750421551e-16 3.359778002547528e-16 -2.241896164799697e-16 -1.476986473827976e-16
-2.275691304713201e-04 2.108889788175284e-16 1.076684609413139e-16 4.067594216306476e-17 -6.810234711093367e-17 -1.081629595837109e-16
-2.275691304715133e-04 4.355222557897420e-16 -2.330667413794056e-16 -8.695324455925409e-17 -1.842269164896369e-16 -3.554121119399594e-17
-2.275691304712002e-04 -4.096259511920302e-16 2.927946248142593e-16 2.080787008401203e-16 1.675806306573472e-16 2.472069284240163e-19
-2.279967614984334e-04 9.429844742714769e-18 -8.525948751793273e-17 3.286906295460314e-17 8.106718561643058e-17 -7.995909722710058e-17
-2.279967614974538e-04 3.107556551725407e-16 2.830000795569119e-16 -2.470003173740295e-16 -4.706547167301909e-17 -2.355526462818982e-16
-2.279967614982256e-04 3.883110793125471e-16 -1.391425785927773e-16 -2.348602371566277e-16 6.645991652751354e-17 3.755994190005740e-17
-2.279967614973725e-04 -3.303447456872355e-16 1.746999387947075e-16 1.287086462302013e-16 7.327090959778472e-17 6.801062270675482e-16
-2.275691304713201e-04 2.108889788175284e-16 1.076684609413139e-16 4.067594216306476e-17 -6.810234711093367e-17 -1.081629595837109e-16
-2.275691304711670e-04 -3.297130658663453e-16 -1.577352887719491e-16 3.935543108758738e-16 1.762089599768360e-16 7.837211905685791e-18
-2.275691304712604e-04 4.126866290881072e-17 5.941204352440849e-17 1.110439947564140e-16 4.442593743305430e-17 -8.283162701445362e-17
-2.275691304715133e-04 4.355222557897420e-16 -2.330667413794056e-16 -8.695324455925409e-17 -1.842269164896369e-16 -3.554121119399594e-17
-2.279967614974538e-04 3.107556551725407e-16 2.830000795569119e-16 -2.470003173740295e-16 -4.706547167301909e-17 -2.355526462818982e-16
-2.279967614972154e-04 8.598888854719807e-17 2.071704367816939e-16 -3.727827663581221e-16 -8.102077979213687e-17 -1.541314514864644e-16
-2.279967614981091e-04 -2.640426688631073e-16 -1.045815987263699e-16 -2.612650769898008e-16 -1.138295317159617e-16 -4.105495075547993e-18
-2.279967614982256e-04 3.883110793125471e-16 -1.391425785927773e-16 -2.348602371566277e-16 6.645991652751354e-17 3.755994190005740e-17
-2.275691304711670e-04 -3.297130658663453e-16 -1.577352887719491e-16 3.935543108758738e-16 1.762089599768360e-16 7.837211905685791e-18
-2.275691304709954e-04 -4.884447349738173e-16 -1.487416814333741e-17 6.819897975685374e-16 2.158729555192658e-16 -1.094170824212897e-16
-2.275691304715653e-04 1.765592098126248e-16 8.920924041527101e-17 -2.252795105507714e-16 9.730976957539417e-17 3.921127631944430e-17
-2.275691304712604e-04 4.126866290881072e-17 5.941204352440849e-17 1.110439947564140e-16 4.442593743305430e-17 -8.283162701445362e-17
-2.279967614972154e-04 8.598888854719807e-17 2.071704367816939e-16 -3.727827663581221e-16 -8.102077979213687e-17 -1.541314514864644e-16
-2.279967614975296e-04 3.337963084168122e-16 9.614813431917812e-17 -2.274074322463925e-16 -6.746374145455540e-17 1.996247635925774e-16
-2.279967614981514e-04 9.133549073944574e-17 2.031849154396018e-17 -1.704807052394145e-16 -5.659118185208336e-18 -1.475050721883577e-16
-2.279967614981091e-04 -2.640426688631073e-16 -1.045815987263699e-16 -2.612650769898008e-16 -1.138295317159617e-16 -4.105495075547993e-18
-2.275691304712002e-04 -4.096259511920302e-16 2.927946248142593e-16 2.080787008401203e-16 1.675806306573472e-16 2.472069284240163e-19
-2.275691304715133e-04 4.355222557897420e-16 -2.330667413794056e-16 -8.695324455925409e-17 -1.842269164896369e-16 -3.554121119399594e-17
-2.275691304713553e-04 -9.918613592993467e-17 -3.660260114164075e-17 -1.160654896515900e-16 -8.864602219271151e-17 6.306644503052057e-18
-2.275691304712655e-04 -1.141091646774597e-16 1.571036089510587e-16 2.424562513725474e-16 5.527315353452541e-17 -2.290586839883627e-16
-2.279967614973725e-04 -3.303447456872355e-16 1.746999387947075e-16 1.287086462302013e-16 7.327090959778472e-17 6.801062270675482e-16
-2.279967614982256e-04 3.883110793125471e-16 -1.391425785927773e-16 -2.348602371566277e-16 6.645991652751354e-17 3.755994190005740e-17
-2.279967614990712e-04 2.200518442539852e-16 2.048129755960151e-16 4.628392828590040e-17 4.680222541422838e-17 -1.054807670018623e-16
-2.279967614980252e-04 -1.571036089510587e-16 -6.411004008597762e-16 -3.174651500693375e-16 -1.569507590592985e-16 4.967762377501255e-16
-2.275691304715133e-04 4.355222557897420e-16 -2.330667413794056e-16 -8.695324455925409e-17 -1.842269164896369e-16 -3.554121119399594e-17
-2.275691304712604e-04 4.126866290881072e-17 5.941204352440849e-17 1.110439947564140e-16 4.442593743305430e-17 -8.283162701445362e-17
-2.275691304715117e-04 -1.540167467361148e-16 6.957128929638858e-17 -7.116632387106140e-18 -1.490108493252013e-16 -7.618596885856339e-17
-2.275691304713553e-04 -9.918613592993467e-17 -3.660260114164075e-17 -1.160654896515900e-16 -8.864602219271151e-17 6.306644503052057e-18
-2.279967614982256e-04 3.883110793125471e-16 -1.391425785927773e-16 -2.348602371566277e-16 6.645991652751354e-17 3.755994190005740e-17
-2.279967614981091e-04 -2.640426688631073e-16 -1.045815987263699e-16 -2.612650769898008e-16 -1.138295317159617e-16 -4.105495075547993e-18
-2.279967614981074e-04 -2.085315176318495e-16 -1.201851678989727e-16 -8.560446794355576e-17 -1.073383602299104e-16 -3.491695137699995e-16
-2.279967614990712e-04 2.200518442539852e-16 2.048129755960151e-16 4.628392828590040e-17 4.680222541422838e-17 -1.054807670018623e-16
-2.275691304712604e-04 4.126866290881072e-17 5.941204352440849e-17 1.110439947564140e-16 4.442593743305430e-17 -8.283162701445362e-17
-2.275691304715653e-04 1.765592098126248e-16 8.920924041527101e-17 -2.252795105507714e-16 9.730976957539417e-17 3.921127631944430e-17
-2.275691304711267e-04 6.585274726055423e-17 2.081668171172167e-17 -8.518662675122622e-17 1.828124638537810e-17 1.577195949256068e-17
-2.275691304715117e-04 -1.540167467361148e-16 6.957128929638858e-17 -7.116632387106140e-18 -1.490108493252013e-16 -7.618596885856339e-17
-2.279967614981091e-04 -2.640426688631073e-16 -1.045815987263699e-16 -2.612650769898008e-16 -1.138295317159617e-16 -4.105495075547993e-18
-2.279967614981514e-04 9.133549073944574e-17 2.031849154396018e-17 -1.704807052394145e-16 -5.659118185208336e-18 -1.475050721883577e-16
-2.279967614980984e-04 -9.442235295438988e-17 1.729741574299192e-16 6.763824324638274e-17 -6.028123166021179e-17 -8.090798308660719e-17
-2.279967614981074e-04 -2.085315176318495e-16 -1.201851678989727e-16 -8.560446794355576e-17 -1.073383602299104e-16 -3.491695137699995e-16
-2.275691304712655e-04 -1.141091646774597e-16 1.571036089510587e-16 2.424562513725474e-16 5.527315353452541e-17 -2.290586839883627e-16
-2.275691304713553e-04 -9.918613592993467e-17 -3.660260114164075e-17 -1.160654896515900e-16 -8.864602219271151e-17 6.306644503052057e-18
-2.275691304713852e-04 -4.789171690227278e-17 -6.412696589576596e-17 8.914026251525411e-17 -1.517269983889320e-16 1.196657186738142e-16
-2.275691304714690e-04 1.415000397784559e-16 -2.386445544331570e-16 2.183536546003315e-16 1.371599580486556e-17 2.699467312425471e-16
-2.279967614980252e-04 -1.571036089510587e-16 -6.411004008597762e-16 -3.174651500693375e-16 -1.569507590592985e-16 4.967762377501255e-16
-2.279967614990712e-04 2.200518442539852e-16 2.048129755960151e-16 4.628392828590040e-17 4.680222541422838e-17 -1.054807670018623e-16
-2.279967614973139e-04 1.361080850155707e-18 -1.354240365569428e-16 6.620348388653036e-16 -3.106099503683650e-17 -1.566822387947987e-16
-2.279967614994110e-04 -1.739705377654421e-16 3.541147999607723e-16 -2.627516239228617e-16 -2.456001345437054e-16 -2.782303783943782e-18
-2.275691304713553e-04 -9.918613592993467e-17 -3.660260114164075e-17 -1.160654896515900e-16 -8.864602219271151e-17 6.306644503052057e-18
-2.275691304715117e-04 -1.540167467361148e-16 6.957128929638858e-17 -7.116632387106140e-18 -1.490108493252013e-16 -7.618596885856339e-17
-2.275691304710089e-04 2.979719689086250e-17 -1.519751254608811e-16 8.460624836643884e-18 -4.125493555098853e-17 -1.176365621439830e-16
-2.275691304713852e-04 -4.789171690227278e-17 -6.412696589576596e-17 8.914026251525411e-17 -1.517269983889320e-16 1.196657186738142e-16
-2.279967614990712e-04 2.200518442539852e-16 2.048129755960151e-16 4.628392828590040e-17 4.680222541422838e-17 -1.054807670018623e-16
-2.279967614981074e-04 -2.085315176318495e-16 -1.201851678989727e-16 -8.560446794355576e-17 -1.073383602299104e-16 -3.491695137699995e-16
-2.279967614977622e-04 -1.045815987263699e-16 2.951520859999379e-16 5.161026470801828e-17 2.064827806432424e-16 -1.466870730298828e-16
-2.279967614973139e-04 1.361080850155707e-18 -1.354240365569428e-16 6.620348388653036e-16 -3.106099503683650e-17 -1.566822387947987e-16
-2.275691304715117e-04 -1.540167467361148e-16 6.957128929638858e-17 -7.116632387106140e-18 -1.490108493252013e-16 -7.618596885856339e-17
-2.275691304711267e-04 6.585274726055423e-17 2.081668171172167e-17 -8.518662675122622e-17 1.828124638537810e-17 1.577195949256068e-17
-2.275691304711649e-04 -2.779204566709218e-16 -1.437597797557594e-17 -8.423155512800312e-17 -7.781427959504017e-17 1.861616875541378e-17
-2.275691304710089e-04 2.979719689086250e-17 -1.519751254608811e-16 8.460624836643884e-18 -4.125493555098853e-17 -1.176365621439830e-16
-2.279967614981074e-04 -2.085315176318495e-16 -1.201851678989727e-16 -8.560446794355576e-17 -1.073383602299104e-16 -3.491695137699995e-16
-2.279967614980984e-04 -9.442235295438988e-17 1.729741574299192e-16 6.763824324638274e-17 -6.028123166021179e-17 -8.090798308660719e-17
-2.279967614980681e-04 8.798164921824390e-18 -3.967445437197389e-16 -1.991708749006761e-16 -2.095873372026778e-17 -1.859879366341054e-16
-2.279967614977622e-04 -1.045815987263699e-16 2.951520859999379e-16 5.161026470801828e-17 2.064827806432424e-16 -1.466870730298828e-16
-2.275691304714690e-04 1.415000397784559e-16 -2.386445544331570e-16 2.183536546003315e-16 1.371599580486556e-17 2.699467312425471e-16
-2.275691304713852e-04 -4.789171690227278e-17 -6.412696589576596e-17 8.914026251525411e-17 -1.517269983889320e-16 1.196657186738142e-16
-2.275691304710863e-04 -1.299797131563201e-16 -4.993333817750627e-17 -2.217112272938793e-17 -1.918100743695451e-16 -7.681556512394904e-17
-2.275691304712469e-04 2.298463895113327e-16 3.519265968729768e-17 -3.351196042548860e-16 7.581906414410030e-17 3.114156892713303e-16
-2.279967614994110e-04 -1.739705377654421e-16 3.541147999607723e-16 -2.627516239228617e-16 -2.456001345437054e-16 -2.782303783943782e-18
-2.279967614973139e-04 1.361080850155707e-18 -1.354240365569428e-16 6.620348388653036e-16 -3.106099503683650e-17 -1.566822387947987e-16
-2.279967614977151e-04 -1.066720806057910e-16 6.839255870354924e-17 -3.860955013234569e-16 -5.417450068319597e-17 -7.327073264066828e-17
-2.279967614979554e-04 -2.822706785276465e-16 2.051776761106479e-16 -2.906103599826161e-16 -1.197626646689641e-16 -8.962698968729766e-17
-2.275691304713852e-04 -4.789171690227278e-17 -6.412696589576596e-17 8.914026251525411e-17 -1.517269983889320e-16 1.196657186738142e-16
-2.275691304710089e-04 2.979719689086250e-17 -1.519751254608811e-16 8.460624836643884e-18 -4.125493555098853e-17 -1.176365621439830e-16
-2.275691304714933e-04 7.904999464329080e-17 7.564729251790167e-17 -1.949391239858423e-16 5.440817707630108e-17 -2.387429778010055e-17
-2.275691304710863e-04 -1.299797131563201e-16 -4.993333817750627e-17 -2.217112272938793e-17 -1.918100743695451e-16 -7.681556512394904e-17
-2.279967614973139e-04 1.361080850155707e-18 -1.354240365569428e-16 6.620348388653036e-16 -3.106099503683650e-17 -1.566822387947987e-16
-2.279967614977622e-04 -1.045815987263699e-16 2.951520859999379e-16 5.161026470801828e-17 2.064827806432424e-16 -1.466870730298828e-16
-2.279967614983942e-04 4.634828579480076e-17 -2.210482245895083e-16 -2.289276508545993e-16 -7.270646398527837e-17 2.200729346415125e-16
-2.279967614977151e-04 -1.066720806057910e-16 6.839255870354924e-17 -3.860955013234569e-16 -5.417450068319597e-17 -7.327073264066828e-17
-2.275691304710089e-04 2.979719689086250e-17 -1.519751254608811e-16 8.460624836643884e-18 -4.125493555098853e-17 -1.176365621439830e-16
-2.275691304711649e-04 -2.779204566709218e-16 -1.437597797557594e-17 -8.423155512800312e-17 -7.781427959504017e-17 1.861616875541378e-17
-2.275691304715672e-04 -2.254473070504204e-16 6.907309912862707e-17 -1.666893055728958e-16 1.256630535907632e-16 9.385426960153833e-17
-2.275691304714933e-04 7.904999464329080e-17 7.564729251790167e-17 -1.949391239858423e-16 5.440817707630108e-17 -2.387429778010055e-17
-2.279967614977622e-04 -1.045815987263699e-16 2.951520859999379e-16 5.161026470801828e-17 2.064827806432424e-16 -1.466870730298828e-16
-2.279967614980681e-04 8.798164921824390e-18 -3.967445437197389e-16 -1.991708749006761e-16 -2.095873372026778e-17 -1.859879366341054e-16
-2.279967614980222e-04 -1.659994950812592e-17 -2.664001300487860e-16 -9.270735881364598e-17 4.914311001931442e-17 6.329166661719116e-17
-2.279967614983942e-04 4.634828579480076e-17 -2.210482245895083e-16 -2.289276508545993e-16 -7.270646398527837e-17 2.200729346415125e-16
-2.275691304712469e-04 2.298463895113327e-16 3.519265968729768e-17 -3.351196042548860e-16 7.581906414410030e-17 3.114156892713303e-16
-2.275691304710863e-04 -1.299797131563201e-16 -4.993333817750627e-17 -2.217112272938793e-17 -1.918100743695451e-16 -7.681556512394904e-17
-2.275691304715513e-04 -1.415000397784559e-16 -8.090926566120808e-17 1.500619652245076e-16 7.231460825893529e-17 -1.588186639709347e-16
-2.275691304712056e-04 3.541147999607724e-16 -2.837294805861771e-16 -9.601972552103123e-17 2.640670991652010e-17 -1.960055503940005e-17
-2.279967614979554e-04 -2.822706785276465e-16 2.051776761106479e-16 -2.906103599826161e-16 -1.197626646689641e-16 -8.962698968729766e-17
-2.279967614977151e-04 -1.066720806057910e-16 6.839255870354924e-17 -3.860955013234569e-16 -5.417450068319597e-17 -7.327073264066828e-17
-2.279967614986305e-04 2.423630964689914e-16 -1.560356917260278e-17 -2.562547362440170e-16 -2.959041633145165e-18 3.624942025921427e-17
-2.279967614974491e-04 -6.160669869444584e-16 -9.429844742714794e-18 8.408915995052881e-17 -2.074993688515733e-17 2.899232849665652e-16
-2.275691304710863e-04 -1.299797131563201e-16 -4.993333817750627e-17 -2.217112272938793e-17 -1.918100743695451e-16 -7.681556512394904e-17
-2.275691304714933e-04 7.904999464329080e-17 7.564729251790167e-17 -1.949391239858423e-16 5.440817707630108e-17 -2.387429778010055e-17
-2.275691304711606e-04 -3.994667054200502e-16 -1.096612216123599e-16 7.958477798774240e-17 7.899148329399864e-17 -6.448309606171564e-17
-2.275691304715513e-04 -1.415000397784559e-16 -8.090926566120808e-17 1.500619652245076e-16 7.231460825893529e-17 -1.588186639709347e-16
-2.279967614977151e-04 -1.066720806057910e-16 6.839255870354924e-17 -3.860955013234569e-16 -5.417450068319597e-17 -7.327073264066828e-17
-2.279967614983942e-04 4.634828579480076e-17 -2.210482245895083e-16 -2.289276508545993e-16 -7.270646398527837e-17 2.200729346415125e-16
-2.279967614979069e-04 -1.063073800911584e-16 2.775557561562890e-17 3.090119471844852e-16 3.463219574856584e-17 -2.994520039294397e-16
-2.279967614986305e-04 2.423630964689914e-16 -1.560356917260278e-17 -2.562547362440170e-16 -2.959041633145165e-18 3.624942025921427e-17
-2.275691304714933e-04 7.904999464329080e-17 7.564729251790167e-17 -1.949391239858423e-16 5.440817707630108e-17 -2.387429778010055e-17
-2.275691304715672e-04 -2.254473070504204e-16 6.907309912862707e-17 -1.666893055728958e-16 1.256630535907632e-16 9.385426960153833e-17
-2.275691304712899e-04 6.252298523809157e-16 -1.929279484592467e-16 2.615026695877236e-16 -5.436426615781980e-17 -1.341414701920352e-16
-2.275691304711606e-04 -3.994667054200502e-16 -1.096612216123599e-16 7.958477798774240e-17 7.899148329399864e-17 -6.448309606171564e-17
-2.279967614983942e-04 4.634828579480076e-17 -2.210482245895083e-16 -2.289276508545993e-16 -7.270646398527837e-17 2.200729346415125e-16
-2.279967614980222e-04 -1.659994950812592e-17 -2.664001300487860e-16 -9.270735881364598e-17 4.914311001931442e-17 6.329166661719116e-17
-2.279967614980379e-04 -8.165297406837490e-16 1.110223024625156e-16 -2.751283852835915e-17 1.250580102255526e-16 -6.757647930978378e-17
-2.279967614979069e-04 -1.063073800911584e-16 2.775557561562890e-17 3.090119471844852e-16 3.463219574856584e-17 -2.994520039294397e-16
        </DataArray>
        <DataArray type="Float64" Name="nodal_cauchy_stresses_xyz" NumberOfComponents="6" format="ascii">
-6.110935005461400e+02 -2.619566503214451e+02 -2.619566503214622e+02 -3.526726847789610e-11 -4.582693764080187e-10 5.398521460265596e-12
-6.110935005460374e+02 -2.619566503208939e+02 -2.619566503213646e+02 -6.926674864863623e-11 3.338029250822152e-10 1.253643622379498e-11
-6.110935005488391e+02 -2.619566503238325e+02 -2.619566503237305e+02 -5.201244310850664e-10 -7.916257207819194e-11 -2.895144593866694e-11
-6.110935005482822e+02 -2.619566503242970e+02 -2.619566503244439e+02 -4.486949503639400e-10 2.847970938405181e-10 4.155154161777067e-10
-6.107041703466277e+02 -2.617897188422401e+02 -2.617897188441433e+02 3.704562928195530e-10 -3.712397036182701e-10 1.675744839563839e-10
-6.107041703429232e+02 -2.617897188421205e+02 -2.617897188415903e+02 1.412243282008967e-10 1.392277390384413e-10 9.884362168606787e-11
-6.107041703443354e+02 -2.617897188419239e+02 -2.617897188417571e+02 -3.552743183102140e-10 9.781657617672524e-11 1.356831933927468e-10
-6.107041703434668e+02 -2.617897188406824e+02 -2.617897188408605e+02 3.010988130698640e-10 3.747770270933110e-10 -3.809506142491527e-10
-6.110935005460374e+02 -2.619566503208939e+02 -2.619566503213646e+02 -6.926674864863623e-11 3.338029250822152e-10 1.253643622379498e-11
-6.110935005470617e+02 -2.619566503224056e+02 -2.619566503222018e+02 8.480097159759025e-10 -9.955236770034581e-11 2.164627665790642e-11
-6.110935005486367e+02 -2.619566503231019e+02 -2.619566503232234e+02 -3.866411734707656e-10 -4.422174972706922e-11 -5.318085982760056e-11
-6.110935005488391e+02 -2.619566503238325e+02 -2.619566503237305e+02 -5.201244310850664e-10 -7.916257207819194e-11 -2.895144593866694e-11
-6.107041703429232e+02 -2.617897188421205e+02 -2.617897188415903e+02 1.412243282008967e-10 1.392277390384413e-10 9.884362168606787e-11
-6.107041703464799e+02 -2.617897188431434e+02 -2.617897188429877e+02 -3.735591160694619e-10 2.691568447968878e-11 3.844050622795882e-11
-6.107041703423399e+02 -2.617897188403192e+02 -2.617897188407265e+02 -5.962708794734750e-10 -1.949685266655187e-10 3.363464870723905e-10
-6.107041703443354e+02 -2.617897188419239e+02 -2.617897188417571e+02 -3.552743183102140e-10 9.781657617672524e-11 1.356831933927468e-10
-6.110935005470617e+02 -2.619566503224056e+02 -2.619566503222018e+02 8.480097159759025e-10 -9.955236770034581e-11 2.164627665790642e-11
-6.110935005485028e+02 -2.619566503223170e+02 -2.619566503231596e+02 5.715412952746359e-10 -1.160680278166252e-11 4.388203861011773e-12
-6.110935005492280e+02 -2.619566503234843e+02 -2.619566503234083e+02 -3.191674092089723e-10 -4.715124649678870e-11 -5.595507941390303e-11
-6.110935005486367e+02 -2.619566503231019e+02 -2.619566503232234e+02 -3.866411734707656e-10 -4.422174972706922e-11 -5.318085982760056e-11
-6.107041703464799e+02 -2.617897188431434e+02 -2.617897188429877e+02 -3.735591160694619e-10 2.691568447968878e-11 3.844050622795882e-11
-6.107041703445699e+02 -2.617897188412761e+02 -2.617897188413372e+02 2.516027808228442e-11 -6.074085340577709e-11 2.566355897833531e-10
-6.107041703445966e+02 -2.617897188417618e+02 -2.617897188417539e+02 -9.849874677268971e-11 6.246394719521126e-11 -1.372741770277427e-10
-6.107041703423399e+02 -2.617897188403192e+02 -2.617897188407265e+02 -5.962708794734750e-10 -1.949685266655187e-10 3.363464870723905e-10
-6.110935005482822e+02 -2.619566503242970e+02 -2.619566503244439e+02 -4.486949503639400e-10 2.847970938405181e-10 4.155154161777067e-10
-6.110935005488391e+02 -2.619566503238325e+02 -2.619566503237305e+02 -5.201244310850664e-10 -7.916257207819194e-11 -2.895144593866694e-11
-6.110935005481958e+02 -2.619566503233074e+02 -2.619566503231761e+02 -1.412149715444437e-10 1.332468023795054e-10 1.980186184084627e-10
-6.110935005463750e+02 -2.619566503223556e+02 -2.619566503208846e+02 2.217259734616070e-11 2.079394194558004e-10 -1.800332645383111e-10
-6.107041703434668e+02 -2.617897188406824e+02 -2.617897188408605e+02 3.010988130698640e-10 3.747770270933110e-10 -3.809506142491527e-10
-6.107041703443354e+02 -2.617897188419239e+02 -2.617897188417571e+02 -3.552743183102140e-10 9.781657617672524e-11 1.356831933927468e-10
-6.107041703441448e+02 -2.617897188419171e+02 -2.617897188422028e+02 -8.084051640382293e-11 -5.465574163671205e-11 9.332448506296981e-11
-6.107041703445727e+02 -2.617897188411098e+02 -2.617897188414108e+02 -2.799652772571558e-10 -2.387265360540894e-10 7.864906996758292e-10
-6.110935005488391e+02 -2.619566503238325e+02 -2.619566503237305e+02 -5.201244310850664e-10 -7.916257207819194e-11 -2.895144593866694e-11
-6.110935005486367e+02 -2.619566503231019e+02 -2.619566503232234e+02 -3.866411734707656e-10 -4.422174972706922e-11 -5.318085982760056e-11
-6.110935005491112e+02 -2.619566503233425e+02 -2.619566503227467e+02 9.219119255084662e-11 -1.121002456716488e-11 8.473144249913792e-12
-6.110935005481958e+02 -2.619566503233074e+02 -2.619566503231761e+02 -1.412149715444437e-10 1.332468023795054e-10 1.980186184084627e-10
-6.107041703443354e+02 -2.617897188419239e+02 -2.617897188417571e+02 -3.552743183102140e-10 9.781657617672524e-11 1.356831933927468e-10
-6.107041703423399e+02 -2.617897188403192e+02 -2.617897188407265e+02 -5.962708794734750e-10 -1.949685266655187e-10 3.363464870723905e-10
-6.107041703435741e+02 -2.617897188409110e+02 -2.617897188410471e+02 1.333963280938450e-10 -3.084964533467917e-11 -3.325723671030693e-11
-6.107041703441448e+02 -2.617897188419171e+02 -2.617897188422028e+02 -8.084051640382293e-11 -5.465574163671205e-11 9.332448506296981e-11
-6.110935005486367e+02 -2.619566503231019e+02 -2.619566503232234e+02 -3.866411734707656e-10 -4.422174972706922e-11 -5.318085982760056e-11
-6.110935005492280e+02 -2.619566503234843e+02 -2.619566503234083e+02 -3.191674092089723e-10 -4.715124649678870e-11 -5.595507941390303e-11
-6.110935005491423e+02 -2.619566503235300e+02 -2.619566503229983e+02 1.332683394159273e-10 3.908524022444282e-11 2.380805369672574e-10
-6.110935005491112e+02 -2.619566503233425e+02 -2.619566503227467e+02 9.219119255084662e-11 -1.121002456716488e-11 8.473144249913792e-12
-6.107041703423399e+02 -2.617897188403192e+02 -2.617897188407265e+02 -5.962708794734750e-10 -1.949685266655187e-10 3.363464870723905e-10
-6.107041703445966e+02 -2.617897188417618e+02 -2.617897188417539e+02 -9.849874677268971e-11 6.246394719521126e-11 -1.372741770277427e-10
-6.107041703425991e+02 -2.617897188411364e+02 -2.617897188413842e+02 3.139718536313456e-10 -1.770207266729670e-11 1.815579890751990e-10
-6.107041703435741e+02 -2.617897188409110e+02 -2.617897188410471e+02 1.333963280938450e-10 -3.084964533467917e-11 -3.325723671030693e-11
-6.110935005463750e+02 -2.619566503223556e+02 -2.619566503208846e+02 2.217259734616070e-11 2.079394194558004e-10 -1.800332645383111e-10
-6.110935005481958e+02 -2.619566503233074e+02 -2.619566503231761e+02 -1.412149715444437e-10 1.332468023795054e-10 1.980186184084627e-10
-6.110935005481145e+02 -2.619566503230055e+02 -2.619566503223556e+02 1.060799032005647e-10 4.100711991993029e-11 -8.870012747660791e-11
-6.110935005492227e+02 -2.619566503232456e+02 -2.619566503239562e+02 2.339929773765541e-10 -8.165660656931984e-11 -1.745949085982492e-11
-6.107041703445727e+02 -2.617897188411098e+02 -2.617897188414108e+02 -2.799652772571558e-10 -2.387265360540894e-10 7.864906996758292e-10
-6.107041703441448e+02 -2.617897188419171e+02 -2.617897188422028e+02 -8.084051640382293e-11 -5.465574163671205e-11 9.332448506296981e-11
-6.107041703443338e+02 -2.617897188416863e+02 -2.617897188414753e+02 7.687518598373636e-11 -2.531591213650581e-10 3.802722703061952e-11
-6.107041703440649e+02 -2.617897188419059e+02 -2.617897188415333e+02 -3.419924038564270e-10 7.340830776627667e-11 -1.175482042362285e-10
-6.110935005481958e+02 -2.619566503233074e+02 -2.619566503231761e+02 -1.412149715444437e-10 1.332468023795054e-10 1.980186184084627e-10
-6.110935005491112e+02 -2.619566503233425e+02 -2.619566503227467e+02 9.219119255084662e-11 -1.121002456716488e-11 8.473144249913792e-12
-6.110935005493892e+02 -2.619566503236330e+02 -2.619566503240221e+02 1.866133817166019e-10 8.175260280908563e-11 -1.605064738452986e-10
-6.110935005481145e+02 -2.619566503230055e+02 -2.619566503223556e+02 1.060799032005647e-10 4.100711991993029e-11 -8.870012747660791e-11
-6.107041703441448e+02 -2.617897188419171e+02 -2.617897188422028e+02 -8.084051640382293e-11 -5.465574163671205e-11 9.332448506296981e-11
-6.107041703435741e+02 -2.617897188409110e+02 -2.617897188410471e+02 1.333963280938450e-10 -3.084964533467917e-11 -3.325723671030693e-11
-6.107041703441513e+02 -2.617897188413997e+02 -2.617897188416171e+02 1.235348304137480e-10 6.553592916685565e-11 -5.357417914880377e-11
-6.107041703443338e+02 -2.617897188416863e+02 -2.617897188414753e+02 7.687518598373636e-11 -2.531591213650581e-10 3.802722703061952e-11
-6.110935005491112e+02 -2.619566503233425e+02 -2.619566503227467e+02 9.219119255084662e-11 -1.121002456716488e-11 8.473144249913792e-12
-6.110935005491423e+02 -2.619566503235300e+02 -2.619566503229983e+02 1.332683394159273e-10 3.908524022444282e-11 2.380805369672574e-10
-6.110935005491956e+02 -2.619566503238452e+02 -2.619566503239358e+02 -3.415567432709607e-11 1.485713747863040e-11 8.554634216581094e-11
-6.110935005493892e+02 -2.619566503236330e+02 -2.619566503240221e+02 1.866133817166019e-10 8.175260280908563e-11 -1.605064738452986e-10
-6.107041703435741e+02 -2.617897188409110e+02 -2.617897188410471e+02 1.333963280938450e-10 -3.084964533467917e-11 -3.325723671030693e-11
-6.107041703425991e+02 -2.617897188411364e+02 -2.617897188413842e+02 3.139718536313456e-10 -1.770207266729670e-11 1.815579890751990e-10
-6.107041703445701e+02 -2.617897188418698e+02 -2.617897188424420e+02 -1.436573729470749e-10 -1.188858626721297e-10 1.721153918497763e-10
-6.107041703441513e+02 -2.617897188413997e+02 -2.617897188416171e+02 1.235348304137480e-10 6.553592916685565e-11 -5.357417914880377e-11
-6.110935005492227e+02 -2.619566503232456e+02 -2.619566503239562e+02 2.339929773765541e-10 -8.165660656931984e-11 -1.745949085982492e-11
-6.110935005481145e+02 -2.619566503230055e+02 -2.619566503223556e+02 1.060799032005647e-10 4.100711991993029e-11 -8.870012747660791e-11
-6.110935005480618e+02 -2.619566503221924e+02 -2.619566503229232e+02 -3.701537595116309e-11 -1.022581132360461e-10 9.648661279621983e-11
-6.110935005469316e+02 -2.619566503227860e+02 -2.619566503220891e+02 3.552429653394746e-10 -3.046209852016880e-11 -6.117062606068364e-11
-6.107041703440649e+02 -2.617897188419059e+02 -2.617897188415333e+02 -3.419924038564270e-10 7.340830776627667e-11 -1.175482042362285e-10
-6.107041703443338e+02 -2.617897188416863e+02 -2.617897188414753e+02 7.687518598373636e-11 -2.531591213650581e-10 3.802722703061952e-11
-6.107041703439222e+02 -2.617897188420669e+02 -2.617897188420172e+02 -1.155673813893065e-10 6.593357974635110e-11 -3.174137836272104e-10
-6.107041703460420e+02 -2.617897188425788e+02 -2.617897188431716e+02 -1.272460409115904e-10 -3.095069438161308e-10 3.799061125003825e-10
-6.110935005481145e+02 -2.619566503230055e+02 -2.619566503223556e+02 1.060799032005647e-10 4.100711991993029e-11 -8.870012747660791e-11
-6.110935005493892e+02 -2.619566503236330e+02 -2.619566503240221e+02 1.866133817166019e-10 8.175260280908563e-11 -1.605064738452986e-10
-6.110935005469158e+02 -2.619566503223355e+02 -2.619566503222471e+02 -2.772780543792220e-11 -2.144171772153419e-11 -5.715738283830688e-11
-6.110935005480618e+02 -2.619566503221924e+02 -2.619566503229232e+02 -3.701537595116309e-11 -1.022581132360461e-10 9.648661279621983e-11
-6.107041703443338e+02 -2.617897188416863e+02 -2.617897188414753e+02 7.687518598373636e-11 -2.531591213650581e-10 3.802722703061952e-11
-6.107041703441513e+02 -2.617897188413997e+02 -2.617897188416171e+02 1.235348304137480e-10 6.553592916685565e-11 -5.357417914880377e-11
-6.107041703450884e+02 -2.617897188418335e+02 -2.617897188413756e+02 -1.144383882626836e-10 -5.105874727713225e-12 2.520635373162354e-12
-6.107041703439222e+02 -2.617897188420669e+02 -2.617897188420172e+02 -1.155673813893065e-10 6.593357974635110e-11 -3.174137836272104e-10
-6.110935005493892e+02 -2.619566503236330e+02 -2.619566503240221e+02 1.866133817166019e-10 8.175260280908563e-11 -1.605064738452986e-10
-6.110935005491956e+02 -2.619566503238452e+02 -2.619566503239358e+02 -3.415567432709607e-11 1.485713747863040e-11 8.554634216581094e-11
-6.110935005473750e+02 -2.619566503220832e+02 -2.619566503227562e+02 3.657689866176194e-10 9.272788120489578e-12 -4.184279006658928e-10
-6.110935005469158e+02 -2.619566503223355e+02 -2.619566503222471e+02 -2.772780543792220e-11 -2.144171772153419e-11 -5.715738283830688e-11
-6.107041703441513e+02 -2.617897188413997e+02 -2.617897188416171e+02 1.235348304137480e-10 6.553592916685565e-11 -5.357417914880377e-11
-6.107041703445701e+02 -2.617897188418698e+02 -2.617897188424420e+02 -1.436573729470749e-10 -1.188858626721297e-10 1.721153918497763e-10
-6.107041703430825e+02 -2.617897188407400e+02 -2.617897188401431e+02 -3.395138490618520e-10 -1.009780562403817e-10 -2.440320152630418e-10
-6.107041703450884e+02 -2.617897188418335e+02 -2.617897188413756e+02 -1.144383882626836e-10 -5.105874727713225e-12 2.520635373162354e-12
-6.110935005469316e+02 -2.619566503227860e+02 -2.619566503220891e+02 3.552429653394746e-10 -3.046209852016880e-11 -6.117062606068364e-11
-6.110935005480618e+02 -2.619566503221924e+02 -2.619566503229232e+02 -3.701537595116309e-11 -1.022581132360461e-10 9.648661279621983e-11
-6.110935005470735e+02 -2.619566503237727e+02 -2.619566503228023e+02 -2.358750397092844e-10 -1.147521190858051e-10 -6.449122216594072e-11
-6.110935005512656e+02 -2.619566503243605e+02 -2.619566503244271e+02 -2.702396127641856e-10 1.058319276470518e-10 -2.819446880922181e-10
-6.107041703460420e+02 -2.617897188425788e+02 -2.617897188431716e+02 -1.272460409115904e-10 -3.095069438161308e-10 3.799061125003825e-10
-6.107041703439222e+02 -2.617897188420669e+02 -2.617897188420172e+02 -1.155673813893065e-10 6.593357974635110e-11 -3.174137836272104e-10
-6.107041703445600e+02 -2.617897188409271e+02 -2.617897188417313e+02 -1.392732220105976e-10 -1.763658681758590e-10 2.760428718683058e-10
-6.107041703446515e+02 -2.617897188412843e+02 -2.617897188404822e+02 6.715691588127032e-10 4.487415155540410e-10 1.116329105351847e-10
-6.110935005480618e+02 -2.619566503221924e+02 -2.619566503229232e+02 -3.701537595116309e-11 -1.022581132360461e-10 9.648661279621983e-11
-6.110935005469158e+02 -2.619566503223355e+02 -2.619566503222471e+02 -2.772780543792220e-11 -2.144171772153419e-11 -5.715738283830688e-11
-6.110935005481855e+02 -2.619566503215890e+02 -2.619566503224596e+02 -4.226984020619353e-11 -4.101135824139652e-11 7.420886219231553e-11
-6.110935005470735e+02 -2.619566503237727e+02 -2.619566503228023e+02 -2.358750397092844e-10 -1.147521190858051e-10 -6.449122216594072e-11
-6.107041703439222e+02 -2.617897188420669e+02 -2.617897188420172e+02 -1.155673813893065e-10 6.593357974635110e-11 -3.174137836272104e-10
-6.107041703450884e+02 -2.617897188418335e+02 -2.617897188413756e+02 -1.144383882626836e-10 -5.105874727713225e-12 2.520635373162354e-12
-6.107041703429886e+02 -2.617897188418555e+02 -2.617897188415989e+02 -2.891489125597607e-10 -1.442311427154354e-10 -2.346592286038615e-11
-6.107041703445600e+02 -2.617897188409271e+02 -2.617897188417313e+02 -1.392732220105976e-10 -1.763658681758590e-10 2.760428718683058e-10
-6.110935005469158e+02 -2.619566503223355e+02 -2.619566503222471e+02 -2.772780543792220e-11 -2.144171772153419e-11 -5.715738283830688e-11
-6.110935005473750e+02 -2.619566503220832e+02 -2.619566503227562e+02 3.657689866176194e-10 9.272788120489578e-12 -4.184279006658928e-10
-6.110935005484458e+02 -2.619566503226478e+02 -2.619566503238689e+02 -5.667104713126772e-10 8.571459529926968e-11 -2.336541010778452e-10
-6.110935005481855e+02 -2.619566503215890e+02 -2.619566503224596e+02 -4.226984020619353e-11 -4.101135824139652e-11 7.420886219231553e-11
-6.107041703450884e+02 -2.617897188418335e+02 -2.617897188413756e+02 -1.144383882626836e-10 -5.105874727713225e-12 2.520635373162354e-12
-6.107041703430825e+02 -2.617897188407400e+02 -2.617897188401431e+02 -3.395138490618520e-10 -1.009780562403817e-10 -2.440320152630418e-10
-6.107041703441597e+02 -2.617897188422602e+02 -2.617897188417663e+02 4.670053865754029e-10 2.117541938403179e-10 -2.011835635331741e-10
-6.107041703429886e+02 -2.617897188418555e+02 -2.617897188415989e+02 -2.891489125597607e-10 -1.442311427154354e-10 -2.346592286038615e-11
-6.107041703466277e+02 -2.617897188422401e+02 -2.617897188441433e+02 3.704562928195530e-10 -3.712397036182701e-10 1.675744839563839e-10
-6.107041703429232e+02 -2.617897188421205e+02 -2.617897188415903e+02 1.412243282008967e-10 1.392277390384413e-10 9.884362168606787e-11
-6.107041703443354e+02 -2.617897188419239e+02 -2.617897188417571e+02 -3.552743183102140e-10 9.781657617672524e-11 1.356831933927468e-10
-6.107041703434668e+02 -2.617897188406824e+02 -2.617897188408605e+02 3.010988130698640e-10 3.747770270933110e-10 -3.809506142491527e-10
-6.104116836918247e+02 -2.616643105574425e+02 -2.616643105564061e+02 1.137776470866784e-09 2.758937947378793e-10 -6.759085038775775e-10
-6.104116836903167e+02 -2.616643105528624e+02 -2.616643105541873e+02 -3.612982714703450e-10 -3.505996677115592e-11 1.189473314731896e-10
-6.104116836916688e+02 -2.616643105563712e+02 -2.616643105557434e+02 1.513781692846420e-10 1.355431246409778e-10 -8.989593081594401e-11
-6.104116836902922e+02 -2.616643105542676e+02 -2.616643105530317e+02 2.430410958427045e-11 -1.354703878328166e-10 4.363854421047042e-10
-6.107041703429232e+02 -2.617897188421205e+02 -2.617897188415903e+02 1.412243282008967e-10 1.392277390384413e-10 9.884362168606787e-11
-6.107041703464799e+02 -2.617897188431434e+02 -2.617897188429877e+02 -3.735591160694619e-10 2.691568447968878e-11 3.844050622795882e-11
-6.107041703423399e+02 -2.617897188403192e+02 -2.617897188407265e+02 -5.962708794734750e-10 -1.949685266655187e-10 3.363464870723905e-10
-6.107041703443354e+02 -2.617897188419239e+02 -2.617897188417571e+02 -3.552743183102140e-10 9.781657617672524e-11 1.356831933927468e-10
-6.104116836903167e+02 -2.616643105528624e+02 -2.616643105541873e+02 -3.612982714703450e-10 -3.505996677115592e-11 1.189473314731896e-10
-6.104116836915107e+02 -2.616643105557130e+02 -2.616643105558105e+02 5.582875855403507e-10 1.704766633228800e-10 3.716175696122584e-10
-6.104116836909783e+02 -2.616643105545678e+02 -2.616643105552756e+02 -7.566295321632420e-11 4.610879211333672e-11 2.300431158536908e-10
-6.104116836916688e+02 -2.616643105563712e+02 -2.616643105557434e+02 1.513781692846420e-10 1.355431246409778e-10 -8.989593081594401e-11
-6.107041703464799e+02 -2.617897188431434e+02 -2.617897188429877e+02 -3.735591160694619e-10 2.691568447968878e-11 3.844050622795882e-11
-6.107041703445699e+02 -2.617897188412761e+02 -2.617897188413372e+02 2.516027808228442e-11 -6.074085340577709e-11 2.566355897833531e-10
-6.107041703445966e+02 -2.617897188417618e+02 -2.617897188417539e+02 -9.849874677268971e-11 6.246394719521126e-11 -1.372741770277427e-10
-6.107041703423399e+02 -2.617897188403192e+02 -2.617897188407265e+02 -5.962708794734750e-10 -1.949685266655187e-10 3.363464870723905e-10
-6.104116836915107e+02 -2.616643105557130e+02 -2.616643105558105e+02 5.582875855403507e-10 1.704766633228800e-10 3.716175696122584e-10
-6.104116836901951e+02 -2.616643105540341e+02 -2.616643105542379e+02 6.061535665649620e-10 3.619316368032680e-11 -2.758763471826375e-10
-6.104116836911460e+02 -2.616643105553721e+02 -2.616643105552999e+02 2.895614723406628e-10 1.019051216555010e-11 9.846243740754506e-11
-6.104116836909783e+02 -2.616643105545678e+02 -2.616643105552756e+02 -7.566295321632420e-11 4.610879211333672e-11 2.300431158536908e-10
-6.107041703434668e+02 -2.617897188406824e+02 -2.617897188408605e+02 3.010988130698640e-10 3.747770270933110e-10 -3.809506142491527e-10
-6.107041703443354e+02 -2.617897188419239e+02 -2.617897188417571e+02 -3.552743183102140e-10 9.781657617672524e-11 1.356831933927468e-10
-6.107041703441448e+02 -2.617897188419171e+02 -2.617897188422028e+02 -8.084051640382293e-11 -5.465574163671205e-11 9.332448506296981e-11
-6.107041703445727e+02 -2.617897188411098e+02 -2.617897188414108e+02 -2.799652772571558e-10 -2.387265360540894e-10 7.864906996758292e-10
-6.104116836902922e+02 -2.616643105542676e+02 -2.616643105530317e+02 2.430410958427045e-11 -1.354703878328166e-10 4.363854421047042e-10
-6.104116836916688e+02 -2.616643105563712e+02 -2.616643105557434e+02 1.513781692846420e-10 1.355431246409778e-10 -8.989593081594401e-11
-6.104116836912634e+02 -2.616643105550783e+02 -2.616643105552322e+02 -8.188834139625354e-11 5.182356284117676e-11 -2.145280200046997e-10
-6.104116836920491e+02 -2.616643105550993e+02 -2.616643105558260e+02 8.451632763578024e-11 4.701044985192218e-10 -4.759253837610467e-11
-6.107041703443354e+02 -2.617897188419239e+02 -2.617897188417571e+02 -3.552743183102140e-10 9.781657617672524e-11 1.356831933927468e-10
-6.107041703423399e+02 -2.617897188403192e+02 -2.617897188407265e+02 -5.962708794734750e-10 -1.949685266655187e-10 3.363464870723905e-10
-6.107041703435741e+02 -2.617897188409110e+02 -2.617897188410471e+02 1.333963280938450e-10 -3.084964533467917e-11 -3.325723671030693e-11
-6.107041703441448e+02 -2.617897188419171e+02 -2.617897188422028e+02 -8.084051640382293e-11 -5.465574163671205e-11 9.332448506296981e-11
-6.104116836916688e+02 -2.616643105563712e+02 -2.616643105557434e+02 1.513781692846420e-10 1.355431246409778e-10 -8.989593081594401e-11
-6.104116836909783e+02 -2.616643105545678e+02 -2.616643105552756e+02 -7.566295321632420e-11 4.610879211333672e-11 2.300431158536908e-10
-6.104116836917518e+02 -2.616643105555797e+02 -2.616643105559282e+02 1.264192955605615e-10 -4.017180911600926e-10 -1.060119406557079e-10
-6.104116836912634e+02 -2.616643105550783e+02 -2.616643105552322e+02 -8.188834139625354e-11 5.182356284117676e-11 -2.145280200046997e-10
-6.107041703423399e+02 -2.617897188403192e+02 -2.617897188407265e+02 -5.962708794734750e-10 -1.949685266655187e-10 3.363464870723905e-10
-6.107041703445966e+02 -2.617897188417618e+02 -2.617897188417539e+02 -9.849874677268971e-11 6.246394719521126e-11 -1.372741770277427e-10
-6.107041703425991e+02 -2.617897188411364e+02 -2.617897188413842e+02 3.139718536313456e-10 -1.770207266729670e-11 1.815579890751990e-10
-6.107041703435741e+02 -2.617897188409110e+02 -2.617897188410471e+02 1.333963280938450e-10 -3.084964533467917e-11 -3.325723671030693e-11
-6.104116836909783e+02 -2.616643105545678e+02 -2.616643105552756e+02 -7.566295321632420e-11 4.610879211333672e-11 2.300431158536908e-10
-6.104116836911460e+02 -2.616643105553721e+02 -2.616643105552999e+02 2.895614723406628e-10 1.019051216555010e-11 9.846243740754506e-11
-6.104116836918606e+02 -2.616643105557853e+02 -2.616643105555498e+02 1.847443228095328e-10 -1.751658137254933e-10 1.116724372494239e-10
-6.104116836917518e+02 -2.616643105555797e+02 -2.616643105559282e+02 1.264192955605615e-10 -4.017180911600926e-10 -1.060119406557079e-10
-6.107041703445727e+02 -2.617897188411098e+02 -2.617897188414108e+02 -2.799652772571558e-10 -2.387265360540894e-10 7.864906996758292e-10
-6.107041703441448e+02 -2.617897188419171e+02 -2.617897188422028e+02 -8.084051640382293e-11 -5.465574163671205e-11 9.332448506296981e-11
-6.107041703443338e+02 -2.617897188416863e+02 -2.617897188414753e+02 7.687518598373636e-11 -2.531591213650581e-10 3.802722703061952e-11
-6.107041703440649e+02 -2.617897188419059e+02 -2.617897188415333e+02 -3.419924038564270e-10 7.340830776627667e-11 -1.175482042362285e-10
-6.104116836920491e+02 -2.616643105550993e+02 -2.616643105558260e+02 8.451632763578024e-11 4.701044985192218e-10 -4.759253837610467e-11
-6.104116836912634e+02 -2.616643105550783e+02 -2.616643105552322e+02 -8.188834139625354e-11 5.182356284117676e-11 -2.145280200046997e-10
-6.104116836911430e+02 -2.616643105552046e+02 -2.616643105550011e+02 -1.064625271109680e-10 -1.363538208850286e-10 3.769265448653506e-11
-6.104116836911267e+02 -2.616643105545544e+02 -2.616643105546942e+02 -2.718398422200194e-11 -8.997969296808841e-11 3.422266894453224e-10
-6.107041703441448e+02 -2.617897188419171e+02 -2.617897188422028e+02 -8.084051640382293e-11 -5.465574163671205e-11 9.332448506296981e-11
-6.107041703435741e+02 -2.617897188409110e+02 -2.617897188410471e+02 1.333963280938450e-10 -3.084964533467917e-11 -3.325723671030693e-11
-6.107041703441513e+02 -2.617897188413997e+02 -2.617897188416171e+02 1.235348304137480e-10 6.553592916685565e-11 -5.357417914880377e-11
-6.107041703443338e+02 -2.617897188416863e+02 -2.617897188414753e+02 7.687518598373636e-11 -2.531591213650581e-10 3.802722703061952e-11
-6.104116836912634e+02 -2.616643105550783e+02 -2.616643105552322e+02 -8.188834139625354e-11 5.182356284117676e-11 -2.145280200046997e-10
-6.104116836917518e+02 -2.616643105555797e+02 -2.616643105559282e+02 1.264192955605615e-10 -4.017180911600926e-10 -1.060119406557079e-10
-6.104116836915446e+02 -2.616643105551009e+02 -2.616643105553098e+02 1.661476698929693e-10 5.085323316052207e-12 2.848630153243094e-10
-6.104116836911430e+02 -2.616643105552046e+02 -2.616643105550011e+02 -1.064625271109680e-10 -1.363538208850286e-10 3.769265448653506e-11
-6.107041703435741e+02 -2.617897188409110e+02 -2.617897188410471e+02 1.333963280938450e-10 -3.084964533467917e-11 -3.325723671030693e-11
-6.107041703425991e+02 -2.617897188411364e+02 -2.617897188413842e+02 3.139718536313456e-10 -1.770207266729670e-11 1.815579890751990e-10
-6.107041703445701e+02 -2.617897188418698e+02 -2.617897188424420e+02 -1.436573729470749e-10 -1.188858626721297e-10 1.721153918497763e-10
-6.107041703441513e+02 -2.617897188413997e+02 -2.617897188416171e+02 1.235348304137480e-10 6.553592916685565e-11 -5.357417914880377e-11
-6.104116836917518e+02 -2.616643105555797e+02 -2.616643105559282e+02 1.264192955605615e-10 -4.017180911600926e-10 -1.060119406557079e-10
-6.104116836918606e+02 -2.616643105557853e+02 -2.616643105555498e+02 1.847443228095328e-10 -1.751658137254933e-10 1.116724372494239e-10
-6.104116836910327e+02 -2.616643105553039e+02 -2.616643105549715e+02 -1.026676990894511e-10 -2.684131526691474e-10 -9.831381721762535e-11
-6.104116836915446e+02 -2.616643105551009e+02 -2.616643105553098e+02 1.661476698929693e-10 5.085323316052207e-12 2.848630153243094e-10
-6.107041703440649e+02 -2.617897188419059e+02 -2.617897188415333e+02 -3.419924038564270e-10 7.340830776627667e-11 -1.175482042362285e-10
-6.107041703443338e+02 -2.617897188416863e+02 -2.617897188414753e+02 7.687518598373636e-11 -2.531591213650581e-10 3.802722703061952e-11
-6.107041703439222e+02 -2.617897188420669e+02 -2.617897188420172e+02 -1.155673813893065e-10 6.593357974635110e-11 -3.174137836272104e-10
-6.107041703460420e+02 -2.617897188425788e+02 -2.617897188431716e+02 -1.272460409115904e-10 -3.095069438161308e-10 3.799061125003825e-10
-6.104116836911267e+02 -2.616643105545544e+02 -2.616643105546942e+02 -2.718398422200194e-11 -8.997969296808841e-11 3.422266894453224e-10
-6.104116836911430e+02 -2.616643105552046e+02 -2.616643105550011e+02 -1.064625271109680e-10 -1.363538208850286e-10 3.769265448653506e-11
-6.104116836912509e+02 -2.616643105552446e+02 -2.616643105552910e+02 -1.492303589866503e-10 -3.889936272568995e-11 -1.045536657536336e-10
-6.104116836907292e+02 -2.616643105548059e+02 -2.616643105550231e+02 -9.346117805745705e-11 -5.844643632063607e-11 4.255241861900126e-10
-6.107041703443338e+02 -2.617897188416863e+02 -2.617897188414753e+02 7.687518598373636e-11 -2.531591213650581e-10 3.802722703061952e-11
-6.107041703441513e+02 -2.617897188413997e+02 -2.617897188416171e+02 1.235348304137480e-10 6.553592916685565e-11 -5.357417914880377e-11
-6.107041703450884e+02 -2.617897188418335e+02 -2.617897188413756e+02 -1.144383882626836e-10 -5.105874727713225e-12 2.520635373162354e-12
-6.107041703439222e+02 -2.617897188420669e+02 -2.617897188420172e+02 -1.155673813893065e-10 6.593357974635110e-11 -3.174137836272104e-10
-6.104116836911430e+02 -2.616643105552046e+02 -2.616643105550011e+02 -1.064625271109680e-10 -1.363538208850286e-10 3.769265448653506e-11
-6.104116836915446e+02 -2.616643105551009e+02 -2.616643105553098e+02 1.661476698929693e-10 5.085323316052207e-12 2.848630153243094e-10
-6.104116836912441e+02 -2.616643105546613e+02 -2.616643105549609e+02 -1.287405816090995e-11 1.608683043164273e-10 -1.208587263167308e-10
-6.104116836912509e+02 -2.616643105552446e+02 -2.616643105552910e+02 -1.492303589866503e-10 -3.889936272568995e-11 -1.045536657536336e-10
-6.107041703441513e+02 -2.617897188413997e+02 -2.617897188416171e+02 1.235348304137480e-10 6.553592916685565e-11 -5.357417914880377e-11
-6.107041703445701e+02 -2.617897188418698e+02 -2.617897188424420e+02 -1.436573729470749e-10 -1.188858626721297e-10 1.721153918497763e-10
-6.107041703430825e+02 -2.617897188407400e+02 -2.617897188401431e+02 -3.395138490618520e-10 -1.009780562403817e-10 -2.440320152630418e-10
-6.107041703450884e+02 -2.617897188418335e+02 -2.617897188413756e+02 -1.144383882626836e-10 -5.105874727713225e-12 2.520635373162354e-12
-6.104116836915446e+02 -2.616643105551009e+02 -2.616643105553098e+02 1.661476698929693e-10 5.085323316052207e-12 2.848630153243094e-10
-6.104116836910327e+02 -2.616643105553039e+02 -2.616643105549715e+02 -1.026676990894511e-10 -2.684131526691474e-10 -9.831381721762535e-11
-6.104116836911617e+02 -2.616643105554123e+02 -2.616643105554489e+02 -8.741540445326179e-11 -1.287143824212672e-11 1.882844355245566e-10
-6.104116836912441e+02 -2.616643105546613e+02 -2.616643105549609e+02 -1.287405816090995e-11 1.608683043164273e-10 -1.208587263167308e-10
-6.107041703460420e+02 -2.617897188425788e+02 -2.617897188431716e+02 -1.272460409115904e-10 -3.095069438161308e-10 3.799061125003825e-10
-6.107041703439222e+02 -2.617897188420669e+02 -2.617897188420172e+02 -1.155673813893065e-10 6.593357974635110e-11 -3.174137836272104e-10
-6.107041703445600e+02 -2.617897188409271e+02 -2.617897188417313e+02 -1.392732220105976e-10 -1.763658681758590e-10 2.760428718683058e-10
-6.107041703446515e+02 -2.617897188412843e+02 -2.617897188404822e+02 6.715691588127032e-10 4.487415155540410e-10 1.116329105351847e-10
-6.104116836907292e+02 -2.616643105548059e+02 -2.616643105550231e+02 -9.346117805745705e-11 -5.844643632063607e-11 4.255241861900126e-10
-6.104116836912509e+02 -2.616643105552446e+02 -2.616643105552910e+02 -1.492303589866503e-10 -3.889936272568995e-11 -1.045536657536336e-10
-6.104116836909360e+02 -2.616643105545223e+02 -2.616643105545961e+02 1.502342417092155e-10 1.331504785383728e-10 -3.095727065281112e-10
-6.104116836908452e+02 -2.616643105538043e+02 -2.616643105543076e+02 2.402534350517647e-10 -1.550550450813667e-10 -6.418778380851445e-11
-6.107041703439222e+02 -2.617897188420669e+02 -2.617897188420172e+02 -1.155673813893065e-10 6.593357974635110e-11 -3.174137836272104e-10
-6.107041703450884e+02 -2.617897188418335e+02 -2.617897188413756e+02 -1.144383882626836e-10 -5.105874727713225e-12 2.520635373162354e-12
-6.107041703429886e+02 -2.617897188418555e+02 -2.617897188415989e+02 -2.891489125597607e-10 -1.442311427154354e-10 -2.346592286038615e-11
-6.107041703445600e+02 -2.617897188409271e+02 -2.617897188417313e+02 -1.392732220105976e-10 -1.763658681758590e-10 2.760428718683058e-10
-6.104116836912509e+02 -2.616643105552446e+02 -2.616643105552910e+02 -1.492303589866503e-10 -3.889936272568995e-11 -1.045536657536336e-10
-6.104116836912441e+02 -2.616643105546613e+02 -2.616643105549609e+02 -1.287405816090995e-11 1.608683043164273e-10 -1.208587263167308e-10
-6.104116836899361e+02 -2.616643105547377e+02 -2.616643105541868e+02 -3.869778118370281e-11 4.765135079626434e-11 9.531915692840634e-11
-6.104116836909360e+02 -2.616643105545223e+02 -2.616643105545961e+02 1.502342417092155e-10 1.331504785383728e-10 -3.095727065281112e-10
-6.107041703450884e+02 -2.617897188418335e+02 -2.617897188413756e+02 -1.144383882626836e-10 -5.105874727713225e-12 2.520635373162354e-12
-6.107041703430825e+02 -2.617897188407400e+02 -2.617897188401431e+02 -3.395138490618520e-10 -1.009780562403817e-10 -2.440320152630418e-10
-6.107041703441597e+02 -2.617897188422602e+02 -2.617897188417663e+02 4.670053865754029e-10 2.117541938403179e-10 -2.011835635331741e-10
-6.107041703429886e+02 -2.617897188418555e+02 -2.617897188415989e+02 -2.891489125597607e-10 -1.442311427154354e-10 -2.346592286038615e-11
-6.104116836912441e+02 -2.616643105546613e+02 -2.616643105549609e+02 -1.287405816090995e-11 1.608683043164273e-10 -1.208587263167308e-10
-6.104116836911617e+02 -2.616643105554123e+02 -2.616643105554489e+02 -8.741540445326179e-11 -1.287143824212672e-11 1.882844355245566e-10
-6.104116836919457e+02 -2.616643105549708e+02 -2.616643105552835e+02 4.846483634476286e-10 -5.313606687846084e-12 -2.375888142676621e-10
-6.104116836899361e+02 -2.616643105547377e+02 -2.616643105541868e+02 -3.869778118370281e-11 4.765135079626434e-11 9.531915692840634e-11
-6.104116836918247e+02 -2.616643105574425e+02 -2.616643105564061e+02 1.137776470866784e-09 2.758937947378793e-10 -6.759085038775775e-10
-6.104116836903167e+02 -2.616643105528624e+02 -2.616643105541873e+02 -3.612982714703450e-10 -3.505996677115592e-11 1.189473314731896e-10
-6.104116836916688e+02 -2.616643105563712e+02 -2.616643105557434e+02 1.513781692846420e-10 1.355431246409778e-10 -8.989593081594401e-11
-6.104116836902922e+02 -2.616643105542676e+02 -2.616643105530317e+02 2.430410958427045e-11 -1.354703878328166e-10 4.363854421047042e-10
-6.111432657490961e+02 -2.619779880090962e+02 -2.619779880104543e+02 1.341355968606237e-10 1.852091138676326e-10 3.867236789081286e-11
-6.111432657497210e+02 -2.619779880097591e+02 -2.619779880104458e+02 7.166807842631961e-11 -1.912512420750001e-10 2.967982319738117e-10
-6.111432657499505e+02 -2.619779880105156e+02 -2.619779880110328e+02 -2.728988508496102e-10 -3.398063069808273e-11 1.759460881253490e-11
-6.111432657495488e+02 -2.619779880111196e+02 -2.619779880103430e+02 -5.764096725209873e-10 -2.753591395629624e-10 1.879229593694949e-10
-6.104116836903167e+02 -2.616643105528624e+02 -2.616643105541873e+02 -3.612982714703450e-10 -3.505996677115592e-11 1.189473314731896e-10
-6.104116836915107e+02 -2.616643105557130e+02 -2.616643105558105e+02 5.582875855403507e-10 1.704766633228800e-10 3.716175696122584e-10
-6.104116836909783e+02 -2.616643105545678e+02 -2.616643105552756e+02 -7.566295321632420e-11 4.610879211333672e-11 2.300431158536908e-10
-6.104116836916688e+02 -2.616643105563712e+02 -2.616643105557434e+02 1.513781692846420e-10 1.355431246409778e-10 -8.989593081594401e-11
-6.111432657497210e+02 -2.619779880097591e+02 -2.619779880104458e+02 7.166807842631961e-11 -1.912512420750001e-10 2.967982319738117e-10
-6.111432657496453e+02 -2.619779880112025e+02 -2.619779880107746e+02 5.651443346641165e-10 2.706991655254047e-11 1.115680976969259e-10
-6.111432657490991e+02 -2.619779880109785e+02 -2.619779880107532e+02 -3.818714969096781e-10 -2.109838456115543e-10 -2.679017009490627e-11
-6.111432657499505e+02 -2.619779880105156e+02 -2.619779880110328e+02 -2.728988508496102e-10 -3.398063069808273e-11 1.759460881253490e-11
-6.104116836915107e+02 -2.616643105557130e+02 -2.616643105558105e+02 5.582875855403507e-10 1.704766633228800e-10 3.716175696122584e-10
-6.104116836901951e+02 -2.616643105540341e+02 -2.616643105542379e+02 6.061535665649620e-10 3.619316368032680e-11 -2.758763471826375e-10
-6.104116836911460e+02 -2.616643105553721e+02 -2.616643105552999e+02 2.895614723406628e-10 1.019051216555010e-11 9.846243740754506e-11
-6.104116836909783e+02 -2.616643105545678e+02 -2.616643105552756e+02 -7.566295321632420e-11 4.610879211333672e-11 2.300431158536908e-10
-6.111432657496453e+02 -2.619779880112025e+02 -2.619779880107746e+02 5.651443346641165e-10 2.706991655254047e-11 1.115680976969259e-10
-6.111432657493636e+02 -2.619779880099325e+02 -2.619779880104883e+02 2.288564225276002e-10 -2.965523418389083e-11 1.484380578222735e-10
-6.111432657478917e+02 -2.619779880090666e+02 -2.619779880092722e+02 -2.285466856945483e-10 6.582288626507412e-11 2.042833479731855e-10
-6.111432657490991e+02 -2.619779880109785e+02 -2.619779880107532e+02 -3.818714969096781e-10 -2.109838456115543e-10 -2.679017009490627e-11
-6.104116836902922e+02 -2.616643105542676e+02 -2.616643105530317e+02 2.430410958427045e-11 -1.354703878328166e-10 4.363854421047042e-10
-6.104116836916688e+02 -2.616643105563712e+02 -2.616643105557434e+02 1.513781692846420e-10 1.355431246409778e-10 -8.989593081594401e-11
-6.104116836912634e+02 -2.616643105550783e+02 -2.616643105552322e+02 -8.188834139625354e-11 5.182356284117676e-11 -2.145280200046997e-10
-6.104116836920491e+02 -2.616643105550993e+02 -2.616643105558260e+02 8.451632763578024e-11 4.701044985192218e-10 -4.759253837610467e-11
-6.111432657495488e+02 -2.619779880111196e+02 -2.619779880103430e+02 -5.764096725209873e-10 -2.753591395629624e-10 1.879229593694949e-10
-6.111432657499505e+02 -2.619779880105156e+02 -2.619779880110328e+02 -2.728988508496102e-10 -3.398063069808273e-11 1.759460881253490e-11
-6.111432657494345e+02 -2.619779880103185e+02 -2.619779880104543e+02 -6.867632435795539e-11 -1.409181289141615e-10 -7.043328243051869e-11
-6.111432657511245e+02 -2.619779880118851e+02 -2.619779880115207e+02 5.668024740627959e-11 4.418389720059033e-13 5.254181025295136e-10
-6.104116836916688e+02 -2.616643105563712e+02 -2.616643105557434e+02 1.513781692846420e-10 1.355431246409778e-10 -8.989593081594401e-11
-6.104116836909783e+02 -2.616643105545678e+02 -2.616643105552756e+02 -7.566295321632420e-11 4.610879211333672e-11 2.300431158536908e-10
-6.104116836917518e+02 -2.616643105555797e+02 -2.616643105559282e+02 1.264192955605615e-10 -4.017180911600926e-10 -1.060119406557079e-10
-6.104116836912634e+02 -2.616643105550783e+02 -2.616643105552322e+02 -8.188834139625354e-11 5.182356284117676e-11 -2.145280200046997e-10
-6.111432657499505e+02 -2.619779880105156e+02 -2.619779880110328e+02 -2.728988508496102e-10 -3.398063069808273e-11 1.759460881253490e-11
-6.111432657490991e+02 -2.619779880109785e+02 -2.619779880107532e+02 -3.818714969096781e-10 -2.109838456115543e-10 -2.679017009490627e-11
-6.111432657494752e+02 -2.619779880108627e+02 -2.619779880113314e+02 4.396045629083393e-12 -6.686039552959184e-11 -3.289293888024455e-10
-6.111432657494345e+02 -2.619779880103185e+02 -2.619779880104543e+02 -6.867632435795539e-11 -1.409181289141615e-10 -7.043328243051869e-11
-6.104116836909783e+02 -2.616643105545678e+02 -2.616643105552756e+02 -7.566295321632420e-11 4.610879211333672e-11 2.300431158536908e-10
-6.104116836911460e+02 -2.616643105553721e+02 -2.616643105552999e+02 2.895614723406628e-10 1.019051216555010e-11 9.846243740754506e-11
-6.104116836918606e+02 -2.616643105557853e+02 -2.616643105555498e+02 1.847443228095328e-10 -1.751658137254933e-10 1.116724372494239e-10
-6.104116836917518e+02 -2.616643105555797e+02 -2.616643105559282e+02 1.264192955605615e-10 -4.017180911600926e-10 -1.060119406557079e-10
-6.111432657490991e+02 -2.619779880109785e+02 -2.619779880107532e+02 -3.818714969096781e-10 -2.109838456115543e-10 -2.679017009490627e-11
-6.111432657478917e+02 -2.619779880090666e+02 -2.619779880092722e+02 -2.285466856945483e-10 6.582288626507412e-11 2.042833479731855e-10
-6.111432657507768e+02 -2.619779880116633e+02 -2.619779880117434e+02 -3.990131783374064e-11 -2.673701198300203e-11 -1.936952775853527e-10
-6.111432657494752e+02 -2.619779880108627e+02 -2.619779880113314e+02 4.396045629083393e-12 -6.686039552959184e-11 -3.289293888024455e-10
-6.104116836920491e+02 -2.616643105550993e+02 -2.616643105558260e+02 8.451632763578024e-11 4.701044985192218e-10 -4.759253837610467e-11
-6.104116836912634e+02 -2.616643105550783e+02 -2.616643105552322e+02 -8.188834139625354e-11 5.182356284117676e-11 -2.145280200046997e-10
-6.104116836911430e+02 -2.616643105552046e+02 -2.616643105550011e+02 -1.064625271109680e-10 -1.363538208850286e-10 3.769265448653506e-11
-6.104116836911267e+02 -2.616643105545544e+02 -2.616643105546942e+02 -2.718398422200194e-11 -8.997969296808841e-11 3.422266894453224e-10
-6.111432657511245e+02 -2.619779880118851e+02 -2.619779880115207e+02 5.668024740627959e-11 4.418389720059033e-13 5.254181025295136e-10
-6.111432657494345e+02 -2.619779880103185e+02 -2.619779880104543e+02 -6.867632435795539e-11 -1.409181289141615e-10 -7.043328243051869e-11
-6.111432657501099e+02 -2.619779880106729e+02 -2.619779880108778e+02 3.741277370991590e-10 -3.354435515042778e-11 2.192128324930186e-11
-6.111432657484697e+02 -2.619779880099675e+02 -2.619779880097287e+02 -1.072398062746327e-10 -4.890197914877679e-11 5.786454244315980e-11
-6.104116836912634e+02 -2.616643105550783e+02 -2.616643105552322e+02 -8.188834139625354e-11 5.182356284117676e-11 -2.145280200046997e-10
-6.104116836917518e+02 -2.616643105555797e+02 -2.616643105559282e+02 1.264192955605615e-10 -4.017180911600926e-10 -1.060119406557079e-10
-6.104116836915446e+02 -2.616643105551009e+02 -2.616643105553098e+02 1.661476698929693e-10 5.085323316052207e-12 2.848630153243094e-10
-6.104116836911430e+02 -2.616643105552046e+02 -2.616643105550011e+02 -1.064625271109680e-10 -1.363538208850286e-10 3.769265448653506e-11
-6.111432657494345e+02 -2.619779880103185e+02 -2.619779880104543e+02 -6.867632435795539e-11 -1.409181289141615e-10 -7.043328243051869e-11
-6.111432657494752e+02 -2.619779880108627e+02 -2.619779880113314e+02 4.396045629083393e-12 -6.686039552959184e-11 -3.289293888024455e-10
-6.111432657492965e+02 -2.619779880109730e+02 -2.619779880104004e+02 -1.764023350024973e-10 -6.451196050591270e-11 -6.797757133113442e-11
-6.111432657501099e+02 -2.619779880106729e+02 -2.619779880108778e+02 3.741277370991590e-10 -3.354435515042778e-11 2.192128324930186e-11
-6.104116836917518e+02 -2.616643105555797e+02 -2.616643105559282e+02 1.264192955605615e-10 -4.017180911600926e-10 -1.060119406557079e-10
-6.104116836918606e+02 -2.616643105557853e+02 -2.616643105555498e+02 1.847443228095328e-10 -1.751658137254933e-10 1.116724372494239e-10
-6.104116836910327e+02 -2.616643105553039e+02 -2.616643105549715e+02 -1.026676990894511e-10 -2.684131526691474e-10 -9.831381721762535e-11
-6.104116836915446e+02 -2.616643105551009e+02 -2.616643105553098e+02 1.661476698929693e-10 5.085323316052207e-12 2.848630153243094e-10
-6.111432657494752e+02 -2.619779880108627e+02 -2.619779880113314e+02 4.396045629083393e-12 -6.686039552959184e-11 -3.289293888024455e-10
-6.111432657507768e+02 -2.619779880116633e+02 -2.619779880117434e+02 -3.990131783374064e-11 -2.673701198300203e-11 -1.936952775853527e-10
-6.111432657486313e+02 -2.619779880100535e+02 -2.619779880100160e+02 1.833935655482357e-11 1.901516675142853e-11 -2.098708150495975e-10
-6.111432657492965e+02 -2.619779880109730e+02 -2.619779880104004e+02 -1.764023350024973e-10 -6.451196050591270e-11 -6.797757133113442e-11
-6.104116836911267e+02 -2.616643105545544e+02 -2.616643105546942e+02 -2.718398422200194e-11 -8.997969296808841e-11 3.422266894453224e-10
-6.104116836911430e+02 -2.616643105552046e+02 -2.616643105550011e+02 -1.064625271109680e-10 -1.363538208850286e-10 3.769265448653506e-11
-6.104116836912509e+02 -2.616643105552446e+02 -2.616643105552910e+02 -1.492303589866503e-10 -3.889936272568995e-11 -1.045536657536336e-10
-6.104116836907292e+02 -2.616643105548059e+02 -2.616643105550231e+02 -9.346117805745705e-11 -5.844643632063607e-11 4.255241861900126e-10
-6.111432657484697e+02 -2.619779880099675e+02 -2.619779880097287e+02 -1.072398062746327e-10 -4.890197914877679e-11 5.786454244315980e-11
-6.111432657501099e+02 -2.619779880106729e+02 -2.619779880108778e+02 3.741277370991590e-10 -3.354435515042778e-11 2.192128324930186e-11
-6.111432657493363e+02 -2.619779880105099e+02 -2.619779880101846e+02 -2.606319257156932e-10 -5.256898036091450e-11 -1.831332435341862e-10
-6.111432657493694e+02 -2.619779880103403e+02 -2.619779880105713e+02 6.223800468190673e-11 -8.701768670670422e-11 1.212602162540908e-10
-6.104116836911430e+02 -2.616643105552046e+02 -2.616643105550011e+02 -1.064625271109680e-10 -1.363538208850286e-10 3.769265448653506e-11
-6.104116836915446e+02 -2.616643105551009e+02 -2.616643105553098e+02 1.661476698929693e-10 5.085323316052207e-12 2.848630153243094e-10
-6.104116836912441e+02 -2.616643105546613e+02 -2.616643105549609e+02 -1.287405816090995e-11 1.608683043164273e-10 -1.208587263167308e-10
-6.104116836912509e+02 -2.616643105552446e+02 -2.616643105552910e+02 -1.492303589866503e-10 -3.889936272568995e-11 -1.045536657536336e-10
-6.111432657501099e+02 -2.619779880106729e+02 -2.619779880108778e+02 3.741277370991590e-10 -3.354435515042778e-11 2.192128324930186e-11
-6.111432657492965e+02 -2.619779880109730e+02 -2.619779880104004e+02 -1.764023350024973e-10 -6.451196050591270e-11 -6.797757133113442e-11
-6.111432657491193e+02 -2.619779880109497e+02 -2.619779880104384e+02 1.037014550569556e-10 -1.223652085467173e-10 -6.904039042653352e-11
-6.111432657493363e+02 -2.619779880105099e+02 -2.619779880101846e+02 -2.606319257156932e-10 -5.256898036091450e-11 -1.831332435341862e-10
-6.104116836915446e+02 -2.616643105551009e+02 -2.616643105553098e+02 1.661476698929693e-10 5.085323316052207e-12 2.848630153243094e-10
-6.104116836910327e+02 -2.616643105553039e+02 -2.616643105549715e+02 -1.026676990894511e-10 -2.684131526691474e-10 -9.831381721762535e-11
-6.104116836911617e+02 -2.616643105554123e+02 -2.616643105554489e+02 -8.741540445326179e-11 -1.287143824212672e-11 1.882844355245566e-10
-6.104116836912441e+02 -2.616643105546613e+02 -2.616643105549609e+02 -1.287405816090995e-11 1.608683043164273e-10 -1.208587263167308e-10
-6.111432657492965e+02 -2.619779880109730e+02 -2.619779880104004e+02 -1.764023350024973e-10 -6.451196050591270e-11 -6.797757133113442e-11
-6.111432657486313e+02 -2.619779880100535e+02 -2.619779880100160e+02 1.833935655482357e-11 1.901516675142853e-11 -2.098708150495975e-10
-6.111432657497187e+02 -2.619779880109154e+02 -2.619779880115528e+02 -1.368171684203541e-10 1.761501676422364e-11 -8.961122786863360e-11
-6.111432657491193e+02 -2.619779880109497e+02 -2.619779880104384e+02 1.037014550569556e-10 -1.223652085467173e-10 -6.904039042653352e-11
-6.104116836907292e+02 -2.616643105548059e+02 -2.616643105550231e+02 -9.346117805745705e-11 -5.844643632063607e-11 4.255241861900126e-10
-6.104116836912509e+02 -2.616643105552446e+02 -2.616643105552910e+02 -1.492303589866503e-10 -3.889936272568995e-11 -1.045536657536336e-10
-6.104116836909360e+02 -2.616643105545223e+02 -2.616643105545961e+02 1.502342417092155e-10 1.331504785383728e-10 -3.095727065281112e-10
-6.104116836908452e+02 -2.616643105538043e+02 -2.616643105543076e+02 2.402534350517647e-10 -1.550550450813667e-10 -6.418778380851445e-11
-6.111432657493694e+02 -2.619779880103403e+02 -2.619779880105713e+02 6.223800468190673e-11 -8.701768670670422e-11 1.212602162540908e-10
-6.111432657493363e+02 -2.619779880105099e+02 -2.619779880101846e+02 -2.606319257156932e-10 -5.256898036091450e-11 -1.831332435341862e-10
-6.111432657500479e+02 -2.619779880113355e+02 -2.619779880110970e+02 1.011741325864492e-10 -2.502538768211868e-10 -1.299016925224589e-10
-6.111432657490719e+02 -2.619779880098080e+02 -2.619779880104568e+02 -3.127733527429636e-11 1.842971410730294e-10 2.406611730841232e-10
-6.104116836912509e+02 -2.616643105552446e+02 -2.616643105552910e+02 -1.492303589866503e-10 -3.889936272568995e-11 -1.045536657536336e-10
-6.104116836912441e+02 -2.616643105546613e+02 -2.616643105549609e+02 -1.287405816090995e-11 1.608683043164273e-10 -1.208587263167308e-10
-6.104116836899361e+02 -2.616643105547377e+02 -2.616643105541868e+02 -3.869778118370281e-11 4.765135079626434e-11 9.531915692840634e-11
-6.104116836909360e+02 -2.616643105545223e+02 -2.616643105545961e+02 1.502342417092155e-10 1.331504785383728e-10 -3.095727065281112e-10
-6.111432657493363e+02 -2.619779880105099e+02 -2.619779880101846e+02 -2.606319257156932e-10 -5.256898036091450e-11 -1.831332435341862e-10
-6.111432657491193e+02 -2.619779880109497e+02 -2.619779880104384e+02 1.037014550569556e-10 -1.223652085467173e-10 -6.904039042653352e-11
-6.111432657500097e+02 -2.619779880111001e+02 -2.619779880112117e+02 -1.096037436000614e-10 1.292649247974844e-10 -1.200221873863813e-10
-6.111432657500479e+02 -2.619779880113355e+02 -2.619779880110970e+02 1.011741325864492e-10 -2.502538768211868e-10 -1.299016925224589e-10
-6.104116836912441e+02 -2.616643105546613e+02 -2.616643105549609e+02 -1.287405816090995e-11 1.608683043164273e-10 -1.208587263167308e-10
-6.104116836911617e+02 -2.616643105554123e+02 -2.616643105554489e+02 -8.741540445326179e-11 -1.287143824212672e-11 1.882844355245566e-10
-6.104116836919457e+02 -2.616643105549708e+02 -2.616643105552835e+02 4.846483634476286e-10 -5.313606687846084e-12 -2.375888142676621e-10
-6.104116836899361e+02 -2.616643105547377e+02 -2.616643105541868e+02 -3.869778118370281e-11 4.765135079626434e-11 9.531915692840634e-11
-6.111432657491193e+02 -2.619779880109497e+02 -2.619779880104384e+02 1.037014550569556e-10 -1.223652085467173e-10 -6.904039042653352e-11
-6.111432657497187e+02 -2.619779880109154e+02 -2.619779880115528e+02 -1.368171684203541e-10 1.761501676422364e-11 -8.961122786863360e-11
-6.111432657502696e+02 -2.619779880119702e+02 -2.619779880112344e+02 3.027805639294468e-10 1.386147296942677e-10 -8.039599194856803e-11
-6.111432657500097e+02 -2.619779880111001e+02 -2.619779880112117e+02 -1.096037436000614e-10 1.292649247974844e-10 -1.200221873863813e-10
-6.111432657490961e+02 -2.619779880090962e+02 -2.619779880104543e+02 1.341355968606237e-10 1.852091138676326e-10 3.867236789081286e-11
-6.111432657497210e+02 -2.619779880097591e+02 -2.619779880104458e+02 7.166807842631961e-11 -1.912512420750001e-10 2.967982319738117e-10
-6.111432657499505e+02 -2.619779880105156e+02 -2.619779880110328e+02 -2.728988508496102e-10 -3.398063069808273e-11 1.759460881253490e-11
-6.111432657495488e+02 -2.619779880111196e+02 -2.619779880103430e+02 -5.764096725209873e-10 -2.753591395629624e-10 1.879229593694949e-10
-6.129302362202816e+02 -2.627441807621772e+02 -2.627441807609428e+02 5.169820557444516e-10 -3.449854747718694e-10 -2.271319718794175e-10
-6.129302362202170e+02 -2.627441807612042e+02 -2.627441807613125e+02 6.263635960790038e-11 -1.047966988088837e-10 -1.663833596963744e-10
-6.129302362208888e+02 -2.627441807612932e+02 -2.627441807622644e+02 -1.337484691113118e-10 -2.834905094326547e-10 -5.471656601766404e-11
-6.129302362204414e+02 -2.627441807624656e+02 -2.627441807614814e+02 3.201777840175556e-10 2.578750050320381e-10 4.136460302974542e-13
-6.111432657497210e+02 -2.619779880097591e+02 -2.619779880104458e+02 7.166807842631961e-11 -1.912512420750001e-10 2.967982319738117e-10
-6.111432657496453e+02 -2.619779880112025e+02 -2.619779880107746e+02 5.651443346641165e-10 2.706991655254047e-11 1.115680976969259e-10
-6.111432657490991e+02 -2.619779880109785e+02 -2.619779880107532e+02 -3.818714969096781e-10 -2.109838456115543e-10 -2.679017009490627e-11
-6.111432657499505e+02 -2.619779880105156e+02 -2.619779880110328e+02 -2.728988508496102e-10 -3.398063069808273e-11 1.759460881253490e-11
-6.129302362202170e+02 -2.627441807612042e+02 -2.627441807613125e+02 6.263635960790038e-11 -1.047966988088837e-10 -1.663833596963744e-10
-6.129302362207918e+02 -2.627441807627141e+02 -2.627441807624226e+02 6.056610929303654e-10 2.711524197005654e-10 1.202307091081284e-11
-6.129302362203846e+02 -2.627441807616223e+02 -2.627441807616509e+02 1.708932489676319e-10 6.836313871921945e-11 -1.274935168809006e-10
-6.129302362208888e+02 -2.627441807612932e+02 -2.627441807622644e+02 -1.337484691113118e-10 -2.834905094326547e-10 -5.471656601766404e-11
-6.111432657496453e+02 -2.619779880112025e+02 -2.619779880107746e+02 5.651443346641165e-10 2.706991655254047e-11 1.115680976969259e-10
-6.111432657493636e+02 -2.619779880099325e+02 -2.619779880104883e+02 2.288564225276002e-10 -2.965523418389083e-11 1.484380578222735e-10
-6.111432657478917e+02 -2.619779880090666e+02 -2.619779880092722e+02 -2.285466856945483e-10 6.582288626507412e-11 2.042833479731855e-10
-6.111432657490991e+02 -2.619779880109785e+02 -2.619779880107532e+02 -3.818714969096781e-10 -2.109838456115543e-10 -2.679017009490627e-11
-6.129302362207918e+02 -2.627441807627141e+02 -2.627441807624226e+02 6.056610929303654e-10 2.711524197005654e-10 1.202307091081284e-11
-6.129302362204011e+02 -2.627441807628800e+02 -2.627441807621823e+02 1.049462950630777e-09 3.321878672007127e-10 -1.684593450678152e-10
-6.129302362209633e+02 -2.627441807616242e+02 -2.627441807617809e+02 -3.466018790310958e-10 1.497414138837996e-10 6.039927387803440e-11
-6.129302362203846e+02 -2.627441807616223e+02 -2.627441807616509e+02 1.708932489676319e-10 6.836313871921945e-11 -1.274935168809006e-10
-6.111432657495488e+02 -2.619779880111196e+02 -2.619779880103430e+02 -5.764096725209873e-10 -2.753591395629624e-10 1.879229593694949e-10
-6.111432657499505e+02 -2.619779880105156e+02 -2.619779880110328e+02 -2.728988508496102e-10 -3.398063069808273e-11 1.759460881253490e-11
-6.111432657494345e+02 -2.619779880103185e+02 -2.619779880104543e+02 -6.867632435795539e-11 -1.409181289141615e-10 -7.043328243051869e-11
-6.111432657511245e+02 -2.619779880118851e+02 -2.619779880115207e+02 5.668024740627959e-11 4.418389720059033e-13 5.254181025295136e-10
-6.129302362204414e+02 -2.627441807624656e+02 -2.627441807614814e+02 3.201777840175556e-10 2.578750050320381e-10 4.136460302974542e-13
-6.129302362208888e+02 -2.627441807612932e+02 -2.627441807622644e+02 -1.337484691113118e-10 -2.834905094326547e-10 -5.471656601766404e-11
-6.129302362208875e+02 -2.627441807621835e+02 -2.627441807620961e+02 -1.786280571657289e-10 -1.364095319025659e-10 9.652260037417398e-12
-6.129302362206138e+02 -2.627441807620035e+02 -2.627441807616342e+02 3.731866829147588e-10 8.505498468237260e-11 -3.524471808811191e-10
-6.111432657499505e+02 -2.619779880105156e+02 -2.619779880110328e+02 -2.728988508496102e-10 -3.398063069808273e-11 1.759460881253490e-11
-6.111432657490991e+02 -2.619779880109785e+02 -2.619779880107532e+02 -3.818714969096781e-10 -2.109838456115543e-10 -2.679017009490627e-11
-6.111432657494752e+02 -2.619779880108627e+02 -2.619779880113314e+02 4.396045629083393e-12 -6.686039552959184e-11 -3.289293888024455e-10
-6.111432657494345e+02 -2.619779880103185e+02 -2.619779880104543e+02 -6.867632435795539e-11 -1.409181289141615e-10 -7.043328243051869e-11
-6.129302362208888e+02 -2.627441807612932e+02 -2.627441807622644e+02 -1.337484691113118e-10 -2.834905094326547e-10 -5.471656601766404e-11
-6.129302362203846e+02 -2.627441807616223e+02 -2.627441807616509e+02 1.708932489676319e-10 6.836313871921945e-11 -1.274935168809006e-10
-6.129302362211075e+02 -2.627441807624044e+02 -2.627441807620713e+02 -1.095987805716651e-11 -2.292996398108570e-10 -1.171860780692639e-10
-6.129302362208875e+02 -2.627441807621835e+02 -2.627441807620961e+02 -1.786280571657289e-10 -1.364095319025659e-10 9.652260037417398e-12
-6.111432657490991e+02 -2.619779880109785e+02 -2.619779880107532e+02 -3.818714969096781e-10 -2.109838456115543e-10 -2.679017009490627e-11
-6.111432657478917e+02 -2.619779880090666e+02 -2.619779880092722e+02 -2.285466856945483e-10 6.582288626507412e-11 2.042833479731855e-10
-6.111432657507768e+02 -2.619779880116633e+02 -2.619779880117434e+02 -3.990131783374064e-11 -2.673701198300203e-11 -1.936952775853527e-10
-6.111432657494752e+02 -2.619779880108627e+02 -2.619779880113314e+02 4.396045629083393e-12 -6.686039552959184e-11 -3.289293888024455e-10
-6.129302362203846e+02 -2.627441807616223e+02 -2.627441807616509e+02 1.708932489676319e-10 6.836313871921945e-11 -1.274935168809006e-10
-6.129302362209633e+02 -2.627441807616242e+02 -2.627441807617809e+02 -3.466018790310958e-10 1.497414138837996e-10 6.039927387803440e-11
-6.129302362200041e+02 -2.627441807615430e+02 -2.627441807615266e+02 -1.310955602952296e-10 2.813138437332000e-11 2.428162372640510e-11
-6.129302362211075e+02 -2.627441807624044e+02 -2.627441807620713e+02 -1.095987805716651e-11 -2.292996398108570e-10 -1.171860780692639e-10
-6.111432657511245e+02 -2.619779880118851e+02 -2.619779880115207e+02 5.668024740627959e-11 4.418389720059033e-13 5.254181025295136e-10
-6.111432657494345e+02 -2.619779880103185e+02 -2.619779880104543e+02 -6.867632435795539e-11 -1.409181289141615e-10 -7.043328243051869e-11
-6.111432657501099e+02 -2.619779880106729e+02 -2.619779880108778e+02 3.741277370991590e-10 -3.354435515042778e-11 2.192128324930186e-11
-6.111432657484697e+02 -2.619779880099675e+02 -2.619779880097287e+02 -1.072398062746327e-10 -4.890197914877679e-11 5.786454244315980e-11
-6.129302362206138e+02 -2.627441807620035e+02 -2.627441807616342e+02 3.731866829147588e-10 8.505498468237260e-11 -3.524471808811191e-10
-6.129302362208875e+02 -2.627441807621835e+02 -2.627441807620961e+02 -1.786280571657289e-10 -1.364095319025659e-10 9.652260037417398e-12
-6.129302362210464e+02 -2.627441807622214e+02 -2.627441807623238e+02 1.370992112977894e-10 -2.334793156810931e-10 1.841683688870970e-10
-6.129302362208947e+02 -2.627441807618238e+02 -2.627441807622621e+02 3.360598405769713e-10 2.110635746894871e-11 4.155887909672815e-10
-6.111432657494345e+02 -2.619779880103185e+02 -2.619779880104543e+02 -6.867632435795539e-11 -1.409181289141615e-10 -7.043328243051869e-11
-6.111432657494752e+02 -2.619779880108627e+02 -2.619779880113314e+02 4.396045629083393e-12 -6.686039552959184e-11 -3.289293888024455e-10
-6.111432657492965e+02 -2.619779880109730e+02 -2.619779880104004e+02 -1.764023350024973e-10 -6.451196050591270e-11 -6.797757133113442e-11
-6.111432657501099e+02 -2.619779880106729e+02 -2.619779880108778e+02 3.741277370991590e-10 -3.354435515042778e-11 2.192128324930186e-11
-6.129302362208875e+02 -2.627441807621835e+02 -2.627441807620961e+02 -1.786280571657289e-10 -1.364095319025659e-10 9.652260037417398e-12
-6.129302362211075e+02 -2.627441807624044e+02 -2.627441807620713e+02 -1.095987805716651e-11 -2.292996398108570e-10 -1.171860780692639e-10
-6.129302362199805e+02 -2.627441807617723e+02 -2.627441807619324e+02 1.311831810950690e-11 -6.348355278483148e-11 -1.810556797026809e-10
-6.129302362210464e+02 -2.627441807622214e+02 -2.627441807623238e+02 1.370992112977894e-10 -2.334793156810931e-10 1.841683688870970e-10
-6.111432657494752e+02 -2.619779880108627e+02 -2.619779880113314e+02 4.396045629083393e-12 -6.686039552959184e-11 -3.289293888024455e-10
-6.111432657507768e+02 -2.619779880116633e+02 -2.619779880117434e+02 -3.990131783374064e-11 -2.673701198300203e-11 -1.936952775853527e-10
-6.111432657486313e+02 -2.619779880100535e+02 -2.619779880100160e+02 1.833935655482357e-11 1.901516675142853e-11 -2.098708150495975e-10
-6.111432657492965e+02 -2.619779880109730e+02 -2.619779880104004e+02 -1.764023350024973e-10 -6.451196050591270e-11 -6.797757133113442e-11
-6.129302362211075e+02 -2.627441807624044e+02 -2.627441807620713e+02 -1.095987805716651e-11 -2.292996398108570e-10 -1.171860780692639e-10
-6.129302362200041e+02 -2.627441807615430e+02 -2.627441807615266e+02 -1.310955602952296e-10 2.813138437332000e-11 2.428162372640510e-11
-6.129302362204909e+02 -2.627441807623569e+02 -2.627441807620164e+02 -1.296407690133511e-10 -1.197415136669267e-10 2.870135375735281e-11
-6.129302362199805e+02 -2.627441807617723e+02 -2.627441807619324e+02 1.311831810950690e-11 -6.348355278483148e-11 -1.810556797026809e-10
-6.111432657484697e+02 -2.619779880099675e+02 -2.619779880097287e+02 -1.072398062746327e-10 -4.890197914877679e-11 5.786454244315980e-11
-6.111432657501099e+02 -2.619779880106729e+02 -2.619779880108778e+02 3.741277370991590e-10 -3.354435515042778e-11 2.192128324930186e-11
-6.111432657493363e+02 -2.619779880105099e+02 -2.619779880101846e+02 -2.606319257156932e-10 -5.256898036091450e-11 -1.831332435341862e-10
-6.111432657493694e+02 -2.619779880103403e+02 -2.619779880105713e+02 6.223800468190673e-11 -8.701768670670422e-11 1.212602162540908e-10
-6.129302362208947e+02 -2.627441807618238e+02 -2.627441807622621e+02 3.360598405769713e-10 2.110635746894871e-11 4.155887909672815e-10
-6.129302362210464e+02 -2.627441807622214e+02 -2.627441807623238e+02 1.370992112977894e-10 -2.334793156810931e-10 1.841683688870970e-10
-6.129302362200051e+02 -2.627441807617661e+02 -2.627441807617120e+02 -3.410853947037452e-11 -2.951595664556651e-10 -1.181611445658323e-10
-6.129302362201756e+02 -2.627441807611837e+02 -2.627441807615032e+02 -5.156285127054571e-10 1.166713060710709e-10 4.793370027292379e-10
-6.111432657501099e+02 -2.619779880106729e+02 -2.619779880108778e+02 3.741277370991590e-10 -3.354435515042778e-11 2.192128324930186e-11
-6.111432657492965e+02 -2.619779880109730e+02 -2.619779880104004e+02 -1.764023350024973e-10 -6.451196050591270e-11 -6.797757133113442e-11
-6.111432657491193e+02 -2.619779880109497e+02 -2.619779880104384e+02 1.037014550569556e-10 -1.223652085467173e-10 -6.904039042653352e-11
-6.111432657493363e+02 -2.619779880105099e+02 -2.619779880101846e+02 -2.606319257156932e-10 -5.256898036091450e-11 -1.831332435341862e-10
-6.129302362210464e+02 -2.627441807622214e+02 -2.627441807623238e+02 1.370992112977894e-10 -2.334793156810931e-10 1.841683688870970e-10
-6.129302362199805e+02 -2.627441807617723e+02 -2.627441807619324e+02 1.311831810950690e-11 -6.348355278483148e-11 -1.810556797026809e-10
-6.129302362209107e+02 -2.627441807617919e+02 -2.627441807618003e+02 -2.998998564473224e-10 8.372394267388195e-11 -3.673821353717752e-11
-6.129302362200051e+02 -2.627441807617661e+02 -2.627441807617120e+02 -3.410853947037452e-11 -2.951595664556651e-10 -1.181611445658323e-10
-6.111432657492965e+02 -2.619779880109730e+02 -2.619779880104004e+02 -1.764023350024973e-10 -6.451196050591270e-11 -6.797757133113442e-11
-6.111432657486313e+02 -2.619779880100535e+02 -2.619779880100160e+02 1.833935655482357e-11 1.901516675142853e-11 -2.098708150495975e-10
-6.111432657497187e+02 -2.619779880109154e+02 -2.619779880115528e+02 -1.368171684203541e-10 1.761501676422364e-11 -8.961122786863360e-11
-6.111432657491193e+02 -2.619779880109497e+02 -2.619779880104384e+02 1.037014550569556e-10 -1.223652085467173e-10 -6.904039042653352e-11
-6.129302362199805e+02 -2.627441807617723e+02 -2.627441807619324e+02 1.311831810950690e-11 -6.348355278483148e-11 -1.810556797026809e-10
-6.129302362204909e+02 -2.627441807623569e+02 -2.627441807620164e+02 -1.296407690133511e-10 -1.197415136669267e-10 2.870135375735281e-11
-6.129302362215034e+02 -2.627441807626681e+02 -2.627441807622533e+02 -2.564752802200614e-10 1.933717703050459e-10 1.444224772032758e-10
-6.129302362209107e+02 -2.627441807617919e+02 -2.627441807618003e+02 -2.998998564473224e-10 8.372394267388195e-11 -3.673821353717752e-11
-6.111432657493694e+02 -2.619779880103403e+02 -2.619779880105713e+02 6.223800468190673e-11 -8.701768670670422e-11 1.212602162540908e-10
-6.111432657493363e+02 -2.619779880105099e+02 -2.619779880101846e+02 -2.606319257156932e-10 -5.256898036091450e-11 -1.831332435341862e-10
-6.111432657500479e+02 -2.619779880113355e+02 -2.619779880110970e+02 1.011741325864492e-10 -2.502538768211868e-10 -1.299016925224589e-10
-6.111432657490719e+02 -2.619779880098080e+02 -2.619779880104568e+02 -3.127733527429636e-11 1.842971410730294e-10 2.406611730841232e-10
-6.129302362201756e+02 -2.627441807611837e+02 -2.627441807615032e+02 -5.156285127054571e-10 1.166713060710709e-10 4.793370027292379e-10
-6.129302362200051e+02 -2.627441807617661e+02 -2.627441807617120e+02 -3.410853947037452e-11 -2.951595664556651e-10 -1.181611445658323e-10
-6.129302362215683e+02 -2.627441807627931e+02 -2.627441807626103e+02 2.309464923758151e-10 1.112785670286941e-10 -2.443918953055723e-10
-6.129302362200935e+02 -2.627441807610180e+02 -2.627441807618378e+02 -1.478546781157136e-10 4.063500954001805e-11 -3.015700994025896e-11
-6.111432657493363e+02 -2.619779880105099e+02 -2.619779880101846e+02 -2.606319257156932e-10 -5.256898036091450e-11 -1.831332435341862e-10
-6.111432657491193e+02 -2.619779880109497e+02 -2.619779880104384e+02 1.037014550569556e-10 -1.223652085467173e-10 -6.904039042653352e-11
-6.111432657500097e+02 -2.619779880111001e+02 -2.619779880112117e+02 -1.096037436000614e-10 1.292649247974844e-10 -1.200221873863813e-10
-6.111432657500479e+02 -2.619779880113355e+02 -2.619779880110970e+02 1.011741325864492e-10 -2.502538768211868e-10 -1.299016925224589e-10
-6.129302362200051e+02 -2.627441807617661e+02 -2.627441807617120e+02 -3.410853947037452e-11 -2.951595664556651e-10 -1.181611445658323e-10
-6.129302362209107e+02 -2.627441807617919e+02 -2.627441807618003e+02 -2.998998564473224e-10 8.372394267388195e-11 -3.673821353717752e-11
-6.129302362207321e+02 -2.627441807627716e+02 -2.627441807623378e+02 1.223869328322354e-10 1.215530397341182e-10 -9.924775049669341e-11
-6.129302362215683e+02 -2.627441807627931e+02 -2.627441807626103e+02 2.309464923758151e-10 1.112785670286941e-10 -2.443918953055723e-10
-6.111432657491193e+02 -2.619779880109497e+02 -2.619779880104384e+02 1.037014550569556e-10 -1.223652085467173e-10 -6.904039042653352e-11
-6.111432657497187e+02 -2.619779880109154e+02 -2.619779880115528e+02 -1.368171684203541e-10 1.761501676422364e-11 -8.961122786863360e-11
-6.111432657502696e+02 -2.619779880119702e+02 -2.619779880112344e+02 3.027805639294468e-10 1.386147296942677e-10 -8.039599194856803e-11
-6.111432657500097e+02 -2.619779880111001e+02 -2.619779880112117e+02 -1.096037436000614e-10 1.292649247974844e-10 -1.200221873863813e-10
-6.129302362209107e+02 -2.627441807617919e+02 -2.627441807618003e+02 -2.998998564473224e-10 8.372394267388195e-11 -3.673821353717752e-11
-6.129302362215034e+02 -2.627441807626681e+02 -2.627441807622533e+02 -2.564752802200614e-10 1.933717703050459e-10 1.444224772032758e-10
-6.129302362200369e+02 -2.627441807604730e+02 -2.627441807616538e+02 4.025416001719063e-10 -8.365639029279497e-11 -2.064032361846998e-10
-6.129302362207321e+02 -2.627441807627716e+02 -2.627441807623378e+02 1.223869328322354e-10 1.215530397341182e-10 -9.924775049669341e-11
-6.129302362202816e+02 -2.627441807621772e+02 -2.627441807609428e+02 5.169820557444516e-10 -3.449854747718694e-10 -2.271319718794175e-10
-6.129302362202170e+02 -2.627441807612042e+02 -2.627441807613125e+02 6.263635960790038e-11 -1.047966988088837e-10 -1.663833596963744e-10
-6.129302362208888e+02 -2.627441807612932e+02 -2.627441807622644e+02 -1.337484691113118e-10 -2.834905094326547e-10 -5.471656601766404e-11
-6.129302362204414e+02 -2.627441807624656e+02 -2.627441807614814e+02 3.201777840175556e-10 2.578750050320381e-10 4.136460302974542e-13
-6.140824681860340e+02 -2.632382192531074e+02 -2.632382192532806e+02 5.066897107837981e-11 1.247471923011279e-10 -1.230771811699081e-10
-6.140824681823246e+02 -2.632382192508015e+02 -2.632382192508015e+02 -3.801570449890330e-10 -7.242493249139543e-11 -3.625169824147123e-10
-6.140824681850488e+02 -2.632382192521495e+02 -2.632382192527795e+02 -3.616057276181859e-10 1.022693451651575e-10 5.786707210792486e-11
-6.140824681830436e+02 -2.632382192524976e+02 -2.632382192518594e+02 1.980074778958006e-10 1.127501859127186e-10 1.046710068786669e-09
-6.129302362202170e+02 -2.627441807612042e+02 -2.627441807613125e+02 6.263635960790038e-11 -1.047966988088837e-10 -1.663833596963744e-10
-6.129302362207918e+02 -2.627441807627141e+02 -2.627441807624226e+02 6.056610929303654e-10 2.711524197005654e-10 1.202307091081284e-11
-6.129302362203846e+02 -2.627441807616223e+02 -2.627441807616509e+02 1.708932489676319e-10 6.836313871921945e-11 -1.274935168809006e-10
-6.129302362208888e+02 -2.627441807612932e+02 -2.627441807622644e+02 -1.337484691113118e-10 -2.834905094326547e-10 -5.471656601766404e-11
-6.140824681823246e+02 -2.632382192508015e+02 -2.632382192508015e+02 -3.801570449890330e-10 -7.242493249139543e-11 -3.625169824147123e-10
-6.140824681821612e+02 -2.632382192511024e+02 -2.632382192510520e+02 -5.737287378425577e-10 -1.246757824422184e-10 -2.372188623262955e-10
-6.140824681852469e+02 -2.632382192533898e+02 -2.632382192531538e+02 -4.021090451328864e-10 -1.751622974763837e-10 -6.319655177717944e-12
-6.140824681850488e+02 -2.632382192521495e+02 -2.632382192527795e+02 -3.616057276181859e-10 1.022693451651575e-10 5.786707210792486e-11
-6.129302362207918e+02 -2.627441807627141e+02 -2.627441807624226e+02 6.056610929303654e-10 2.711524197005654e-10 1.202307091081284e-11
-6.129302362204011e+02 -2.627441807628800e+02 -2.627441807621823e+02 1.049462950630777e-09 3.321878672007127e-10 -1.684593450678152e-10
-6.129302362209633e+02 -2.627441807616242e+02 -2.627441807617809e+02 -3.466018790310958e-10 1.497414138837996e-10 6.039927387803440e-11
-6.129302362203846e+02 -2.627441807616223e+02 -2.627441807616509e+02 1.708932489676319e-10 6.836313871921945e-11 -1.274935168809006e-10
-6.140824681821612e+02 -2.632382192511024e+02 -2.632382192510520e+02 -5.737287378425577e-10 -1.246757824422184e-10 -2.372188623262955e-10
-6.140824681829206e+02 -2.632382192512034e+02 -2.632382192515000e+02 -3.502761765846042e-10 -1.038140434331207e-10 3.072713045843347e-10
-6.140824681849415e+02 -2.632382192525024e+02 -2.632382192525740e+02 -2.624128164730606e-10 -8.708321365012394e-12 -2.269109941080589e-10
-6.140824681852469e+02 -2.632382192533898e+02 -2.632382192531538e+02 -4.021090451328864e-10 -1.751622974763837e-10 -6.319655177717944e-12
-6.129302362204414e+02 -2.627441807624656e+02 -2.627441807614814e+02 3.201777840175556e-10 2.578750050320381e-10 4.136460302974542e-13
-6.129302362208888e+02 -2.627441807612932e+02 -2.627441807622644e+02 -1.337484691113118e-10 -2.834905094326547e-10 -5.471656601766404e-11
-6.129302362208875e+02 -2.627441807621835e+02 -2.627441807620961e+02 -1.786280571657289e-10 -1.364095319025659e-10 9.652260037417398e-12
-6.129302362206138e+02 -2.627441807620035e+02 -2.627441807616342e+02 3.731866829147588e-10 8.505498468237260e-11 -3.524471808811191e-10
-6.140824681830436e+02 -2.632382192524976e+02 -2.632382192518594e+02 1.980074778958006e-10 1.127501859127186e-10 1.046710068786669e-09
-6.140824681850488e+02 -2.632382192521495e+02 -2.632382192527795e+02 -3.616057276181859e-10 1.022693451651575e-10 5.786707210792486e-11
-6.140824681869979e+02 -2.632382192530858e+02 -2.632382192530794e+02 7.127227946435689e-11 7.201984587813495e-11 -1.621664669871722e-10
-6.140824681854998e+02 -2.632382192535797e+02 -2.632382192541899e+02 -4.886579191447416e-10 -2.415177777950390e-10 7.646325602785290e-10
-6.129302362208888e+02 -2.627441807612932e+02 -2.627441807622644e+02 -1.337484691113118e-10 -2.834905094326547e-10 -5.471656601766404e-11
-6.129302362203846e+02 -2.627441807616223e+02 -2.627441807616509e+02 1.708932489676319e-10 6.836313871921945e-11 -1.274935168809006e-10
-6.129302362211075e+02 -2.627441807624044e+02 -2.627441807620713e+02 -1.095987805716651e-11 -2.292996398108570e-10 -1.171860780692639e-10
-6.129302362208875e+02 -2.627441807621835e+02 -2.627441807620961e+02 -1.786280571657289e-10 -1.364095319025659e-10 9.652260037417398e-12
-6.140824681850488e+02 -2.632382192521495e+02 -2.632382192527795e+02 -3.616057276181859e-10 1.022693451651575e-10 5.786707210792486e-11
-6.140824681852469e+02 -2.632382192533898e+02 -2.632382192531538e+02 -4.021090451328864e-10 -1.751622974763837e-10 -6.319655177717944e-12
-6.140824681854624e+02 -2.632382192534485e+02 -2.632382192533215e+02 -1.316716028713579e-10 -1.651736021556726e-10 -5.374358202432378e-10
-6.140824681869979e+02 -2.632382192530858e+02 -2.632382192530794e+02 7.127227946435689e-11 7.201984587813495e-11 -1.621664669871722e-10
-6.129302362203846e+02 -2.627441807616223e+02 -2.627441807616509e+02 1.708932489676319e-10 6.836313871921945e-11 -1.274935168809006e-10
-6.129302362209633e+02 -2.627441807616242e+02 -2.627441807617809e+02 -3.466018790310958e-10 1.497414138837996e-10 6.039927387803440e-11
-6.129302362200041e+02 -2.627441807615430e+02 -2.627441807615266e+02 -1.310955602952296e-10 2.813138437332000e-11 2.428162372640510e-11
-6.129302362211075e+02 -2.627441807624044e+02 -2.627441807620713e+02 -1.095987805716651e-11 -2.292996398108570e-10 -1.171860780692639e-10
-6.140824681852469e+02 -2.632382192533898e+02 -2.632382192531538e+02 -4.021090451328864e-10 -1.751622974763837e-10 -6.319655177717944e-12
-6.140824681849415e+02 -2.632382192525024e+02 -2.632382192525740e+02 -2.624128164730606e-10 -8.708321365012394e-12 -2.269109941080589e-10
-6.140824681847942e+02 -2.632382192527398e+02 -2.632382192524158e+02 1.041499376456310e-10 -9.276150813531087e-11 -1.245222356643924e-10
-6.140824681854624e+02 -2.632382192534485e+02 -2.632382192533215e+02 -1.316716028713579e-10 -1.651736021556726e-10 -5.374358202432378e-10
-6.129302362206138e+02 -2.627441807620035e+02 -2.627441807616342e+02 3.731866829147588e-10 8.505498468237260e-11 -3.524471808811191e-10
-6.129302362208875e+02 -2.627441807621835e+02 -2.627441807620961e+02 -1.786280571657289e-10 -1.364095319025659e-10 9.652260037417398e-12
-6.129302362210464e+02 -2.627441807622214e+02 -2.627441807623238e+02 1.370992112977894e-10 -2.334793156810931e-10 1.841683688870970e-10
-6.129302362208947e+02 -2.627441807618238e+02 -2.627441807622621e+02 3.360598405769713e-10 2.110635746894871e-11 4.155887909672815e-10
-6.140824681854998e+02 -2.632382192535797e+02 -2.632382192541899e+02 -4.886579191447416e-10 -2.415177777950390e-10 7.646325602785290e-10
-6.140824681869979e+02 -2.632382192530858e+02 -2.632382192530794e+02 7.127227946435689e-11 7.201984587813495e-11 -1.621664669871722e-10
-6.140824681830334e+02 -2.632382192521360e+02 -2.632382192522159e+02 1.018886164502286e-09 -4.779704502458108e-11 -2.410786647135848e-10
-6.140824681884369e+02 -2.632382192543953e+02 -2.632382192537835e+02 -4.044573988488337e-10 -3.779325380563958e-10 -4.273268482892404e-12
-6.129302362208875e+02 -2.627441807621835e+02 -2.627441807620961e+02 -1.786280571657289e-10 -1.364095319025659e-10 9.652260037417398e-12
-6.129302362211075e+02 -2.627441807624044e+02 -2.627441807620713e+02 -1.095987805716651e-11 -2.292996398108570e-10 -1.171860780692639e-10
-6.129302362199805e+02 -2.627441807617723e+02 -2.627441807619324e+02 1.311831810950690e-11 -6.348355278483148e-11 -1.810556797026809e-10
-6.129302362210464e+02 -2.627441807622214e+02 -2.627441807623238e+02 1.370992112977894e-10 -2.334793156810931e-10 1.841683688870970e-10
-6.140824681869979e+02 -2.632382192530858e+02 -2.632382192530794e+02 7.127227946435689e-11 7.201984587813495e-11 -1.621664669871722e-10
-6.140824681854624e+02 -2.632382192534485e+02 -2.632382192533215e+02 -1.316716028713579e-10 -1.651736021556726e-10 -5.374358202432378e-10
-6.140824681838344e+02 -2.632382192522102e+02 -2.632382192517941e+02 7.938319115880870e-11 3.177382679306129e-10 -2.257671065206413e-10
-6.140824681830334e+02 -2.632382192521360e+02 -2.632382192522159e+02 1.018886164502286e-09 -4.779704502458108e-11 -2.410786647135848e-10
-6.129302362211075e+02 -2.627441807624044e+02 -2.627441807620713e+02 -1.095987805716651e-11 -2.292996398108570e-10 -1.171860780692639e-10
-6.129302362200041e+02 -2.627441807615430e+02 -2.627441807615266e+02 -1.310955602952296e-10 2.813138437332000e-11 2.428162372640510e-11
-6.129302362204909e+02 -2.627441807623569e+02 -2.627441807620164e+02 -1.296407690133511e-10 -1.197415136669267e-10 2.870135375735281e-11
-6.129302362199805e+02 -2.627441807617723e+02 -2.627441807619324e+02 1.311831810950690e-11 -6.348355278483148e-11 -1.810556797026809e-10
-6.140824681854624e+02 -2.632382192534485e+02 -2.632382192533215e+02 -1.316716028713579e-10 -1.651736021556726e-10 -5.374358202432378e-10
-6.140824681847942e+02 -2.632382192527398e+02 -2.632382192524158e+02 1.041499376456310e-10 -9.276150813531087e-11 -1.245222356643924e-10
-6.140824681851889e+02 -2.632382192529354e+02 -2.632382192535817e+02 -3.064773781935997e-10 -3.225155981312937e-11 -2.861300046365033e-10
-6.140824681838344e+02 -2.632382192522102e+02 -2.632382192517941e+02 7.938319115880870e-11 3.177382679306129e-10 -2.257671065206413e-10
-6.129302362208947e+02 -2.627441807618238e+02 -2.627441807622621e+02 3.360598405769713e-10 2.110635746894871e-11 4.155887909672815e-10
-6.129302362210464e+02 -2.627441807622214e+02 -2.627441807623238e+02 1.370992112977894e-10 -2.334793156810931e-10 1.841683688870970e-10
-6.129302362200051e+02 -2.627441807617661e+02 -2.627441807617120e+02 -3.410853947037452e-11 -2.951595664556651e-10 -1.181611445658323e-10
-6.129302362201756e+02 -2.627441807611837e+02 -2.627441807615032e+02 -5.156285127054571e-10 1.166713060710709e-10 4.793370027292379e-10
-6.140824681884369e+02 -2.632382192543953e+02 -2.632382192537835e+02 -4.044573988488337e-10 -3.779325380563958e-10 -4.273268482892404e-12
-6.140824681830334e+02 -2.632382192521360e+02 -2.632382192522159e+02 1.018886164502286e-09 -4.779704502458108e-11 -2.410786647135848e-10
-6.140824681838500e+02 -2.632382192524590e+02 -2.632382192521508e+02 -5.941588831803049e-10 -8.336439464569876e-11 -1.126752438902001e-10
-6.140824681846466e+02 -2.632382192529180e+02 -2.632382192523595e+02 -4.470834412136780e-10 -1.842922761700849e-10 -1.379949296911915e-10
-6.129302362210464e+02 -2.627441807622214e+02 -2.627441807623238e+02 1.370992112977894e-10 -2.334793156810931e-10 1.841683688870970e-10
-6.129302362199805e+02 -2.627441807617723e+02 -2.627441807619324e+02 1.311831810950690e-11 -6.348355278483148e-11 -1.810556797026809e-10
-6.129302362209107e+02 -2.627441807617919e+02 -2.627441807618003e+02 -2.998998564473224e-10 8.372394267388195e-11 -3.673821353717752e-11
-6.129302362200051e+02 -2.627441807617661e+02 -2.627441807617120e+02 -3.410853947037452e-11 -2.951595664556651e-10 -1.181611445658323e-10
-6.140824681830334e+02 -2.632382192521360e+02 -2.632382192522159e+02 1.018886164502286e-09 -4.779704502458108e-11 -2.410786647135848e-10
-6.140824681838344e+02 -2.632382192522102e+02 -2.632382192517941e+02 7.938319115880870e-11 3.177382679306129e-10 -2.257671065206413e-10
-6.140824681860340e+02 -2.632382192532622e+02 -2.632382192536390e+02 -3.521816480136655e-10 -1.118816099922466e-10 3.386923398193082e-10
-6.140824681838500e+02 -2.632382192524590e+02 -2.632382192521508e+02 -5.941588831803049e-10 -8.336439464569876e-11 -1.126752438902001e-10
-6.129302362199805e+02 -2.627441807617723e+02 -2.627441807619324e+02 1.311831810950690e-11 -6.348355278483148e-11 -1.810556797026809e-10
-6.129302362204909e+02 -2.627441807623569e+02 -2.627441807620164e+02 -1.296407690133511e-10 -1.197415136669267e-10 2.870135375735281e-11
-6.129302362215034e+02 -2.627441807626681e+02 -2.627441807622533e+02 -2.564752802200614e-10 1.933717703050459e-10 1.444224772032758e-10
-6.129302362209107e+02 -2.627441807617919e+02 -2.627441807618003e+02 -2.998998564473224e-10 8.372394267388195e-11 -3.673821353717752e-11
-6.140824681838344e+02 -2.632382192522102e+02 -2.632382192517941e+02 7.938319115880870e-11 3.177382679306129e-10 -2.257671065206413e-10
-6.140824681851889e+02 -2.632382192529354e+02 -2.632382192535817e+02 -3.064773781935997e-10 -3.225155981312937e-11 -2.861300046365033e-10
-6.140824681850559e+02 -2.632382192529668e+02 -2.632382192533465e+02 -1.426787613963093e-10 7.562202818858418e-11 9.740779492241879e-11
-6.140824681860340e+02 -2.632382192532622e+02 -2.632382192536390e+02 -3.521816480136655e-10 -1.118816099922466e-10 3.386923398193082e-10
-6.129302362201756e+02 -2.627441807611837e+02 -2.627441807615032e+02 -5.156285127054571e-10 1.166713060710709e-10 4.793370027292379e-10
-6.129302362200051e+02 -2.627441807617661e+02 -2.627441807617120e+02 -3.410853947037452e-11 -2.951595664556651e-10 -1.181611445658323e-10
-6.129302362215683e+02 -2.627441807627931e+02 -2.627441807626103e+02 2.309464923758151e-10 1.112785670286941e-10 -2.443918953055723e-10
-6.129302362200935e+02 -2.627441807610180e+02 -2.627441807618378e+02 -1.478546781157136e-10 4.063500954001805e-11 -3.015700994025896e-11
-6.140824681846466e+02 -2.632382192529180e+02 -2.632382192523595e+02 -4.470834412136780e-10 -1.842922761700849e-10 -1.379949296911915e-10
-6.140824681838500e+02 -2.632382192524590e+02 -2.632382192521508e+02 -5.941588831803049e-10 -8.336439464569876e-11 -1.126752438902001e-10
-6.140824681861220e+02 -2.632382192528320e+02 -2.632382192531422e+02 -3.945035176372614e-10 -4.553410024415577e-12 5.577047916234725e-11
-6.140824681837790e+02 -2.632382192533225e+02 -2.632382192526072e+02 1.293420799740613e-10 -3.193026064943767e-11 4.464197063215059e-10
-6.129302362200051e+02 -2.627441807617661e+02 -2.627441807617120e+02 -3.410853947037452e-11 -2.951595664556651e-10 -1.181611445658323e-10
-6.129302362209107e+02 -2.627441807617919e+02 -2.627441807618003e+02 -2.998998564473224e-10 8.372394267388195e-11 -3.673821353717752e-11
-6.129302362207321e+02 -2.627441807627716e+02 -2.627441807623378e+02 1.223869328322354e-10 1.215530397341182e-10 -9.924775049669341e-11
-6.129302362215683e+02 -2.627441807627931e+02 -2.627441807626103e+02 2.309464923758151e-10 1.112785670286941e-10 -2.443918953055723e-10
-6.140824681838500e+02 -2.632382192524590e+02 -2.632382192521508e+02 -5.941588831803049e-10 -8.336439464569876e-11 -1.126752438902001e-10
-6.140824681860340e+02 -2.632382192532622e+02 -2.632382192536390e+02 -3.521816480136655e-10 -1.118816099922466e-10 3.386923398193082e-10
-6.140824681844151e+02 -2.632382192527460e+02 -2.632382192525017e+02 4.755984462240939e-10 5.329245304380025e-11 -4.609079230729735e-10
-6.140824681861220e+02 -2.632382192528320e+02 -2.632382192531422e+02 -3.945035176372614e-10 -4.553410024415577e-12 5.577047916234725e-11
-6.129302362209107e+02 -2.627441807617919e+02 -2.627441807618003e+02 -2.998998564473224e-10 8.372394267388195e-11 -3.673821353717752e-11
-6.129302362215034e+02 -2.627441807626681e+02 -2.627441807622533e+02 -2.564752802200614e-10 1.933717703050459e-10 1.444224772032758e-10
-6.129302362200369e+02 -2.627441807604730e+02 -2.627441807616538e+02 4.025416001719063e-10 -8.365639029279497e-11 -2.064032361846998e-10
-6.129302362207321e+02 -2.627441807627716e+02 -2.627441807623378e+02 1.223869328322354e-10 1.215530397341182e-10 -9.924775049669341e-11
-6.140824681860340e+02 -2.632382192532622e+02 -2.632382192536390e+02 -3.521816480136655e-10 -1.118816099922466e-10 3.386923398193082e-10
-6.140824681850559e+02 -2.632382192529668e+02 -2.632382192533465e+02 -1.426787613963093e-10 7.562202818858418e-11 9.740779492241879e-11
-6.140824681856750e+02 -2.632382192547651e+02 -2.632382192533873e+02 -4.227028922611805e-11 1.924408196951335e-10 -1.039788432709457e-10
-6.140824681844151e+02 -2.632382192527460e+02 -2.632382192525017e+02 4.755984462240939e-10 5.329245304380025e-11 -4.609079230729735e-10
        </DataArray>
  </PointData>
  <CellData>
        <DataArray type="Float64" Name="element_GL_strains_xyz" NumberOfComponents="6" format="ascii">
-2.268874572018409e-04 -1.249000902703301e-16 6.938893903907228e-17 -1.769410072863173e-16 2.775557561562890e-17 -6.069839549787176e-17
-2.268874572018964e-04 -4.163336342344337e-17 -1.110223024625157e-16 -1.795348262354535e-16 -6.418476861114186e-17 8.672279032245059e-17
-2.268874572019797e-04 -1.387778780781446e-17 0.000000000000000e+00 -1.812614802624306e-16 -3.014082039509703e-17 7.371000246267339e-17
-2.268874572019242e-04 0.000000000000000e+00 -6.938893903907228e-17 -1.454896971244331e-16 1.639313684798083e-16 2.774179850758060e-17
-2.268874572021462e-04 -5.551115123125783e-17 -6.938893903907228e-17 -1.192461000754060e-16 2.949029909160570e-17 8.585405087365733e-17
-2.268874572022711e-04 -8.326672684688674e-17 2.775557561562891e-17 -3.906670505874541e-18 -5.984795992119984e-17 -2.471469232110869e-17
-2.268874572019797e-04 -5.551115123125783e-17 -1.387778780781446e-17 -2.210237268402188e-17 -6.722053469410127e-17 3.207959127666894e-17
-2.268874572020768e-04 -8.326672684688674e-17 6.938893903907228e-17 7.740554019309939e-17 -3.035766082959414e-17 -7.808223800188255e-18
-2.268874572020491e-04 -2.775557561562891e-17 -8.326672684688674e-17 2.731579345592760e-17 8.890457814381133e-18 -1.213991527856947e-17
-2.268874572021601e-04 -9.714451465470120e-17 -2.775557561562891e-17 4.944394901358275e-17 -8.847089727481716e-17 -3.989863994746655e-17
-2.268874572019380e-04 4.163336342344337e-17 2.775557561562891e-17 -8.662595693445396e-18 3.295974604355934e-17 -6.505291761244732e-17
-2.268874572019797e-04 2.775557561562891e-17 1.387778780781446e-17 -3.901750110142985e-17 -3.903127820947817e-17 -5.681652378648418e-17
-2.268874572021323e-04 -5.551115123125783e-17 -4.163336342344337e-17 -5.118064064785219e-17 7.806255641895629e-17 -1.734428252232914e-17
-2.268874572021878e-04 -1.249000902703301e-16 -8.326672684688674e-17 -1.396261486806946e-16 -4.770489558936218e-17 5.029871453849843e-17
-2.268874572018825e-04 4.163336342344337e-17 1.665334536937735e-16 -5.204150746347495e-17 3.556183125752456e-17 -9.236693972591158e-17
-2.265984699809237e-04 1.110223024625157e-16 4.163336342344337e-17 1.647806462271293e-16 -4.510281037539697e-17 -8.758093054849460e-17
-2.265984699809931e-04 -4.163336342344337e-17 -1.110223024625157e-16 -3.013025502011475e-17 -6.852157730108392e-17 1.959795256342906e-16
-2.265984699810902e-04 4.163336342344337e-17 8.326672684688674e-17 -5.659451800200051e-17 -1.951563910473900e-18 1.305160245568264e-16
-2.265984699809098e-04 -6.938893903907228e-17 2.775557561562891e-17 2.386316059350029e-17 2.354887118638515e-16 8.063535343064512e-17
-2.265984699806878e-04 1.110223024625157e-16 -1.942890293094024e-16 -4.140571190756908e-17 1.249000902703301e-16 1.348402530793477e-16
-2.265984699807988e-04 1.387778780781446e-16 -5.551115123125783e-17 1.352796343367044e-16 -9.974659986866643e-17 7.460136520187256e-17
-2.265984699807155e-04 2.775557561562891e-17 -8.326672684688674e-17 -1.142623779538304e-16 -8.760353553682876e-17 9.944290676452530e-18
-2.265984699807572e-04 8.326672684688674e-17 6.938893903907228e-17 -1.963308676151873e-18 -1.058181320345852e-16 2.817972307649959e-17
-2.265984699809098e-04 -2.775557561562891e-17 -3.608224830031759e-16 2.298828023982686e-17 -1.043002489931055e-16 3.925273792420003e-17
-2.265984699806878e-04 -1.110223024625157e-16 1.387778780781446e-17 -4.920670943261306e-17 -6.852157730108389e-17 6.287438916115168e-17
-2.265984699810070e-04 0.000000000000000e+00 -1.387778780781446e-17 -4.097453724380320e-17 -3.035766082959412e-17 3.122305691642302e-17
-2.265984699810208e-04 2.775557561562891e-17 5.551115123125783e-17 -4.725951909596902e-17 -2.602085213965211e-17 1.318177551417148e-16
-2.265984699809931e-04 8.326672684688674e-17 5.551115123125783e-17 7.890927881977003e-17 6.591949208711867e-17 9.532526817886620e-18
-2.265984699808404e-04 -5.551115123125783e-17 -8.326672684688674e-17 -2.949403382880875e-17 -8.413408858487514e-17 2.597171086066491e-18
-2.265984699808959e-04 -6.938893903907228e-17 2.775557561562891e-16 1.906131889857023e-17 7.806255641895633e-17 5.074243075836516e-17
-2.266703538448267e-04 0.000000000000000e+00 8.326672684688674e-17 -1.170849863918615e-17 -3.122502256758254e-17 -2.036520605584195e-17
-2.266703538447573e-04 2.498001805406602e-16 -1.110223024625157e-16 5.096050067587956e-17 -1.994931997373328e-17 1.808121838952624e-16
-2.266703538443826e-04 -1.942890293094024e-16 -2.775557561562891e-17 4.813002316300260e-17 -6.461844948013605e-17 5.418975768015761e-17
-2.266703538451320e-04 -1.942890293094024e-16 8.326672684688674e-17 -2.556696779714976e-17 9.107298248878225e-18 4.204256417125253e-17
-2.266703538449516e-04 8.326672684688674e-17 -1.942890293094024e-16 1.130750708864187e-17 2.298508605669270e-17 -3.860536412592014e-17
-2.266703538447296e-04 2.775557561562891e-17 -5.551115123125783e-17 1.411582071706277e-16 -1.674008154317619e-16 -1.121017855754956e-16
-2.266703538452292e-04 6.938893903907228e-17 -2.220446049250313e-16 7.371616213939365e-17 -9.107298248878219e-18 6.545267948784591e-17
-2.266703538450487e-04 6.938893903907228e-17 -1.387778780781446e-17 1.842948048883357e-16 -8.109832250191574e-17 -9.974266731907846e-17
-2.266703538447989e-04 -1.110223024625157e-16 -1.942890293094024e-16 2.103922434312132e-17 -1.040834085586084e-16 -1.216314586133027e-16
-2.266703538450210e-04 -2.775557561562891e-17 -8.326672684688674e-17 -1.712021885321212e-17 -5.637851296924624e-17 2.470516078545437e-17
-2.266703538448961e-04 -2.775557561562891e-17 5.551115123125783e-17 -6.135075180363576e-17 -4.857225732735060e-17 -2.168974564661263e-17
-2.266703538447989e-04 6.938893903907228e-17 -2.775557561562891e-17 -3.672670933502422e-18 -4.662069341687669e-17 -1.865103015146225e-17
-2.266703538449100e-04 -2.775557561562891e-17 -2.775557561562891e-17 -5.856313908126752e-18 -5.030698080332741e-17 1.603527932767890e-17
-2.266703538448822e-04 0.000000000000000e+00 1.387778780781446e-17 -3.514319239070427e-17 5.117434254131581e-17 -7.632252400103578e-17
-2.266703538447712e-04 -1.804112415015879e-16 -8.326672684688674e-17 2.707570766083753e-17 2.016616040823039e-17 -1.431608942257449e-17
-2.271414994449439e-04 1.942890293094024e-16 2.220446049250313e-16 -5.637299595492320e-17 -1.613292832658431e-16 6.242265709977582e-17
-2.271414994447496e-04 -5.551115123125783e-17 -2.359223927328458e-16 -1.648302560139282e-17 1.275021754842953e-16 -1.075294081996893e-16
-2.271414994446802e-04 8.326672684688674e-17 -2.775557561562891e-17 -4.365181906460324e-18 8.023096076392736e-18 5.614985036119987e-17
-2.271414994446247e-04 -1.526556658859590e-16 1.387778780781446e-16 -1.313830382117253e-16 -7.979727989493313e-17 9.538299425201265e-17
-2.271414994443610e-04 4.163336342344337e-17 -1.387778780781446e-16 -1.777715223684909e-16 -7.892991815694466e-17 -1.196622266477843e-16
-2.271414994445553e-04 -2.775557561562891e-17 -1.387778780781446e-16 -1.426518445376708e-16 -9.540979117872439e-17 4.553058015761654e-17
-2.271414994445414e-04 -2.775557561562891e-17 4.163336342344337e-17 1.155521102036304e-16 -3.903127820947812e-17 2.046473229639046e-16
-2.271414994444443e-04 -1.249000902703301e-16 -6.938893903907228e-17 1.863448483094320e-17 -1.691355389077388e-17 -7.889563385365182e-17
-2.271414994444443e-04 -2.359223927328458e-16 -8.326672684688674e-17 8.232843206760268e-18 -3.339342691255352e-17 -3.641855303931861e-17
-2.271414994445692e-04 0.000000000000000e+00 0.000000000000000e+00 2.515565780014774e-17 -8.847089727481716e-17 1.699567941688849e-16
-2.271414994446247e-04 -6.938893903907228e-17 5.551115123125783e-17 -3.209790131989394e-17 -1.578598363138894e-16 -5.895695383611285e-17
-2.271414994444720e-04 5.551115123125783e-17 -8.326672684688674e-17 -1.682524142716846e-16 -7.329206686002011e-17 4.076403132319676e-17
-2.271414994446802e-04 -2.775557561562891e-17 0.000000000000000e+00 -1.639221077771946e-16 -4.423544863740859e-17 3.987538967281962e-17
-2.271414994445969e-04 -1.387778780781446e-16 1.110223024625157e-16 -4.337498316732392e-17 3.469446951953615e-18 -1.682364543373930e-16
-2.271414994446108e-04 -2.081668171172169e-16 -2.081668171172169e-16 -4.425613744111981e-17 7.307522642552299e-17 7.349708512096789e-17
-2.279967614977479e-04 4.163336342344337e-17 -2.775557561562891e-17 2.098882894527032e-16 1.301042606982606e-17 2.772333776637598e-17
-2.279967614977618e-04 1.249000902703301e-16 -2.775557561562891e-17 -1.040023194899354e-17 -6.938893903907185e-18 -1.569552922712412e-16
-2.279967614978035e-04 -5.551115123125783e-17 8.326672684688674e-17 -3.381425219748981e-17 2.818925648462293e-18 -2.611974124779012e-18
-2.279967614979839e-04 -5.551115123125783e-17 -1.387778780781446e-17 -1.680127699830794e-16 -5.637851296924746e-18 1.525947501953461e-16
-2.279967614983447e-04 -8.326672684688674e-17 -8.326672684688674e-17 -1.964210424625786e-16 -7.546047120499100e-17 -2.679586080249942e-16
-2.279967614982059e-04 2.775557561562891e-17 0.000000000000000e+00 7.817529000223380e-18 -1.056012916000881e-16 -4.381086556636308e-17
-2.279967614982198e-04 1.387778780781446e-16 -1.665334536937735e-16 2.024933657413626e-16 -8.760353553682871e-17 7.975416424378494e-17
-2.279967614982059e-04 -5.551115123125783e-17 1.665334536937735e-16 2.712135878810461e-16 1.066854937725736e-16 -2.783839578074549e-16
-2.279967614979422e-04 -2.359223927328458e-16 0.000000000000000e+00 5.179203266090535e-17 -1.040834085586084e-16 -1.437493858142758e-16
-2.279967614980394e-04 -1.665334536937735e-16 -1.249000902703301e-16 6.331800020780228e-17 -1.613292832658431e-16 1.731479913229885e-17
-2.279967614977896e-04 -9.714451465470120e-17 8.326672684688674e-17 1.128124038390496e-17 -5.117434254131582e-17 -1.040685751923877e-16
-2.279967614981226e-04 1.942890293094024e-16 -5.551115123125783e-17 -9.279504815891752e-17 4.987329993433322e-18 6.410279491100508e-19
-2.279967614979422e-04 6.938893903907228e-17 4.163336342344337e-17 -2.272183175076553e-16 1.214306433183760e-17 1.031739200605533e-16
-2.279967614980949e-04 1.526556658859590e-16 -2.775557561562891e-17 -1.110187424546227e-16 3.556183125752453e-17 -1.838387594716910e-16
-2.279967614980255e-04 -8.326672684688674e-17 0.000000000000000e+00 3.899290923552066e-17 2.168404344971011e-17 1.136022365162579e-16
        </DataArray>
        <DataArray type="Float64" Name="element_cauchy_stresses_xyz" NumberOfComponents="6" format="ascii">
-6.110935005478243e+02 -2.619566503229962e+02 -2.619566503226907e+02 -2.722193569102035e-10 4.271057715632789e-11 -9.343423332637838e-11
-6.110935005480569e+02 -2.619566503230109e+02 -2.619566503231418e+02 -2.762352851485798e-10 -9.876820967400839e-11 1.334608620197029e-10
-6.110935005481878e+02 -2.619566503229963e+02 -2.619566503229818e+02 -2.789165078508208e-10 -4.638101738069988e-11 1.134484562599614e-10
-6.110935005481006e+02 -2.619566503229381e+02 -2.619566503230399e+02 -2.238617973746601e-10 2.522593463295619e-10 4.272208592399146e-11
-6.110935005486533e+02 -2.619566503232729e+02 -2.619566503233020e+02 -1.835052023605618e-10 4.537998822859846e-11 1.321285793820231e-10
-6.110935005489297e+02 -2.619566503233893e+02 -2.619566503232001e+02 -5.999360510702547e-12 -9.209468199333215e-11 -3.803835062408726e-11
-6.110935005482024e+02 -2.619566503230836e+02 -2.619566503229963e+02 -3.405089144256293e-11 -1.034396790504818e-10 4.939258498159836e-11
-6.110935005483771e+02 -2.619566503231273e+02 -2.619566503228945e+02 1.191054330953058e-10 -4.671469376473369e-11 -1.200659544138545e-11
-6.110935005484642e+02 -2.619566503231710e+02 -2.619566503232292e+02 4.204307295710686e-11 1.368073174538629e-11 -1.868648323050735e-11
-6.110935005487262e+02 -2.619566503233748e+02 -2.619566503232438e+02 7.605428943746128e-11 -1.361399646857953e-10 -6.138252299610242e-11
-6.110935005479405e+02 -2.619566503227052e+02 -2.619566503227343e+02 -1.336098702747148e-11 5.071881037313940e-11 -1.000789890878957e-10
-6.110935005480859e+02 -2.619566503228071e+02 -2.619566503228216e+02 -6.006932068375952e-11 -6.006174912608616e-11 -8.739671216500191e-11
-6.110935005486534e+02 -2.619566503232584e+02 -2.619566503232584e+02 -7.872006616204855e-11 1.201234982521724e-10 -2.669259641117031e-11
-6.110935005489007e+02 -2.619566503235494e+02 -2.619566503234767e+02 -2.148682081301312e-10 -7.340880448743867e-11 7.740807529893345e-11
-6.110935005476058e+02 -2.619566503224577e+02 -2.619566503222686e+02 -8.006446329200571e-11 5.472292698154517e-11 -1.421247878057650e-10
-6.103148401396127e+02 -2.616227873597350e+02 -2.616227873598223e+02 2.535643358579415e-10 -6.940466781286822e-11 -1.348094548448622e-10
-6.103148401401655e+02 -2.616227873603755e+02 -2.616227873604919e+02 -4.638675102306328e-11 -1.054417068695498e-10 3.016430614795081e-10
-6.103148401401072e+02 -2.616227873600698e+02 -2.616227873600262e+02 -8.707105999207887e-11 -3.003086588056826e-12 2.008613285318967e-10
-6.103148401398454e+02 -2.616227873602298e+02 -2.616227873600989e+02 3.667958856543481e-11 3.623724482921868e-10 1.241445176524868e-10
-6.103148401392345e+02 -2.616227873597350e+02 -2.616227873601715e+02 -6.373436387835531e-11 1.921975416356350e-10 2.075527003918639e-10
-6.103148401393363e+02 -2.616227873596478e+02 -2.616227873598805e+02 2.082111299126227e-10 -1.534910922784585e-10 1.147459259396306e-10
-6.103148401393364e+02 -2.616227873598805e+02 -2.616227873600114e+02 -1.758268351486012e-10 -1.348052201749939e-10 1.539236335578459e-11
-6.103148401391762e+02 -2.616227873596040e+02 -2.616227873596330e+02 -2.984333050069372e-12 -1.628340283301907e-10 4.338275700574903e-11
-6.103148401402532e+02 -2.616227873605501e+02 -2.616227873610740e+02 3.535675561463908e-11 -1.604982943172578e-10 6.037461279488114e-11
-6.103148401392639e+02 -2.616227873600551e+02 -2.616227873598950e+02 -7.575207918702244e-11 -1.054417068695498e-10 9.675856148246246e-11
-6.103148401400928e+02 -2.616227873602008e+02 -2.616227873602299e+02 -6.306330596709701e-11 -4.671468025866130e-11 4.804152102201079e-11
-6.103148401399764e+02 -2.616227873600407e+02 -2.616227873600116e+02 -7.274294307058262e-11 -4.004115450742396e-11 2.028618738751721e-10
-6.103148401398455e+02 -2.616227873598951e+02 -2.616227873599097e+02 1.214624033423875e-10 1.014375914188074e-10 1.469143589813499e-11
-6.103148401397729e+02 -2.616227873602298e+02 -2.616227873602735e+02 -4.536394385819877e-11 -1.294663995740042e-10 4.010769931963751e-12
-6.103148401394817e+02 -2.616227873598950e+02 -2.616227873594295e+02 2.938861884823391e-11 1.201234635222718e-10 7.805983413118394e-11
-6.105085272422938e+02 -2.617058337498943e+02 -2.617058337497634e+02 -1.801579767251119e-11 -4.804938886445068e-11 -3.138584563774702e-11
-6.105085272420174e+02 -2.617058337493269e+02 -2.617058337499380e+02 7.839154285821533e-11 -3.069822066339903e-11 2.782733357988733e-10
-6.105085272414212e+02 -2.617058337500398e+02 -2.617058337497343e+02 7.407251029715095e-11 -9.943554084448818e-11 8.343148335833476e-11
-6.105085272432539e+02 -2.617058337507532e+02 -2.617058337502439e+02 -3.939596819269567e-11 1.401440508546475e-11 6.475619994527345e-11
-6.105085272428030e+02 -2.617058337500837e+02 -2.617058337505930e+02 1.729829367302843e-11 3.536968902522054e-11 -5.936896737530609e-11
-6.105085272421193e+02 -2.617058337498071e+02 -2.617058337499817e+02 2.171815994757186e-10 -2.575981125233049e-10 -1.724788073300637e-10
-6.105085272435593e+02 -2.617058337504623e+02 -2.617058337510152e+02 1.134389776802200e-10 -1.401440508546482e-11 1.007983853245207e-10
-6.105085272428755e+02 -2.617058337500255e+02 -2.617058337501710e+02 2.835906741429561e-10 -1.247949405229483e-10 -1.534623589383846e-10
-6.105085272425995e+02 -2.617058337504329e+02 -2.617058337505784e+02 3.235049024055023e-11 -1.601646295481689e-10 -1.871746346555448e-10
-6.105085272429775e+02 -2.617058337503456e+02 -2.617058337504620e+02 -2.637011093014180e-11 -8.675584100525813e-11 3.805301784838578e-11
-6.105085272424975e+02 -2.617058337500400e+02 -2.617058337498945e+02 -9.443221160554645e-11 -7.474349378914545e-11 -3.335129224592143e-11
-6.105085272422792e+02 -2.617058337497780e+02 -2.617058337499235e+02 -5.692164502915436e-12 -7.174040698511730e-11 -2.868542147361875e-11
-6.105085272426575e+02 -2.617058337501855e+02 -2.617058337501564e+02 -9.004721825988102e-12 -7.741290428161496e-11 2.470324223438049e-11
-6.105085272424975e+02 -2.617058337500109e+02 -2.617058337499672e+02 -5.402016150095498e-11 7.874760952784972e-11 -1.174356047518651e-10
-6.105085272425558e+02 -2.617058337505348e+02 -2.617058337503893e+02 4.174524248879400e-11 3.103189697495773e-11 -2.201053366661613e-11
-6.117780042569062e+02 -2.622501422707441e+02 -2.622501422707150e+02 -8.674466344175281e-11 -2.482552928171269e-10 9.611913752866778e-11
-6.117780042571832e+02 -2.622501422716902e+02 -2.622501422719376e+02 -2.534879957821666e-11 1.962017636780519e-10 -1.655020125370884e-10
-6.117780042566155e+02 -2.622501422710206e+02 -2.622501422711661e+02 -6.628352348449457e-12 1.234602934708831e-11 8.642076522233835e-11
-6.117780042565865e+02 -2.622501422713989e+02 -2.622501422709915e+02 -2.021962668581715e-10 -1.227929405332026e-10 1.468255295295459e-10
-6.117780042559467e+02 -2.622501422709041e+02 -2.622501422711369e+02 -2.736104596275277e-10 -1.214582346578416e-10 -1.841994164503790e-10
-6.117780042565576e+02 -2.622501422713263e+02 -2.622501422714573e+02 -2.195541136715800e-10 -1.468176462896987e-10 7.006523642196398e-11
-6.117780042563102e+02 -2.622501422710351e+02 -2.622501422709624e+02 1.778458436730654e-10 -6.006176439124037e-11 3.149960442127583e-10
-6.117780042562958e+02 -2.622501422713262e+02 -2.622501422712680e+02 2.871088159458962e-11 -2.602676456953747e-11 -1.214834003850461e-10
-6.117780042563978e+02 -2.622501422716027e+02 -2.622501422713844e+02 1.268774065654199e-11 -5.138617620139456e-11 -5.606128518354870e-11
-6.117780042563975e+02 -2.622501422710642e+02 -2.622501422710642e+02 3.869434232416262e-11 -1.361399992868115e-10 2.616138732289741e-10
-6.117780042565284e+02 -2.622501422712243e+02 -2.622501422710498e+02 -4.936440928873523e-11 -2.429164693156833e-10 -9.077576600423544e-11
-6.117780042561211e+02 -2.622501422709042e+02 -2.622501422710641e+02 -2.588983748452995e-10 -1.127826464679958e-10 6.271995768525659e-11
-6.117780042567028e+02 -2.622501422712389e+02 -2.622501422711952e+02 -2.522163558255826e-10 -6.806999964340574e-11 6.141830077694735e-11
-6.117780042564993e+02 -2.622501422713261e+02 -2.622501422710061e+02 -6.670952163777517e-11 5.338823501443586e-12 -2.589229341694388e-10
-6.117780042570232e+02 -2.622501422719375e+02 -2.622501422719521e+02 -6.802270020432268e-11 1.124489699991556e-10 1.131088186989047e-10
-6.140824681839590e+02 -2.632382192522537e+02 -2.632382192523264e+02 3.229458380860537e-10 2.002060526106686e-11 4.275049356541807e-11
-6.140824681839154e+02 -2.632382192520645e+02 -2.632382192522536e+02 -1.602531017256179e-11 -1.067765613923571e-11 -2.415841005552404e-10
-6.140824681841627e+02 -2.632382192524865e+02 -2.632382192522974e+02 -5.206148661175381e-11 4.337797806564502e-12 -3.987990842677515e-12
-6.140824681847009e+02 -2.632382192527632e+02 -2.632382192526904e+02 -2.585998650515845e-10 -8.675595613128985e-12 2.349486084152367e-10
-6.140824681857920e+02 -2.632382192533309e+02 -2.632382192533163e+02 -3.022982048401242e-10 -1.161195105141881e-10 -4.124168597885749e-10
-6.140824681851955e+02 -2.632382192528215e+02 -2.632382192528797e+02 1.199227648061436e-11 -1.625005793689932e-10 -6.737333522382697e-11
-6.140824681852681e+02 -2.632382192527488e+02 -2.632382192531561e+02 3.116378061826177e-10 -1.348054087578506e-10 1.228313928918051e-10
-6.140824681850935e+02 -2.632382192528214e+02 -2.632382192525159e+02 4.174172176925171e-10 1.641689631407487e-10 -4.284035183269658e-10
-6.140824681847594e+02 -2.632382192531124e+02 -2.632382192527924e+02 7.978108079488226e-11 -1.601648420885353e-10 -2.212015906731348e-10
-6.140824681850793e+02 -2.632382192531998e+02 -2.632382192531271e+02 9.741048215873841e-11 -2.482555052372299e-10 2.673796582305457e-11
-6.140824681841192e+02 -2.632382192525301e+02 -2.632382192522828e+02 1.733871313963591e-11 -7.874771402686315e-11 -1.601511466276086e-10
-6.140824681848899e+02 -2.632382192523994e+02 -2.632382192527486e+02 -1.428005640885030e-10 7.674565350075661e-12 1.015410497026330e-12
-6.140824681843226e+02 -2.632382192522682e+02 -2.632382192523119e+02 -3.496603694537447e-10 1.868589824366247e-11 1.588587433672887e-10
-6.140824681847445e+02 -2.632382192523266e+02 -2.632382192525739e+02 -1.708090204343947e-10 5.472298771358293e-11 -2.829578876897458e-10
-6.140824681847884e+02 -2.632382192528214e+02 -2.632382192526904e+02 6.010716297604680e-11 3.336767543511154e-11 1.748408367520376e-10
        </DataArray>
      </CellData>

    </Piece>
  </UnstructuredGrid>
</VTKFile>
