<?xml version="1.0" ?> 
<!-- 
# vtk DataFile Version 3.0
-->
<VTKFile type="UnstructuredGrid" version="0.1" compressor="vtkZLibDataCompressor" byte_order="LittleEndian">
  <UnstructuredGrid>
    <FieldData>
      <DataArray type="Float64" Name="TIME" NumberOfTuples="1" format="ascii">
9.999999999999999e-02 
      </DataArray>
    </FieldData>

    <Piece NumberOfPoints="400" NumberOfCells="50" >
      <Points>
        <DataArray type="Float64" NumberOfComponents="3" format="ascii">
-5.000000000000000e+00 -5.000000000000000e+00 -1.000000000000000e+00
-5.000000000000000e+00 -5.000000000000000e+00 -3.000000000000000e+00
-5.000000000000000e+00 -3.000000000000000e+00 -3.000000000000000e+00
-5.000000000000000e+00 -3.000000000000000e+00 -1.000000000000000e+00
-3.000000000000000e+00 -5.000000000000000e+00 -1.000000000000000e+00
-3.000000000000000e+00 -5.000000000000000e+00 -3.000000000000000e+00
-3.000000000000000e+00 -3.000000000000000e+00 -3.000000000000000e+00
-3.000000000000000e+00 -3.000000000000000e+00 -1.000000000000000e+00
-5.000000000000000e+00 -5.000000000000000e+00 -3.000000000000000e+00
-5.000000000000000e+00 -5.000000000000000e+00 -5.000000000000000e+00
-5.000000000000000e+00 -3.000000000000000e+00 -5.000000000000000e+00
-5.000000000000000e+00 -3.000000000000000e+00 -3.000000000000000e+00
-3.000000000000000e+00 -5.000000000000000e+00 -3.000000000000000e+00
-3.000000000000000e+00 -5.000000000000000e+00 -5.000000000000000e+00
-3.000000000000000e+00 -3.000000000000000e+00 -5.000000000000000e+00
-3.000000000000000e+00 -3.000000000000000e+00 -3.000000000000000e+00
-5.000000000000000e+00 -3.000000000000000e+00 -1.000000000000000e+00
-5.000000000000000e+00 -3.000000000000000e+00 -3.000000000000000e+00
-5.000000000000000e+00 -1.000000000000000e+00 -3.000000000000000e+00
-5.000000000000000e+00 -1.000000000000000e+00 -1.000000000000000e+00
-3.000000000000000e+00 -3.000000000000000e+00 -1.000000000000000e+00
-3.000000000000000e+00 -3.000000000000000e+00 -3.000000000000000e+00
-3.000000000000000e+00 -1.000000000000000e+00 -3.000000000000000e+00
-3.000000000000000e+00 -1.000000000000000e+00 -1.000000000000000e+00
-5.000000000000000e+00 -3.000000000000000e+00 -3.000000000000000e+00
-5.000000000000000e+00 -3.000000000000000e+00 -5.000000000000000e+00
-5.000000000000000e+00 -1.000000000000000e+00 -5.000000000000000e+00
-5.000000000000000e+00 -1.000000000000000e+00 -3.000000000000000e+00
-3.000000000000000e+00 -3.000000000000000e+00 -3.000000000000000e+00
-3.000000000000000e+00 -3.000000000000000e+00 -5.000000000000000e+00
-3.000000000000000e+00 -1.000000000000000e+00 -5.000000000000000e+00
-3.000000000000000e+00 -1.000000000000000e+00 -3.000000000000000e+00
-5.000000000000000e+00 -1.000000000000000e+00 -1.000000000000000e+00
-5.000000000000000e+00 -1.000000000000000e+00 -3.000000000000000e+00
-5.000000000000000e+00 1.000000000000000e+00 -3.000000000000000e+00
-5.000000000000000e+00 1.000000000000000e+00 -1.000000000000000e+00
-3.000000000000000e+00 -1.000000000000000e+00 -1.000000000000000e+00
-3.000000000000000e+00 -1.000000000000000e+00 -3.000000000000000e+00
-3.000000000000000e+00 1.000000000000000e+00 -3.000000000000000e+00
-3.000000000000000e+00 1.000000000000000e+00 -1.000000000000000e+00
-5.000000000000000e+00 -1.000000000000000e+00 -3.000000000000000e+00
-5.000000000000000e+00 -1.000000000000000e+00 -5.000000000000000e+00
-5.000000000000000e+00 1.000000000000000e+00 -5.000000000000000e+00
-5.000000000000000e+00 1.000000000000000e+00 -3.000000000000000e+00
-3.000000000000000e+00 -1.000000000000000e+00 -3.000000000000000e+00
-3.000000000000000e+00 -1.000000000000000e+00 -5.000000000000000e+00
-3.000000000000000e+00 1.000000000000000e+00 -5.000000000000000e+00
-3.000000000000000e+00 1.000000000000000e+00 -3.000000000000000e+00
-5.000000000000000e+00 1.000000000000000e+00 -1.000000000000000e+00
-5.000000000000000e+00 1.000000000000000e+00 -3.000000000000000e+00
-5.000000000000000e+00 3.000000000000000e+00 -3.000000000000000e+00
-5.000000000000000e+00 3.000000000000000e+00 -1.000000000000000e+00
-3.000000000000000e+00 1.000000000000000e+00 -1.000000000000000e+00
-3.000000000000000e+00 1.000000000000000e+00 -3.000000000000000e+00
-3.000000000000000e+00 3.000000000000000e+00 -3.000000000000000e+00
-3.000000000000000e+00 3.000000000000000e+00 -9.999999999999999e-01
-5.000000000000000e+00 1.000000000000000e+00 -3.000000000000000e+00
-5.000000000000000e+00 1.000000000000000e+00 -5.000000000000000e+00
-5.000000000000000e+00 3.000000000000000e+00 -5.000000000000000e+00
-5.000000000000000e+00 3.000000000000000e+00 -3.000000000000000e+00
-3.000000000000000e+00 1.000000000000000e+00 -3.000000000000000e+00
-3.000000000000000e+00 1.000000000000000e+00 -5.000000000000000e+00
-3.000000000000000e+00 3.000000000000000e+00 -4.999999999999999e+00
-3.000000000000000e+00 3.000000000000000e+00 -3.000000000000000e+00
-5.000000000000000e+00 3.000000000000000e+00 -1.000000000000000e+00
-5.000000000000000e+00 3.000000000000000e+00 -3.000000000000000e+00
-5.000000000000000e+00 5.000000000000000e+00 -3.000000000000000e+00
-5.000000000000000e+00 5.000000000000000e+00 -1.000000000000000e+00
-3.000000000000000e+00 3.000000000000000e+00 -9.999999999999999e-01
-3.000000000000000e+00 3.000000000000000e+00 -3.000000000000000e+00
-3.000000000000000e+00 5.000000000000000e+00 -3.000000000000000e+00
-3.000000000000000e+00 5.000000000000000e+00 -1.000000000000000e+00
-5.000000000000000e+00 3.000000000000000e+00 -3.000000000000000e+00
-5.000000000000000e+00 3.000000000000000e+00 -5.000000000000000e+00
-5.000000000000000e+00 5.000000000000000e+00 -5.000000000000000e+00
-5.000000000000000e+00 5.000000000000000e+00 -3.000000000000000e+00
-3.000000000000000e+00 3.000000000000000e+00 -3.000000000000000e+00
-3.000000000000000e+00 3.000000000000000e+00 -4.999999999999999e+00
-3.000000000000000e+00 5.000000000000000e+00 -5.000000000000000e+00
-3.000000000000000e+00 5.000000000000000e+00 -3.000000000000000e+00
-3.000000000000000e+00 -5.000000000000000e+00 -1.000000000000000e+00
-3.000000000000000e+00 -5.000000000000000e+00 -3.000000000000000e+00
-3.000000000000000e+00 -3.000000000000000e+00 -3.000000000000000e+00
-3.000000000000000e+00 -3.000000000000000e+00 -1.000000000000000e+00
-1.000000000000000e+00 -5.000000000000000e+00 -1.000000000000000e+00
-1.000000000000000e+00 -5.000000000000000e+00 -3.000000000000000e+00
-1.000000000000000e+00 -3.000000000000000e+00 -3.000000000000000e+00
-1.000000000000000e+00 -3.000000000000000e+00 -1.000000000000000e+00
-3.000000000000000e+00 -5.000000000000000e+00 -3.000000000000000e+00
-3.000000000000000e+00 -5.000000000000000e+00 -5.000000000000000e+00
-3.000000000000000e+00 -3.000000000000000e+00 -5.000000000000000e+00
-3.000000000000000e+00 -3.000000000000000e+00 -3.000000000000000e+00
-1.000000000000000e+00 -5.000000000000000e+00 -3.000000000000000e+00
-1.000000000000000e+00 -5.000000000000000e+00 -5.000000000000000e+00
-1.000000000000000e+00 -3.000000000000000e+00 -5.000000000000000e+00
-1.000000000000000e+00 -3.000000000000000e+00 -3.000000000000000e+00
-3.000000000000000e+00 -3.000000000000000e+00 -1.000000000000000e+00
-3.000000000000000e+00 -3.000000000000000e+00 -3.000000000000000e+00
-3.000000000000000e+00 -1.000000000000000e+00 -3.000000000000000e+00
-3.000000000000000e+00 -1.000000000000000e+00 -1.000000000000000e+00
-1.000000000000000e+00 -3.000000000000000e+00 -1.000000000000000e+00
-1.000000000000000e+00 -3.000000000000000e+00 -3.000000000000000e+00
-1.000000000000000e+00 -1.000000000000000e+00 -3.000000000000000e+00
-1.000000000000000e+00 -1.000000000000000e+00 -1.000000000000000e+00
-3.000000000000000e+00 -3.000000000000000e+00 -3.000000000000000e+00
-3.000000000000000e+00 -3.000000000000000e+00 -5.000000000000000e+00
-3.000000000000000e+00 -1.000000000000000e+00 -5.000000000000000e+00
-3.000000000000000e+00 -1.000000000000000e+00 -3.000000000000000e+00
-1.000000000000000e+00 -3.000000000000000e+00 -3.000000000000000e+00
-1.000000000000000e+00 -3.000000000000000e+00 -5.000000000000000e+00
-1.000000000000000e+00 -1.000000000000000e+00 -5.000000000000000e+00
-1.000000000000000e+00 -1.000000000000000e+00 -3.000000000000000e+00
-3.000000000000000e+00 -1.000000000000000e+00 -1.000000000000000e+00
-3.000000000000000e+00 -1.000000000000000e+00 -3.000000000000000e+00
-3.000000000000000e+00 1.000000000000000e+00 -3.000000000000000e+00
-3.000000000000000e+00 1.000000000000000e+00 -1.000000000000000e+00
-1.000000000000000e+00 -1.000000000000000e+00 -1.000000000000000e+00
-1.000000000000000e+00 -1.000000000000000e+00 -3.000000000000000e+00
-1.000000000000000e+00 1.000000000000000e+00 -3.000000000000000e+00
-1.000000000000000e+00 1.000000000000000e+00 -1.000000000000000e+00
-3.000000000000000e+00 -1.000000000000000e+00 -3.000000000000000e+00
-3.000000000000000e+00 -1.000000000000000e+00 -5.000000000000000e+00
-3.000000000000000e+00 1.000000000000000e+00 -5.000000000000000e+00
-3.000000000000000e+00 1.000000000000000e+00 -3.000000000000000e+00
-1.000000000000000e+00 -1.000000000000000e+00 -3.000000000000000e+00
-1.000000000000000e+00 -1.000000000000000e+00 -5.000000000000000e+00
-1.000000000000000e+00 1.000000000000000e+00 -5.000000000000000e+00
-1.000000000000000e+00 1.000000000000000e+00 -3.000000000000000e+00
-3.000000000000000e+00 1.000000000000000e+00 -1.000000000000000e+00
-3.000000000000000e+00 1.000000000000000e+00 -3.000000000000000e+00
-3.000000000000000e+00 3.000000000000000e+00 -3.000000000000000e+00
-3.000000000000000e+00 3.000000000000000e+00 -9.999999999999999e-01
-1.000000000000000e+00 1.000000000000000e+00 -1.000000000000000e+00
-1.000000000000000e+00 1.000000000000000e+00 -3.000000000000000e+00
-1.000000000000000e+00 3.000000000000000e+00 -3.000000000000000e+00
-1.000000000000000e+00 3.000000000000000e+00 -1.000000000000000e+00
-3.000000000000000e+00 1.000000000000000e+00 -3.000000000000000e+00
-3.000000000000000e+00 1.000000000000000e+00 -5.000000000000000e+00
-3.000000000000000e+00 3.000000000000000e+00 -4.999999999999999e+00
-3.000000000000000e+00 3.000000000000000e+00 -3.000000000000000e+00
-1.000000000000000e+00 1.000000000000000e+00 -3.000000000000000e+00
-1.000000000000000e+00 1.000000000000000e+00 -5.000000000000000e+00
-1.000000000000000e+00 3.000000000000000e+00 -5.000000000000000e+00
-1.000000000000000e+00 3.000000000000000e+00 -3.000000000000000e+00
-3.000000000000000e+00 3.000000000000000e+00 -9.999999999999999e-01
-3.000000000000000e+00 3.000000000000000e+00 -3.000000000000000e+00
-3.000000000000000e+00 5.000000000000000e+00 -3.000000000000000e+00
-3.000000000000000e+00 5.000000000000000e+00 -1.000000000000000e+00
-1.000000000000000e+00 3.000000000000000e+00 -1.000000000000000e+00
-1.000000000000000e+00 3.000000000000000e+00 -3.000000000000000e+00
-1.000000000000000e+00 5.000000000000000e+00 -3.000000000000000e+00
-1.000000000000000e+00 5.000000000000000e+00 -1.000000000000000e+00
-3.000000000000000e+00 3.000000000000000e+00 -3.000000000000000e+00
-3.000000000000000e+00 3.000000000000000e+00 -4.999999999999999e+00
-3.000000000000000e+00 5.000000000000000e+00 -5.000000000000000e+00
-3.000000000000000e+00 5.000000000000000e+00 -3.000000000000000e+00
-1.000000000000000e+00 3.000000000000000e+00 -3.000000000000000e+00
-1.000000000000000e+00 3.000000000000000e+00 -5.000000000000000e+00
-1.000000000000000e+00 5.000000000000000e+00 -5.000000000000000e+00
-1.000000000000000e+00 5.000000000000000e+00 -3.000000000000000e+00
-1.000000000000000e+00 -5.000000000000000e+00 -1.000000000000000e+00
-1.000000000000000e+00 -5.000000000000000e+00 -3.000000000000000e+00
-1.000000000000000e+00 -3.000000000000000e+00 -3.000000000000000e+00
-1.000000000000000e+00 -3.000000000000000e+00 -1.000000000000000e+00
1.000000000000000e+00 -5.000000000000000e+00 -1.000000000000000e+00
1.000000000000000e+00 -5.000000000000000e+00 -3.000000000000000e+00
1.000000000000000e+00 -3.000000000000000e+00 -3.000000000000000e+00
1.000000000000000e+00 -3.000000000000000e+00 -1.000000000000000e+00
-1.000000000000000e+00 -5.000000000000000e+00 -3.000000000000000e+00
-1.000000000000000e+00 -5.000000000000000e+00 -5.000000000000000e+00
-1.000000000000000e+00 -3.000000000000000e+00 -5.000000000000000e+00
-1.000000000000000e+00 -3.000000000000000e+00 -3.000000000000000e+00
1.000000000000000e+00 -5.000000000000000e+00 -3.000000000000000e+00
1.000000000000000e+00 -5.000000000000000e+00 -5.000000000000000e+00
1.000000000000000e+00 -3.000000000000000e+00 -5.000000000000000e+00
1.000000000000000e+00 -3.000000000000000e+00 -3.000000000000000e+00
-1.000000000000000e+00 -3.000000000000000e+00 -1.000000000000000e+00
-1.000000000000000e+00 -3.000000000000000e+00 -3.000000000000000e+00
-1.000000000000000e+00 -1.000000000000000e+00 -3.000000000000000e+00
-1.000000000000000e+00 -1.000000000000000e+00 -1.000000000000000e+00
1.000000000000000e+00 -3.000000000000000e+00 -1.000000000000000e+00
1.000000000000000e+00 -3.000000000000000e+00 -3.000000000000000e+00
1.000000000000000e+00 -1.000000000000000e+00 -3.000000000000000e+00
1.000000000000000e+00 -1.000000000000000e+00 -1.000000000000000e+00
-1.000000000000000e+00 -3.000000000000000e+00 -3.000000000000000e+00
-1.000000000000000e+00 -3.000000000000000e+00 -5.000000000000000e+00
-1.000000000000000e+00 -1.000000000000000e+00 -5.000000000000000e+00
-1.000000000000000e+00 -1.000000000000000e+00 -3.000000000000000e+00
1.000000000000000e+00 -3.000000000000000e+00 -3.000000000000000e+00
1.000000000000000e+00 -3.000000000000000e+00 -5.000000000000000e+00
1.000000000000000e+00 -1.000000000000000e+00 -5.000000000000000e+00
1.000000000000000e+00 -1.000000000000000e+00 -3.000000000000000e+00
-1.000000000000000e+00 -1.000000000000000e+00 -1.000000000000000e+00
-1.000000000000000e+00 -1.000000000000000e+00 -3.000000000000000e+00
-1.000000000000000e+00 1.000000000000000e+00 -3.000000000000000e+00
-1.000000000000000e+00 1.000000000000000e+00 -1.000000000000000e+00
1.000000000000000e+00 -1.000000000000000e+00 -1.000000000000000e+00
1.000000000000000e+00 -1.000000000000000e+00 -3.000000000000000e+00
1.000000000000000e+00 1.000000000000000e+00 -3.000000000000000e+00
1.000000000000000e+00 1.000000000000000e+00 -1.000000000000000e+00
-1.000000000000000e+00 -1.000000000000000e+00 -3.000000000000000e+00
-1.000000000000000e+00 -1.000000000000000e+00 -5.000000000000000e+00
-1.000000000000000e+00 1.000000000000000e+00 -5.000000000000000e+00
-1.000000000000000e+00 1.000000000000000e+00 -3.000000000000000e+00
1.000000000000000e+00 -1.000000000000000e+00 -3.000000000000000e+00
1.000000000000000e+00 -1.000000000000000e+00 -5.000000000000000e+00
1.000000000000000e+00 1.000000000000000e+00 -5.000000000000000e+00
1.000000000000000e+00 1.000000000000000e+00 -3.000000000000000e+00
-1.000000000000000e+00 1.000000000000000e+00 -1.000000000000000e+00
-1.000000000000000e+00 1.000000000000000e+00 -3.000000000000000e+00
-1.000000000000000e+00 3.000000000000000e+00 -3.000000000000000e+00
-1.000000000000000e+00 3.000000000000000e+00 -1.000000000000000e+00
1.000000000000000e+00 1.000000000000000e+00 -1.000000000000000e+00
1.000000000000000e+00 1.000000000000000e+00 -3.000000000000000e+00
1.000000000000000e+00 3.000000000000000e+00 -3.000000000000000e+00
1.000000000000000e+00 3.000000000000000e+00 -1.000000000000000e+00
-1.000000000000000e+00 1.000000000000000e+00 -3.000000000000000e+00
-1.000000000000000e+00 1.000000000000000e+00 -5.000000000000000e+00
-1.000000000000000e+00 3.000000000000000e+00 -5.000000000000000e+00
-1.000000000000000e+00 3.000000000000000e+00 -3.000000000000000e+00
1.000000000000000e+00 1.000000000000000e+00 -3.000000000000000e+00
1.000000000000000e+00 1.000000000000000e+00 -5.000000000000000e+00
1.000000000000000e+00 3.000000000000000e+00 -5.000000000000000e+00
1.000000000000000e+00 3.000000000000000e+00 -3.000000000000000e+00
-1.000000000000000e+00 3.000000000000000e+00 -1.000000000000000e+00
-1.000000000000000e+00 3.000000000000000e+00 -3.000000000000000e+00
-1.000000000000000e+00 5.000000000000000e+00 -3.000000000000000e+00
-1.000000000000000e+00 5.000000000000000e+00 -1.000000000000000e+00
1.000000000000000e+00 3.000000000000000e+00 -1.000000000000000e+00
1.000000000000000e+00 3.000000000000000e+00 -3.000000000000000e+00
1.000000000000000e+00 5.000000000000000e+00 -3.000000000000000e+00
1.000000000000000e+00 5.000000000000000e+00 -1.000000000000000e+00
-1.000000000000000e+00 3.000000000000000e+00 -3.000000000000000e+00
-1.000000000000000e+00 3.000000000000000e+00 -5.000000000000000e+00
-1.000000000000000e+00 5.000000000000000e+00 -5.000000000000000e+00
-1.000000000000000e+00 5.000000000000000e+00 -3.000000000000000e+00
1.000000000000000e+00 3.000000000000000e+00 -3.000000000000000e+00
1.000000000000000e+00 3.000000000000000e+00 -5.000000000000000e+00
1.000000000000000e+00 5.000000000000000e+00 -5.000000000000000e+00
1.000000000000000e+00 5.000000000000000e+00 -3.000000000000000e+00
1.000000000000000e+00 -5.000000000000000e+00 -1.000000000000000e+00
1.000000000000000e+00 -5.000000000000000e+00 -3.000000000000000e+00
1.000000000000000e+00 -3.000000000000000e+00 -3.000000000000000e+00
1.000000000000000e+00 -3.000000000000000e+00 -1.000000000000000e+00
3.000000000000000e+00 -5.000000000000000e+00 -1.000000000000000e+00
3.000000000000000e+00 -5.000000000000000e+00 -3.000000000000000e+00
3.000000000000000e+00 -3.000000000000000e+00 -3.000000000000000e+00
3.000000000000000e+00 -3.000000000000000e+00 -1.000000000000000e+00
1.000000000000000e+00 -5.000000000000000e+00 -3.000000000000000e+00
1.000000000000000e+00 -5.000000000000000e+00 -5.000000000000000e+00
1.000000000000000e+00 -3.000000000000000e+00 -5.000000000000000e+00
1.000000000000000e+00 -3.000000000000000e+00 -3.000000000000000e+00
3.000000000000000e+00 -5.000000000000000e+00 -3.000000000000000e+00
3.000000000000000e+00 -5.000000000000000e+00 -5.000000000000000e+00
3.000000000000000e+00 -3.000000000000000e+00 -5.000000000000000e+00
3.000000000000000e+00 -3.000000000000000e+00 -3.000000000000000e+00
1.000000000000000e+00 -3.000000000000000e+00 -1.000000000000000e+00
1.000000000000000e+00 -3.000000000000000e+00 -3.000000000000000e+00
1.000000000000000e+00 -1.000000000000000e+00 -3.000000000000000e+00
1.000000000000000e+00 -1.000000000000000e+00 -1.000000000000000e+00
3.000000000000000e+00 -3.000000000000000e+00 -1.000000000000000e+00
3.000000000000000e+00 -3.000000000000000e+00 -3.000000000000000e+00
3.000000000000000e+00 -1.000000000000000e+00 -3.000000000000000e+00
3.000000000000000e+00 -1.000000000000000e+00 -1.000000000000000e+00
1.000000000000000e+00 -3.000000000000000e+00 -3.000000000000000e+00
1.000000000000000e+00 -3.000000000000000e+00 -5.000000000000000e+00
1.000000000000000e+00 -1.000000000000000e+00 -5.000000000000000e+00
1.000000000000000e+00 -1.000000000000000e+00 -3.000000000000000e+00
3.000000000000000e+00 -3.000000000000000e+00 -3.000000000000000e+00
3.000000000000000e+00 -3.000000000000000e+00 -5.000000000000000e+00
3.000000000000000e+00 -1.000000000000000e+00 -5.000000000000000e+00
3.000000000000000e+00 -1.000000000000000e+00 -3.000000000000000e+00
1.000000000000000e+00 -1.000000000000000e+00 -1.000000000000000e+00
1.000000000000000e+00 -1.000000000000000e+00 -3.000000000000000e+00
1.000000000000000e+00 1.000000000000000e+00 -3.000000000000000e+00
1.000000000000000e+00 1.000000000000000e+00 -1.000000000000000e+00
3.000000000000000e+00 -1.000000000000000e+00 -1.000000000000000e+00
3.000000000000000e+00 -1.000000000000000e+00 -3.000000000000000e+00
3.000000000000000e+00 1.000000000000000e+00 -3.000000000000000e+00
3.000000000000000e+00 1.000000000000000e+00 -1.000000000000000e+00
1.000000000000000e+00 -1.000000000000000e+00 -3.000000000000000e+00
1.000000000000000e+00 -1.000000000000000e+00 -5.000000000000000e+00
1.000000000000000e+00 1.000000000000000e+00 -5.000000000000000e+00
1.000000000000000e+00 1.000000000000000e+00 -3.000000000000000e+00
3.000000000000000e+00 -1.000000000000000e+00 -3.000000000000000e+00
3.000000000000000e+00 -1.000000000000000e+00 -5.000000000000000e+00
3.000000000000000e+00 1.000000000000000e+00 -5.000000000000000e+00
3.000000000000000e+00 1.000000000000000e+00 -3.000000000000000e+00
1.000000000000000e+00 1.000000000000000e+00 -1.000000000000000e+00
1.000000000000000e+00 1.000000000000000e+00 -3.000000000000000e+00
1.000000000000000e+00 3.000000000000000e+00 -3.000000000000000e+00
1.000000000000000e+00 3.000000000000000e+00 -1.000000000000000e+00
3.000000000000000e+00 1.000000000000000e+00 -1.000000000000000e+00
3.000000000000000e+00 1.000000000000000e+00 -3.000000000000000e+00
3.000000000000000e+00 3.000000000000000e+00 -3.000000000000000e+00
3.000000000000000e+00 3.000000000000000e+00 -1.000000000000000e+00
1.000000000000000e+00 1.000000000000000e+00 -3.000000000000000e+00
1.000000000000000e+00 1.000000000000000e+00 -5.000000000000000e+00
1.000000000000000e+00 3.000000000000000e+00 -5.000000000000000e+00
1.000000000000000e+00 3.000000000000000e+00 -3.000000000000000e+00
3.000000000000000e+00 1.000000000000000e+00 -3.000000000000000e+00
3.000000000000000e+00 1.000000000000000e+00 -5.000000000000000e+00
3.000000000000000e+00 3.000000000000000e+00 -5.000000000000000e+00
3.000000000000000e+00 3.000000000000000e+00 -3.000000000000000e+00
1.000000000000000e+00 3.000000000000000e+00 -1.000000000000000e+00
1.000000000000000e+00 3.000000000000000e+00 -3.000000000000000e+00
1.000000000000000e+00 5.000000000000000e+00 -3.000000000000000e+00
1.000000000000000e+00 5.000000000000000e+00 -1.000000000000000e+00
3.000000000000000e+00 3.000000000000000e+00 -1.000000000000000e+00
3.000000000000000e+00 3.000000000000000e+00 -3.000000000000000e+00
3.000000000000000e+00 5.000000000000000e+00 -3.000000000000000e+00
3.000000000000000e+00 5.000000000000000e+00 -1.000000000000000e+00
1.000000000000000e+00 3.000000000000000e+00 -3.000000000000000e+00
1.000000000000000e+00 3.000000000000000e+00 -5.000000000000000e+00
1.000000000000000e+00 5.000000000000000e+00 -5.000000000000000e+00
1.000000000000000e+00 5.000000000000000e+00 -3.000000000000000e+00
3.000000000000000e+00 3.000000000000000e+00 -3.000000000000000e+00
3.000000000000000e+00 3.000000000000000e+00 -5.000000000000000e+00
3.000000000000000e+00 5.000000000000000e+00 -5.000000000000000e+00
3.000000000000000e+00 5.000000000000000e+00 -3.000000000000000e+00
3.000000000000000e+00 -5.000000000000000e+00 -1.000000000000000e+00
3.000000000000000e+00 -5.000000000000000e+00 -3.000000000000000e+00
3.000000000000000e+00 -3.000000000000000e+00 -3.000000000000000e+00
3.000000000000000e+00 -3.000000000000000e+00 -1.000000000000000e+00
5.000000000000000e+00 -5.000000000000000e+00 -1.000000000000000e+00
5.000000000000000e+00 -5.000000000000000e+00 -3.000000000000000e+00
5.000000000000000e+00 -3.000000000000000e+00 -3.000000000000000e+00
5.000000000000000e+00 -3.000000000000000e+00 -1.000000000000000e+00
3.000000000000000e+00 -5.000000000000000e+00 -3.000000000000000e+00
3.000000000000000e+00 -5.000000000000000e+00 -5.000000000000000e+00
3.000000000000000e+00 -3.000000000000000e+00 -5.000000000000000e+00
3.000000000000000e+00 -3.000000000000000e+00 -3.000000000000000e+00
5.000000000000000e+00 -5.000000000000000e+00 -3.000000000000000e+00
5.000000000000000e+00 -5.000000000000000e+00 -5.000000000000000e+00
5.000000000000000e+00 -3.000000000000000e+00 -5.000000000000000e+00
5.000000000000000e+00 -3.000000000000000e+00 -3.000000000000000e+00
3.000000000000000e+00 -3.000000000000000e+00 -1.000000000000000e+00
3.000000000000000e+00 -3.000000000000000e+00 -3.000000000000000e+00
3.000000000000000e+00 -1.000000000000000e+00 -3.000000000000000e+00
3.000000000000000e+00 -1.000000000000000e+00 -1.000000000000000e+00
5.000000000000000e+00 -3.000000000000000e+00 -1.000000000000000e+00
5.000000000000000e+00 -3.000000000000000e+00 -3.000000000000000e+00
5.000000000000000e+00 -1.000000000000000e+00 -3.000000000000000e+00
5.000000000000000e+00 -1.000000000000000e+00 -1.000000000000000e+00
3.000000000000000e+00 -3.000000000000000e+00 -3.000000000000000e+00
3.000000000000000e+00 -3.000000000000000e+00 -5.000000000000000e+00
3.000000000000000e+00 -1.000000000000000e+00 -5.000000000000000e+00
3.000000000000000e+00 -1.000000000000000e+00 -3.000000000000000e+00
5.000000000000000e+00 -3.000000000000000e+00 -3.000000000000000e+00
5.000000000000000e+00 -3.000000000000000e+00 -5.000000000000000e+00
5.000000000000000e+00 -1.000000000000000e+00 -5.000000000000000e+00
5.000000000000000e+00 -1.000000000000000e+00 -3.000000000000000e+00
3.000000000000000e+00 -1.000000000000000e+00 -1.000000000000000e+00
3.000000000000000e+00 -1.000000000000000e+00 -3.000000000000000e+00
3.000000000000000e+00 1.000000000000000e+00 -3.000000000000000e+00
3.000000000000000e+00 1.000000000000000e+00 -1.000000000000000e+00
5.000000000000000e+00 -1.000000000000000e+00 -1.000000000000000e+00
5.000000000000000e+00 -1.000000000000000e+00 -3.000000000000000e+00
5.000000000000000e+00 1.000000000000000e+00 -3.000000000000000e+00
5.000000000000000e+00 1.000000000000000e+00 -1.000000000000000e+00
3.000000000000000e+00 -1.000000000000000e+00 -3.000000000000000e+00
3.000000000000000e+00 -1.000000000000000e+00 -5.000000000000000e+00
3.000000000000000e+00 1.000000000000000e+00 -5.000000000000000e+00
3.000000000000000e+00 1.000000000000000e+00 -3.000000000000000e+00
5.000000000000000e+00 -1.000000000000000e+00 -3.000000000000000e+00
5.000000000000000e+00 -1.000000000000000e+00 -5.000000000000000e+00
5.000000000000000e+00 1.000000000000000e+00 -5.000000000000000e+00
5.000000000000000e+00 1.000000000000000e+00 -3.000000000000000e+00
3.000000000000000e+00 1.000000000000000e+00 -1.000000000000000e+00
3.000000000000000e+00 1.000000000000000e+00 -3.000000000000000e+00
3.000000000000000e+00 3.000000000000000e+00 -3.000000000000000e+00
3.000000000000000e+00 3.000000000000000e+00 -1.000000000000000e+00
5.000000000000000e+00 1.000000000000000e+00 -1.000000000000000e+00
5.000000000000000e+00 1.000000000000000e+00 -3.000000000000000e+00
5.000000000000000e+00 3.000000000000000e+00 -3.000000000000000e+00
5.000000000000000e+00 3.000000000000000e+00 -1.000000000000000e+00
3.000000000000000e+00 1.000000000000000e+00 -3.000000000000000e+00
3.000000000000000e+00 1.000000000000000e+00 -5.000000000000000e+00
3.000000000000000e+00 3.000000000000000e+00 -5.000000000000000e+00
3.000000000000000e+00 3.000000000000000e+00 -3.000000000000000e+00
5.000000000000000e+00 1.000000000000000e+00 -3.000000000000000e+00
5.000000000000000e+00 1.000000000000000e+00 -5.000000000000000e+00
5.000000000000000e+00 3.000000000000000e+00 -5.000000000000000e+00
5.000000000000000e+00 3.000000000000000e+00 -3.000000000000000e+00
3.000000000000000e+00 3.000000000000000e+00 -1.000000000000000e+00
3.000000000000000e+00 3.000000000000000e+00 -3.000000000000000e+00
3.000000000000000e+00 5.000000000000000e+00 -3.000000000000000e+00
3.000000000000000e+00 5.000000000000000e+00 -1.000000000000000e+00
5.000000000000000e+00 3.000000000000000e+00 -1.000000000000000e+00
5.000000000000000e+00 3.000000000000000e+00 -3.000000000000000e+00
5.000000000000000e+00 5.000000000000000e+00 -3.000000000000000e+00
5.000000000000000e+00 5.000000000000000e+00 -1.000000000000000e+00
3.000000000000000e+00 3.000000000000000e+00 -3.000000000000000e+00
3.000000000000000e+00 3.000000000000000e+00 -5.000000000000000e+00
3.000000000000000e+00 5.000000000000000e+00 -5.000000000000000e+00
3.000000000000000e+00 5.000000000000000e+00 -3.000000000000000e+00
5.000000000000000e+00 3.000000000000000e+00 -3.000000000000000e+00
5.000000000000000e+00 3.000000000000000e+00 -5.000000000000000e+00
5.000000000000000e+00 5.000000000000000e+00 -5.000000000000000e+00
5.000000000000000e+00 5.000000000000000e+00 -3.000000000000000e+00
        </DataArray>
      </Points>

      <Cells>
        <DataArray type="Int32" Name="connectivity" format="ascii">
0 1 2 3 4 5 6 7 8 9 10 11 12 13 14 15 16 17 18 19 20 21 22 23 24 25 26 27 28 29 30 31 32 33 34 35 36 37 38 39 40 41 42 43 44 45 46 47 48 49 50 51 52 53 54 55 56 57 58 59 60 61 62 63 64 65 66 67 68 69 70 71 72 73 74 75 76 77 78 79 80 81 82 83 84 85 86 87 88 89 90 91 92 93 94 95 96 97 98 99 100 101 102 103 104 105 106 107 108 109 110 111 112 113 114 115 116 117 118 119 120 121 122 123 124 125 126 127 128 129 130 131 132 133 134 135 136 137 138 139 140 141 142 143 144 145 146 147 148 149 150 151 152 153 154 155 156 157 158 159 160 161 162 163 164 165 166 167 168 169 170 171 172 173 174 175 176 177 178 179 180 181 182 183 184 185 186 187 188 189 190 191 192 193 194 195 196 197 198 199 200 201 202 203 204 205 206 207 208 209 210 211 212 213 214 215 216 217 218 219 220 221 222 223 224 225 226 227 228 229 230 231 232 233 234 235 236 237 238 239 240 241 242 243 244 245 246 247 248 249 250 251 252 253 254 255 256 257 258 259 260 261 262 263 264 265 266 267 268 269 270 271 272 273 274 275 276 277 278 279 280 281 282 283 284 285 286 287 288 289 290 291 292 293 294 295 296 297 298 299 300 301 302 303 304 305 306 307 308 309 310 311 312 313 314 315 316 317 318 319 320 321 322 323 324 325 326 327 328 329 330 331 332 333 334 335 336 337 338 339 340 341 342 343 344 345 346 347 348 349 350 351 352 353 354 355 356 357 358 359 360 361 362 363 364 365 366 367 368 369 370 371 372 373 374 375 376 377 378 379 380 381 382 383 384 385 386 387 388 389 390 391 392 393 394 395 396 397 398 399 
        </DataArray>
        <DataArray type="Int32" Name="offsets" format="ascii">
8 16 24 32 40 48 56 64 72 80 88 96 104 112 120 128 136 144 152 160 168 176 184 192 200 208 216 224 232 240 248 256 264 272 280 288 296 304 312 320 328 336 344 352 360 368 376 384 392 400 
        </DataArray>
        <DataArray type="UInt8" Name="types" format="ascii">
12 12 12 12 12 12 12 12 12 12 12 12 12 12 12 12 12 12 12 12 12 12 12 12 12 12 12 12 12 12 12 12 12 12 12 12 12 12 12 12 12 12 12 12 12 12 12 12 12 12 
        </DataArray>
      </Cells>

  <PointData>
        <DataArray type="Float64" Name="displacement" NumberOfComponents="3" format="ascii">
0.000000000000000e+00 0.000000000000000e+00 0.000000000000000e+00
0.000000000000000e+00 0.000000000000000e+00 0.000000000000000e+00
0.000000000000000e+00 0.000000000000000e+00 0.000000000000000e+00
0.000000000000000e+00 0.000000000000000e+00 0.000000000000000e+00
-4.538264040063111e-04 0.000000000000000e+00 0.000000000000000e+00
-4.538264040062562e-04 0.000000000000000e+00 0.000000000000000e+00
-4.538264040064622e-04 -7.882453783451165e-17 -1.301084444638284e-16
-4.538264040062028e-04 1.823932529588109e-16 -6.745627683353668e-17
0.000000000000000e+00 0.000000000000000e+00 0.000000000000000e+00
0.000000000000000e+00 0.000000000000000e+00 0.000000000000000e+00
0.000000000000000e+00 0.000000000000000e+00 0.000000000000000e+00
0.000000000000000e+00 0.000000000000000e+00 0.000000000000000e+00
-4.538264040062562e-04 0.000000000000000e+00 0.000000000000000e+00
-4.538264040071825e-04 0.000000000000000e+00 0.000000000000000e+00
-4.538264040060928e-04 0.000000000000000e+00 0.000000000000000e+00
-4.538264040064622e-04 -7.882453783451165e-17 -1.301084444638284e-16
0.000000000000000e+00 0.000000000000000e+00 0.000000000000000e+00
0.000000000000000e+00 0.000000000000000e+00 0.000000000000000e+00
0.000000000000000e+00 0.000000000000000e+00 0.000000000000000e+00
0.000000000000000e+00 0.000000000000000e+00 0.000000000000000e+00
-4.538264040062028e-04 1.823932529588109e-16 -6.745627683353668e-17
-4.538264040064622e-04 -7.882453783451165e-17 -1.301084444638284e-16
-4.538264040061489e-04 2.774129347643623e-16 2.923012309764365e-16
-4.538264040060482e-04 1.894379161536975e-16 1.368739941782975e-17
0.000000000000000e+00 0.000000000000000e+00 0.000000000000000e+00
0.000000000000000e+00 0.000000000000000e+00 0.000000000000000e+00
0.000000000000000e+00 0.000000000000000e+00 0.000000000000000e+00
0.000000000000000e+00 0.000000000000000e+00 0.000000000000000e+00
-4.538264040064622e-04 -7.882453783451165e-17 -1.301084444638284e-16
-4.538264040060928e-04 0.000000000000000e+00 0.000000000000000e+00
-4.538264040069846e-04 0.000000000000000e+00 0.000000000000000e+00
-4.538264040061489e-04 2.774129347643623e-16 2.923012309764365e-16
0.000000000000000e+00 0.000000000000000e+00 0.000000000000000e+00
0.000000000000000e+00 0.000000000000000e+00 0.000000000000000e+00
0.000000000000000e+00 0.000000000000000e+00 0.000000000000000e+00
0.000000000000000e+00 0.000000000000000e+00 0.000000000000000e+00
-4.538264040060482e-04 1.894379161536975e-16 1.368739941782975e-17
-4.538264040061489e-04 2.774129347643623e-16 2.923012309764365e-16
-4.538264040068122e-04 1.841477118494650e-17 2.674234992701659e-16
-4.538264040060357e-04 4.390270872949656e-17 4.230361471732551e-16
0.000000000000000e+00 0.000000000000000e+00 0.000000000000000e+00
0.000000000000000e+00 0.000000000000000e+00 0.000000000000000e+00
0.000000000000000e+00 0.000000000000000e+00 0.000000000000000e+00
0.000000000000000e+00 0.000000000000000e+00 0.000000000000000e+00
-4.538264040061489e-04 2.774129347643623e-16 2.923012309764365e-16
-4.538264040069846e-04 0.000000000000000e+00 0.000000000000000e+00
-4.538264040061342e-04 0.000000000000000e+00 0.000000000000000e+00
-4.538264040068122e-04 1.841477118494650e-17 2.674234992701659e-16
0.000000000000000e+00 0.000000000000000e+00 0.000000000000000e+00
0.000000000000000e+00 0.000000000000000e+00 0.000000000000000e+00
0.000000000000000e+00 0.000000000000000e+00 0.000000000000000e+00
0.000000000000000e+00 0.000000000000000e+00 0.000000000000000e+00
-4.538264040060357e-04 4.390270872949656e-17 4.230361471732551e-16
-4.538264040068122e-04 1.841477118494650e-17 2.674234992701659e-16
-4.538264040050342e-04 6.873166941374619e-16 -8.061155633404415e-16
-4.538264040064198e-04 5.175150813686785e-16 -8.581640785169329e-16
0.000000000000000e+00 0.000000000000000e+00 0.000000000000000e+00
0.000000000000000e+00 0.000000000000000e+00 0.000000000000000e+00
0.000000000000000e+00 0.000000000000000e+00 0.000000000000000e+00
0.000000000000000e+00 0.000000000000000e+00 0.000000000000000e+00
-4.538264040068122e-04 1.841477118494650e-17 2.674234992701659e-16
-4.538264040061342e-04 0.000000000000000e+00 0.000000000000000e+00
-4.538264040061964e-04 0.000000000000000e+00 0.000000000000000e+00
-4.538264040050342e-04 6.873166941374619e-16 -8.061155633404415e-16
0.000000000000000e+00 0.000000000000000e+00 0.000000000000000e+00
0.000000000000000e+00 0.000000000000000e+00 0.000000000000000e+00
0.000000000000000e+00 0.000000000000000e+00 0.000000000000000e+00
0.000000000000000e+00 0.000000000000000e+00 0.000000000000000e+00
-4.538264040064198e-04 5.175150813686785e-16 -8.581640785169329e-16
-4.538264040050342e-04 6.873166941374619e-16 -8.061155633404415e-16
-4.538264040052003e-04 0.000000000000000e+00 0.000000000000000e+00
-4.538264040053545e-04 0.000000000000000e+00 0.000000000000000e+00
0.000000000000000e+00 0.000000000000000e+00 0.000000000000000e+00
0.000000000000000e+00 0.000000000000000e+00 0.000000000000000e+00
0.000000000000000e+00 0.000000000000000e+00 0.000000000000000e+00
0.000000000000000e+00 0.000000000000000e+00 0.000000000000000e+00
-4.538264040050342e-04 6.873166941374619e-16 -8.061155633404415e-16
-4.538264040061964e-04 0.000000000000000e+00 0.000000000000000e+00
-4.538264040065182e-04 0.000000000000000e+00 0.000000000000000e+00
-4.538264040052003e-04 0.000000000000000e+00 0.000000000000000e+00
-4.538264040063111e-04 0.000000000000000e+00 0.000000000000000e+00
-4.538264040062562e-04 0.000000000000000e+00 0.000000000000000e+00
-4.538264040064622e-04 -7.882453783451165e-17 -1.301084444638284e-16
-4.538264040062028e-04 1.823932529588109e-16 -6.745627683353668e-17
-9.070747024729855e-04 0.000000000000000e+00 0.000000000000000e+00
-9.070747024715823e-04 0.000000000000000e+00 0.000000000000000e+00
-9.070747024726928e-04 2.607502566414370e-17 6.219260920786326e-16
-9.070747024727610e-04 -5.122285212265228e-17 1.525577720731473e-16
-4.538264040062562e-04 0.000000000000000e+00 0.000000000000000e+00
-4.538264040071825e-04 0.000000000000000e+00 0.000000000000000e+00
-4.538264040060928e-04 0.000000000000000e+00 0.000000000000000e+00
-4.538264040064622e-04 -7.882453783451165e-17 -1.301084444638284e-16
-9.070747024715823e-04 0.000000000000000e+00 0.000000000000000e+00
-9.070747024722018e-04 0.000000000000000e+00 0.000000000000000e+00
-9.070747024724617e-04 0.000000000000000e+00 0.000000000000000e+00
-9.070747024726928e-04 2.607502566414370e-17 6.219260920786326e-16
-4.538264040062028e-04 1.823932529588109e-16 -6.745627683353668e-17
-4.538264040064622e-04 -7.882453783451165e-17 -1.301084444638284e-16
-4.538264040061489e-04 2.774129347643623e-16 2.923012309764365e-16
-4.538264040060482e-04 1.894379161536975e-16 1.368739941782975e-17
-9.070747024727610e-04 -5.122285212265228e-17 1.525577720731473e-16
-9.070747024726928e-04 2.607502566414370e-17 6.219260920786326e-16
-9.070747024725910e-04 1.170984655653154e-15 -3.803320816256636e-16
-9.070747024717430e-04 8.677548232725138e-16 8.488301227283881e-16
-4.538264040064622e-04 -7.882453783451165e-17 -1.301084444638284e-16
-4.538264040060928e-04 0.000000000000000e+00 0.000000000000000e+00
-4.538264040069846e-04 0.000000000000000e+00 0.000000000000000e+00
-4.538264040061489e-04 2.774129347643623e-16 2.923012309764365e-16
-9.070747024726928e-04 2.607502566414370e-17 6.219260920786326e-16
-9.070747024724617e-04 0.000000000000000e+00 0.000000000000000e+00
-9.070747024721736e-04 0.000000000000000e+00 0.000000000000000e+00
-9.070747024725910e-04 1.170984655653154e-15 -3.803320816256636e-16
-4.538264040060482e-04 1.894379161536975e-16 1.368739941782975e-17
-4.538264040061489e-04 2.774129347643623e-16 2.923012309764365e-16
-4.538264040068122e-04 1.841477118494650e-17 2.674234992701659e-16
-4.538264040060357e-04 4.390270872949656e-17 4.230361471732551e-16
-9.070747024717430e-04 8.677548232725138e-16 8.488301227283881e-16
-9.070747024725910e-04 1.170984655653154e-15 -3.803320816256636e-16
-9.070747024722076e-04 3.206555801496990e-16 -2.341365097904146e-16
-9.070747024724965e-04 2.103426443755520e-16 1.594631120217480e-16
-4.538264040061489e-04 2.774129347643623e-16 2.923012309764365e-16
-4.538264040069846e-04 0.000000000000000e+00 0.000000000000000e+00
-4.538264040061342e-04 0.000000000000000e+00 0.000000000000000e+00
-4.538264040068122e-04 1.841477118494650e-17 2.674234992701659e-16
-9.070747024725910e-04 1.170984655653154e-15 -3.803320816256636e-16
-9.070747024721736e-04 0.000000000000000e+00 0.000000000000000e+00
-9.070747024726215e-04 0.000000000000000e+00 0.000000000000000e+00
-9.070747024722076e-04 3.206555801496990e-16 -2.341365097904146e-16
-4.538264040060357e-04 4.390270872949656e-17 4.230361471732551e-16
-4.538264040068122e-04 1.841477118494650e-17 2.674234992701659e-16
-4.538264040050342e-04 6.873166941374619e-16 -8.061155633404415e-16
-4.538264040064198e-04 5.175150813686785e-16 -8.581640785169329e-16
-9.070747024724965e-04 2.103426443755520e-16 1.594631120217480e-16
-9.070747024722076e-04 3.206555801496990e-16 -2.341365097904146e-16
-9.070747024726549e-04 -2.559327905164775e-16 1.033676178764293e-16
-9.070747024726748e-04 1.525233715870849e-16 -4.628327717678566e-16
-4.538264040068122e-04 1.841477118494650e-17 2.674234992701659e-16
-4.538264040061342e-04 0.000000000000000e+00 0.000000000000000e+00
-4.538264040061964e-04 0.000000000000000e+00 0.000000000000000e+00
-4.538264040050342e-04 6.873166941374619e-16 -8.061155633404415e-16
-9.070747024722076e-04 3.206555801496990e-16 -2.341365097904146e-16
-9.070747024726215e-04 0.000000000000000e+00 0.000000000000000e+00
-9.070747024725275e-04 0.000000000000000e+00 0.000000000000000e+00
-9.070747024726549e-04 -2.559327905164775e-16 1.033676178764293e-16
-4.538264040064198e-04 5.175150813686785e-16 -8.581640785169329e-16
-4.538264040050342e-04 6.873166941374619e-16 -8.061155633404415e-16
-4.538264040052003e-04 0.000000000000000e+00 0.000000000000000e+00
-4.538264040053545e-04 0.000000000000000e+00 0.000000000000000e+00
-9.070747024726748e-04 1.525233715870849e-16 -4.628327717678566e-16
-9.070747024726549e-04 -2.559327905164775e-16 1.033676178764293e-16
-9.070747024713128e-04 0.000000000000000e+00 0.000000000000000e+00
-9.070747024720198e-04 0.000000000000000e+00 0.000000000000000e+00
-4.538264040050342e-04 6.873166941374619e-16 -8.061155633404415e-16
-4.538264040061964e-04 0.000000000000000e+00 0.000000000000000e+00
-4.538264040065182e-04 0.000000000000000e+00 0.000000000000000e+00
-4.538264040052003e-04 0.000000000000000e+00 0.000000000000000e+00
-9.070747024726549e-04 -2.559327905164775e-16 1.033676178764293e-16
-9.070747024725275e-04 0.000000000000000e+00 0.000000000000000e+00
-9.070747024713961e-04 0.000000000000000e+00 0.000000000000000e+00
-9.070747024713128e-04 0.000000000000000e+00 0.000000000000000e+00
-9.070747024729855e-04 0.000000000000000e+00 0.000000000000000e+00
-9.070747024715823e-04 0.000000000000000e+00 0.000000000000000e+00
-9.070747024726928e-04 2.607502566414370e-17 6.219260920786326e-16
-9.070747024727610e-04 -5.122285212265228e-17 1.525577720731473e-16
-1.360466801260901e-03 0.000000000000000e+00 0.000000000000000e+00
-1.360466801261197e-03 0.000000000000000e+00 0.000000000000000e+00
-1.360466801261253e-03 -2.769518484717703e-16 -3.142625468073377e-16
-1.360466801260829e-03 7.118117803271960e-16 2.094068962193142e-16
-9.070747024715823e-04 0.000000000000000e+00 0.000000000000000e+00
-9.070747024722018e-04 0.000000000000000e+00 0.000000000000000e+00
-9.070747024724617e-04 0.000000000000000e+00 0.000000000000000e+00
-9.070747024726928e-04 2.607502566414370e-17 6.219260920786326e-16
-1.360466801261197e-03 0.000000000000000e+00 0.000000000000000e+00
-1.360466801261060e-03 0.000000000000000e+00 0.000000000000000e+00
-1.360466801260764e-03 0.000000000000000e+00 0.000000000000000e+00
-1.360466801261253e-03 -2.769518484717703e-16 -3.142625468073377e-16
-9.070747024727610e-04 -5.122285212265228e-17 1.525577720731473e-16
-9.070747024726928e-04 2.607502566414370e-17 6.219260920786326e-16
-9.070747024725910e-04 1.170984655653154e-15 -3.803320816256636e-16
-9.070747024717430e-04 8.677548232725138e-16 8.488301227283881e-16
-1.360466801260829e-03 7.118117803271960e-16 2.094068962193142e-16
-1.360466801261253e-03 -2.769518484717703e-16 -3.142625468073377e-16
-1.360466801261164e-03 4.929872810177007e-16 3.493311037219302e-16
-1.360466801260584e-03 7.934016365456994e-16 -1.601358238054714e-17
-9.070747024726928e-04 2.607502566414370e-17 6.219260920786326e-16
-9.070747024724617e-04 0.000000000000000e+00 0.000000000000000e+00
-9.070747024721736e-04 0.000000000000000e+00 0.000000000000000e+00
-9.070747024725910e-04 1.170984655653154e-15 -3.803320816256636e-16
-1.360466801261253e-03 -2.769518484717703e-16 -3.142625468073377e-16
-1.360466801260764e-03 0.000000000000000e+00 0.000000000000000e+00
-1.360466801260160e-03 0.000000000000000e+00 0.000000000000000e+00
-1.360466801261164e-03 4.929872810177007e-16 3.493311037219302e-16
-9.070747024717430e-04 8.677548232725138e-16 8.488301227283881e-16
-9.070747024725910e-04 1.170984655653154e-15 -3.803320816256636e-16
-9.070747024722076e-04 3.206555801496990e-16 -2.341365097904146e-16
-9.070747024724965e-04 2.103426443755520e-16 1.594631120217480e-16
-1.360466801260584e-03 7.934016365456994e-16 -1.601358238054714e-17
-1.360466801261164e-03 4.929872810177007e-16 3.493311037219302e-16
-1.360466801260453e-03 6.182968411679224e-16 -3.305323988768269e-16
-1.360466801260627e-03 2.741931737658875e-16 -3.338805058761979e-16
-9.070747024725910e-04 1.170984655653154e-15 -3.803320816256636e-16
-9.070747024721736e-04 0.000000000000000e+00 0.000000000000000e+00
-9.070747024726215e-04 0.000000000000000e+00 0.000000000000000e+00
-9.070747024722076e-04 3.206555801496990e-16 -2.341365097904146e-16
-1.360466801261164e-03 4.929872810177007e-16 3.493311037219302e-16
-1.360466801260160e-03 0.000000000000000e+00 0.000000000000000e+00
-1.360466801260516e-03 0.000000000000000e+00 0.000000000000000e+00
-1.360466801260453e-03 6.182968411679224e-16 -3.305323988768269e-16
-9.070747024724965e-04 2.103426443755520e-16 1.594631120217480e-16
-9.070747024722076e-04 3.206555801496990e-16 -2.341365097904146e-16
-9.070747024726549e-04 -2.559327905164775e-16 1.033676178764293e-16
-9.070747024726748e-04 1.525233715870849e-16 -4.628327717678566e-16
-1.360466801260627e-03 2.741931737658875e-16 -3.338805058761979e-16
-1.360466801260453e-03 6.182968411679224e-16 -3.305323988768269e-16
-1.360466801260970e-03 4.859196411279555e-16 3.745689293637322e-16
-1.360466801261260e-03 9.388907328534361e-16 3.541765224128366e-17
-9.070747024722076e-04 3.206555801496990e-16 -2.341365097904146e-16
-9.070747024726215e-04 0.000000000000000e+00 0.000000000000000e+00
-9.070747024725275e-04 0.000000000000000e+00 0.000000000000000e+00
-9.070747024726549e-04 -2.559327905164775e-16 1.033676178764293e-16
-1.360466801260453e-03 6.182968411679224e-16 -3.305323988768269e-16
-1.360466801260516e-03 0.000000000000000e+00 0.000000000000000e+00
-1.360466801260334e-03 0.000000000000000e+00 0.000000000000000e+00
-1.360466801260970e-03 4.859196411279555e-16 3.745689293637322e-16
-9.070747024726748e-04 1.525233715870849e-16 -4.628327717678566e-16
-9.070747024726549e-04 -2.559327905164775e-16 1.033676178764293e-16
-9.070747024713128e-04 0.000000000000000e+00 0.000000000000000e+00
-9.070747024720198e-04 0.000000000000000e+00 0.000000000000000e+00
-1.360466801261260e-03 9.388907328534361e-16 3.541765224128366e-17
-1.360466801260970e-03 4.859196411279555e-16 3.745689293637322e-16
-1.360466801260348e-03 0.000000000000000e+00 0.000000000000000e+00
-1.360466801260123e-03 0.000000000000000e+00 0.000000000000000e+00
-9.070747024726549e-04 -2.559327905164775e-16 1.033676178764293e-16
-9.070747024725275e-04 0.000000000000000e+00 0.000000000000000e+00
-9.070747024713961e-04 0.000000000000000e+00 0.000000000000000e+00
-9.070747024713128e-04 0.000000000000000e+00 0.000000000000000e+00
-1.360466801260970e-03 4.859196411279555e-16 3.745689293637322e-16
-1.360466801260334e-03 0.000000000000000e+00 0.000000000000000e+00
-1.360466801259280e-03 0.000000000000000e+00 0.000000000000000e+00
-1.360466801260348e-03 0.000000000000000e+00 0.000000000000000e+00
-1.360466801260901e-03 0.000000000000000e+00 0.000000000000000e+00
-1.360466801261197e-03 0.000000000000000e+00 0.000000000000000e+00
-1.360466801261253e-03 -2.769518484717703e-16 -3.142625468073377e-16
-1.360466801260829e-03 7.118117803271960e-16 2.094068962193142e-16
-1.814801405133484e-03 0.000000000000000e+00 0.000000000000000e+00
-1.814801405132633e-03 0.000000000000000e+00 0.000000000000000e+00
-1.814801405133177e-03 -7.187827097746401e-16 6.288003529860725e-16
-1.814801405132657e-03 -4.414575878696909e-16 4.940948551467608e-16
-1.360466801261197e-03 0.000000000000000e+00 0.000000000000000e+00
-1.360466801261060e-03 0.000000000000000e+00 0.000000000000000e+00
-1.360466801260764e-03 0.000000000000000e+00 0.000000000000000e+00
-1.360466801261253e-03 -2.769518484717703e-16 -3.142625468073377e-16
-1.814801405132633e-03 0.000000000000000e+00 0.000000000000000e+00
-1.814801405133418e-03 0.000000000000000e+00 0.000000000000000e+00
-1.814801405133365e-03 0.000000000000000e+00 0.000000000000000e+00
-1.814801405133177e-03 -7.187827097746401e-16 6.288003529860725e-16
-1.360466801260829e-03 7.118117803271960e-16 2.094068962193142e-16
-1.360466801261253e-03 -2.769518484717703e-16 -3.142625468073377e-16
-1.360466801261164e-03 4.929872810177007e-16 3.493311037219302e-16
-1.360466801260584e-03 7.934016365456994e-16 -1.601358238054714e-17
-1.814801405132657e-03 -4.414575878696909e-16 4.940948551467608e-16
-1.814801405133177e-03 -7.187827097746401e-16 6.288003529860725e-16
-1.814801405132959e-03 5.612176118123626e-16 -3.442918030004963e-16
-1.814801405133478e-03 1.370775223061082e-15 -4.362447599894634e-17
-1.360466801261253e-03 -2.769518484717703e-16 -3.142625468073377e-16
-1.360466801260764e-03 0.000000000000000e+00 0.000000000000000e+00
-1.360466801260160e-03 0.000000000000000e+00 0.000000000000000e+00
-1.360466801261164e-03 4.929872810177007e-16 3.493311037219302e-16
-1.814801405133177e-03 -7.187827097746401e-16 6.288003529860725e-16
-1.814801405133365e-03 0.000000000000000e+00 0.000000000000000e+00
-1.814801405133376e-03 0.000000000000000e+00 0.000000000000000e+00
-1.814801405132959e-03 5.612176118123626e-16 -3.442918030004963e-16
-1.360466801260584e-03 7.934016365456994e-16 -1.601358238054714e-17
-1.360466801261164e-03 4.929872810177007e-16 3.493311037219302e-16
-1.360466801260453e-03 6.182968411679224e-16 -3.305323988768269e-16
-1.360466801260627e-03 2.741931737658875e-16 -3.338805058761979e-16
-1.814801405133478e-03 1.370775223061082e-15 -4.362447599894634e-17
-1.814801405132959e-03 5.612176118123626e-16 -3.442918030004963e-16
-1.814801405133007e-03 4.385435439070256e-16 -2.956034028335630e-16
-1.814801405132341e-03 2.841406894615928e-16 1.098620738598776e-16
-1.360466801261164e-03 4.929872810177007e-16 3.493311037219302e-16
-1.360466801260160e-03 0.000000000000000e+00 0.000000000000000e+00
-1.360466801260516e-03 0.000000000000000e+00 0.000000000000000e+00
-1.360466801260453e-03 6.182968411679224e-16 -3.305323988768269e-16
-1.814801405132959e-03 5.612176118123626e-16 -3.442918030004963e-16
-1.814801405133376e-03 0.000000000000000e+00 0.000000000000000e+00
-1.814801405131817e-03 0.000000000000000e+00 0.000000000000000e+00
-1.814801405133007e-03 4.385435439070256e-16 -2.956034028335630e-16
-1.360466801260627e-03 2.741931737658875e-16 -3.338805058761979e-16
-1.360466801260453e-03 6.182968411679224e-16 -3.305323988768269e-16
-1.360466801260970e-03 4.859196411279555e-16 3.745689293637322e-16
-1.360466801261260e-03 9.388907328534361e-16 3.541765224128366e-17
-1.814801405132341e-03 2.841406894615928e-16 1.098620738598776e-16
-1.814801405133007e-03 4.385435439070256e-16 -2.956034028335630e-16
-1.814801405132510e-03 -5.330524644433924e-16 -4.603715652917586e-16
-1.814801405133617e-03 9.824916984407964e-18 1.193484416787816e-16
-1.360466801260453e-03 6.182968411679224e-16 -3.305323988768269e-16
-1.360466801260516e-03 0.000000000000000e+00 0.000000000000000e+00
-1.360466801260334e-03 0.000000000000000e+00 0.000000000000000e+00
-1.360466801260970e-03 4.859196411279555e-16 3.745689293637322e-16
-1.814801405133007e-03 4.385435439070256e-16 -2.956034028335630e-16
-1.814801405131817e-03 0.000000000000000e+00 0.000000000000000e+00
-1.814801405132329e-03 0.000000000000000e+00 0.000000000000000e+00
-1.814801405132510e-03 -5.330524644433924e-16 -4.603715652917586e-16
-1.360466801261260e-03 9.388907328534361e-16 3.541765224128366e-17
-1.360466801260970e-03 4.859196411279555e-16 3.745689293637322e-16
-1.360466801260348e-03 0.000000000000000e+00 0.000000000000000e+00
-1.360466801260123e-03 0.000000000000000e+00 0.000000000000000e+00
-1.814801405133617e-03 9.824916984407964e-18 1.193484416787816e-16
-1.814801405132510e-03 -5.330524644433924e-16 -4.603715652917586e-16
-1.814801405132707e-03 0.000000000000000e+00 0.000000000000000e+00
-1.814801405132238e-03 0.000000000000000e+00 0.000000000000000e+00
-1.360466801260970e-03 4.859196411279555e-16 3.745689293637322e-16
-1.360466801260334e-03 0.000000000000000e+00 0.000000000000000e+00
-1.360466801259280e-03 0.000000000000000e+00 0.000000000000000e+00
-1.360466801260348e-03 0.000000000000000e+00 0.000000000000000e+00
-1.814801405132510e-03 -5.330524644433924e-16 -4.603715652917586e-16
-1.814801405132329e-03 0.000000000000000e+00 0.000000000000000e+00
-1.814801405132096e-03 0.000000000000000e+00 0.000000000000000e+00
-1.814801405132707e-03 0.000000000000000e+00 0.000000000000000e+00
-1.814801405133484e-03 0.000000000000000e+00 0.000000000000000e+00
-1.814801405132633e-03 0.000000000000000e+00 0.000000000000000e+00
-1.814801405133177e-03 -7.187827097746401e-16 6.288003529860725e-16
-1.814801405132657e-03 -4.414575878696909e-16 4.940948551467608e-16
-2.270846922506334e-03 0.000000000000000e+00 0.000000000000000e+00
-2.270846922507476e-03 0.000000000000000e+00 0.000000000000000e+00
-2.270846922507867e-03 3.318902972553079e-17 2.243022077077035e-16
-2.270846922508692e-03 4.354526682976234e-16 -2.745719598829636e-16
-1.814801405132633e-03 0.000000000000000e+00 0.000000000000000e+00
-1.814801405133418e-03 0.000000000000000e+00 0.000000000000000e+00
-1.814801405133365e-03 0.000000000000000e+00 0.000000000000000e+00
-1.814801405133177e-03 -7.187827097746401e-16 6.288003529860725e-16
-2.270846922507476e-03 0.000000000000000e+00 0.000000000000000e+00
-2.270846922509033e-03 0.000000000000000e+00 0.000000000000000e+00
-2.270846922506540e-03 0.000000000000000e+00 0.000000000000000e+00
-2.270846922507867e-03 3.318902972553079e-17 2.243022077077035e-16
-1.814801405132657e-03 -4.414575878696909e-16 4.940948551467608e-16
-1.814801405133177e-03 -7.187827097746401e-16 6.288003529860725e-16
-1.814801405132959e-03 5.612176118123626e-16 -3.442918030004963e-16
-1.814801405133478e-03 1.370775223061082e-15 -4.362447599894634e-17
-2.270846922508692e-03 4.354526682976234e-16 -2.745719598829636e-16
-2.270846922507867e-03 3.318902972553079e-17 2.243022077077035e-16
-2.270846922508004e-03 -4.295742495158286e-18 -6.853610719059415e-16
-2.270846922507243e-03 7.985723961129643e-16 2.505126937725962e-17
-1.814801405133177e-03 -7.187827097746401e-16 6.288003529860725e-16
-1.814801405133365e-03 0.000000000000000e+00 0.000000000000000e+00
-1.814801405133376e-03 0.000000000000000e+00 0.000000000000000e+00
-1.814801405132959e-03 5.612176118123626e-16 -3.442918030004963e-16
-2.270846922507867e-03 3.318902972553079e-17 2.243022077077035e-16
-2.270846922506540e-03 0.000000000000000e+00 0.000000000000000e+00
-2.270846922506217e-03 0.000000000000000e+00 0.000000000000000e+00
-2.270846922508004e-03 -4.295742495158286e-18 -6.853610719059415e-16
-1.814801405133478e-03 1.370775223061082e-15 -4.362447599894634e-17
-1.814801405132959e-03 5.612176118123626e-16 -3.442918030004963e-16
-1.814801405133007e-03 4.385435439070256e-16 -2.956034028335630e-16
-1.814801405132341e-03 2.841406894615928e-16 1.098620738598776e-16
-2.270846922507243e-03 7.985723961129643e-16 2.505126937725962e-17
-2.270846922508004e-03 -4.295742495158286e-18 -6.853610719059415e-16
-2.270846922507328e-03 3.661455189109892e-16 9.507246000260363e-16
-2.270846922507000e-03 -7.822074885473799e-17 -4.331715127262151e-16
-1.814801405132959e-03 5.612176118123626e-16 -3.442918030004963e-16
-1.814801405133376e-03 0.000000000000000e+00 0.000000000000000e+00
-1.814801405131817e-03 0.000000000000000e+00 0.000000000000000e+00
-1.814801405133007e-03 4.385435439070256e-16 -2.956034028335630e-16
-2.270846922508004e-03 -4.295742495158286e-18 -6.853610719059415e-16
-2.270846922506217e-03 0.000000000000000e+00 0.000000000000000e+00
-2.270846922508452e-03 0.000000000000000e+00 0.000000000000000e+00
-2.270846922507328e-03 3.661455189109892e-16 9.507246000260363e-16
-1.814801405132341e-03 2.841406894615928e-16 1.098620738598776e-16
-1.814801405133007e-03 4.385435439070256e-16 -2.956034028335630e-16
-1.814801405132510e-03 -5.330524644433924e-16 -4.603715652917586e-16
-1.814801405133617e-03 9.824916984407964e-18 1.193484416787816e-16
-2.270846922507000e-03 -7.822074885473799e-17 -4.331715127262151e-16
-2.270846922507328e-03 3.661455189109892e-16 9.507246000260363e-16
-2.270846922507863e-03 -2.709702824315816e-16 3.914932877457751e-16
-2.270846922508075e-03 7.027246735768056e-16 2.694290929612168e-16
-1.814801405133007e-03 4.385435439070256e-16 -2.956034028335630e-16
-1.814801405131817e-03 0.000000000000000e+00 0.000000000000000e+00
-1.814801405132329e-03 0.000000000000000e+00 0.000000000000000e+00
-1.814801405132510e-03 -5.330524644433924e-16 -4.603715652917586e-16
-2.270846922507328e-03 3.661455189109892e-16 9.507246000260363e-16
-2.270846922508452e-03 0.000000000000000e+00 0.000000000000000e+00
-2.270846922505826e-03 0.000000000000000e+00 0.000000000000000e+00
-2.270846922507863e-03 -2.709702824315816e-16 3.914932877457751e-16
-1.814801405133617e-03 9.824916984407964e-18 1.193484416787816e-16
-1.814801405132510e-03 -5.330524644433924e-16 -4.603715652917586e-16
-1.814801405132707e-03 0.000000000000000e+00 0.000000000000000e+00
-1.814801405132238e-03 0.000000000000000e+00 0.000000000000000e+00
-2.270846922508075e-03 7.027246735768056e-16 2.694290929612168e-16
-2.270846922507863e-03 -2.709702824315816e-16 3.914932877457751e-16
-2.270846922507987e-03 0.000000000000000e+00 0.000000000000000e+00
-2.270846922508060e-03 0.000000000000000e+00 0.000000000000000e+00
-1.814801405132510e-03 -5.330524644433924e-16 -4.603715652917586e-16
-1.814801405132329e-03 0.000000000000000e+00 0.000000000000000e+00
-1.814801405132096e-03 0.000000000000000e+00 0.000000000000000e+00
-1.814801405132707e-03 0.000000000000000e+00 0.000000000000000e+00
-2.270846922507863e-03 -2.709702824315816e-16 3.914932877457751e-16
-2.270846922505826e-03 0.000000000000000e+00 0.000000000000000e+00
-2.270846922506030e-03 0.000000000000000e+00 0.000000000000000e+00
-2.270846922507987e-03 0.000000000000000e+00 0.000000000000000e+00
        </DataArray>
        <DataArray type="Float64" Name="nodal_GL_strains_xyz" NumberOfComponents="6" format="ascii">
-2.268874572022499e-04 4.373815268076591e-16 -1.110223024625156e-16 3.714222365453490e-16 -7.542709879170907e-18 2.849589893044035e-18
-2.268874572030250e-04 1.110223024625155e-16 1.997333527100251e-16 1.567933224263325e-18 -2.748065488703158e-16 1.361760763851350e-16
-2.268874572021033e-04 4.350221856724875e-18 2.718444534494089e-16 -4.983679457562830e-17 8.953424168900136e-17 -1.469023043680718e-16
-2.268874572023697e-04 -7.855180447552936e-17 -1.759632984364885e-17 -2.074417051978749e-16 -3.064135571670398e-17 -3.637078092784897e-17
-2.267429635918446e-04 1.475760429999691e-16 1.221779285700187e-16 1.634611174307126e-17 -3.947259354787665e-17 1.667664201722286e-16
-2.267429635910921e-04 -5.284500382408472e-16 -8.734996939735379e-17 1.537164319847919e-16 -1.649197854677818e-17 1.801121192862565e-16
-2.267429635913004e-04 2.502137416594804e-16 8.308437658957040e-17 7.616730468273977e-17 -6.869953675464296e-18 2.127102098291924e-16
-2.267429635916631e-04 2.979719689086242e-17 -1.573705882573166e-17 -6.400284850100680e-17 4.059236353552289e-17 -8.920267368784864e-17
-2.268874572030250e-04 1.110223024625155e-16 1.997333527100251e-16 1.567933224263325e-18 -2.748065488703158e-16 1.361760763851350e-16
-2.268874572023891e-04 -1.153777611830138e-15 5.699856804559157e-16 3.990429575995765e-16 -9.834767554963445e-17 -3.514461559276047e-16
-2.268874572015701e-04 3.419627935177463e-16 -2.978742477002493e-16 -2.603380326593583e-16 -2.844523355357256e-16 2.549423799011044e-16
-2.268874572021033e-04 4.350221856724875e-18 2.718444534494089e-16 -4.983679457562830e-17 8.953424168900136e-17 -1.469023043680718e-16
-2.267429635910921e-04 -5.284500382408472e-16 -8.734996939735379e-17 1.537164319847919e-16 -1.649197854677818e-17 1.801121192862565e-16
-2.267429635919426e-04 1.253911267491408e-15 -2.877150019282692e-16 6.135917685831942e-16 5.078580213109128e-16 -1.678779125940879e-16
-2.267429635917995e-04 1.587054847886066e-17 8.834634973287672e-17 -7.343573979984818e-17 1.996880646496299e-16 -2.966569149850966e-18
-2.267429635913004e-04 2.502137416594804e-16 8.308437658957040e-17 7.616730468273977e-17 -6.869953675464296e-18 2.127102098291924e-16
-2.268874572023697e-04 -7.855180447552936e-17 -1.759632984364885e-17 -2.074417051978749e-16 -3.064135571670398e-17 -3.637078092784897e-17
-2.268874572021033e-04 4.350221856724875e-18 2.718444534494089e-16 -4.983679457562830e-17 8.953424168900136e-17 -1.469023043680718e-16
-2.268874572021145e-04 1.323371743419988e-16 3.247049798698623e-17 -9.075649963041694e-17 -5.679632589156394e-17 9.556714396891880e-17
-2.268874572023663e-04 -1.401389589283003e-16 2.366517937621111e-16 8.663078631658464e-17 2.539964132383108e-17 1.547370549533663e-16
-2.267429635916631e-04 2.979719689086242e-17 -1.573705882573166e-17 -6.400284850100680e-17 4.059236353552289e-17 -8.920267368784864e-17
-2.267429635913004e-04 2.502137416594804e-16 8.308437658957040e-17 7.616730468273977e-17 -6.869953675464296e-18 2.127102098291924e-16
-2.267429635916617e-04 -1.301489712542025e-17 -1.892094064234123e-16 -5.114556679781663e-17 1.024488170095837e-16 2.233291927146863e-16
-2.267429635908678e-04 -3.927590223776469e-17 -2.303445796790942e-16 2.032756837260502e-16 -1.150164957860731e-17 1.180315606889868e-16
-2.268874572021033e-04 4.350221856724875e-18 2.718444534494089e-16 -4.983679457562830e-17 8.953424168900136e-17 -1.469023043680718e-16
-2.268874572015701e-04 3.419627935177463e-16 -2.978742477002493e-16 -2.603380326593583e-16 -2.844523355357256e-16 2.549423799011044e-16
-2.268874572024801e-04 -1.144152324670673e-15 -2.661331507425284e-16 7.617504027045462e-17 -1.239659837057773e-16 -1.522656060327093e-17
-2.268874572021145e-04 1.323371743419988e-16 3.247049798698623e-17 -9.075649963041694e-17 -5.679632589156394e-17 9.556714396891880e-17
-2.267429635913004e-04 2.502137416594804e-16 8.308437658957040e-17 7.616730468273977e-17 -6.869953675464296e-18 2.127102098291924e-16
-2.267429635917995e-04 1.587054847886066e-17 8.834634973287672e-17 -7.343573979984818e-17 1.996880646496299e-16 -2.966569149850966e-18
-2.267429635907393e-04 1.194557668697073e-16 1.553778275862704e-16 4.108037509006990e-17 7.766500224707216e-17 9.334550140934852e-17
-2.267429635916617e-04 -1.301489712542025e-17 -1.892094064234123e-16 -5.114556679781663e-17 1.024488170095837e-16 2.233291927146863e-16
-2.268874572023663e-04 -1.401389589283003e-16 2.366517937621111e-16 8.663078631658464e-17 2.539964132383108e-17 1.547370549533663e-16
-2.268874572021145e-04 1.323371743419988e-16 3.247049798698623e-17 -9.075649963041694e-17 -5.679632589156394e-17 9.556714396891880e-17
-2.268874572018896e-04 1.225426290846514e-16 -1.493018243647572e-16 3.120878509796570e-17 -2.093746683198405e-17 3.681855368976966e-16
-2.268874572022462e-04 -2.044482750813824e-16 -2.224093054396640e-16 -2.219992451887334e-17 9.654948028695126e-18 5.559953094651507e-17
-2.267429635908678e-04 -3.927590223776469e-17 -2.303445796790942e-16 2.032756837260502e-16 -1.150164957860731e-17 1.180315606889868e-16
-2.267429635916617e-04 -1.301489712542025e-17 -1.892094064234123e-16 -5.114556679781663e-17 1.024488170095837e-16 2.233291927146863e-16
-2.267429635913805e-04 2.167957239411590e-17 -1.351308729318184e-17 3.093954256934285e-17 -1.563604257509471e-16 4.851116088737802e-17
-2.267429635914345e-04 7.582964277521798e-17 -3.479899361350719e-16 -8.918506072655980e-17 -8.058400500946240e-17 1.064113736448664e-16
-2.268874572021145e-04 1.323371743419988e-16 3.247049798698623e-17 -9.075649963041694e-17 -5.679632589156394e-17 9.556714396891880e-17
-2.268874572024801e-04 -1.144152324670673e-15 -2.661331507425284e-16 7.617504027045462e-17 -1.239659837057773e-16 -1.522656060327093e-17
-2.268874572024362e-04 -2.302110900259654e-16 9.736333496348081e-16 -8.728082938572351e-17 -3.985752343873193e-17 -3.420845675248868e-16
-2.268874572018896e-04 1.225426290846514e-16 -1.493018243647572e-16 3.120878509796570e-17 -2.093746683198405e-17 3.681855368976966e-16
-2.267429635916617e-04 -1.301489712542025e-17 -1.892094064234123e-16 -5.114556679781663e-17 1.024488170095837e-16 2.233291927146863e-16
-2.267429635907393e-04 1.194557668697073e-16 1.553778275862704e-16 4.108037509006990e-17 7.766500224707216e-17 9.334550140934852e-17
-2.267429635913435e-04 -9.070381091855555e-17 -9.070381091855536e-17 1.601184986545758e-17 -4.848048319082445e-17 -7.686892234036967e-16
-2.267429635913805e-04 2.167957239411590e-17 -1.351308729318184e-17 3.093954256934285e-17 -1.563604257509471e-16 4.851116088737802e-17
-2.268874572022462e-04 -2.044482750813824e-16 -2.224093054396640e-16 -2.219992451887334e-17 9.654948028695126e-18 5.559953094651507e-17
-2.268874572018896e-04 1.225426290846514e-16 -1.493018243647572e-16 3.120878509796570e-17 -2.093746683198405e-17 3.681855368976966e-16
-2.268874572013836e-04 2.196871437393526e-16 -4.153372538989106e-16 9.577417953852882e-17 1.268460653613112e-16 -2.457999745769188e-16
-2.268874572017323e-04 2.603241268272730e-16 -1.780537803159092e-16 2.377044320016075e-16 6.025944601589722e-18 -2.719376763664403e-16
-2.267429635914345e-04 7.582964277521798e-17 -3.479899361350719e-16 -8.918506072655980e-17 -8.058400500946240e-17 1.064113736448664e-16
-2.267429635913805e-04 2.167957239411590e-17 -1.351308729318184e-17 3.093954256934285e-17 -1.563604257509471e-16 4.851116088737802e-17
-2.267429635918930e-04 -5.991023369217007e-17 -3.627306146252805e-16 1.309908334081279e-16 -1.965621462629680e-16 1.952441508723562e-16
-2.267429635913435e-04 4.925279775242838e-17 4.108046817848696e-16 -2.166770714900231e-16 -7.206225482230168e-17 -1.698638778039328e-16
-2.268874572018896e-04 1.225426290846514e-16 -1.493018243647572e-16 3.120878509796570e-17 -2.093746683198405e-17 3.681855368976966e-16
-2.268874572024362e-04 -2.302110900259654e-16 9.736333496348081e-16 -8.728082938572351e-17 -3.985752343873193e-17 -3.420845675248868e-16
-2.268874572033033e-04 7.855180447552929e-17 -3.330669073875470e-16 2.327889491941102e-16 -1.603573332324135e-16 -3.618078862018346e-16
-2.268874572013836e-04 2.196871437393526e-16 -4.153372538989106e-16 9.577417953852882e-17 1.268460653613112e-16 -2.457999745769188e-16
-2.267429635913805e-04 2.167957239411590e-17 -1.351308729318184e-17 3.093954256934285e-17 -1.563604257509471e-16 4.851116088737802e-17
-2.267429635913435e-04 -9.070381091855555e-17 -9.070381091855536e-17 1.601184986545758e-17 -4.848048319082445e-17 -7.686892234036967e-16
-2.267429635915040e-04 -1.201851678989726e-16 -5.859801344620197e-17 4.693450000435530e-17 1.935645378399246e-16 4.815561202225132e-16
-2.267429635918930e-04 -5.991023369217007e-17 -3.627306146252805e-16 1.309908334081279e-16 -1.965621462629680e-16 1.952441508723562e-16
-2.268874572017323e-04 2.603241268272730e-16 -1.780537803159092e-16 2.377044320016075e-16 6.025944601589722e-18 -2.719376763664403e-16
-2.268874572013836e-04 2.196871437393526e-16 -4.153372538989106e-16 9.577417953852882e-17 1.268460653613112e-16 -2.457999745769188e-16
-2.268874572022370e-04 2.857222412572231e-16 -1.543814472507476e-16 -2.393346143736290e-18 -1.194946478506450e-16 2.350332672253388e-16
-2.268874572020000e-04 3.724405308336866e-16 -4.529850959802620e-16 -3.682794886474645e-16 5.570184459189472e-17 -1.518471505783787e-16
-2.267429635913435e-04 4.925279775242838e-17 4.108046817848696e-16 -2.166770714900231e-16 -7.206225482230168e-17 -1.698638778039328e-16
-2.267429635918930e-04 -5.991023369217007e-17 -3.627306146252805e-16 1.309908334081279e-16 -1.965621462629680e-16 1.952441508723562e-16
-2.267429635908374e-04 -2.038165952604921e-16 9.206489176871109e-17 -5.410636590570212e-17 4.951471580748729e-16 -3.476896460316913e-17
-2.267429635914610e-04 -3.943870825340601e-16 -1.127480838273039e-16 3.349511862849112e-16 1.553754824324249e-16 -1.936669502794842e-16
-2.268874572013836e-04 2.196871437393526e-16 -4.153372538989106e-16 9.577417953852882e-17 1.268460653613112e-16 -2.457999745769188e-16
-2.268874572033033e-04 7.855180447552929e-17 -3.330669073875470e-16 2.327889491941102e-16 -1.603573332324135e-16 -3.618078862018346e-16
-2.268874572014916e-04 -9.897708774199258e-16 -2.166002815244085e-16 -6.569276410547040e-16 -1.301197488891659e-16 3.599377089150697e-16
-2.268874572022370e-04 2.857222412572231e-16 -1.543814472507476e-16 -2.393346143736290e-18 -1.194946478506450e-16 2.350332672253388e-16
-2.267429635918930e-04 -5.991023369217007e-17 -3.627306146252805e-16 1.309908334081279e-16 -1.965621462629680e-16 1.952441508723562e-16
-2.267429635915040e-04 -1.201851678989726e-16 -5.859801344620197e-17 4.693450000435530e-17 1.935645378399246e-16 4.815561202225132e-16
-2.267429635903363e-04 6.294823530292637e-17 4.522556949509966e-16 -4.495457172084005e-17 3.785701867223317e-17 2.406286199126625e-16
-2.267429635908374e-04 -2.038165952604921e-16 9.206489176871109e-17 -5.410636590570212e-17 4.951471580748729e-16 -3.476896460316913e-17
-2.267429635918446e-04 1.475760429999691e-16 1.221779285700187e-16 1.634611174307126e-17 -3.947259354787665e-17 1.667664201722286e-16
-2.267429635910921e-04 -5.284500382408472e-16 -8.734996939735379e-17 1.537164319847919e-16 -1.649197854677818e-17 1.801121192862565e-16
-2.267429635913004e-04 2.502137416594804e-16 8.308437658957040e-17 7.616730468273977e-17 -6.869953675464296e-18 2.127102098291924e-16
-2.267429635916631e-04 2.979719689086242e-17 -1.573705882573166e-17 -6.400284850100680e-17 4.059236353552289e-17 -8.920267368784864e-17
-2.266344119127102e-04 2.579666656415943e-16 8.798164921824411e-17 3.935443183122338e-16 2.352022118152875e-17 -1.781945504420204e-16
-2.266344119123030e-04 -1.266258716351185e-16 -1.336982551921545e-16 -1.039516600164087e-16 7.646336824601989e-17 -5.372678565723069e-17
-2.266344119130285e-04 9.088616117587191e-17 -9.976895514663710e-18 -1.313509694691445e-16 3.141866008993279e-17 -1.753858107054481e-16
-2.266344119128316e-04 -1.357398764673880e-16 -6.059077411724786e-17 1.932279275660880e-16 7.421720193917378e-18 6.103392043784155e-17
-2.267429635910921e-04 -5.284500382408472e-16 -8.734996939735379e-17 1.537164319847919e-16 -1.649197854677818e-17 1.801121192862565e-16
-2.267429635919426e-04 1.253911267491408e-15 -2.877150019282692e-16 6.135917685831942e-16 5.078580213109128e-16 -1.678779125940879e-16
-2.267429635917995e-04 1.587054847886066e-17 8.834634973287672e-17 -7.343573979984818e-17 1.996880646496299e-16 -2.966569149850966e-18
-2.267429635913004e-04 2.502137416594804e-16 8.308437658957040e-17 7.616730468273977e-17 -6.869953675464296e-18 2.127102098291924e-16
-2.266344119123030e-04 -1.266258716351185e-16 -1.336982551921545e-16 -1.039516600164087e-16 7.646336824601989e-17 -5.372678565723069e-17
-2.266344119126110e-04 2.341966113680574e-16 -4.319372034070364e-16 1.144286017274035e-16 -1.586527091298607e-16 7.718739557198066e-17
-2.266344119128300e-04 -2.528870427556042e-16 3.981056245698945e-16 -1.578798880243649e-16 4.807712094735084e-17 -1.811921603352421e-16
-2.266344119130285e-04 9.088616117587191e-17 -9.976895514663710e-18 -1.313509694691445e-16 3.141866008993279e-17 -1.753858107054481e-16
-2.267429635916631e-04 2.979719689086242e-17 -1.573705882573166e-17 -6.400284850100680e-17 4.059236353552289e-17 -8.920267368784864e-17
-2.267429635913004e-04 2.502137416594804e-16 8.308437658957040e-17 7.616730468273977e-17 -6.869953675464296e-18 2.127102098291924e-16
-2.267429635916617e-04 -1.301489712542025e-17 -1.892094064234123e-16 -5.114556679781663e-17 1.024488170095837e-16 2.233291927146863e-16
-2.267429635908678e-04 -3.927590223776469e-17 -2.303445796790942e-16 2.032756837260502e-16 -1.150164957860731e-17 1.180315606889868e-16
-2.266344119128316e-04 -1.357398764673880e-16 -6.059077411724786e-17 1.932279275660880e-16 7.421720193917378e-18 6.103392043784155e-17
-2.266344119130285e-04 9.088616117587191e-17 -9.976895514663710e-18 -1.313509694691445e-16 3.141866008993279e-17 -1.753858107054481e-16
-2.266344119130844e-04 -6.756543646590915e-18 1.942890293094024e-16 1.091533227563438e-16 1.023209817406798e-17 1.966318379425179e-16
-2.266344119129819e-04 -2.136111405178396e-16 4.113517325568192e-17 1.463305077468678e-16 -1.171100167661505e-16 4.297501303627754e-17
-2.267429635913004e-04 2.502137416594804e-16 8.308437658957040e-17 7.616730468273977e-17 -6.869953675464296e-18 2.127102098291924e-16
-2.267429635917995e-04 1.587054847886066e-17 8.834634973287672e-17 -7.343573979984818e-17 1.996880646496299e-16 -2.966569149850966e-18
-2.267429635907393e-04 1.194557668697073e-16 1.553778275862704e-16 4.108037509006990e-17 7.766500224707216e-17 9.334550140934852e-17
-2.267429635916617e-04 -1.301489712542025e-17 -1.892094064234123e-16 -5.114556679781663e-17 1.024488170095837e-16 2.233291927146863e-16
-2.266344119130285e-04 9.088616117587191e-17 -9.976895514663710e-18 -1.313509694691445e-16 3.141866008993279e-17 -1.753858107054481e-16
-2.266344119128300e-04 -2.528870427556042e-16 3.981056245698945e-16 -1.578798880243649e-16 4.807712094735084e-17 -1.811921603352421e-16
-2.266344119126249e-04 1.143761439837173e-16 -1.970111910097137e-16 -7.419858795130699e-17 2.601759672432034e-16 -2.083336725541764e-16
-2.266344119130844e-04 -6.756543646590915e-18 1.942890293094024e-16 1.091533227563438e-16 1.023209817406798e-17 1.966318379425179e-16
-2.267429635908678e-04 -3.927590223776469e-17 -2.303445796790942e-16 2.032756837260502e-16 -1.150164957860731e-17 1.180315606889868e-16
-2.267429635916617e-04 -1.301489712542025e-17 -1.892094064234123e-16 -5.114556679781663e-17 1.024488170095837e-16 2.233291927146863e-16
-2.267429635913805e-04 2.167957239411590e-17 -1.351308729318184e-17 3.093954256934285e-17 -1.563604257509471e-16 4.851116088737802e-17
-2.267429635914345e-04 7.582964277521798e-17 -3.479899361350719e-16 -8.918506072655980e-17 -8.058400500946240e-17 1.064113736448664e-16
-2.266344119129819e-04 -2.136111405178396e-16 4.113517325568192e-17 1.463305077468678e-16 -1.171100167661505e-16 4.297501303627754e-17
-2.266344119130844e-04 -6.756543646590915e-18 1.942890293094024e-16 1.091533227563438e-16 1.023209817406798e-17 1.966318379425179e-16
-2.266344119126014e-04 -2.684417513240196e-16 -1.540167467361147e-16 7.205385251562911e-17 6.113114374461860e-17 -1.200271627697460e-16
-2.266344119128293e-04 -1.812741321839821e-16 9.342597261886678e-17 -6.650428510340502e-17 -1.940374941327333e-16 -7.454784246684973e-17
-2.267429635916617e-04 -1.301489712542025e-17 -1.892094064234123e-16 -5.114556679781663e-17 1.024488170095837e-16 2.233291927146863e-16
-2.267429635907393e-04 1.194557668697073e-16 1.553778275862704e-16 4.108037509006990e-17 7.766500224707216e-17 9.334550140934852e-17
-2.267429635913435e-04 -9.070381091855555e-17 -9.070381091855536e-17 1.601184986545758e-17 -4.848048319082445e-17 -7.686892234036967e-16
-2.267429635913805e-04 2.167957239411590e-17 -1.351308729318184e-17 3.093954256934285e-17 -1.563604257509471e-16 4.851116088737802e-17
-2.266344119130844e-04 -6.756543646590915e-18 1.942890293094024e-16 1.091533227563438e-16 1.023209817406798e-17 1.966318379425179e-16
-2.266344119126249e-04 1.143761439837173e-16 -1.970111910097137e-16 -7.419858795130699e-17 2.601759672432034e-16 -2.083336725541764e-16
-2.266344119126326e-04 2.875195595115191e-17 -3.625482643679642e-16 2.539191379961536e-17 1.589156558847176e-16 2.634768696915328e-16
-2.266344119126014e-04 -2.684417513240196e-16 -1.540167467361147e-16 7.205385251562911e-17 6.113114374461860e-17 -1.200271627697460e-16
-2.267429635914345e-04 7.582964277521798e-17 -3.479899361350719e-16 -8.918506072655980e-17 -8.058400500946240e-17 1.064113736448664e-16
-2.267429635913805e-04 2.167957239411590e-17 -1.351308729318184e-17 3.093954256934285e-17 -1.563604257509471e-16 4.851116088737802e-17
-2.267429635918930e-04 -5.991023369217007e-17 -3.627306146252805e-16 1.309908334081279e-16 -1.965621462629680e-16 1.952441508723562e-16
-2.267429635913435e-04 4.925279775242838e-17 4.108046817848696e-16 -2.166770714900231e-16 -7.206225482230168e-17 -1.698638778039328e-16
-2.266344119128293e-04 -1.812741321839821e-16 9.342597261886678e-17 -6.650428510340502e-17 -1.940374941327333e-16 -7.454784246684973e-17
-2.266344119126014e-04 -2.684417513240196e-16 -1.540167467361147e-16 7.205385251562911e-17 6.113114374461860e-17 -1.200271627697460e-16
-2.266344119127728e-04 -1.963306505846358e-16 -5.501296106349637e-17 -1.177485472730614e-16 1.782997266730854e-16 1.531337489746516e-16
-2.266344119127884e-04 -1.249000902703300e-16 -1.540167467361147e-16 -2.264436325697198e-17 8.956781866727469e-17 2.031617496965149e-16
-2.267429635913805e-04 2.167957239411590e-17 -1.351308729318184e-17 3.093954256934285e-17 -1.563604257509471e-16 4.851116088737802e-17
-2.267429635913435e-04 -9.070381091855555e-17 -9.070381091855536e-17 1.601184986545758e-17 -4.848048319082445e-17 -7.686892234036967e-16
-2.267429635915040e-04 -1.201851678989726e-16 -5.859801344620197e-17 4.693450000435530e-17 1.935645378399246e-16 4.815561202225132e-16
-2.267429635918930e-04 -5.991023369217007e-17 -3.627306146252805e-16 1.309908334081279e-16 -1.965621462629680e-16 1.952441508723562e-16
-2.266344119126014e-04 -2.684417513240196e-16 -1.540167467361147e-16 7.205385251562911e-17 6.113114374461860e-17 -1.200271627697460e-16
-2.266344119126326e-04 2.875195595115191e-17 -3.625482643679642e-16 2.539191379961536e-17 1.589156558847176e-16 2.634768696915328e-16
-2.266344119125000e-04 3.183881816609584e-17 -1.895741069380450e-16 3.093461512055552e-16 -8.969685195191475e-17 -2.490243184389832e-16
-2.266344119127728e-04 -1.963306505846358e-16 -5.501296106349637e-17 -1.177485472730614e-16 1.782997266730854e-16 1.531337489746516e-16
-2.267429635913435e-04 4.925279775242838e-17 4.108046817848696e-16 -2.166770714900231e-16 -7.206225482230168e-17 -1.698638778039328e-16
-2.267429635918930e-04 -5.991023369217007e-17 -3.627306146252805e-16 1.309908334081279e-16 -1.965621462629680e-16 1.952441508723562e-16
-2.267429635908374e-04 -2.038165952604921e-16 9.206489176871109e-17 -5.410636590570212e-17 4.951471580748729e-16 -3.476896460316913e-17
-2.267429635914610e-04 -3.943870825340601e-16 -1.127480838273039e-16 3.349511862849112e-16 1.553754824324249e-16 -1.936669502794842e-16
-2.266344119127884e-04 -1.249000902703300e-16 -1.540167467361147e-16 -2.264436325697198e-17 8.956781866727469e-17 2.031617496965149e-16
-2.266344119127728e-04 -1.963306505846358e-16 -5.501296106349637e-17 -1.177485472730614e-16 1.782997266730854e-16 1.531337489746516e-16
-2.266344119131845e-04 4.790148902311025e-16 -2.701186720846203e-16 2.130750827444156e-16 -7.378589559823577e-17 -2.133421214671595e-18
-2.266344119128736e-04 1.973758915243463e-16 3.691844105208600e-17 2.356327206594319e-16 1.104604800043735e-17 -1.378937904696650e-16
-2.267429635918930e-04 -5.991023369217007e-17 -3.627306146252805e-16 1.309908334081279e-16 -1.965621462629680e-16 1.952441508723562e-16
-2.267429635915040e-04 -1.201851678989726e-16 -5.859801344620197e-17 4.693450000435530e-17 1.935645378399246e-16 4.815561202225132e-16
-2.267429635903363e-04 6.294823530292637e-17 4.522556949509966e-16 -4.495457172084005e-17 3.785701867223317e-17 2.406286199126625e-16
-2.267429635908374e-04 -2.038165952604921e-16 9.206489176871109e-17 -5.410636590570212e-17 4.951471580748729e-16 -3.476896460316913e-17
-2.266344119127728e-04 -1.963306505846358e-16 -5.501296106349637e-17 -1.177485472730614e-16 1.782997266730854e-16 1.531337489746516e-16
-2.266344119125000e-04 3.183881816609584e-17 -1.895741069380450e-16 3.093461512055552e-16 -8.969685195191475e-17 -2.490243184389832e-16
-2.266344119122386e-04 -3.256298233158780e-16 -2.220446049250312e-16 -1.732493650857712e-16 -1.904858582246269e-17 1.727967198352251e-16
-2.266344119131845e-04 4.790148902311025e-16 -2.701186720846203e-16 2.130750827444156e-16 -7.378589559823577e-17 -2.133421214671595e-18
-2.266344119127102e-04 2.579666656415943e-16 8.798164921824411e-17 3.935443183122338e-16 2.352022118152875e-17 -1.781945504420204e-16
-2.266344119123030e-04 -1.266258716351185e-16 -1.336982551921545e-16 -1.039516600164087e-16 7.646336824601989e-17 -5.372678565723069e-17
-2.266344119130285e-04 9.088616117587191e-17 -9.976895514663710e-18 -1.313509694691445e-16 3.141866008993279e-17 -1.753858107054481e-16
-2.266344119128316e-04 -1.357398764673880e-16 -6.059077411724786e-17 1.932279275660880e-16 7.421720193917378e-18 6.103392043784155e-17
-2.269059266447211e-04 3.240017631594651e-16 -5.179260919542343e-17 1.569355232781051e-16 -1.927153383248315e-17 9.085333493439510e-17
-2.269059266447229e-04 1.025888380553239e-16 2.284853086611771e-16 4.145064805337332e-16 -9.232243958196078e-17 9.334681701931383e-17
-2.269059266447110e-04 -1.264435213778021e-16 -6.108896428500937e-17 -1.379387406984031e-16 1.283778803256043e-16 1.126039941649566e-16
-2.269059266443728e-04 3.722093199721827e-16 6.703147785339359e-17 -1.236881786729074e-16 2.047438053637680e-17 1.447564764678103e-16
-2.266344119123030e-04 -1.266258716351185e-16 -1.336982551921545e-16 -1.039516600164087e-16 7.646336824601989e-17 -5.372678565723069e-17
-2.266344119126110e-04 2.341966113680574e-16 -4.319372034070364e-16 1.144286017274035e-16 -1.586527091298607e-16 7.718739557198066e-17
-2.266344119128300e-04 -2.528870427556042e-16 3.981056245698945e-16 -1.578798880243649e-16 4.807712094735084e-17 -1.811921603352421e-16
-2.266344119130285e-04 9.088616117587191e-17 -9.976895514663710e-18 -1.313509694691445e-16 3.141866008993279e-17 -1.753858107054481e-16
-2.269059266447229e-04 1.025888380553239e-16 2.284853086611771e-16 4.145064805337332e-16 -9.232243958196078e-17 9.334681701931383e-17
-2.269059266447530e-04 1.841297835374224e-16 2.924299242996265e-16 2.150743056363790e-16 2.571949500878583e-16 -1.419615037131972e-16
-2.269059266447225e-04 -2.732055342995644e-16 -3.256298233158782e-16 5.882926092159438e-17 -1.396746599298516e-16 -2.255277822500078e-16
-2.269059266447110e-04 -1.264435213778021e-16 -6.108896428500937e-17 -1.379387406984031e-16 1.283778803256043e-16 1.126039941649566e-16
-2.266344119128316e-04 -1.357398764673880e-16 -6.059077411724786e-17 1.932279275660880e-16 7.421720193917378e-18 6.103392043784155e-17
-2.266344119130285e-04 9.088616117587191e-17 -9.976895514663710e-18 -1.313509694691445e-16 3.141866008993279e-17 -1.753858107054481e-16
-2.266344119130844e-04 -6.756543646590915e-18 1.942890293094024e-16 1.091533227563438e-16 1.023209817406798e-17 1.966318379425179e-16
-2.266344119129819e-04 -2.136111405178396e-16 4.113517325568192e-17 1.463305077468678e-16 -1.171100167661505e-16 4.297501303627754e-17
-2.269059266443728e-04 3.722093199721827e-16 6.703147785339359e-17 -1.236881786729074e-16 2.047438053637680e-17 1.447564764678103e-16
-2.269059266447110e-04 -1.264435213778021e-16 -6.108896428500937e-17 -1.379387406984031e-16 1.283778803256043e-16 1.126039941649566e-16
-2.269059266445580e-04 2.728408337849318e-16 -6.245004513516501e-17 -1.513591515187136e-18 5.848540699018755e-17 3.359446058918282e-17
-2.269059266450436e-04 -2.344278222295612e-16 -2.020908138957038e-16 1.893925191768743e-18 -2.330500257985534e-17 -8.923889003840409e-17
-2.266344119130285e-04 9.088616117587191e-17 -9.976895514663710e-18 -1.313509694691445e-16 3.141866008993279e-17 -1.753858107054481e-16
-2.266344119128300e-04 -2.528870427556042e-16 3.981056245698945e-16 -1.578798880243649e-16 4.807712094735084e-17 -1.811921603352421e-16
-2.266344119126249e-04 1.143761439837173e-16 -1.970111910097137e-16 -7.419858795130699e-17 2.601759672432034e-16 -2.083336725541764e-16
-2.266344119130844e-04 -6.756543646590915e-18 1.942890293094024e-16 1.091533227563438e-16 1.023209817406798e-17 1.966318379425179e-16
-2.269059266447110e-04 -1.264435213778021e-16 -6.108896428500937e-17 -1.379387406984031e-16 1.283778803256043e-16 1.126039941649566e-16
-2.269059266447225e-04 -2.732055342995644e-16 -3.256298233158782e-16 5.882926092159438e-17 -1.396746599298516e-16 -2.255277822500078e-16
-2.269059266447733e-04 9.442235295438979e-17 2.136111405178395e-16 -3.985688378305583e-17 1.375096088765763e-16 -5.026320148165991e-16
-2.269059266445580e-04 2.728408337849318e-16 -6.245004513516501e-17 -1.513591515187136e-18 5.848540699018755e-17 3.359446058918282e-17
-2.266344119129819e-04 -2.136111405178396e-16 4.113517325568192e-17 1.463305077468678e-16 -1.171100167661505e-16 4.297501303627754e-17
-2.266344119130844e-04 -6.756543646590915e-18 1.942890293094024e-16 1.091533227563438e-16 1.023209817406798e-17 1.966318379425179e-16
-2.266344119126014e-04 -2.684417513240196e-16 -1.540167467361147e-16 7.205385251562911e-17 6.113114374461860e-17 -1.200271627697460e-16
-2.266344119128293e-04 -1.812741321839821e-16 9.342597261886678e-17 -6.650428510340502e-17 -1.940374941327333e-16 -7.454784246684973e-17
-2.269059266450436e-04 -2.344278222295612e-16 -2.020908138957038e-16 1.893925191768743e-18 -2.330500257985534e-17 -8.923889003840409e-17
-2.269059266445580e-04 2.728408337849318e-16 -6.245004513516501e-17 -1.513591515187136e-18 5.848540699018755e-17 3.359446058918282e-17
-2.269059266446354e-04 9.478705346902248e-17 -4.181571368075978e-17 2.824558347437781e-17 3.984567729174851e-17 2.685098019163467e-17
-2.269059266445003e-04 9.174905185826594e-17 1.065743593974158e-17 -4.899720660767552e-17 1.548623228297886e-17 -3.633103115478195e-17
-2.266344119130844e-04 -6.756543646590915e-18 1.942890293094024e-16 1.091533227563438e-16 1.023209817406798e-17 1.966318379425179e-16
-2.266344119126249e-04 1.143761439837173e-16 -1.970111910097137e-16 -7.419858795130699e-17 2.601759672432034e-16 -2.083336725541764e-16
-2.266344119126326e-04 2.875195595115191e-17 -3.625482643679642e-16 2.539191379961536e-17 1.589156558847176e-16 2.634768696915328e-16
-2.266344119126014e-04 -2.684417513240196e-16 -1.540167467361147e-16 7.205385251562911e-17 6.113114374461860e-17 -1.200271627697460e-16
-2.269059266445580e-04 2.728408337849318e-16 -6.245004513516501e-17 -1.513591515187136e-18 5.848540699018755e-17 3.359446058918282e-17
-2.269059266447733e-04 9.442235295438979e-17 2.136111405178395e-16 -3.985688378305583e-17 1.375096088765763e-16 -5.026320148165991e-16
-2.269059266444334e-04 -3.854650120849927e-17 -1.540167467361147e-16 -4.575895345968187e-17 1.795405264719039e-16 -4.881927941922302e-17
-2.269059266446354e-04 9.478705346902248e-17 -4.181571368075978e-17 2.824558347437781e-17 3.984567729174851e-17 2.685098019163467e-17
-2.266344119128293e-04 -1.812741321839821e-16 9.342597261886678e-17 -6.650428510340502e-17 -1.940374941327333e-16 -7.454784246684973e-17
-2.266344119126014e-04 -2.684417513240196e-16 -1.540167467361147e-16 7.205385251562911e-17 6.113114374461860e-17 -1.200271627697460e-16
-2.266344119127728e-04 -1.963306505846358e-16 -5.501296106349637e-17 -1.177485472730614e-16 1.782997266730854e-16 1.531337489746516e-16
-2.266344119127884e-04 -1.249000902703300e-16 -1.540167467361147e-16 -2.264436325697198e-17 8.956781866727469e-17 2.031617496965149e-16
-2.269059266445003e-04 9.174905185826594e-17 1.065743593974158e-17 -4.899720660767552e-17 1.548623228297886e-17 -3.633103115478195e-17
-2.269059266446354e-04 9.478705346902248e-17 -4.181571368075978e-17 2.824558347437781e-17 3.984567729174851e-17 2.685098019163467e-17
-2.269059266445569e-04 -1.590963696221047e-16 -1.325195245993152e-16 6.373691092495619e-17 1.630771899047983e-16 -8.161616935668820e-17
-2.269059266446608e-04 -3.220351868072869e-18 -2.723426436171702e-16 -9.673187432966522e-17 -9.281249121139288e-17 3.183514386933547e-17
-2.266344119126014e-04 -2.684417513240196e-16 -1.540167467361147e-16 7.205385251562911e-17 6.113114374461860e-17 -1.200271627697460e-16
-2.266344119126326e-04 2.875195595115191e-17 -3.625482643679642e-16 2.539191379961536e-17 1.589156558847176e-16 2.634768696915328e-16
-2.266344119125000e-04 3.183881816609584e-17 -1.895741069380450e-16 3.093461512055552e-16 -8.969685195191475e-17 -2.490243184389832e-16
-2.266344119127728e-04 -1.963306505846358e-16 -5.501296106349637e-17 -1.177485472730614e-16 1.782997266730854e-16 1.531337489746516e-16
-2.269059266446354e-04 9.478705346902248e-17 -4.181571368075978e-17 2.824558347437781e-17 3.984567729174851e-17 2.685098019163467e-17
-2.269059266444334e-04 -3.854650120849927e-17 -1.540167467361147e-16 -4.575895345968187e-17 1.795405264719039e-16 -4.881927941922302e-17
-2.269059266444242e-04 2.122500596676838e-16 1.188240870488170e-16 6.963013366991481e-17 1.336026090079021e-16 -1.032931682180118e-16
-2.269059266445569e-04 -1.590963696221047e-16 -1.325195245993152e-16 6.373691092495619e-17 1.630771899047983e-16 -8.161616935668820e-17
-2.266344119127884e-04 -1.249000902703300e-16 -1.540167467361147e-16 -2.264436325697198e-17 8.956781866727469e-17 2.031617496965149e-16
-2.266344119127728e-04 -1.963306505846358e-16 -5.501296106349637e-17 -1.177485472730614e-16 1.782997266730854e-16 1.531337489746516e-16
-2.266344119131845e-04 4.790148902311025e-16 -2.701186720846203e-16 2.130750827444156e-16 -7.378589559823577e-17 -2.133421214671595e-18
-2.266344119128736e-04 1.973758915243463e-16 3.691844105208600e-17 2.356327206594319e-16 1.104604800043735e-17 -1.378937904696650e-16
-2.269059266446608e-04 -3.220351868072869e-18 -2.723426436171702e-16 -9.673187432966522e-17 -9.281249121139288e-17 3.183514386933547e-17
-2.269059266445569e-04 -1.590963696221047e-16 -1.325195245993152e-16 6.373691092495619e-17 1.630771899047983e-16 -8.161616935668820e-17
-2.269059266447960e-04 1.354240365569428e-16 -2.904371636285806e-16 9.562093686720622e-17 -7.403346378823563e-17 3.002931096836042e-17
-2.269059266447706e-04 -5.169297116187115e-16 1.659994950812582e-17 2.703996863195264e-16 9.552100580571927e-17 -1.073014541527499e-16
-2.266344119127728e-04 -1.963306505846358e-16 -5.501296106349637e-17 -1.177485472730614e-16 1.782997266730854e-16 1.531337489746516e-16
-2.266344119125000e-04 3.183881816609584e-17 -1.895741069380450e-16 3.093461512055552e-16 -8.969685195191475e-17 -2.490243184389832e-16
-2.266344119122386e-04 -3.256298233158780e-16 -2.220446049250312e-16 -1.732493650857712e-16 -1.904858582246269e-17 1.727967198352251e-16
-2.266344119131845e-04 4.790148902311025e-16 -2.701186720846203e-16 2.130750827444156e-16 -7.378589559823577e-17 -2.133421214671595e-18
-2.269059266445569e-04 -1.590963696221047e-16 -1.325195245993152e-16 6.373691092495619e-17 1.630771899047983e-16 -8.161616935668820e-17
-2.269059266444242e-04 2.122500596676838e-16 1.188240870488170e-16 6.963013366991481e-17 1.336026090079021e-16 -1.032931682180118e-16
-2.269059266446826e-04 -3.319989901625174e-17 -2.423630964689915e-16 3.802747942283873e-16 -1.597191073318067e-16 2.163251662450438e-17
-2.269059266447960e-04 1.354240365569428e-16 -2.904371636285806e-16 9.562093686720622e-17 -7.403346378823563e-17 3.002931096836042e-17
-2.269059266447211e-04 3.240017631594651e-16 -5.179260919542343e-17 1.569355232781051e-16 -1.927153383248315e-17 9.085333493439510e-17
-2.269059266447229e-04 1.025888380553239e-16 2.284853086611771e-16 4.145064805337332e-16 -9.232243958196078e-17 9.334681701931383e-17
-2.269059266447110e-04 -1.264435213778021e-16 -6.108896428500937e-17 -1.379387406984031e-16 1.283778803256043e-16 1.126039941649566e-16
-2.269059266443728e-04 3.722093199721827e-16 6.703147785339359e-17 -1.236881786729074e-16 2.047438053637680e-17 1.447564764678103e-16
-2.275691304709954e-04 -4.884447349738173e-16 -1.638112919934621e-16 6.810603732423693e-16 2.113432179408898e-16 -9.983801671475690e-17
-2.275691304715178e-04 2.122500596676839e-16 -2.875195595115185e-17 -2.129817227789988e-16 9.623990845570426e-17 1.459738116498441e-16
-2.275691304709169e-04 1.091630314445984e-16 2.039500849136209e-16 -6.139058337496765e-17 -2.518468210017303e-17 2.362352604949285e-16
-2.275691304715678e-04 1.240860601921235e-16 1.535185565683532e-16 -2.287064799216271e-16 7.567660300557200e-17 3.737531645056323e-17
-2.269059266447229e-04 1.025888380553239e-16 2.284853086611771e-16 4.145064805337332e-16 -9.232243958196078e-17 9.334681701931383e-17
-2.269059266447530e-04 1.841297835374224e-16 2.924299242996265e-16 2.150743056363790e-16 2.571949500878583e-16 -1.419615037131972e-16
-2.269059266447225e-04 -2.732055342995644e-16 -3.256298233158782e-16 5.882926092159438e-17 -1.396746599298516e-16 -2.255277822500078e-16
-2.269059266447110e-04 -1.264435213778021e-16 -6.108896428500937e-17 -1.379387406984031e-16 1.283778803256043e-16 1.126039941649566e-16
-2.275691304715178e-04 2.122500596676839e-16 -2.875195595115185e-17 -2.129817227789988e-16 9.623990845570426e-17 1.459738116498441e-16
-2.275691304708542e-04 3.521220392897264e-16 4.069037894917189e-16 6.127805027560023e-17 -4.344704687703142e-17 -5.054032095139431e-16
-2.275691304709389e-04 -3.713464292897885e-16 2.941557056644150e-16 -6.446569336649740e-17 -1.659543675245375e-16 -7.511596612340899e-17
-2.275691304709169e-04 1.091630314445984e-16 2.039500849136209e-16 -6.139058337496765e-17 -2.518468210017303e-17 2.362352604949285e-16
-2.269059266443728e-04 3.722093199721827e-16 6.703147785339359e-17 -1.236881786729074e-16 2.047438053637680e-17 1.447564764678103e-16
-2.269059266447110e-04 -1.264435213778021e-16 -6.108896428500937e-17 -1.379387406984031e-16 1.283778803256043e-16 1.126039941649566e-16
-2.269059266445580e-04 2.728408337849318e-16 -6.245004513516501e-17 -1.513591515187136e-18 5.848540699018755e-17 3.359446058918282e-17
-2.269059266450436e-04 -2.344278222295612e-16 -2.020908138957038e-16 1.893925191768743e-18 -2.330500257985534e-17 -8.923889003840409e-17
-2.275691304715678e-04 1.240860601921235e-16 1.535185565683532e-16 -2.287064799216271e-16 7.567660300557200e-17 3.737531645056323e-17
-2.275691304709169e-04 1.091630314445984e-16 2.039500849136209e-16 -6.139058337496765e-17 -2.518468210017303e-17 2.362352604949285e-16
-2.275691304713751e-04 3.051778421187892e-16 -3.686958044789847e-17 5.430548135144051e-17 1.022131497795914e-16 -7.507072205226932e-17
-2.275691304711684e-04 7.121244161223517e-18 -3.519265968729764e-17 -1.055922456625159e-16 4.228602531578898e-17 1.251686293972263e-17
-2.269059266447110e-04 -1.264435213778021e-16 -6.108896428500937e-17 -1.379387406984031e-16 1.283778803256043e-16 1.126039941649566e-16
-2.269059266447225e-04 -2.732055342995644e-16 -3.256298233158782e-16 5.882926092159438e-17 -1.396746599298516e-16 -2.255277822500078e-16
-2.269059266447733e-04 9.442235295438979e-17 2.136111405178395e-16 -3.985688378305583e-17 1.375096088765763e-16 -5.026320148165991e-16
-2.269059266445580e-04 2.728408337849318e-16 -6.245004513516501e-17 -1.513591515187136e-18 5.848540699018755e-17 3.359446058918282e-17
-2.275691304709169e-04 1.091630314445984e-16 2.039500849136209e-16 -6.139058337496765e-17 -2.518468210017303e-17 2.362352604949285e-16
-2.275691304709389e-04 -3.713464292897885e-16 2.941557056644150e-16 -6.446569336649740e-17 -1.659543675245375e-16 -7.511596612340899e-17
-2.275691304713488e-04 -5.823331293156914e-17 -1.651723728436178e-16 1.905059915017767e-16 2.112375921333876e-16 2.556996380578332e-17
-2.275691304713751e-04 3.051778421187892e-16 -3.686958044789847e-17 5.430548135144051e-17 1.022131497795914e-16 -7.507072205226932e-17
-2.269059266450436e-04 -2.344278222295612e-16 -2.020908138957038e-16 1.893925191768743e-18 -2.330500257985534e-17 -8.923889003840409e-17
-2.269059266445580e-04 2.728408337849318e-16 -6.245004513516501e-17 -1.513591515187136e-18 5.848540699018755e-17 3.359446058918282e-17
-2.269059266446354e-04 9.478705346902248e-17 -4.181571368075978e-17 2.824558347437781e-17 3.984567729174851e-17 2.685098019163467e-17
-2.269059266445003e-04 9.174905185826594e-17 1.065743593974158e-17 -4.899720660767552e-17 1.548623228297886e-17 -3.633103115478195e-17
-2.275691304711684e-04 7.121244161223517e-18 -3.519265968729764e-17 -1.055922456625159e-16 4.228602531578898e-17 1.251686293972263e-17
-2.275691304713751e-04 3.051778421187892e-16 -3.686958044789847e-17 5.430548135144051e-17 1.022131497795914e-16 -7.507072205226932e-17
-2.275691304712740e-04 -1.029046779657691e-16 -2.335649315471672e-17 8.601834046032447e-17 1.006481229056900e-17 1.502602267612689e-16
-2.275691304709471e-04 -2.774222665031603e-16 -9.020562075079396e-17 -1.088672984778372e-16 -7.532743080776319e-17 -1.736225021726828e-17
-2.269059266445580e-04 2.728408337849318e-16 -6.245004513516501e-17 -1.513591515187136e-18 5.848540699018755e-17 3.359446058918282e-17
-2.269059266447733e-04 9.442235295438979e-17 2.136111405178395e-16 -3.985688378305583e-17 1.375096088765763e-16 -5.026320148165991e-16
-2.269059266444334e-04 -3.854650120849927e-17 -1.540167467361147e-16 -4.575895345968187e-17 1.795405264719039e-16 -4.881927941922302e-17
-2.269059266446354e-04 9.478705346902248e-17 -4.181571368075978e-17 2.824558347437781e-17 3.984567729174851e-17 2.685098019163467e-17
-2.275691304713751e-04 3.051778421187892e-16 -3.686958044789847e-17 5.430548135144051e-17 1.022131497795914e-16 -7.507072205226932e-17
-2.275691304713488e-04 -5.823331293156914e-17 -1.651723728436178e-16 1.905059915017767e-16 2.112375921333876e-16 2.556996380578332e-17
-2.275691304715841e-04 -4.943514800974473e-17 -1.567389084364261e-16 -4.565765467411945e-17 9.592436804919306e-17 -3.442404374553287e-16
-2.275691304712740e-04 -1.029046779657691e-16 -2.335649315471672e-17 8.601834046032447e-17 1.006481229056900e-17 1.502602267612689e-16
-2.269059266445003e-04 9.174905185826594e-17 1.065743593974158e-17 -4.899720660767552e-17 1.548623228297886e-17 -3.633103115478195e-17
-2.269059266446354e-04 9.478705346902248e-17 -4.181571368075978e-17 2.824558347437781e-17 3.984567729174851e-17 2.685098019163467e-17
-2.269059266445569e-04 -1.590963696221047e-16 -1.325195245993152e-16 6.373691092495619e-17 1.630771899047983e-16 -8.161616935668820e-17
-2.269059266446608e-04 -3.220351868072869e-18 -2.723426436171702e-16 -9.673187432966522e-17 -9.281249121139288e-17 3.183514386933547e-17
-2.275691304709471e-04 -2.774222665031603e-16 -9.020562075079396e-17 -1.088672984778372e-16 -7.532743080776319e-17 -1.736225021726828e-17
-2.275691304712740e-04 -1.029046779657691e-16 -2.335649315471672e-17 8.601834046032447e-17 1.006481229056900e-17 1.502602267612689e-16
-2.275691304711816e-04 -1.877506043648817e-17 4.385733495599321e-17 -4.764659779614917e-17 -2.559938642170476e-17 -1.120764663601403e-16
-2.275691304714516e-04 -1.771908896335150e-16 7.801784586301386e-18 -1.579314719867883e-17 1.552010260225282e-16 7.600255867129001e-17
-2.269059266446354e-04 9.478705346902248e-17 -4.181571368075978e-17 2.824558347437781e-17 3.984567729174851e-17 2.685098019163467e-17
-2.269059266444334e-04 -3.854650120849927e-17 -1.540167467361147e-16 -4.575895345968187e-17 1.795405264719039e-16 -4.881927941922302e-17
-2.269059266444242e-04 2.122500596676838e-16 1.188240870488170e-16 6.963013366991481e-17 1.336026090079021e-16 -1.032931682180118e-16
-2.269059266445569e-04 -1.590963696221047e-16 -1.325195245993152e-16 6.373691092495619e-17 1.630771899047983e-16 -8.161616935668820e-17
-2.275691304712740e-04 -1.029046779657691e-16 -2.335649315471672e-17 8.601834046032447e-17 1.006481229056900e-17 1.502602267612689e-16
-2.275691304715841e-04 -4.943514800974473e-17 -1.567389084364261e-16 -4.565765467411945e-17 9.592436804919306e-17 -3.442404374553287e-16
-2.275691304708711e-04 -3.361537696024909e-16 -2.802779178566005e-16 1.158851822549956e-16 -1.322537433087933e-16 -1.657690041429314e-16
-2.275691304711816e-04 -1.877506043648817e-17 4.385733495599321e-17 -4.764659779614917e-17 -2.559938642170476e-17 -1.120764663601403e-16
-2.269059266446608e-04 -3.220351868072869e-18 -2.723426436171702e-16 -9.673187432966522e-17 -9.281249121139288e-17 3.183514386933547e-17
-2.269059266445569e-04 -1.590963696221047e-16 -1.325195245993152e-16 6.373691092495619e-17 1.630771899047983e-16 -8.161616935668820e-17
-2.269059266447960e-04 1.354240365569428e-16 -2.904371636285806e-16 9.562093686720622e-17 -7.403346378823563e-17 3.002931096836042e-17
-2.269059266447706e-04 -5.169297116187115e-16 1.659994950812582e-17 2.703996863195264e-16 9.552100580571927e-17 -1.073014541527499e-16
-2.275691304714516e-04 -1.771908896335150e-16 7.801784586301386e-18 -1.579314719867883e-17 1.552010260225282e-16 7.600255867129001e-17
-2.275691304711816e-04 -1.877506043648817e-17 4.385733495599321e-17 -4.764659779614917e-17 -2.559938642170476e-17 -1.120764663601403e-16
-2.275691304718506e-04 1.299797131563202e-16 -1.794148611660649e-16 -1.135521177664120e-16 -2.285413143529495e-17 2.266295205085992e-16
-2.275691304718786e-04 5.189224722897573e-16 -6.022607360261516e-17 4.778899407979425e-16 -1.057938113585398e-16 -8.617180330718150e-17
-2.269059266445569e-04 -1.590963696221047e-16 -1.325195245993152e-16 6.373691092495619e-17 1.630771899047983e-16 -8.161616935668820e-17
-2.269059266444242e-04 2.122500596676838e-16 1.188240870488170e-16 6.963013366991481e-17 1.336026090079021e-16 -1.032931682180118e-16
-2.269059266446826e-04 -3.319989901625174e-17 -2.423630964689915e-16 3.802747942283873e-16 -1.597191073318067e-16 2.163251662450438e-17
-2.269059266447960e-04 1.354240365569428e-16 -2.904371636285806e-16 9.562093686720622e-17 -7.403346378823563e-17 3.002931096836042e-17
-2.275691304711816e-04 -1.877506043648817e-17 4.385733495599321e-17 -4.764659779614917e-17 -2.559938642170476e-17 -1.120764663601403e-16
-2.275691304708711e-04 -3.361537696024909e-16 -2.802779178566005e-16 1.158851822549956e-16 -1.322537433087933e-16 -1.657690041429314e-16
-2.275691304709341e-04 1.516592855504359e-16 -1.313407940064759e-16 6.469513883286196e-17 2.492108152442404e-17 -2.265127272237650e-16
-2.275691304718506e-04 1.299797131563202e-16 -1.794148611660649e-16 -1.135521177664120e-16 -2.285413143529495e-17 2.266295205085992e-16
-2.275691304709954e-04 -4.884447349738173e-16 -1.638112919934621e-16 6.810603732423693e-16 2.113432179408898e-16 -9.983801671475690e-17
-2.275691304715178e-04 2.122500596676839e-16 -2.875195595115185e-17 -2.129817227789988e-16 9.623990845570426e-17 1.459738116498441e-16
-2.275691304709169e-04 1.091630314445984e-16 2.039500849136209e-16 -6.139058337496765e-17 -2.518468210017303e-17 2.362352604949285e-16
-2.275691304715678e-04 1.240860601921235e-16 1.535185565683532e-16 -2.287064799216271e-16 7.567660300557200e-17 3.737531645056323e-17
-2.279967614975296e-04 3.337963084168122e-16 2.274889283256539e-16 -2.274074322463925e-16 -5.388063629495076e-17 1.892953827143279e-16
-2.279967614981328e-04 -7.622819490942720e-16 -1.387778780781446e-16 3.111294543743669e-16 7.282888562547003e-17 2.561889283024278e-16
-2.279967614977916e-04 -4.143408735633876e-16 -1.692556153940848e-16 3.982064477844874e-17 -8.774793269922025e-17 -9.145844256958040e-17
-2.279967614981514e-04 1.014947365114258e-16 -1.970111910097137e-16 -1.393627257471666e-16 1.888221313787113e-17 -1.301350436464250e-16
-2.275691304715178e-04 2.122500596676839e-16 -2.875195595115185e-17 -2.129817227789988e-16 9.623990845570426e-17 1.459738116498441e-16
-2.275691304708542e-04 3.521220392897264e-16 4.069037894917189e-16 6.127805027560023e-17 -4.344704687703142e-17 -5.054032095139431e-16
-2.275691304709389e-04 -3.713464292897885e-16 2.941557056644150e-16 -6.446569336649740e-17 -1.659543675245375e-16 -7.511596612340899e-17
-2.275691304709169e-04 1.091630314445984e-16 2.039500849136209e-16 -6.139058337496765e-17 -2.518468210017303e-17 2.362352604949285e-16
-2.279967614981328e-04 -7.622819490942720e-16 -1.387778780781446e-16 3.111294543743669e-16 7.282888562547003e-17 2.561889283024278e-16
-2.279967614984145e-04 -5.696995328978835e-17 -2.329332517262767e-16 3.671475303842562e-16 7.308305077281347e-17 3.974880178348885e-16
-2.279967614972167e-04 1.008630566905353e-16 1.293480333354298e-16 4.021807138608132e-16 7.451534750512577e-18 4.872836163781283e-17
-2.279967614977916e-04 -4.143408735633876e-16 -1.692556153940848e-16 3.982064477844874e-17 -8.774793269922025e-17 -9.145844256958040e-17
-2.275691304715678e-04 1.240860601921235e-16 1.535185565683532e-16 -2.287064799216271e-16 7.567660300557200e-17 3.737531645056323e-17
-2.275691304709169e-04 1.091630314445984e-16 2.039500849136209e-16 -6.139058337496765e-17 -2.518468210017303e-17 2.362352604949285e-16
-2.275691304713751e-04 3.051778421187892e-16 -3.686958044789847e-17 5.430548135144051e-17 1.022131497795914e-16 -7.507072205226932e-17
-2.275691304711684e-04 7.121244161223517e-18 -3.519265968729764e-17 -1.055922456625159e-16 4.228602531578898e-17 1.251686293972263e-17
-2.279967614981514e-04 1.014947365114258e-16 -1.970111910097137e-16 -1.393627257471666e-16 1.888221313787113e-17 -1.301350436464250e-16
-2.279967614977916e-04 -4.143408735633876e-16 -1.692556153940848e-16 3.982064477844874e-17 -8.774793269922025e-17 -9.145844256958040e-17
-2.279967614979372e-04 1.327018748566316e-16 4.671298630943330e-17 4.382098619035853e-17 9.925258125256508e-17 -2.583846469771847e-16
-2.279967614980703e-04 -1.804112415015879e-16 1.905704872735680e-16 1.045866275140482e-16 -7.633775381780752e-18 -9.358424100353422e-17
-2.275691304709169e-04 1.091630314445984e-16 2.039500849136209e-16 -6.139058337496765e-17 -2.518468210017303e-17 2.362352604949285e-16
-2.275691304709389e-04 -3.713464292897885e-16 2.941557056644150e-16 -6.446569336649740e-17 -1.659543675245375e-16 -7.511596612340899e-17
-2.275691304713488e-04 -5.823331293156914e-17 -1.651723728436178e-16 1.905059915017767e-16 2.112375921333876e-16 2.556996380578332e-17
-2.275691304713751e-04 3.051778421187892e-16 -3.686958044789847e-17 5.430548135144051e-17 1.022131497795914e-16 -7.507072205226932e-17
-2.279967614977916e-04 -4.143408735633876e-16 -1.692556153940848e-16 3.982064477844874e-17 -8.774793269922025e-17 -9.145844256958040e-17
-2.279967614972167e-04 1.008630566905353e-16 1.293480333354298e-16 4.021807138608132e-16 7.451534750512577e-18 4.872836163781283e-17
-2.279967614973197e-04 -6.011928188011211e-16 -2.450852581693028e-16 -3.489307294124798e-16 -5.829171465481277e-17 -9.490064411207294e-16
-2.279967614979372e-04 1.327018748566316e-16 4.671298630943330e-17 4.382098619035853e-17 9.925258125256508e-17 -2.583846469771847e-16
-2.275691304711684e-04 7.121244161223517e-18 -3.519265968729764e-17 -1.055922456625159e-16 4.228602531578898e-17 1.251686293972263e-17
-2.275691304713751e-04 3.051778421187892e-16 -3.686958044789847e-17 5.430548135144051e-17 1.022131497795914e-16 -7.507072205226932e-17
-2.275691304712740e-04 -1.029046779657691e-16 -2.335649315471672e-17 8.601834046032447e-17 1.006481229056900e-17 1.502602267612689e-16
-2.275691304709471e-04 -2.774222665031603e-16 -9.020562075079396e-17 -1.088672984778372e-16 -7.532743080776319e-17 -1.736225021726828e-17
-2.279967614980703e-04 -1.804112415015879e-16 1.905704872735680e-16 1.045866275140482e-16 -7.633775381780752e-18 -9.358424100353422e-17
-2.279967614979372e-04 1.327018748566316e-16 4.671298630943330e-17 4.382098619035853e-17 9.925258125256508e-17 -2.583846469771847e-16
-2.279967614982991e-04 -2.474427193549815e-16 -4.028205469412518e-16 3.171438418958891e-16 1.858671222969694e-17 7.033158617137854e-16
-2.279967614977005e-04 8.798164921824365e-18 -4.319372034070366e-16 -1.874154845348178e-16 -1.465672870097250e-17 -7.811695267230232e-17
-2.275691304713751e-04 3.051778421187892e-16 -3.686958044789847e-17 5.430548135144051e-17 1.022131497795914e-16 -7.507072205226932e-17
-2.275691304713488e-04 -5.823331293156914e-17 -1.651723728436178e-16 1.905059915017767e-16 2.112375921333876e-16 2.556996380578332e-17
-2.275691304715841e-04 -4.943514800974473e-17 -1.567389084364261e-16 -4.565765467411945e-17 9.592436804919306e-17 -3.442404374553287e-16
-2.275691304712740e-04 -1.029046779657691e-16 -2.335649315471672e-17 8.601834046032447e-17 1.006481229056900e-17 1.502602267612689e-16
-2.279967614979372e-04 1.327018748566316e-16 4.671298630943330e-17 4.382098619035853e-17 9.925258125256508e-17 -2.583846469771847e-16
-2.279967614973197e-04 -6.011928188011211e-16 -2.450852581693028e-16 -3.489307294124798e-16 -5.829171465481277e-17 -9.490064411207294e-16
-2.279967614980563e-04 2.024555144103364e-16 1.266258716351184e-16 -1.360025042600098e-16 2.566055847914386e-16 2.379476429370466e-16
-2.279967614982991e-04 -2.474427193549815e-16 -4.028205469412518e-16 3.171438418958891e-16 1.858671222969694e-17 7.033158617137854e-16
-2.275691304709471e-04 -2.774222665031603e-16 -9.020562075079396e-17 -1.088672984778372e-16 -7.532743080776319e-17 -1.736225021726828e-17
-2.275691304712740e-04 -1.029046779657691e-16 -2.335649315471672e-17 8.601834046032447e-17 1.006481229056900e-17 1.502602267612689e-16
-2.275691304711816e-04 -1.877506043648817e-17 4.385733495599321e-17 -4.764659779614917e-17 -2.559938642170476e-17 -1.120764663601403e-16
-2.275691304714516e-04 -1.771908896335150e-16 7.801784586301386e-18 -1.579314719867883e-17 1.552010260225282e-16 7.600255867129001e-17
-2.279967614977005e-04 8.798164921824365e-18 -4.319372034070366e-16 -1.874154845348178e-16 -1.465672870097250e-17 -7.811695267230232e-17
-2.279967614982991e-04 -2.474427193549815e-16 -4.028205469412518e-16 3.171438418958891e-16 1.858671222969694e-17 7.033158617137854e-16
-2.279967614986402e-04 1.120186827980386e-16 7.211110073938362e-17 -1.590807472081795e-16 1.861185116570676e-17 -1.420920360292032e-16
-2.279967614977645e-04 -9.515175398365516e-17 -2.284853086611770e-16 -2.226731586584164e-16 -4.113699965349657e-17 -1.386080785907750e-16
-2.275691304712740e-04 -1.029046779657691e-16 -2.335649315471672e-17 8.601834046032447e-17 1.006481229056900e-17 1.502602267612689e-16
-2.275691304715841e-04 -4.943514800974473e-17 -1.567389084364261e-16 -4.565765467411945e-17 9.592436804919306e-17 -3.442404374553287e-16
-2.275691304708711e-04 -3.361537696024909e-16 -2.802779178566005e-16 1.158851822549956e-16 -1.322537433087933e-16 -1.657690041429314e-16
-2.275691304711816e-04 -1.877506043648817e-17 4.385733495599321e-17 -4.764659779614917e-17 -2.559938642170476e-17 -1.120764663601403e-16
-2.279967614982991e-04 -2.474427193549815e-16 -4.028205469412518e-16 3.171438418958891e-16 1.858671222969694e-17 7.033158617137854e-16
-2.279967614980563e-04 2.024555144103364e-16 1.266258716351184e-16 -1.360025042600098e-16 2.566055847914386e-16 2.379476429370466e-16
-2.279967614963914e-04 1.665334536937734e-16 5.511259909704861e-16 2.152858149141048e-16 -1.963795111888275e-17 -9.532282606639560e-16
-2.279967614986402e-04 1.120186827980386e-16 7.211110073938362e-17 -1.590807472081795e-16 1.861185116570676e-17 -1.420920360292032e-16
-2.275691304714516e-04 -1.771908896335150e-16 7.801784586301386e-18 -1.579314719867883e-17 1.552010260225282e-16 7.600255867129001e-17
-2.275691304711816e-04 -1.877506043648817e-17 4.385733495599321e-17 -4.764659779614917e-17 -2.559938642170476e-17 -1.120764663601403e-16
-2.275691304718506e-04 1.299797131563202e-16 -1.794148611660649e-16 -1.135521177664120e-16 -2.285413143529495e-17 2.266295205085992e-16
-2.275691304718786e-04 5.189224722897573e-16 -6.022607360261516e-17 4.778899407979425e-16 -1.057938113585398e-16 -8.617180330718150e-17
-2.279967614977645e-04 -9.515175398365516e-17 -2.284853086611770e-16 -2.226731586584164e-16 -4.113699965349657e-17 -1.386080785907750e-16
-2.279967614986402e-04 1.120186827980386e-16 7.211110073938362e-17 -1.590807472081795e-16 1.861185116570676e-17 -1.420920360292032e-16
-2.279967614983353e-04 8.326672684688675e-17 2.403703357979454e-16 -1.082690477304562e-17 1.005639029867317e-16 -3.169498811307509e-16
-2.279967614994963e-04 -6.851889466772733e-16 9.614813431917818e-17 -1.112071516353869e-16 1.468955025748910e-16 3.199694994295859e-17
-2.275691304711816e-04 -1.877506043648817e-17 4.385733495599321e-17 -4.764659779614917e-17 -2.559938642170476e-17 -1.120764663601403e-16
-2.275691304708711e-04 -3.361537696024909e-16 -2.802779178566005e-16 1.158851822549956e-16 -1.322537433087933e-16 -1.657690041429314e-16
-2.275691304709341e-04 1.516592855504359e-16 -1.313407940064759e-16 6.469513883286196e-17 2.492108152442404e-17 -2.265127272237650e-16
-2.275691304718506e-04 1.299797131563202e-16 -1.794148611660649e-16 -1.135521177664120e-16 -2.285413143529495e-17 2.266295205085992e-16
-2.279967614986402e-04 1.120186827980386e-16 7.211110073938362e-17 -1.590807472081795e-16 1.861185116570676e-17 -1.420920360292032e-16
-2.279967614963914e-04 1.665334536937734e-16 5.511259909704861e-16 2.152858149141048e-16 -1.963795111888275e-17 -9.532282606639560e-16
-2.279967614978079e-04 -1.422294408077212e-16 1.487416814333752e-17 -2.892361304889883e-16 -1.555601778435869e-16 -2.456884499707776e-16
-2.279967614983353e-04 8.326672684688675e-17 2.403703357979454e-16 -1.082690477304562e-17 1.005639029867317e-16 -3.169498811307509e-16
        </DataArray>
        <DataArray type="Float64" Name="nodal_cauchy_coupling_stresses_xyz" NumberOfComponents="6" format="ascii">
-4.856928566703642e-02 -4.856928566703644e-02 -4.856928566703647e-02 1.178916017320776e-32 9.049446359018344e-33 -6.894822153585617e-32
-4.856928591858627e-02 -4.856928591858627e-02 -4.856928591858625e-02 4.100803296914909e-32 -5.591918682181370e-32 7.417833306350355e-32
-4.856928549002715e-02 -4.856928549002718e-02 -4.856928549002718e-02 -1.531375211617668e-32 -1.341458215803044e-33 -8.721150210805494e-32
-4.856928557917839e-02 -4.856928557917838e-02 -4.856928557917829e-02 -8.298593133954947e-33 -1.081708192625653e-33 2.499729872578042e-32
-1.689183552512336e+00 -1.689183552512336e+00 -1.689183552512336e+00 2.123441596509370e-32 -2.844569149005108e-33 1.279850304127748e-31
-1.689183553026898e+00 -1.689183553026898e+00 -1.689183553026898e+00 2.418558253905888e-32 1.556314831551165e-32 -5.216896334666797e-32
-1.689183553037921e+00 -1.689183553037921e+00 -1.689183553037921e+00 -3.724192377168815e-32 3.836116591650696e-32 1.033733704900323e-31
-1.689183552630815e+00 -1.689183552630815e+00 -1.689183552630815e+00 -1.109812252455452e-31 6.147398261080225e-32 -5.155641624284812e-32
-4.856928591858627e-02 -4.856928591858627e-02 -4.856928591858625e-02 4.100803296914909e-32 -5.591918682181370e-32 7.417833306350355e-32
-4.856928575383988e-02 -4.856928575383948e-02 -4.856928575383990e-02 9.958247719262419e-32 -9.331319199012124e-32 -8.825683108266537e-33
-4.856928585405487e-02 -4.856928585405510e-02 -4.856928585405491e-02 -9.539692855605490e-32 5.301804015020465e-32 5.042515753586417e-32
-4.856928549002715e-02 -4.856928549002718e-02 -4.856928549002718e-02 -1.531375211617668e-32 -1.341458215803044e-33 -8.721150210805494e-32
-1.689183553026898e+00 -1.689183553026898e+00 -1.689183553026898e+00 2.418558253905888e-32 1.556314831551165e-32 -5.216896334666797e-32
-1.689183553489175e+00 -1.689183553489176e+00 -1.689183553489175e+00 4.823945167127945e-31 -1.281833352846092e-31 3.174859685768551e-32
-1.689183553307896e+00 -1.689183553307896e+00 -1.689183553307896e+00 9.394184997649201e-32 1.593375983381664e-32 -9.817817196669420e-32
-1.689183553037921e+00 -1.689183553037921e+00 -1.689183553037921e+00 -3.724192377168815e-32 3.836116591650696e-32 1.033733704900323e-31
-4.856928557917839e-02 -4.856928557917838e-02 -4.856928557917829e-02 -8.298593133954947e-33 -1.081708192625653e-33 2.499729872578042e-32
-4.856928549002715e-02 -4.856928549002718e-02 -4.856928549002718e-02 -1.531375211617668e-32 -1.341458215803044e-33 -8.721150210805494e-32
-4.856928576158734e-02 -4.856928576158730e-02 -4.856928576158730e-02 -4.715603805516173e-33 1.096811029763334e-32 -1.600969037149293e-32
-4.856928596219238e-02 -4.856928596219241e-02 -4.856928596219247e-02 3.747764197628086e-33 -1.207224909608261e-32 4.266599422756923e-32
-1.689183552630815e+00 -1.689183552630815e+00 -1.689183552630815e+00 -1.109812252455452e-31 6.147398261080225e-32 -5.155641624284812e-32
-1.689183553037921e+00 -1.689183553037921e+00 -1.689183553037921e+00 -3.724192377168815e-32 3.836116591650696e-32 1.033733704900323e-31
-1.689183553162642e+00 -1.689183553162642e+00 -1.689183553162642e+00 -4.388537622192577e-32 -1.981970028629064e-32 -1.460781399372173e-31
-1.689183552982200e+00 -1.689183552982200e+00 -1.689183552982200e+00 -1.157183821020541e-31 3.986429184527491e-33 1.989238739104177e-32
-4.856928549002715e-02 -4.856928549002718e-02 -4.856928549002718e-02 -1.531375211617668e-32 -1.341458215803044e-33 -8.721150210805494e-32
-4.856928585405487e-02 -4.856928585405510e-02 -4.856928585405491e-02 -9.539692855605490e-32 5.301804015020465e-32 5.042515753586417e-32
-4.856928571692915e-02 -4.856928571692883e-02 -4.856928571692923e-02 3.197322295809424e-32 -5.704327543663226e-33 -5.118533309387721e-32
-4.856928576158734e-02 -4.856928576158730e-02 -4.856928576158730e-02 -4.715603805516173e-33 1.096811029763334e-32 -1.600969037149293e-32
-1.689183553037921e+00 -1.689183553037921e+00 -1.689183553037921e+00 -3.724192377168815e-32 3.836116591650696e-32 1.033733704900323e-31
-1.689183553307896e+00 -1.689183553307896e+00 -1.689183553307896e+00 9.394184997649201e-32 1.593375983381664e-32 -9.817817196669420e-32
-1.689183553187745e+00 -1.689183553187745e+00 -1.689183553187745e+00 2.478813180778752e-32 1.248352053782273e-31 2.637291101838595e-31
-1.689183553162642e+00 -1.689183553162642e+00 -1.689183553162642e+00 -4.388537622192577e-32 -1.981970028629064e-32 -1.460781399372173e-31
-4.856928596219238e-02 -4.856928596219241e-02 -4.856928596219247e-02 3.747764197628086e-33 -1.207224909608261e-32 4.266599422756923e-32
-4.856928576158734e-02 -4.856928576158730e-02 -4.856928576158730e-02 -4.715603805516173e-33 1.096811029763334e-32 -1.600969037149293e-32
-4.856928602069747e-02 -4.856928602069750e-02 -4.856928602069743e-02 6.954046786689452e-33 2.138042334446099e-32 8.879982966022973e-32
-4.856928608670864e-02 -4.856928608670868e-02 -4.856928608670873e-02 -1.372705942534783e-32 1.140027543853422e-32 -2.847534102388430e-32
-1.689183552982200e+00 -1.689183552982200e+00 -1.689183552982200e+00 -1.157183821020541e-31 3.986429184527491e-33 1.989238739104177e-32
-1.689183553162642e+00 -1.689183553162642e+00 -1.689183553162642e+00 -4.388537622192577e-32 -1.981970028629064e-32 -1.460781399372173e-31
-1.689183553621624e+00 -1.689183553621624e+00 -1.689183553621624e+00 -1.124351029726504e-31 -1.412756668070229e-31 -1.394836615909138e-31
-1.689183553722303e+00 -1.689183553722303e+00 -1.689183553722303e+00 6.195772596427036e-32 -8.106143573173079e-32 3.174207567873332e-32
-4.856928576158734e-02 -4.856928576158730e-02 -4.856928576158730e-02 -4.715603805516173e-33 1.096811029763334e-32 -1.600969037149293e-32
-4.856928571692915e-02 -4.856928571692883e-02 -4.856928571692923e-02 3.197322295809424e-32 -5.704327543663226e-33 -5.118533309387721e-32
-4.856928513569481e-02 -4.856928513569486e-02 -4.856928513569474e-02 6.472932117364549e-33 1.572872363254702e-32 1.782432830556288e-31
-4.856928602069747e-02 -4.856928602069750e-02 -4.856928602069743e-02 6.954046786689452e-33 2.138042334446099e-32 8.879982966022973e-32
-1.689183553162642e+00 -1.689183553162642e+00 -1.689183553162642e+00 -4.388537622192577e-32 -1.981970028629064e-32 -1.460781399372173e-31
-1.689183553187745e+00 -1.689183553187745e+00 -1.689183553187745e+00 2.478813180778752e-32 1.248352053782273e-31 2.637291101838595e-31
-1.689183552908756e+00 -1.689183552908756e+00 -1.689183552908756e+00 -4.312390864759889e-32 1.143114804244936e-32 -4.238723358917435e-32
-1.689183553621624e+00 -1.689183553621624e+00 -1.689183553621624e+00 -1.124351029726504e-31 -1.412756668070229e-31 -1.394836615909138e-31
-4.856928608670864e-02 -4.856928608670868e-02 -4.856928608670873e-02 -1.372705942534783e-32 1.140027543853422e-32 -2.847534102388430e-32
-4.856928602069747e-02 -4.856928602069750e-02 -4.856928602069743e-02 6.954046786689452e-33 2.138042334446099e-32 8.879982966022973e-32
-4.856928563861065e-02 -4.856928563861088e-02 -4.856928563861067e-02 3.624829606344625e-32 -1.749227443519516e-32 1.235713751230559e-32
-4.856928567508781e-02 -4.856928567508775e-02 -4.856928567508779e-02 1.104308671431008e-32 2.918735565239453e-32 1.496225023742221e-32
-1.689183553722303e+00 -1.689183553722303e+00 -1.689183553722303e+00 6.195772596427036e-32 -8.106143573173079e-32 3.174207567873332e-32
-1.689183553621624e+00 -1.689183553621624e+00 -1.689183553621624e+00 -1.124351029726504e-31 -1.412756668070229e-31 -1.394836615909138e-31
-1.689183553258369e+00 -1.689183553258368e+00 -1.689183553258368e+00 -1.184502355271627e-32 7.524955496776446e-32 -9.227220645050592e-32
-1.689183553895140e+00 -1.689183553895140e+00 -1.689183553895140e+00 5.359203746378086e-32 -7.297753366720243e-32 4.683346707714713e-32
-4.856928602069747e-02 -4.856928602069750e-02 -4.856928602069743e-02 6.954046786689452e-33 2.138042334446099e-32 8.879982966022973e-32
-4.856928513569481e-02 -4.856928513569486e-02 -4.856928513569474e-02 6.472932117364549e-33 1.572872363254702e-32 1.782432830556288e-31
-4.856928533988545e-02 -4.856928533988532e-02 -4.856928533988545e-02 -6.492500500857534e-32 -6.900137034465042e-32 -6.733589103187122e-32
-4.856928563861065e-02 -4.856928563861088e-02 -4.856928563861067e-02 3.624829606344625e-32 -1.749227443519516e-32 1.235713751230559e-32
-1.689183553621624e+00 -1.689183553621624e+00 -1.689183553621624e+00 -1.124351029726504e-31 -1.412756668070229e-31 -1.394836615909138e-31
-1.689183552908756e+00 -1.689183552908756e+00 -1.689183552908756e+00 -4.312390864759889e-32 1.143114804244936e-32 -4.238723358917435e-32
-1.689183551472466e+00 -1.689183551472466e+00 -1.689183551472466e+00 1.080164805883478e-31 -2.292950972966293e-32 2.614750278452177e-31
-1.689183553258369e+00 -1.689183553258368e+00 -1.689183553258368e+00 -1.184502355271627e-32 7.524955496776446e-32 -9.227220645050592e-32
-4.856928567508781e-02 -4.856928567508775e-02 -4.856928567508779e-02 1.104308671431008e-32 2.918735565239453e-32 1.496225023742221e-32
-4.856928563861065e-02 -4.856928563861088e-02 -4.856928563861067e-02 3.624829606344625e-32 -1.749227443519516e-32 1.235713751230559e-32
-4.856928530298577e-02 -4.856928530298582e-02 -4.856928530298604e-02 -9.395156044451110e-32 -1.519914064217152e-32 -4.238695507467944e-32
-4.856928566960848e-02 -4.856928566960851e-02 -4.856928566960848e-02 -3.573798670102751e-32 -3.210352593873897e-32 1.111707404296337e-32
-1.689183553895140e+00 -1.689183553895140e+00 -1.689183553895140e+00 5.359203746378086e-32 -7.297753366720243e-32 4.683346707714713e-32
-1.689183553258369e+00 -1.689183553258368e+00 -1.689183553258368e+00 -1.184502355271627e-32 7.524955496776446e-32 -9.227220645050592e-32
-1.689183552421967e+00 -1.689183552421966e+00 -1.689183552421966e+00 1.460297161302814e-31 4.994353891628024e-33 1.968286327916634e-31
-1.689183553158740e+00 -1.689183553158739e+00 -1.689183553158740e+00 -1.641320387939682e-31 1.185148121100986e-31 -6.194876218636085e-32
-4.856928563861065e-02 -4.856928563861088e-02 -4.856928563861067e-02 3.624829606344625e-32 -1.749227443519516e-32 1.235713751230559e-32
-4.856928533988545e-02 -4.856928533988532e-02 -4.856928533988545e-02 -6.492500500857534e-32 -6.900137034465042e-32 -6.733589103187122e-32
-4.856928529248172e-02 -4.856928529248197e-02 -4.856928529248128e-02 1.325159041272544e-31 5.661043795435222e-32 7.036672755531404e-32
-4.856928530298577e-02 -4.856928530298582e-02 -4.856928530298604e-02 -9.395156044451110e-32 -1.519914064217152e-32 -4.238695507467944e-32
-1.689183553258369e+00 -1.689183553258368e+00 -1.689183553258368e+00 -1.184502355271627e-32 7.524955496776446e-32 -9.227220645050592e-32
-1.689183551472466e+00 -1.689183551472466e+00 -1.689183551472466e+00 1.080164805883478e-31 -2.292950972966293e-32 2.614750278452177e-31
-1.689183551578179e+00 -1.689183551578179e+00 -1.689183551578180e+00 9.676328266484986e-32 -4.328486635041930e-32 -4.956956343459389e-31
-1.689183552421967e+00 -1.689183552421966e+00 -1.689183552421966e+00 1.460297161302814e-31 4.994353891628024e-33 1.968286327916634e-31
-1.689183552512336e+00 -1.689183552512336e+00 -1.689183552512336e+00 2.123441596509370e-32 -2.844569149005108e-33 1.279850304127748e-31
-1.689183553026898e+00 -1.689183553026898e+00 -1.689183553026898e+00 2.418558253905888e-32 1.556314831551165e-32 -5.216896334666797e-32
-1.689183553037921e+00 -1.689183553037921e+00 -1.689183553037921e+00 -3.724192377168815e-32 3.836116591650696e-32 1.033733704900323e-31
-1.689183552630815e+00 -1.689183552630815e+00 -1.689183552630815e+00 -1.109812252455452e-31 6.147398261080225e-32 -5.155641624284812e-32
-2.623550960758121e+00 -2.623550960758121e+00 -2.623550960758121e+00 -8.410797126105611e-32 -1.206952811762580e-31 -3.554698951002399e-31
-2.623550961713015e+00 -2.623550961713015e+00 -2.623550961713015e+00 -2.589921454481968e-31 5.014546603616158e-32 -1.947063641134194e-31
-2.623550962037828e+00 -2.623550962037828e+00 -2.623550962037829e+00 -4.686186888871894e-32 -4.028738015967568e-32 -2.642660741100692e-32
-2.623550961595493e+00 -2.623550961595493e+00 -2.623550961595493e+00 1.871174225355156e-31 -8.922358866543848e-32 1.183818755302879e-31
-1.689183553026898e+00 -1.689183553026898e+00 -1.689183553026898e+00 2.418558253905888e-32 1.556314831551165e-32 -5.216896334666797e-32
-1.689183553489175e+00 -1.689183553489176e+00 -1.689183553489175e+00 4.823945167127945e-31 -1.281833352846092e-31 3.174859685768551e-32
-1.689183553307896e+00 -1.689183553307896e+00 -1.689183553307896e+00 9.394184997649201e-32 1.593375983381664e-32 -9.817817196669420e-32
-1.689183553037921e+00 -1.689183553037921e+00 -1.689183553037921e+00 -3.724192377168815e-32 3.836116591650696e-32 1.033733704900323e-31
-2.623550961713015e+00 -2.623550961713015e+00 -2.623550961713015e+00 -2.589921454481968e-31 5.014546603616158e-32 -1.947063641134194e-31
-2.623550961947092e+00 -2.623550961947092e+00 -2.623550961947092e+00 -1.818630579334903e-31 -1.275253653977783e-32 1.002901650023668e-31
-2.623550961802779e+00 -2.623550961802780e+00 -2.623550961802779e+00 1.172801691338134e-31 1.641456046038248e-32 2.166075618912384e-31
-2.623550962037828e+00 -2.623550962037828e+00 -2.623550962037829e+00 -4.686186888871894e-32 -4.028738015967568e-32 -2.642660741100692e-32
-1.689183552630815e+00 -1.689183552630815e+00 -1.689183552630815e+00 -1.109812252455452e-31 6.147398261080225e-32 -5.155641624284812e-32
-1.689183553037921e+00 -1.689183553037921e+00 -1.689183553037921e+00 -3.724192377168815e-32 3.836116591650696e-32 1.033733704900323e-31
-1.689183553162642e+00 -1.689183553162642e+00 -1.689183553162642e+00 -4.388537622192577e-32 -1.981970028629064e-32 -1.460781399372173e-31
-1.689183552982200e+00 -1.689183552982200e+00 -1.689183552982200e+00 -1.157183821020541e-31 3.986429184527491e-33 1.989238739104177e-32
-2.623550961595493e+00 -2.623550961595493e+00 -2.623550961595493e+00 1.871174225355156e-31 -8.922358866543848e-32 1.183818755302879e-31
-2.623550962037828e+00 -2.623550962037828e+00 -2.623550962037829e+00 -4.686186888871894e-32 -4.028738015967568e-32 -2.642660741100692e-32
-2.623550961859108e+00 -2.623550961859108e+00 -2.623550961859108e+00 2.146337369175891e-32 1.199372643454597e-31 2.345549714106332e-31
-2.623550961471926e+00 -2.623550961471926e+00 -2.623550961471926e+00 -1.504036957415565e-32 2.432179410885996e-31 -2.650659029626811e-31
-1.689183553037921e+00 -1.689183553037921e+00 -1.689183553037921e+00 -3.724192377168815e-32 3.836116591650696e-32 1.033733704900323e-31
-1.689183553307896e+00 -1.689183553307896e+00 -1.689183553307896e+00 9.394184997649201e-32 1.593375983381664e-32 -9.817817196669420e-32
-1.689183553187745e+00 -1.689183553187745e+00 -1.689183553187745e+00 2.478813180778752e-32 1.248352053782273e-31 2.637291101838595e-31
-1.689183553162642e+00 -1.689183553162642e+00 -1.689183553162642e+00 -4.388537622192577e-32 -1.981970028629064e-32 -1.460781399372173e-31
-2.623550962037828e+00 -2.623550962037828e+00 -2.623550962037829e+00 -4.686186888871894e-32 -4.028738015967568e-32 -2.642660741100692e-32
-2.623550961802779e+00 -2.623550961802780e+00 -2.623550961802779e+00 1.172801691338134e-31 1.641456046038248e-32 2.166075618912384e-31
-2.623550961903312e+00 -2.623550961903312e+00 -2.623550961903312e+00 -1.421099879656221e-32 -2.888507784859882e-31 -1.000197130745713e-31
-2.623550961859108e+00 -2.623550961859108e+00 -2.623550961859108e+00 2.146337369175891e-32 1.199372643454597e-31 2.345549714106332e-31
-1.689183552982200e+00 -1.689183552982200e+00 -1.689183552982200e+00 -1.157183821020541e-31 3.986429184527491e-33 1.989238739104177e-32
-1.689183553162642e+00 -1.689183553162642e+00 -1.689183553162642e+00 -4.388537622192577e-32 -1.981970028629064e-32 -1.460781399372173e-31
-1.689183553621624e+00 -1.689183553621624e+00 -1.689183553621624e+00 -1.124351029726504e-31 -1.412756668070229e-31 -1.394836615909138e-31
-1.689183553722303e+00 -1.689183553722303e+00 -1.689183553722303e+00 6.195772596427036e-32 -8.106143573173079e-32 3.174207567873332e-32
-2.623550961471926e+00 -2.623550961471926e+00 -2.623550961471926e+00 -1.504036957415565e-32 2.432179410885996e-31 -2.650659029626811e-31
-2.623550961859108e+00 -2.623550961859108e+00 -2.623550961859108e+00 2.146337369175891e-32 1.199372643454597e-31 2.345549714106332e-31
-2.623550961586816e+00 -2.623550961586817e+00 -2.623550961586817e+00 1.036510206597557e-31 -3.565832768082955e-32 3.426492031391299e-32
-2.623550961260482e+00 -2.623550961260481e+00 -2.623550961260481e+00 -7.641971479976416e-32 -1.194629627713256e-32 2.043892575194604e-31
-1.689183553162642e+00 -1.689183553162642e+00 -1.689183553162642e+00 -4.388537622192577e-32 -1.981970028629064e-32 -1.460781399372173e-31
-1.689183553187745e+00 -1.689183553187745e+00 -1.689183553187745e+00 2.478813180778752e-32 1.248352053782273e-31 2.637291101838595e-31
-1.689183552908756e+00 -1.689183552908756e+00 -1.689183552908756e+00 -4.312390864759889e-32 1.143114804244936e-32 -4.238723358917435e-32
-1.689183553621624e+00 -1.689183553621624e+00 -1.689183553621624e+00 -1.124351029726504e-31 -1.412756668070229e-31 -1.394836615909138e-31
-2.623550961859108e+00 -2.623550961859108e+00 -2.623550961859108e+00 2.146337369175891e-32 1.199372643454597e-31 2.345549714106332e-31
-2.623550961903312e+00 -2.623550961903312e+00 -2.623550961903312e+00 -1.421099879656221e-32 -2.888507784859882e-31 -1.000197130745713e-31
-2.623550962231073e+00 -2.623550962231073e+00 -2.623550962231073e+00 2.519567580657645e-32 2.487627341769810e-32 -5.570271232943906e-32
-2.623550961586816e+00 -2.623550961586817e+00 -2.623550961586817e+00 1.036510206597557e-31 -3.565832768082955e-32 3.426492031391299e-32
-1.689183553722303e+00 -1.689183553722303e+00 -1.689183553722303e+00 6.195772596427036e-32 -8.106143573173079e-32 3.174207567873332e-32
-1.689183553621624e+00 -1.689183553621624e+00 -1.689183553621624e+00 -1.124351029726504e-31 -1.412756668070229e-31 -1.394836615909138e-31
-1.689183553258369e+00 -1.689183553258368e+00 -1.689183553258368e+00 -1.184502355271627e-32 7.524955496776446e-32 -9.227220645050592e-32
-1.689183553895140e+00 -1.689183553895140e+00 -1.689183553895140e+00 5.359203746378086e-32 -7.297753366720243e-32 4.683346707714713e-32
-2.623550961260482e+00 -2.623550961260481e+00 -2.623550961260481e+00 -7.641971479976416e-32 -1.194629627713256e-32 2.043892575194604e-31
-2.623550961586816e+00 -2.623550961586817e+00 -2.623550961586817e+00 1.036510206597557e-31 -3.565832768082955e-32 3.426492031391299e-32
-2.623550961502227e+00 -2.623550961502227e+00 -2.623550961502227e+00 2.033059560376837e-31 -8.549156429090278e-32 -1.093045668587721e-31
-2.623550961969312e+00 -2.623550961969311e+00 -2.623550961969312e+00 6.752120606441751e-32 -5.021802065091210e-32 -9.203595492239347e-32
-1.689183553621624e+00 -1.689183553621624e+00 -1.689183553621624e+00 -1.124351029726504e-31 -1.412756668070229e-31 -1.394836615909138e-31
-1.689183552908756e+00 -1.689183552908756e+00 -1.689183552908756e+00 -4.312390864759889e-32 1.143114804244936e-32 -4.238723358917435e-32
-1.689183551472466e+00 -1.689183551472466e+00 -1.689183551472466e+00 1.080164805883478e-31 -2.292950972966293e-32 2.614750278452177e-31
-1.689183553258369e+00 -1.689183553258368e+00 -1.689183553258368e+00 -1.184502355271627e-32 7.524955496776446e-32 -9.227220645050592e-32
-2.623550961586816e+00 -2.623550961586817e+00 -2.623550961586817e+00 1.036510206597557e-31 -3.565832768082955e-32 3.426492031391299e-32
-2.623550962231073e+00 -2.623550962231073e+00 -2.623550962231073e+00 2.519567580657645e-32 2.487627341769810e-32 -5.570271232943906e-32
-2.623550960728614e+00 -2.623550960728613e+00 -2.623550960728613e+00 -1.846960397397826e-31 5.293446917119446e-32 4.163731992907080e-31
-2.623550961502227e+00 -2.623550961502227e+00 -2.623550961502227e+00 2.033059560376837e-31 -8.549156429090278e-32 -1.093045668587721e-31
-1.689183553895140e+00 -1.689183553895140e+00 -1.689183553895140e+00 5.359203746378086e-32 -7.297753366720243e-32 4.683346707714713e-32
-1.689183553258369e+00 -1.689183553258368e+00 -1.689183553258368e+00 -1.184502355271627e-32 7.524955496776446e-32 -9.227220645050592e-32
-1.689183552421967e+00 -1.689183552421966e+00 -1.689183552421966e+00 1.460297161302814e-31 4.994353891628024e-33 1.968286327916634e-31
-1.689183553158740e+00 -1.689183553158739e+00 -1.689183553158740e+00 -1.641320387939682e-31 1.185148121100986e-31 -6.194876218636085e-32
-2.623550961969312e+00 -2.623550961969311e+00 -2.623550961969312e+00 6.752120606441751e-32 -5.021802065091210e-32 -9.203595492239347e-32
-2.623550961502227e+00 -2.623550961502227e+00 -2.623550961502227e+00 2.033059560376837e-31 -8.549156429090278e-32 -1.093045668587721e-31
-2.623550960990716e+00 -2.623550960990716e+00 -2.623550960990716e+00 -2.023234266132123e-31 -4.931211348264097e-32 8.045300864821938e-33
-2.623550961696850e+00 -2.623550961696850e+00 -2.623550961696850e+00 1.522405219503719e-31 7.497913469248014e-32 -7.714420332790703e-32
-1.689183553258369e+00 -1.689183553258368e+00 -1.689183553258368e+00 -1.184502355271627e-32 7.524955496776446e-32 -9.227220645050592e-32
-1.689183551472466e+00 -1.689183551472466e+00 -1.689183551472466e+00 1.080164805883478e-31 -2.292950972966293e-32 2.614750278452177e-31
-1.689183551578179e+00 -1.689183551578179e+00 -1.689183551578180e+00 9.676328266484986e-32 -4.328486635041930e-32 -4.956956343459389e-31
-1.689183552421967e+00 -1.689183552421966e+00 -1.689183552421966e+00 1.460297161302814e-31 4.994353891628024e-33 1.968286327916634e-31
-2.623550961502227e+00 -2.623550961502227e+00 -2.623550961502227e+00 2.033059560376837e-31 -8.549156429090278e-32 -1.093045668587721e-31
-2.623550960728614e+00 -2.623550960728613e+00 -2.623550960728613e+00 -1.846960397397826e-31 5.293446917119446e-32 4.163731992907080e-31
-2.623550960226699e+00 -2.623550960226699e+00 -2.623550960226698e+00 1.647388570438568e-31 -2.534460533690852e-32 5.336669067863925e-32
-2.623550960990716e+00 -2.623550960990716e+00 -2.623550960990716e+00 -2.023234266132123e-31 -4.931211348264097e-32 8.045300864821938e-33
-2.623550960758121e+00 -2.623550960758121e+00 -2.623550960758121e+00 -8.410797126105611e-32 -1.206952811762580e-31 -3.554698951002399e-31
-2.623550961713015e+00 -2.623550961713015e+00 -2.623550961713015e+00 -2.589921454481968e-31 5.014546603616158e-32 -1.947063641134194e-31
-2.623550962037828e+00 -2.623550962037828e+00 -2.623550962037829e+00 -4.686186888871894e-32 -4.028738015967568e-32 -2.642660741100692e-32
-2.623550961595493e+00 -2.623550961595493e+00 -2.623550961595493e+00 1.871174225355156e-31 -8.922358866543848e-32 1.183818755302879e-31
-2.667289445601877e+00 -2.667289445601877e+00 -2.667289445601877e+00 -1.530471530313111e-33 4.616756643907531e-32 2.822328623674421e-31
-2.667289445389553e+00 -2.667289445389553e+00 -2.667289445389553e+00 1.385085767765310e-31 -1.850894799534308e-31 -3.478266547318178e-32
-2.667289446432879e+00 -2.667289446432879e+00 -2.667289446432878e+00 7.398050137447582e-33 8.526393429476419e-32 -8.720765983240666e-32
-2.667289446223390e+00 -2.667289446223390e+00 -2.667289446223389e+00 3.273591361405077e-31 -7.535836331786397e-32 -7.196615452880119e-33
-2.623550961713015e+00 -2.623550961713015e+00 -2.623550961713015e+00 -2.589921454481968e-31 5.014546603616158e-32 -1.947063641134194e-31
-2.623550961947092e+00 -2.623550961947092e+00 -2.623550961947092e+00 -1.818630579334903e-31 -1.275253653977783e-32 1.002901650023668e-31
-2.623550961802779e+00 -2.623550961802780e+00 -2.623550961802779e+00 1.172801691338134e-31 1.641456046038248e-32 2.166075618912384e-31
-2.623550962037828e+00 -2.623550962037828e+00 -2.623550962037829e+00 -4.686186888871894e-32 -4.028738015967568e-32 -2.642660741100692e-32
-2.667289445389553e+00 -2.667289445389553e+00 -2.667289445389553e+00 1.385085767765310e-31 -1.850894799534308e-31 -3.478266547318178e-32
-2.667289445573019e+00 -2.667289445573019e+00 -2.667289445573018e+00 -3.932975244630088e-31 1.863163452300991e-31 -2.400209543401276e-32
-2.667289446136785e+00 -2.667289446136785e+00 -2.667289446136785e+00 -1.399511667851909e-31 -1.794923903689401e-31 7.927560104417611e-32
-2.667289446432879e+00 -2.667289446432879e+00 -2.667289446432878e+00 7.398050137447582e-33 8.526393429476419e-32 -8.720765983240666e-32
-2.623550961595493e+00 -2.623550961595493e+00 -2.623550961595493e+00 1.871174225355156e-31 -8.922358866543848e-32 1.183818755302879e-31
-2.623550962037828e+00 -2.623550962037828e+00 -2.623550962037829e+00 -4.686186888871894e-32 -4.028738015967568e-32 -2.642660741100692e-32
-2.623550961859108e+00 -2.623550961859108e+00 -2.623550961859108e+00 2.146337369175891e-32 1.199372643454597e-31 2.345549714106332e-31
-2.623550961471926e+00 -2.623550961471926e+00 -2.623550961471926e+00 -1.504036957415565e-32 2.432179410885996e-31 -2.650659029626811e-31
-2.667289446223390e+00 -2.667289446223390e+00 -2.667289446223389e+00 3.273591361405077e-31 -7.535836331786397e-32 -7.196615452880119e-33
-2.667289446432879e+00 -2.667289446432879e+00 -2.667289446432878e+00 7.398050137447582e-33 8.526393429476419e-32 -8.720765983240666e-32
-2.667289446828120e+00 -2.667289446828120e+00 -2.667289446828119e+00 3.856897387159056e-32 4.373537770096765e-32 -4.603258531407792e-32
-2.667289446849416e+00 -2.667289446849415e+00 -2.667289446849416e+00 -1.277952108747378e-31 1.079833637205996e-31 5.294808830161373e-32
-2.623550962037828e+00 -2.623550962037828e+00 -2.623550962037829e+00 -4.686186888871894e-32 -4.028738015967568e-32 -2.642660741100692e-32
-2.623550961802779e+00 -2.623550961802780e+00 -2.623550961802779e+00 1.172801691338134e-31 1.641456046038248e-32 2.166075618912384e-31
-2.623550961903312e+00 -2.623550961903312e+00 -2.623550961903312e+00 -1.421099879656221e-32 -2.888507784859882e-31 -1.000197130745713e-31
-2.623550961859108e+00 -2.623550961859108e+00 -2.623550961859108e+00 2.146337369175891e-32 1.199372643454597e-31 2.345549714106332e-31
-2.667289446432879e+00 -2.667289446432879e+00 -2.667289446432878e+00 7.398050137447582e-33 8.526393429476419e-32 -8.720765983240666e-32
-2.667289446136785e+00 -2.667289446136785e+00 -2.667289446136785e+00 -1.399511667851909e-31 -1.794923903689401e-31 7.927560104417611e-32
-2.667289446123872e+00 -2.667289446123872e+00 -2.667289446123872e+00 1.016318749719273e-31 6.944069597347552e-32 -4.987581653694621e-31
-2.667289446828120e+00 -2.667289446828120e+00 -2.667289446828119e+00 3.856897387159056e-32 4.373537770096765e-32 -4.603258531407792e-32
-2.623550961471926e+00 -2.623550961471926e+00 -2.623550961471926e+00 -1.504036957415565e-32 2.432179410885996e-31 -2.650659029626811e-31
-2.623550961859108e+00 -2.623550961859108e+00 -2.623550961859108e+00 2.146337369175891e-32 1.199372643454597e-31 2.345549714106332e-31
-2.623550961586816e+00 -2.623550961586817e+00 -2.623550961586817e+00 1.036510206597557e-31 -3.565832768082955e-32 3.426492031391299e-32
-2.623550961260482e+00 -2.623550961260481e+00 -2.623550961260481e+00 -7.641971479976416e-32 -1.194629627713256e-32 2.043892575194604e-31
-2.667289446849416e+00 -2.667289446849415e+00 -2.667289446849416e+00 -1.277952108747378e-31 1.079833637205996e-31 5.294808830161373e-32
-2.667289446828120e+00 -2.667289446828120e+00 -2.667289446828119e+00 3.856897387159056e-32 4.373537770096765e-32 -4.603258531407792e-32
-2.667289446218799e+00 -2.667289446218799e+00 -2.667289446218799e+00 -1.101463679874045e-31 -2.109918682476527e-32 -3.212502931040596e-32
-2.667289445916563e+00 -2.667289445916563e+00 -2.667289445916562e+00 6.521143225314176e-32 5.831513678082371e-32 1.630301155487972e-32
-2.623550961859108e+00 -2.623550961859108e+00 -2.623550961859108e+00 2.146337369175891e-32 1.199372643454597e-31 2.345549714106332e-31
-2.623550961903312e+00 -2.623550961903312e+00 -2.623550961903312e+00 -1.421099879656221e-32 -2.888507784859882e-31 -1.000197130745713e-31
-2.623550962231073e+00 -2.623550962231073e+00 -2.623550962231073e+00 2.519567580657645e-32 2.487627341769810e-32 -5.570271232943906e-32
-2.623550961586816e+00 -2.623550961586817e+00 -2.623550961586817e+00 1.036510206597557e-31 -3.565832768082955e-32 3.426492031391299e-32
-2.667289446828120e+00 -2.667289446828120e+00 -2.667289446828119e+00 3.856897387159056e-32 4.373537770096765e-32 -4.603258531407792e-32
-2.667289446123872e+00 -2.667289446123872e+00 -2.667289446123872e+00 1.016318749719273e-31 6.944069597347552e-32 -4.987581653694621e-31
-2.667289446087139e+00 -2.667289446087138e+00 -2.667289446087138e+00 -7.816774032794967e-33 1.737414681179591e-31 -1.186240803683516e-31
-2.667289446218799e+00 -2.667289446218799e+00 -2.667289446218799e+00 -1.101463679874045e-31 -2.109918682476527e-32 -3.212502931040596e-32
-2.623550961260482e+00 -2.623550961260481e+00 -2.623550961260481e+00 -7.641971479976416e-32 -1.194629627713256e-32 2.043892575194604e-31
-2.623550961586816e+00 -2.623550961586817e+00 -2.623550961586817e+00 1.036510206597557e-31 -3.565832768082955e-32 3.426492031391299e-32
-2.623550961502227e+00 -2.623550961502227e+00 -2.623550961502227e+00 2.033059560376837e-31 -8.549156429090278e-32 -1.093045668587721e-31
-2.623550961969312e+00 -2.623550961969311e+00 -2.623550961969312e+00 6.752120606441751e-32 -5.021802065091210e-32 -9.203595492239347e-32
-2.667289445916563e+00 -2.667289445916563e+00 -2.667289445916562e+00 6.521143225314176e-32 5.831513678082371e-32 1.630301155487972e-32
-2.667289446218799e+00 -2.667289446218799e+00 -2.667289446218799e+00 -1.101463679874045e-31 -2.109918682476527e-32 -3.212502931040596e-32
-2.667289445857453e+00 -2.667289445857453e+00 -2.667289445857453e+00 -3.123960905634237e-31 -2.985368824261573e-32 1.125406586760478e-31
-2.667289445794274e+00 -2.667289445794273e+00 -2.667289445794273e+00 2.570212799288943e-31 2.428033478380715e-32 6.059638960858649e-32
-2.623550961586816e+00 -2.623550961586817e+00 -2.623550961586817e+00 1.036510206597557e-31 -3.565832768082955e-32 3.426492031391299e-32
-2.623550962231073e+00 -2.623550962231073e+00 -2.623550962231073e+00 2.519567580657645e-32 2.487627341769810e-32 -5.570271232943906e-32
-2.623550960728614e+00 -2.623550960728613e+00 -2.623550960728613e+00 -1.846960397397826e-31 5.293446917119446e-32 4.163731992907080e-31
-2.623550961502227e+00 -2.623550961502227e+00 -2.623550961502227e+00 2.033059560376837e-31 -8.549156429090278e-32 -1.093045668587721e-31
-2.667289446218799e+00 -2.667289446218799e+00 -2.667289446218799e+00 -1.101463679874045e-31 -2.109918682476527e-32 -3.212502931040596e-32
-2.667289446087139e+00 -2.667289446087138e+00 -2.667289446087138e+00 -7.816774032794967e-33 1.737414681179591e-31 -1.186240803683516e-31
-2.667289445957929e+00 -2.667289445957929e+00 -2.667289445957929e+00 4.695641302457351e-32 1.502641012052188e-31 -5.819064812426726e-32
-2.667289445857453e+00 -2.667289445857453e+00 -2.667289445857453e+00 -3.123960905634237e-31 -2.985368824261573e-32 1.125406586760478e-31
-2.623550961969312e+00 -2.623550961969311e+00 -2.623550961969312e+00 6.752120606441751e-32 -5.021802065091210e-32 -9.203595492239347e-32
-2.623550961502227e+00 -2.623550961502227e+00 -2.623550961502227e+00 2.033059560376837e-31 -8.549156429090278e-32 -1.093045668587721e-31
-2.623550960990716e+00 -2.623550960990716e+00 -2.623550960990716e+00 -2.023234266132123e-31 -4.931211348264097e-32 8.045300864821938e-33
-2.623550961696850e+00 -2.623550961696850e+00 -2.623550961696850e+00 1.522405219503719e-31 7.497913469248014e-32 -7.714420332790703e-32
-2.667289445794274e+00 -2.667289445794273e+00 -2.667289445794273e+00 2.570212799288943e-31 2.428033478380715e-32 6.059638960858649e-32
-2.667289445857453e+00 -2.667289445857453e+00 -2.667289445857453e+00 -3.123960905634237e-31 -2.985368824261573e-32 1.125406586760478e-31
-2.667289445677995e+00 -2.667289445677994e+00 -2.667289445677995e+00 9.775920386184286e-32 -1.856345942250741e-32 -2.113999526648457e-31
-2.667289446275407e+00 -2.667289446275406e+00 -2.667289446275406e+00 -1.283671567623272e-31 6.455800974565356e-32 -1.391017564641825e-31
-2.623550961502227e+00 -2.623550961502227e+00 -2.623550961502227e+00 2.033059560376837e-31 -8.549156429090278e-32 -1.093045668587721e-31
-2.623550960728614e+00 -2.623550960728613e+00 -2.623550960728613e+00 -1.846960397397826e-31 5.293446917119446e-32 4.163731992907080e-31
-2.623550960226699e+00 -2.623550960226699e+00 -2.623550960226698e+00 1.647388570438568e-31 -2.534460533690852e-32 5.336669067863925e-32
-2.623550960990716e+00 -2.623550960990716e+00 -2.623550960990716e+00 -2.023234266132123e-31 -4.931211348264097e-32 8.045300864821938e-33
-2.667289445857453e+00 -2.667289445857453e+00 -2.667289445857453e+00 -3.123960905634237e-31 -2.985368824261573e-32 1.125406586760478e-31
-2.667289445957929e+00 -2.667289445957929e+00 -2.667289445957929e+00 4.695641302457351e-32 1.502641012052188e-31 -5.819064812426726e-32
-2.667289445352669e+00 -2.667289445352668e+00 -2.667289445352668e+00 3.402752960172871e-31 -5.139374223377374e-32 -3.846524510147063e-32
-2.667289445677995e+00 -2.667289445677994e+00 -2.667289445677995e+00 9.775920386184286e-32 -1.856345942250741e-32 -2.113999526648457e-31
-2.667289445601877e+00 -2.667289445601877e+00 -2.667289445601877e+00 -1.530471530313111e-33 4.616756643907531e-32 2.822328623674421e-31
-2.667289445389553e+00 -2.667289445389553e+00 -2.667289445389553e+00 1.385085767765310e-31 -1.850894799534308e-31 -3.478266547318178e-32
-2.667289446432879e+00 -2.667289446432879e+00 -2.667289446432878e+00 7.398050137447582e-33 8.526393429476419e-32 -8.720765983240666e-32
-2.667289446223390e+00 -2.667289446223390e+00 -2.667289446223389e+00 3.273591361405077e-31 -7.535836331786397e-32 -7.196615452880119e-33
-1.788048459705635e+00 -1.788048459705634e+00 -1.788048459705634e+00 1.435955253255157e-31 7.405598396813654e-32 -8.858425832710190e-32
-1.788048459179561e+00 -1.788048459179560e+00 -1.788048459179560e+00 -3.092540892190463e-31 -1.065130983035281e-31 2.301913922022760e-31
-1.788048459313408e+00 -1.788048459313409e+00 -1.788048459313409e+00 -7.091511139105852e-32 1.395785766957392e-31 -7.210299194919305e-32
-1.788048458695558e+00 -1.788048458695558e+00 -1.788048458695558e+00 -1.767555312592190e-33 8.411531334634424e-33 -4.381570834515561e-32
-2.667289445389553e+00 -2.667289445389553e+00 -2.667289445389553e+00 1.385085767765310e-31 -1.850894799534308e-31 -3.478266547318178e-32
-2.667289445573019e+00 -2.667289445573019e+00 -2.667289445573018e+00 -3.932975244630088e-31 1.863163452300991e-31 -2.400209543401276e-32
-2.667289446136785e+00 -2.667289446136785e+00 -2.667289446136785e+00 -1.399511667851909e-31 -1.794923903689401e-31 7.927560104417611e-32
-2.667289446432879e+00 -2.667289446432879e+00 -2.667289446432878e+00 7.398050137447582e-33 8.526393429476419e-32 -8.720765983240666e-32
-1.788048459179561e+00 -1.788048459179560e+00 -1.788048459179560e+00 -3.092540892190463e-31 -1.065130983035281e-31 2.301913922022760e-31
-1.788048459619979e+00 -1.788048459619979e+00 -1.788048459619979e+00 3.217276277346025e-31 1.151448990533138e-31 -5.293643143656265e-31
-1.788048459952508e+00 -1.788048459952509e+00 -1.788048459952508e+00 -1.620511496097059e-32 -3.858803807431602e-33 1.806505579068349e-31
-1.788048459313408e+00 -1.788048459313409e+00 -1.788048459313409e+00 -7.091511139105852e-32 1.395785766957392e-31 -7.210299194919305e-32
-2.667289446223390e+00 -2.667289446223390e+00 -2.667289446223389e+00 3.273591361405077e-31 -7.535836331786397e-32 -7.196615452880119e-33
-2.667289446432879e+00 -2.667289446432879e+00 -2.667289446432878e+00 7.398050137447582e-33 8.526393429476419e-32 -8.720765983240666e-32
-2.667289446828120e+00 -2.667289446828120e+00 -2.667289446828119e+00 3.856897387159056e-32 4.373537770096765e-32 -4.603258531407792e-32
-2.667289446849416e+00 -2.667289446849415e+00 -2.667289446849416e+00 -1.277952108747378e-31 1.079833637205996e-31 5.294808830161373e-32
-1.788048458695558e+00 -1.788048458695558e+00 -1.788048458695558e+00 -1.767555312592190e-33 8.411531334634424e-33 -4.381570834515561e-32
-1.788048459313408e+00 -1.788048459313409e+00 -1.788048459313409e+00 -7.091511139105852e-32 1.395785766957392e-31 -7.210299194919305e-32
-1.788048459307498e+00 -1.788048459307498e+00 -1.788048459307498e+00 4.505479033676595e-32 -9.122446232839626e-34 -7.277702510968365e-32
-1.788048457899216e+00 -1.788048457899216e+00 -1.788048457899216e+00 -1.979044683109344e-33 -2.505219559287892e-32 -4.306247373244543e-33
-2.667289446432879e+00 -2.667289446432879e+00 -2.667289446432878e+00 7.398050137447582e-33 8.526393429476419e-32 -8.720765983240666e-32
-2.667289446136785e+00 -2.667289446136785e+00 -2.667289446136785e+00 -1.399511667851909e-31 -1.794923903689401e-31 7.927560104417611e-32
-2.667289446123872e+00 -2.667289446123872e+00 -2.667289446123872e+00 1.016318749719273e-31 6.944069597347552e-32 -4.987581653694621e-31
-2.667289446828120e+00 -2.667289446828120e+00 -2.667289446828119e+00 3.856897387159056e-32 4.373537770096765e-32 -4.603258531407792e-32
-1.788048459313408e+00 -1.788048459313409e+00 -1.788048459313409e+00 -7.091511139105852e-32 1.395785766957392e-31 -7.210299194919305e-32
-1.788048459952508e+00 -1.788048459952509e+00 -1.788048459952508e+00 -1.620511496097059e-32 -3.858803807431602e-33 1.806505579068349e-31
-1.788048460612295e+00 -1.788048460612295e+00 -1.788048460612295e+00 -3.832872414338135e-32 2.645721112006677e-31 1.966570452286179e-31
-1.788048459307498e+00 -1.788048459307498e+00 -1.788048459307498e+00 4.505479033676595e-32 -9.122446232839626e-34 -7.277702510968365e-32
-2.667289446849416e+00 -2.667289446849415e+00 -2.667289446849416e+00 -1.277952108747378e-31 1.079833637205996e-31 5.294808830161373e-32
-2.667289446828120e+00 -2.667289446828120e+00 -2.667289446828119e+00 3.856897387159056e-32 4.373537770096765e-32 -4.603258531407792e-32
-2.667289446218799e+00 -2.667289446218799e+00 -2.667289446218799e+00 -1.101463679874045e-31 -2.109918682476527e-32 -3.212502931040596e-32
-2.667289445916563e+00 -2.667289445916563e+00 -2.667289445916562e+00 6.521143225314176e-32 5.831513678082371e-32 1.630301155487972e-32
-1.788048457899216e+00 -1.788048457899216e+00 -1.788048457899216e+00 -1.979044683109344e-33 -2.505219559287892e-32 -4.306247373244543e-33
-1.788048459307498e+00 -1.788048459307498e+00 -1.788048459307498e+00 4.505479033676595e-32 -9.122446232839626e-34 -7.277702510968365e-32
-1.788048459689304e+00 -1.788048459689304e+00 -1.788048459689304e+00 -1.187209173754293e-32 1.049080737089546e-32 -3.027655868436606e-32
-1.788048459789657e+00 -1.788048459789657e+00 -1.788048459789657e+00 1.055045616016136e-31 -2.868589547057195e-32 2.702328896189869e-32
-2.667289446828120e+00 -2.667289446828120e+00 -2.667289446828119e+00 3.856897387159056e-32 4.373537770096765e-32 -4.603258531407792e-32
-2.667289446123872e+00 -2.667289446123872e+00 -2.667289446123872e+00 1.016318749719273e-31 6.944069597347552e-32 -4.987581653694621e-31
-2.667289446087139e+00 -2.667289446087138e+00 -2.667289446087138e+00 -7.816774032794967e-33 1.737414681179591e-31 -1.186240803683516e-31
-2.667289446218799e+00 -2.667289446218799e+00 -2.667289446218799e+00 -1.101463679874045e-31 -2.109918682476527e-32 -3.212502931040596e-32
-1.788048459307498e+00 -1.788048459307498e+00 -1.788048459307498e+00 4.505479033676595e-32 -9.122446232839626e-34 -7.277702510968365e-32
-1.788048460612295e+00 -1.788048460612295e+00 -1.788048460612295e+00 -3.832872414338135e-32 2.645721112006677e-31 1.966570452286179e-31
-1.788048460225823e+00 -1.788048460225823e+00 -1.788048460225823e+00 8.853480147752459e-32 -5.504802641298233e-32 -8.067036581311222e-33
-1.788048459689304e+00 -1.788048459689304e+00 -1.788048459689304e+00 -1.187209173754293e-32 1.049080737089546e-32 -3.027655868436606e-32
-2.667289445916563e+00 -2.667289445916563e+00 -2.667289445916562e+00 6.521143225314176e-32 5.831513678082371e-32 1.630301155487972e-32
-2.667289446218799e+00 -2.667289446218799e+00 -2.667289446218799e+00 -1.101463679874045e-31 -2.109918682476527e-32 -3.212502931040596e-32
-2.667289445857453e+00 -2.667289445857453e+00 -2.667289445857453e+00 -3.123960905634237e-31 -2.985368824261573e-32 1.125406586760478e-31
-2.667289445794274e+00 -2.667289445794273e+00 -2.667289445794273e+00 2.570212799288943e-31 2.428033478380715e-32 6.059638960858649e-32
-1.788048459789657e+00 -1.788048459789657e+00 -1.788048459789657e+00 1.055045616016136e-31 -2.868589547057195e-32 2.702328896189869e-32
-1.788048459689304e+00 -1.788048459689304e+00 -1.788048459689304e+00 -1.187209173754293e-32 1.049080737089546e-32 -3.027655868436606e-32
-1.788048461072279e+00 -1.788048461072279e+00 -1.788048461072279e+00 2.559320548653635e-31 -5.014632653446474e-32 4.190002700980009e-32
-1.788048461110964e+00 -1.788048461110964e+00 -1.788048461110964e+00 -1.776977738862716e-31 7.634345286891544e-32 4.049299648886674e-32
-2.667289446218799e+00 -2.667289446218799e+00 -2.667289446218799e+00 -1.101463679874045e-31 -2.109918682476527e-32 -3.212502931040596e-32
-2.667289446087139e+00 -2.667289446087138e+00 -2.667289446087138e+00 -7.816774032794967e-33 1.737414681179591e-31 -1.186240803683516e-31
-2.667289445957929e+00 -2.667289445957929e+00 -2.667289445957929e+00 4.695641302457351e-32 1.502641012052188e-31 -5.819064812426726e-32
-2.667289445857453e+00 -2.667289445857453e+00 -2.667289445857453e+00 -3.123960905634237e-31 -2.985368824261573e-32 1.125406586760478e-31
-1.788048459689304e+00 -1.788048459689304e+00 -1.788048459689304e+00 -1.187209173754293e-32 1.049080737089546e-32 -3.027655868436606e-32
-1.788048460225823e+00 -1.788048460225823e+00 -1.788048460225823e+00 8.853480147752459e-32 -5.504802641298233e-32 -8.067036581311222e-33
-1.788048460664861e+00 -1.788048460664861e+00 -1.788048460664861e+00 5.826554759310943e-33 -1.664256772584907e-32 -1.940721755546565e-31
-1.788048461072279e+00 -1.788048461072279e+00 -1.788048461072279e+00 2.559320548653635e-31 -5.014632653446474e-32 4.190002700980009e-32
-2.667289445794274e+00 -2.667289445794273e+00 -2.667289445794273e+00 2.570212799288943e-31 2.428033478380715e-32 6.059638960858649e-32
-2.667289445857453e+00 -2.667289445857453e+00 -2.667289445857453e+00 -3.123960905634237e-31 -2.985368824261573e-32 1.125406586760478e-31
-2.667289445677995e+00 -2.667289445677994e+00 -2.667289445677995e+00 9.775920386184286e-32 -1.856345942250741e-32 -2.113999526648457e-31
-2.667289446275407e+00 -2.667289446275406e+00 -2.667289446275406e+00 -1.283671567623272e-31 6.455800974565356e-32 -1.391017564641825e-31
-1.788048461110964e+00 -1.788048461110964e+00 -1.788048461110964e+00 -1.776977738862716e-31 7.634345286891544e-32 4.049299648886674e-32
-1.788048461072279e+00 -1.788048461072279e+00 -1.788048461072279e+00 2.559320548653635e-31 -5.014632653446474e-32 4.190002700980009e-32
-1.788048461855387e+00 -1.788048461855387e+00 -1.788048461855387e+00 -1.302003911961462e-31 -7.886712805278414e-35 -6.476249218996096e-32
-1.788048461682834e+00 -1.788048461682834e+00 -1.788048461682834e+00 2.399996982503091e-31 -1.376896283186965e-32 3.624625730650408e-32
-2.667289445857453e+00 -2.667289445857453e+00 -2.667289445857453e+00 -3.123960905634237e-31 -2.985368824261573e-32 1.125406586760478e-31
-2.667289445957929e+00 -2.667289445957929e+00 -2.667289445957929e+00 4.695641302457351e-32 1.502641012052188e-31 -5.819064812426726e-32
-2.667289445352669e+00 -2.667289445352668e+00 -2.667289445352668e+00 3.402752960172871e-31 -5.139374223377374e-32 -3.846524510147063e-32
-2.667289445677995e+00 -2.667289445677994e+00 -2.667289445677995e+00 9.775920386184286e-32 -1.856345942250741e-32 -2.113999526648457e-31
-1.788048461072279e+00 -1.788048461072279e+00 -1.788048461072279e+00 2.559320548653635e-31 -5.014632653446474e-32 4.190002700980009e-32
-1.788048460664861e+00 -1.788048460664861e+00 -1.788048460664861e+00 5.826554759310943e-33 -1.664256772584907e-32 -1.940721755546565e-31
-1.788048461650352e+00 -1.788048461650352e+00 -1.788048461650352e+00 -9.341754690626189e-32 1.352320586394672e-32 1.831986187392059e-31
-1.788048461855387e+00 -1.788048461855387e+00 -1.788048461855387e+00 -1.302003911961462e-31 -7.886712805278414e-35 -6.476249218996096e-32
-1.788048459705635e+00 -1.788048459705634e+00 -1.788048459705634e+00 1.435955253255157e-31 7.405598396813654e-32 -8.858425832710190e-32
-1.788048459179561e+00 -1.788048459179560e+00 -1.788048459179560e+00 -3.092540892190463e-31 -1.065130983035281e-31 2.301913922022760e-31
-1.788048459313408e+00 -1.788048459313409e+00 -1.788048459313409e+00 -7.091511139105852e-32 1.395785766957392e-31 -7.210299194919305e-32
-1.788048458695558e+00 -1.788048458695558e+00 -1.788048458695558e+00 -1.767555312592190e-33 8.411531334634424e-33 -4.381570834515561e-32
-6.830740286423621e-02 -6.830740286423638e-02 -6.830740286423644e-02 5.685830624676199e-32 -5.205364444112909e-32 1.974207487707003e-32
-6.830740346184494e-02 -6.830740346184479e-02 -6.830740346184490e-02 -1.215949600476691e-31 5.430680174227743e-32 8.638830520302173e-32
-6.830740294241677e-02 -6.830740294241679e-02 -6.830740294241673e-02 7.130451114305830e-32 -1.092201686620538e-31 -2.927391490001524e-32
-6.830740293171048e-02 -6.830740293171042e-02 -6.830740293171043e-02 -9.836363297246372e-32 3.105223155652078e-32 1.658838114977819e-32
-1.788048459179561e+00 -1.788048459179560e+00 -1.788048459179560e+00 -3.092540892190463e-31 -1.065130983035281e-31 2.301913922022760e-31
-1.788048459619979e+00 -1.788048459619979e+00 -1.788048459619979e+00 3.217276277346025e-31 1.151448990533138e-31 -5.293643143656265e-31
-1.788048459952508e+00 -1.788048459952509e+00 -1.788048459952508e+00 -1.620511496097059e-32 -3.858803807431602e-33 1.806505579068349e-31
-1.788048459313408e+00 -1.788048459313409e+00 -1.788048459313409e+00 -7.091511139105852e-32 1.395785766957392e-31 -7.210299194919305e-32
-6.830740346184494e-02 -6.830740346184479e-02 -6.830740346184490e-02 -1.215949600476691e-31 5.430680174227743e-32 8.638830520302173e-32
-6.830740370655136e-02 -6.830740370655161e-02 -6.830740370655158e-02 1.122549180874688e-31 -7.181895875658987e-33 1.406890746929605e-31
-6.830740330304177e-02 -6.830740330304166e-02 -6.830740330304169e-02 -2.652529430859692e-33 -7.679801384848385e-33 -7.412842942071585e-32
-6.830740294241677e-02 -6.830740294241679e-02 -6.830740294241673e-02 7.130451114305830e-32 -1.092201686620538e-31 -2.927391490001524e-32
-1.788048458695558e+00 -1.788048458695558e+00 -1.788048458695558e+00 -1.767555312592190e-33 8.411531334634424e-33 -4.381570834515561e-32
-1.788048459313408e+00 -1.788048459313409e+00 -1.788048459313409e+00 -7.091511139105852e-32 1.395785766957392e-31 -7.210299194919305e-32
-1.788048459307498e+00 -1.788048459307498e+00 -1.788048459307498e+00 4.505479033676595e-32 -9.122446232839626e-34 -7.277702510968365e-32
-1.788048457899216e+00 -1.788048457899216e+00 -1.788048457899216e+00 -1.979044683109344e-33 -2.505219559287892e-32 -4.306247373244543e-33
-6.830740293171048e-02 -6.830740293171042e-02 -6.830740293171043e-02 -9.836363297246372e-32 3.105223155652078e-32 1.658838114977819e-32
-6.830740294241677e-02 -6.830740294241679e-02 -6.830740294241673e-02 7.130451114305830e-32 -1.092201686620538e-31 -2.927391490001524e-32
-6.830740286029446e-02 -6.830740286029445e-02 -6.830740286029449e-02 -3.736603091654462e-32 1.391118930009358e-32 9.420820090458959e-33
-6.830740178024514e-02 -6.830740178024511e-02 -6.830740178024516e-02 3.194927839321188e-32 -2.287876932981460e-32 -5.990642490029575e-32
-1.788048459313408e+00 -1.788048459313409e+00 -1.788048459313409e+00 -7.091511139105852e-32 1.395785766957392e-31 -7.210299194919305e-32
-1.788048459952508e+00 -1.788048459952509e+00 -1.788048459952508e+00 -1.620511496097059e-32 -3.858803807431602e-33 1.806505579068349e-31
-1.788048460612295e+00 -1.788048460612295e+00 -1.788048460612295e+00 -3.832872414338135e-32 2.645721112006677e-31 1.966570452286179e-31
-1.788048459307498e+00 -1.788048459307498e+00 -1.788048459307498e+00 4.505479033676595e-32 -9.122446232839626e-34 -7.277702510968365e-32
-6.830740294241677e-02 -6.830740294241679e-02 -6.830740294241673e-02 7.130451114305830e-32 -1.092201686620538e-31 -2.927391490001524e-32
-6.830740330304177e-02 -6.830740330304166e-02 -6.830740330304169e-02 -2.652529430859692e-33 -7.679801384848385e-33 -7.412842942071585e-32
-6.830740355963598e-02 -6.830740355963555e-02 -6.830740355963555e-02 3.763904186823073e-32 6.776120851991482e-33 8.916887970413904e-32
-6.830740286029446e-02 -6.830740286029445e-02 -6.830740286029449e-02 -3.736603091654462e-32 1.391118930009358e-32 9.420820090458959e-33
-1.788048457899216e+00 -1.788048457899216e+00 -1.788048457899216e+00 -1.979044683109344e-33 -2.505219559287892e-32 -4.306247373244543e-33
-1.788048459307498e+00 -1.788048459307498e+00 -1.788048459307498e+00 4.505479033676595e-32 -9.122446232839626e-34 -7.277702510968365e-32
-1.788048459689304e+00 -1.788048459689304e+00 -1.788048459689304e+00 -1.187209173754293e-32 1.049080737089546e-32 -3.027655868436606e-32
-1.788048459789657e+00 -1.788048459789657e+00 -1.788048459789657e+00 1.055045616016136e-31 -2.868589547057195e-32 2.702328896189869e-32
-6.830740178024514e-02 -6.830740178024511e-02 -6.830740178024516e-02 3.194927839321188e-32 -2.287876932981460e-32 -5.990642490029575e-32
-6.830740286029446e-02 -6.830740286029445e-02 -6.830740286029449e-02 -3.736603091654462e-32 1.391118930009358e-32 9.420820090458959e-33
-6.830740294851387e-02 -6.830740294851402e-02 -6.830740294851395e-02 3.086936638839340e-32 5.792644725568499e-32 -6.023090135717916e-32
-6.830740322489388e-02 -6.830740322489384e-02 -6.830740322489405e-02 -6.470871022110040e-32 3.577478593503620e-33 -1.007528239283240e-32
-1.788048459307498e+00 -1.788048459307498e+00 -1.788048459307498e+00 4.505479033676595e-32 -9.122446232839626e-34 -7.277702510968365e-32
-1.788048460612295e+00 -1.788048460612295e+00 -1.788048460612295e+00 -3.832872414338135e-32 2.645721112006677e-31 1.966570452286179e-31
-1.788048460225823e+00 -1.788048460225823e+00 -1.788048460225823e+00 8.853480147752459e-32 -5.504802641298233e-32 -8.067036581311222e-33
-1.788048459689304e+00 -1.788048459689304e+00 -1.788048459689304e+00 -1.187209173754293e-32 1.049080737089546e-32 -3.027655868436606e-32
-6.830740286029446e-02 -6.830740286029445e-02 -6.830740286029449e-02 -3.736603091654462e-32 1.391118930009358e-32 9.420820090458959e-33
-6.830740355963598e-02 -6.830740355963555e-02 -6.830740355963555e-02 3.763904186823073e-32 6.776120851991482e-33 8.916887970413904e-32
-6.830740332448082e-02 -6.830740332448076e-02 -6.830740332448076e-02 -1.498194250284250e-31 -3.411432754657905e-32 3.691614210466334e-32
-6.830740294851387e-02 -6.830740294851402e-02 -6.830740294851395e-02 3.086936638839340e-32 5.792644725568499e-32 -6.023090135717916e-32
-1.788048459789657e+00 -1.788048459789657e+00 -1.788048459789657e+00 1.055045616016136e-31 -2.868589547057195e-32 2.702328896189869e-32
-1.788048459689304e+00 -1.788048459689304e+00 -1.788048459689304e+00 -1.187209173754293e-32 1.049080737089546e-32 -3.027655868436606e-32
-1.788048461072279e+00 -1.788048461072279e+00 -1.788048461072279e+00 2.559320548653635e-31 -5.014632653446474e-32 4.190002700980009e-32
-1.788048461110964e+00 -1.788048461110964e+00 -1.788048461110964e+00 -1.776977738862716e-31 7.634345286891544e-32 4.049299648886674e-32
-6.830740322489388e-02 -6.830740322489384e-02 -6.830740322489405e-02 -6.470871022110040e-32 3.577478593503620e-33 -1.007528239283240e-32
-6.830740294851387e-02 -6.830740294851402e-02 -6.830740294851395e-02 3.086936638839340e-32 5.792644725568499e-32 -6.023090135717916e-32
-6.830740391611168e-02 -6.830740391611166e-02 -6.830740391611168e-02 -1.714577802062338e-32 -4.751530362237178e-33 -1.325660813763239e-32
-6.830740414244686e-02 -6.830740414244699e-02 -6.830740414244679e-02 -4.678751731223006e-32 -8.859001093670652e-34 1.064805164045358e-32
-1.788048459689304e+00 -1.788048459689304e+00 -1.788048459689304e+00 -1.187209173754293e-32 1.049080737089546e-32 -3.027655868436606e-32
-1.788048460225823e+00 -1.788048460225823e+00 -1.788048460225823e+00 8.853480147752459e-32 -5.504802641298233e-32 -8.067036581311222e-33
-1.788048460664861e+00 -1.788048460664861e+00 -1.788048460664861e+00 5.826554759310943e-33 -1.664256772584907e-32 -1.940721755546565e-31
-1.788048461072279e+00 -1.788048461072279e+00 -1.788048461072279e+00 2.559320548653635e-31 -5.014632653446474e-32 4.190002700980009e-32
-6.830740294851387e-02 -6.830740294851402e-02 -6.830740294851395e-02 3.086936638839340e-32 5.792644725568499e-32 -6.023090135717916e-32
-6.830740332448082e-02 -6.830740332448076e-02 -6.830740332448076e-02 -1.498194250284250e-31 -3.411432754657905e-32 3.691614210466334e-32
-6.830740343866885e-02 -6.830740343866903e-02 -6.830740343866903e-02 -1.274085021494308e-32 3.718445394022633e-33 3.666520334966931e-32
-6.830740391611168e-02 -6.830740391611166e-02 -6.830740391611168e-02 -1.714577802062338e-32 -4.751530362237178e-33 -1.325660813763239e-32
-1.788048461110964e+00 -1.788048461110964e+00 -1.788048461110964e+00 -1.776977738862716e-31 7.634345286891544e-32 4.049299648886674e-32
-1.788048461072279e+00 -1.788048461072279e+00 -1.788048461072279e+00 2.559320548653635e-31 -5.014632653446474e-32 4.190002700980009e-32
-1.788048461855387e+00 -1.788048461855387e+00 -1.788048461855387e+00 -1.302003911961462e-31 -7.886712805278414e-35 -6.476249218996096e-32
-1.788048461682834e+00 -1.788048461682834e+00 -1.788048461682834e+00 2.399996982503091e-31 -1.376896283186965e-32 3.624625730650408e-32
-6.830740414244686e-02 -6.830740414244699e-02 -6.830740414244679e-02 -4.678751731223006e-32 -8.859001093670652e-34 1.064805164045358e-32
-6.830740391611168e-02 -6.830740391611166e-02 -6.830740391611168e-02 -1.714577802062338e-32 -4.751530362237178e-33 -1.325660813763239e-32
-6.830740410785349e-02 -6.830740410785355e-02 -6.830740410785330e-02 -1.963965987685818e-32 7.382354308657202e-33 1.480928213254534e-32
-6.830740396306925e-02 -6.830740396306917e-02 -6.830740396306917e-02 1.177191942853248e-32 6.802760063464321e-34 -8.368078478142750e-34
-1.788048461072279e+00 -1.788048461072279e+00 -1.788048461072279e+00 2.559320548653635e-31 -5.014632653446474e-32 4.190002700980009e-32
-1.788048460664861e+00 -1.788048460664861e+00 -1.788048460664861e+00 5.826554759310943e-33 -1.664256772584907e-32 -1.940721755546565e-31
-1.788048461650352e+00 -1.788048461650352e+00 -1.788048461650352e+00 -9.341754690626189e-32 1.352320586394672e-32 1.831986187392059e-31
-1.788048461855387e+00 -1.788048461855387e+00 -1.788048461855387e+00 -1.302003911961462e-31 -7.886712805278414e-35 -6.476249218996096e-32
-6.830740391611168e-02 -6.830740391611166e-02 -6.830740391611168e-02 -1.714577802062338e-32 -4.751530362237178e-33 -1.325660813763239e-32
-6.830740343866885e-02 -6.830740343866903e-02 -6.830740343866903e-02 -1.274085021494308e-32 3.718445394022633e-33 3.666520334966931e-32
-6.830740417221692e-02 -6.830740417221653e-02 -6.830740417221653e-02 7.025826559868994e-32 1.053564192318509e-32 1.353792123680101e-32
-6.830740410785349e-02 -6.830740410785355e-02 -6.830740410785330e-02 -1.963965987685818e-32 7.382354308657202e-33 1.480928213254534e-32
        </DataArray>
        <DataArray type="Float64" Name="nodal_cauchy_stresses_xyz" NumberOfComponents="6" format="ascii">
-6.110935005485028e+02 -2.619566503223170e+02 -2.619566503231596e+02 5.715412952746359e-10 -1.160680278166252e-11 4.388203861011773e-12
-6.110935005506770e+02 -2.619566503237622e+02 -2.619566503236371e+02 2.401911932288602e-12 -4.228752619340652e-10 2.094895428593225e-10
-6.110935005481372e+02 -2.619566503227645e+02 -2.619566503223140e+02 -7.671074624501975e-11 1.377762504640007e-10 -2.261185382400537e-10
-6.110935005492280e+02 -2.619566503234843e+02 -2.619566503234083e+02 -3.191674092089723e-10 -4.715124649678870e-11 -5.595507941390303e-11
-6.107041703445699e+02 -2.617897188412761e+02 -2.617897188413372e+02 2.516027808228442e-11 -6.074085340577709e-11 2.566355897833531e-10
-6.107041703435830e+02 -2.617897188423812e+02 -2.617897188417545e+02 2.364556573145675e-10 -2.537799851939812e-11 2.771596562315795e-10
-6.107041703432027e+02 -2.617897188405765e+02 -2.617897188407991e+02 1.172119433502967e-10 -1.057154288399601e-11 3.272982607862791e-10
-6.107041703445966e+02 -2.617897188417618e+02 -2.617897188417539e+02 -9.849874677268971e-11 6.246394719521126e-11 -1.372741770277427e-10
-6.110935005506770e+02 -2.619566503237622e+02 -2.619566503236371e+02 2.401911932288602e-12 -4.228752619340652e-10 2.094895428593225e-10
-6.110935005498285e+02 -2.619566503257790e+02 -2.619566503230972e+02 6.138885550939452e-10 -1.513384569240536e-10 -5.405968839933839e-10
-6.110935005469717e+02 -2.619566503217827e+02 -2.619566503227530e+02 -4.004916915676478e-10 -4.377183018087088e-10 3.922593904666373e-10
-6.110935005481372e+02 -2.619566503227645e+02 -2.619566503223140e+02 -7.671074624501975e-11 1.377762504640007e-10 -2.261185382400537e-10
-6.107041703435830e+02 -2.617897188423812e+02 -2.617897188417545e+02 2.364556573145675e-10 -2.537799851939812e-11 2.771596562315795e-10
-6.107041703443174e+02 -2.617897188393022e+02 -2.617897188415117e+02 9.442871184956453e-10 7.814972509448359e-10 -2.580956392666641e-10
-6.107041703447211e+02 -2.617897188416279e+02 -2.617897188416392e+02 -1.129302008628725e-10 3.072820969646046e-10 -4.622846333003341e-12
-6.107041703432027e+02 -2.617897188405765e+02 -2.617897188407991e+02 1.172119433502967e-10 -1.057154288399601e-11 3.272982607862791e-10
-6.110935005492280e+02 -2.619566503234843e+02 -2.619566503234083e+02 -3.191674092089723e-10 -4.715124649678870e-11 -5.595507941390303e-11
-6.110935005481372e+02 -2.619566503227645e+02 -2.619566503223140e+02 -7.671074624501975e-11 1.377762504640007e-10 -2.261185382400537e-10
-6.110935005483792e+02 -2.619566503227070e+02 -2.619566503228423e+02 -1.396808912327901e-10 -8.739879485048894e-11 1.470403733522316e-10
-6.110935005491423e+02 -2.619566503235300e+02 -2.619566503229983e+02 1.332683394159273e-10 3.908524022444282e-11 2.380805369672574e-10
-6.107041703445966e+02 -2.617897188417618e+02 -2.617897188417539e+02 -9.849874677268971e-11 6.246394719521126e-11 -1.372741770277427e-10
-6.107041703432027e+02 -2.617897188405765e+02 -2.617897188407991e+02 1.172119433502967e-10 -1.057154288399601e-11 3.272982607862791e-10
-6.107041703447194e+02 -2.617897188419361e+02 -2.617897188422214e+02 -7.876652934200417e-11 1.576493176592627e-10 3.436734872059320e-10
-6.107041703426482e+02 -2.617897188411478e+02 -2.617897188413917e+02 3.127920081850888e-10 -1.769886305402829e-11 1.815611979610915e-10
-6.110935005481372e+02 -2.619566503227645e+02 -2.619566503223140e+02 -7.671074624501975e-11 1.377762504640007e-10 -2.261185382400537e-10
-6.110935005469717e+02 -2.619566503217827e+02 -2.619566503227530e+02 -4.004916915676478e-10 -4.377183018087088e-10 3.922593904666373e-10
-6.110935005510885e+02 -2.619566503268521e+02 -2.619566503253862e+02 1.171953862747663e-10 -1.907601840130573e-10 -2.346335308640505e-11
-6.110935005483792e+02 -2.619566503227070e+02 -2.619566503228423e+02 -1.396808912327901e-10 -8.739879485048894e-11 1.470403733522316e-10
-6.107041703432027e+02 -2.617897188405765e+02 -2.617897188407991e+02 1.172119433502967e-10 -1.057154288399601e-11 3.272982607862791e-10
-6.107041703447211e+02 -2.617897188416279e+02 -2.617897188416392e+02 -1.129302008628725e-10 3.072820969646046e-10 -4.622846333003341e-12
-6.107041703418888e+02 -2.617897188403114e+02 -2.617897188402854e+02 6.324393824538216e-11 1.195116988663348e-10 1.438047475143553e-10
-6.107041703447194e+02 -2.617897188419361e+02 -2.617897188422214e+02 -7.876652934200417e-11 1.576493176592627e-10 3.436734872059320e-10
-6.110935005491423e+02 -2.619566503235300e+02 -2.619566503229983e+02 1.332683394159273e-10 3.908524022444282e-11 2.380805369672574e-10
-6.110935005483792e+02 -2.619566503227070e+02 -2.619566503228423e+02 -1.396808912327901e-10 -8.739879485048894e-11 1.470403733522316e-10
-6.110935005480101e+02 -2.619566503227327e+02 -2.619566503231276e+02 4.801431530882590e-11 -3.221879830450966e-11 5.664445082229708e-10
-6.110935005491956e+02 -2.619566503238452e+02 -2.619566503239358e+02 -3.415567432709607e-11 1.485713747863040e-11 8.554634216581094e-11
-6.107041703426482e+02 -2.617897188411478e+02 -2.617897188413917e+02 3.127920081850888e-10 -1.769886305402829e-11 1.815611979610915e-10
-6.107041703447194e+02 -2.617897188419361e+02 -2.617897188422214e+02 -7.876652934200417e-11 1.576493176592627e-10 3.436734872059320e-10
-6.107041703437179e+02 -2.617897188413092e+02 -2.617897188413473e+02 4.759556086760561e-11 -2.406090583252039e-10 7.460199924072486e-11
-6.107041703443764e+02 -2.617897188417979e+02 -2.617897188424178e+02 -1.372597902006315e-10 -1.240035121436406e-10 1.637793056449583e-10
-6.110935005483792e+02 -2.619566503227070e+02 -2.619566503228423e+02 -1.396808912327901e-10 -8.739879485048894e-11 1.470403733522316e-10
-6.110935005510885e+02 -2.619566503268521e+02 -2.619566503253862e+02 1.171953862747663e-10 -1.907601840130573e-10 -2.346335308640505e-11
-6.110935005486716e+02 -2.619566503231227e+02 -2.619566503211711e+02 -1.342573776824631e-10 -6.133318413801960e-11 -5.262548956145838e-10
-6.110935005480101e+02 -2.619566503227327e+02 -2.619566503231276e+02 4.801431530882590e-11 -3.221879830450966e-11 5.664445082229708e-10
-6.107041703447194e+02 -2.617897188419361e+02 -2.617897188422214e+02 -7.876652934200417e-11 1.576493176592627e-10 3.436734872059320e-10
-6.107041703418888e+02 -2.617897188403114e+02 -2.617897188402854e+02 6.324393824538216e-11 1.195116988663348e-10 1.438047475143553e-10
-6.107041703438703e+02 -2.617897188416982e+02 -2.617897188416783e+02 2.468199006615997e-11 -7.460228436526085e-11 -1.182813523049347e-09
-6.107041703437179e+02 -2.617897188413092e+02 -2.617897188413473e+02 4.759556086760561e-11 -2.406090583252039e-10 7.460199924072486e-11
-6.110935005491956e+02 -2.619566503238452e+02 -2.619566503239358e+02 -3.415567432709607e-11 1.485713747863040e-11 8.554634216581094e-11
-6.110935005480101e+02 -2.619566503227327e+02 -2.619566503231276e+02 4.801431530882590e-11 -3.221879830450966e-11 5.664445082229708e-10
-6.110935005466831e+02 -2.619566503220734e+02 -2.619566503230567e+02 1.472431561817068e-10 1.951920845244604e-10 -3.781923632492570e-10
-6.110935005473750e+02 -2.619566503220832e+02 -2.619566503227562e+02 3.657689866176194e-10 9.272788120489578e-12 -4.184279006658928e-10
-6.107041703443764e+02 -2.617897188417979e+02 -2.617897188424178e+02 -1.372597902006315e-10 -1.240035121436406e-10 1.637793056449583e-10
-6.107041703437179e+02 -2.617897188413092e+02 -2.617897188413473e+02 4.759556086760561e-11 -2.406090583252039e-10 7.460199924072486e-11
-6.107041703457224e+02 -2.617897188426418e+02 -2.617897188430667e+02 2.016910247198624e-10 -3.024718804629474e-10 3.003894427309049e-10
-6.107041703430993e+02 -2.617897188407893e+02 -2.617897188402234e+02 -3.333628195188089e-10 -1.108901677489301e-10 -2.613953607141843e-10
-6.110935005480101e+02 -2.619566503227327e+02 -2.619566503231276e+02 4.801431530882590e-11 -3.221879830450966e-11 5.664445082229708e-10
-6.110935005486716e+02 -2.619566503231227e+02 -2.619566503211711e+02 -1.342573776824631e-10 -6.133318413801960e-11 -5.262548956145838e-10
-6.110935005518738e+02 -2.619566503244503e+02 -2.619566503250884e+02 3.582150816732107e-10 -2.467595825953405e-10 -5.566337795616386e-10
-6.110935005466831e+02 -2.619566503220734e+02 -2.619566503230567e+02 1.472431561817068e-10 1.951920845244604e-10 -3.781923632492570e-10
-6.107041703437179e+02 -2.617897188413092e+02 -2.617897188413473e+02 4.759556086760561e-11 -2.406090583252039e-10 7.460199924072486e-11
-6.107041703438703e+02 -2.617897188416982e+02 -2.617897188416783e+02 2.468199006615997e-11 -7.460228436526085e-11 -1.182813523049347e-09
-6.107041703442610e+02 -2.617897188418208e+02 -2.617897188417790e+02 7.218280749990964e-11 2.978591261248362e-10 7.412081222836028e-10
-6.107041703457224e+02 -2.617897188426418e+02 -2.617897188430667e+02 2.016910247198624e-10 -3.024718804629474e-10 3.003894427309049e-10
-6.110935005473750e+02 -2.619566503220832e+02 -2.619566503227562e+02 3.657689866176194e-10 9.272788120489578e-12 -4.184279006658928e-10
-6.110935005466831e+02 -2.619566503220734e+02 -2.619566503230567e+02 1.472431561817068e-10 1.951920845244604e-10 -3.781923632492570e-10
-6.110935005485903e+02 -2.619566503225399e+02 -2.619566503231845e+02 -3.787107242203755e-12 -1.838796444891371e-10 3.615846289455086e-10
-6.110935005484458e+02 -2.619566503226478e+02 -2.619566503238689e+02 -5.667104713126772e-10 8.571459529926968e-11 -2.336541010778452e-10
-6.107041703430993e+02 -2.617897188407893e+02 -2.617897188402234e+02 -3.333628195188089e-10 -1.108901677489301e-10 -2.613953607141843e-10
-6.107041703457224e+02 -2.617897188426418e+02 -2.617897188430667e+02 2.016910247198624e-10 -3.024718804629474e-10 3.003894427309049e-10
-6.107041703424752e+02 -2.617897188412039e+02 -2.617897188407239e+02 -8.327051418889083e-11 7.619376341848510e-10 -5.338296380268768e-11
-6.107041703444863e+02 -2.617897188425070e+02 -2.617897188421920e+02 5.154937530069434e-10 2.390934125673769e-10 -2.980429440027081e-10
-6.110935005466831e+02 -2.619566503220734e+02 -2.619566503230567e+02 1.472431561817068e-10 1.951920845244604e-10 -3.781923632492570e-10
-6.110935005518738e+02 -2.619566503244503e+02 -2.619566503250884e+02 3.582150816732107e-10 -2.467595825953405e-10 -5.566337795616386e-10
-6.110935005482725e+02 -2.619566503252375e+02 -2.619566503241516e+02 -1.010736146074124e-09 -2.002296638144074e-10 5.538176626050077e-10
-6.110935005485903e+02 -2.619566503225399e+02 -2.619566503231845e+02 -3.787107242203755e-12 -1.838796444891371e-10 3.615846289455086e-10
-6.107041703457224e+02 -2.617897188426418e+02 -2.617897188430667e+02 2.016910247198624e-10 -3.024718804629474e-10 3.003894427309049e-10
-6.107041703442610e+02 -2.617897188418208e+02 -2.617897188417790e+02 7.218280749990964e-11 2.978591261248362e-10 7.412081222836028e-10
-6.107041703402467e+02 -2.617897188393713e+02 -2.617897188390002e+02 -6.908410089382893e-11 5.825478527198393e-11 3.703030056455821e-10
-6.107041703424752e+02 -2.617897188412039e+02 -2.617897188407239e+02 -8.327051418889083e-11 7.619376341848510e-10 -5.338296380268768e-11
-6.107041703445699e+02 -2.617897188412761e+02 -2.617897188413372e+02 2.516027808228442e-11 -6.074085340577709e-11 2.566355897833531e-10
-6.107041703435830e+02 -2.617897188423812e+02 -2.617897188417545e+02 2.364556573145675e-10 -2.537799851939812e-11 2.771596562315795e-10
-6.107041703432027e+02 -2.617897188405765e+02 -2.617897188407991e+02 1.172119433502967e-10 -1.057154288399601e-11 3.272982607862791e-10
-6.107041703445966e+02 -2.617897188417618e+02 -2.617897188417539e+02 -9.849874677268971e-11 6.246394719521126e-11 -1.372741770277427e-10
-6.104116836902165e+02 -2.616643105540409e+02 -2.616643105542447e+02 6.055277084774531e-10 3.619316368032681e-11 -2.742605785877592e-10
-6.104116836899227e+02 -2.616643105549530e+02 -2.616643105548687e+02 -1.601607362318483e-10 1.176626207843954e-10 -8.272293622409322e-11
-6.104116836914046e+02 -2.616643105549326e+02 -2.616643105550808e+02 -2.021689299111016e-10 4.834735943847887e-11 -2.698733165320515e-10
-6.104116836912435e+02 -2.616643105554182e+02 -2.616643105553460e+02 2.974162239201027e-10 1.142062105941832e-11 9.393121570068165e-11
-6.107041703435830e+02 -2.617897188423812e+02 -2.617897188417545e+02 2.364556573145675e-10 -2.537799851939812e-11 2.771596562315795e-10
-6.107041703443174e+02 -2.617897188393022e+02 -2.617897188415117e+02 9.442871184956453e-10 7.814972509448359e-10 -2.580956392666641e-10
-6.107041703447211e+02 -2.617897188416279e+02 -2.617897188416392e+02 -1.129302008628725e-10 3.072820969646046e-10 -4.622846333003341e-12
-6.107041703432027e+02 -2.617897188405765e+02 -2.617897188407991e+02 1.172119433502967e-10 -1.057154288399601e-11 3.272982607862791e-10
-6.104116836899227e+02 -2.616643105549530e+02 -2.616643105548687e+02 -1.601607362318483e-10 1.176626207843954e-10 -8.272293622409322e-11
-6.104116836906931e+02 -2.616643105545207e+02 -2.616643105556721e+02 1.759891393122227e-10 -2.441364269426894e-10 1.188884506516518e-10
-6.104116836908199e+02 -2.616643105552350e+02 -2.616643105542040e+02 -2.428623998759397e-10 7.398157428760468e-11 -2.788193824402448e-10
-6.104116836914046e+02 -2.616643105549326e+02 -2.616643105550808e+02 -2.021689299111016e-10 4.834735943847887e-11 -2.698733165320515e-10
-6.107041703445966e+02 -2.617897188417618e+02 -2.617897188417539e+02 -9.849874677268971e-11 6.246394719521126e-11 -1.372741770277427e-10
-6.107041703432027e+02 -2.617897188405765e+02 -2.617897188407991e+02 1.172119433502967e-10 -1.057154288399601e-11 3.272982607862791e-10
-6.107041703447194e+02 -2.617897188419361e+02 -2.617897188422214e+02 -7.876652934200417e-11 1.576493176592627e-10 3.436734872059320e-10
-6.107041703426482e+02 -2.617897188411478e+02 -2.617897188413917e+02 3.127920081850888e-10 -1.769886305402829e-11 1.815611979610915e-10
-6.104116836912435e+02 -2.616643105554182e+02 -2.616643105553460e+02 2.974162239201027e-10 1.142062105941832e-11 9.393121570068165e-11
-6.104116836914046e+02 -2.616643105549326e+02 -2.616643105550808e+02 -2.021689299111016e-10 4.834735943847887e-11 -2.698733165320515e-10
-6.104116836913707e+02 -2.616643105550913e+02 -2.616643105547391e+02 1.679972056266080e-10 1.574526013027131e-11 3.025481461666782e-10
-6.104116836916771e+02 -2.616643105556938e+02 -2.616643105554108e+02 2.251664536834475e-10 -1.802101033223295e-10 6.613308053746218e-11
-6.107041703432027e+02 -2.617897188405765e+02 -2.617897188407991e+02 1.172119433502967e-10 -1.057154288399601e-11 3.272982607862791e-10
-6.107041703447211e+02 -2.617897188416279e+02 -2.617897188416392e+02 -1.129302008628725e-10 3.072820969646046e-10 -4.622846333003341e-12
-6.107041703418888e+02 -2.617897188403114e+02 -2.617897188402854e+02 6.324393824538216e-11 1.195116988663348e-10 1.438047475143553e-10
-6.107041703447194e+02 -2.617897188419361e+02 -2.617897188422214e+02 -7.876652934200417e-11 1.576493176592627e-10 3.436734872059320e-10
-6.104116836914046e+02 -2.616643105549326e+02 -2.616643105550808e+02 -2.021689299111016e-10 4.834735943847887e-11 -2.698733165320515e-10
-6.104116836908199e+02 -2.616643105552350e+02 -2.616643105542040e+02 -2.428623998759397e-10 7.398157428760468e-11 -2.788193824402448e-10
-6.104116836904598e+02 -2.616643105544830e+02 -2.616643105550729e+02 -1.141692744643793e-10 4.003614655812921e-10 -3.205926558344894e-10
-6.104116836913707e+02 -2.616643105550913e+02 -2.616643105547391e+02 1.679972056266080e-10 1.574526013027131e-11 3.025481461666782e-10
-6.107041703426482e+02 -2.617897188411478e+02 -2.617897188413917e+02 3.127920081850888e-10 -1.769886305402829e-11 1.815611979610915e-10
-6.107041703447194e+02 -2.617897188419361e+02 -2.617897188422214e+02 -7.876652934200417e-11 1.576493176592627e-10 3.436734872059320e-10
-6.107041703437179e+02 -2.617897188413092e+02 -2.617897188413473e+02 4.759556086760561e-11 -2.406090583252039e-10 7.460199924072486e-11
-6.107041703443764e+02 -2.617897188417979e+02 -2.617897188424178e+02 -1.372597902006315e-10 -1.240035121436406e-10 1.637793056449583e-10
-6.104116836916771e+02 -2.616643105556938e+02 -2.616643105554108e+02 2.251664536834475e-10 -1.802101033223295e-10 6.613308053746218e-11
-6.104116836913707e+02 -2.616643105550913e+02 -2.616643105547391e+02 1.679972056266080e-10 1.574526013027131e-11 3.025481461666782e-10
-6.104116836908361e+02 -2.616643105556088e+02 -2.616643105555074e+02 1.108464739809735e-10 9.406923267385125e-11 -1.846577277483308e-10
-6.104116836910748e+02 -2.616643105553401e+02 -2.616643105549600e+02 -1.023916182617732e-10 -2.985869005623552e-10 -1.146817521226649e-10
-6.107041703447194e+02 -2.617897188419361e+02 -2.617897188422214e+02 -7.876652934200417e-11 1.576493176592627e-10 3.436734872059320e-10
-6.107041703418888e+02 -2.617897188403114e+02 -2.617897188402854e+02 6.324393824538216e-11 1.195116988663348e-10 1.438047475143553e-10
-6.107041703438703e+02 -2.617897188416982e+02 -2.617897188416783e+02 2.468199006615997e-11 -7.460228436526085e-11 -1.182813523049347e-09
-6.107041703437179e+02 -2.617897188413092e+02 -2.617897188413473e+02 4.759556086760561e-11 -2.406090583252039e-10 7.460199924072486e-11
-6.104116836913707e+02 -2.616643105550913e+02 -2.616643105547391e+02 1.679972056266080e-10 1.574526013027131e-11 3.025481461666782e-10
-6.104116836904598e+02 -2.616643105544830e+02 -2.616643105550729e+02 -1.141692744643793e-10 4.003614655812921e-10 -3.205926558344894e-10
-6.104116836907918e+02 -2.616643105550099e+02 -2.616643105557154e+02 3.903313745439857e-11 2.445410473258003e-10 4.054058025622646e-10
-6.104116836908361e+02 -2.616643105556088e+02 -2.616643105555074e+02 1.108464739809735e-10 9.406923267385125e-11 -1.846577277483308e-10
-6.107041703443764e+02 -2.617897188417979e+02 -2.617897188424178e+02 -1.372597902006315e-10 -1.240035121436406e-10 1.637793056449583e-10
-6.107041703437179e+02 -2.617897188413092e+02 -2.617897188413473e+02 4.759556086760561e-11 -2.406090583252039e-10 7.460199924072486e-11
-6.107041703457224e+02 -2.617897188426418e+02 -2.617897188430667e+02 2.016910247198624e-10 -3.024718804629474e-10 3.003894427309049e-10
-6.107041703430993e+02 -2.617897188407893e+02 -2.617897188402234e+02 -3.333628195188089e-10 -1.108901677489301e-10 -2.613953607141843e-10
-6.104116836910748e+02 -2.616643105553401e+02 -2.616643105549600e+02 -1.023916182617732e-10 -2.985869005623552e-10 -1.146817521226649e-10
-6.104116836908361e+02 -2.616643105556088e+02 -2.616643105555074e+02 1.108464739809735e-10 9.406923267385125e-11 -1.846577277483308e-10
-6.104116836911512e+02 -2.616643105555099e+02 -2.616643105553253e+02 -1.810784739874200e-10 2.743694541913074e-10 2.355939071872843e-10
-6.104116836912289e+02 -2.616643105554085e+02 -2.616643105555702e+02 -3.480649001814088e-11 1.378278850462906e-10 3.126336925633640e-10
-6.107041703437179e+02 -2.617897188413092e+02 -2.617897188413473e+02 4.759556086760561e-11 -2.406090583252039e-10 7.460199924072486e-11
-6.107041703438703e+02 -2.617897188416982e+02 -2.617897188416783e+02 2.468199006615997e-11 -7.460228436526085e-11 -1.182813523049347e-09
-6.107041703442610e+02 -2.617897188418208e+02 -2.617897188417790e+02 7.218280749990964e-11 2.978591261248362e-10 7.412081222836028e-10
-6.107041703457224e+02 -2.617897188426418e+02 -2.617897188430667e+02 2.016910247198624e-10 -3.024718804629474e-10 3.003894427309049e-10
-6.104116836908361e+02 -2.616643105556088e+02 -2.616643105555074e+02 1.108464739809735e-10 9.406923267385125e-11 -1.846577277483308e-10
-6.104116836907918e+02 -2.616643105550099e+02 -2.616643105557154e+02 3.903313745439857e-11 2.445410473258003e-10 4.054058025622646e-10
-6.104116836903984e+02 -2.616643105550127e+02 -2.616643105552488e+02 4.760242161367890e-10 -1.380264465229420e-10 -3.831568844732899e-10
-6.104116836911512e+02 -2.616643105555099e+02 -2.616643105553253e+02 -1.810784739874200e-10 2.743694541913074e-10 2.355939071872843e-10
-6.107041703430993e+02 -2.617897188407893e+02 -2.617897188402234e+02 -3.333628195188089e-10 -1.108901677489301e-10 -2.613953607141843e-10
-6.107041703457224e+02 -2.617897188426418e+02 -2.617897188430667e+02 2.016910247198624e-10 -3.024718804629474e-10 3.003894427309049e-10
-6.107041703424752e+02 -2.617897188412039e+02 -2.617897188407239e+02 -8.327051418889083e-11 7.619376341848510e-10 -5.338296380268768e-11
-6.107041703444863e+02 -2.617897188425070e+02 -2.617897188421920e+02 5.154937530069434e-10 2.390934125673769e-10 -2.980429440027081e-10
-6.104116836912289e+02 -2.616643105554085e+02 -2.616643105555702e+02 -3.480649001814088e-11 1.378278850462906e-10 3.126336925633640e-10
-6.104116836911512e+02 -2.616643105555099e+02 -2.616643105553253e+02 -1.810784739874200e-10 2.743694541913074e-10 2.355939071872843e-10
-6.104116836917334e+02 -2.616643105544863e+02 -2.616643105556030e+02 3.280646338530081e-10 -1.135424931490312e-10 -3.370122761024972e-12
-6.104116836908699e+02 -2.616643105545293e+02 -2.616643105547213e+02 3.626255037214425e-10 1.699777257629766e-11 -2.122042387609485e-10
-6.107041703457224e+02 -2.617897188426418e+02 -2.617897188430667e+02 2.016910247198624e-10 -3.024718804629474e-10 3.003894427309049e-10
-6.107041703442610e+02 -2.617897188418208e+02 -2.617897188417790e+02 7.218280749990964e-11 2.978591261248362e-10 7.412081222836028e-10
-6.107041703402467e+02 -2.617897188393713e+02 -2.617897188390002e+02 -6.908410089382893e-11 5.825478527198393e-11 3.703030056455821e-10
-6.107041703424752e+02 -2.617897188412039e+02 -2.617897188407239e+02 -8.327051418889083e-11 7.619376341848510e-10 -5.338296380268768e-11
-6.104116836911512e+02 -2.616643105555099e+02 -2.616643105553253e+02 -1.810784739874200e-10 2.743694541913074e-10 2.355939071872843e-10
-6.104116836903984e+02 -2.616643105550127e+02 -2.616643105552488e+02 4.760242161367890e-10 -1.380264465229420e-10 -3.831568844732899e-10
-6.104116836899825e+02 -2.616643105553985e+02 -2.616643105551047e+02 -2.663243979596910e-10 -2.931215091447276e-11 2.658140744968170e-10
-6.104116836917334e+02 -2.616643105544863e+02 -2.616643105556030e+02 3.280646338530081e-10 -1.135424931490312e-10 -3.370122761024972e-12
-6.104116836902165e+02 -2.616643105540409e+02 -2.616643105542447e+02 6.055277084774531e-10 3.619316368032681e-11 -2.742605785877592e-10
-6.104116836899227e+02 -2.616643105549530e+02 -2.616643105548687e+02 -1.601607362318483e-10 1.176626207843954e-10 -8.272293622409322e-11
-6.104116836914046e+02 -2.616643105549326e+02 -2.616643105550808e+02 -2.021689299111016e-10 4.834735943847887e-11 -2.698733165320515e-10
-6.104116836912435e+02 -2.616643105554182e+02 -2.616643105553460e+02 2.974162239201027e-10 1.142062105941832e-11 9.393121570068165e-11
-6.111432657493211e+02 -2.619779880099073e+02 -2.619779880104630e+02 2.414642542394244e-10 -2.965523418389083e-11 1.398565820510376e-10
-6.111432657489916e+02 -2.619779880099416e+02 -2.619779880097965e+02 6.377422234051888e-10 -1.420667615598481e-10 1.436167100277074e-10
-6.111432657497695e+02 -2.619779880110052e+02 -2.619779880108994e+02 -2.122072687284001e-10 1.975492581104493e-10 1.732391153495160e-10
-6.111432657478979e+02 -2.619779880089726e+02 -2.619779880093662e+02 -1.902527549652069e-10 3.150620239678399e-11 2.227693955148638e-10
-6.104116836899227e+02 -2.616643105549530e+02 -2.616643105548687e+02 -1.601607362318483e-10 1.176626207843954e-10 -8.272293622409322e-11
-6.104116836906931e+02 -2.616643105545207e+02 -2.616643105556721e+02 1.759891393122227e-10 -2.441364269426894e-10 1.188884506516518e-10
-6.104116836908199e+02 -2.616643105552350e+02 -2.616643105542040e+02 -2.428623998759397e-10 7.398157428760468e-11 -2.788193824402448e-10
-6.104116836914046e+02 -2.616643105549326e+02 -2.616643105550808e+02 -2.021689299111016e-10 4.834735943847887e-11 -2.698733165320515e-10
-6.111432657489916e+02 -2.619779880099416e+02 -2.619779880097965e+02 6.377422234051888e-10 -1.420667615598481e-10 1.436167100277074e-10
-6.111432657490612e+02 -2.619779880099041e+02 -2.619779880096819e+02 3.309696241044575e-10 3.957743636668183e-10 -2.184332720048893e-10
-6.111432657500869e+02 -2.619779880116359e+02 -2.619779880116467e+02 9.056835654140549e-11 -2.149328433773880e-10 -3.470542078042536e-10
-6.111432657497695e+02 -2.619779880110052e+02 -2.619779880108994e+02 -2.122072687284001e-10 1.975492581104493e-10 1.732391153495160e-10
-6.104116836912435e+02 -2.616643105554182e+02 -2.616643105553460e+02 2.974162239201027e-10 1.142062105941832e-11 9.393121570068165e-11
-6.104116836914046e+02 -2.616643105549326e+02 -2.616643105550808e+02 -2.021689299111016e-10 4.834735943847887e-11 -2.698733165320515e-10
-6.104116836913707e+02 -2.616643105550913e+02 -2.616643105547391e+02 1.679972056266080e-10 1.574526013027131e-11 3.025481461666782e-10
-6.104116836916771e+02 -2.616643105556938e+02 -2.616643105554108e+02 2.251664536834475e-10 -1.802101033223295e-10 6.613308053746218e-11
-6.111432657478979e+02 -2.619779880089726e+02 -2.619779880093662e+02 -1.902527549652069e-10 3.150620239678399e-11 2.227693955148638e-10
-6.111432657497695e+02 -2.619779880110052e+02 -2.619779880108994e+02 -2.122072687284001e-10 1.975492581104493e-10 1.732391153495160e-10
-6.111432657487808e+02 -2.619779880096728e+02 -2.619779880102249e+02 -2.278713855285513e-12 8.999796209347297e-11 5.166182371821042e-11
-6.111432657507916e+02 -2.619779880117086e+02 -2.619779880116852e+02 2.908235582283923e-12 -3.586198709198570e-11 -1.372956375984009e-10
-6.104116836914046e+02 -2.616643105549326e+02 -2.616643105550808e+02 -2.021689299111016e-10 4.834735943847887e-11 -2.698733165320515e-10
-6.104116836908199e+02 -2.616643105552350e+02 -2.616643105542040e+02 -2.428623998759397e-10 7.398157428760468e-11 -2.788193824402448e-10
-6.104116836904598e+02 -2.616643105544830e+02 -2.616643105550729e+02 -1.141692744643793e-10 4.003614655812921e-10 -3.205926558344894e-10
-6.104116836913707e+02 -2.616643105550913e+02 -2.616643105547391e+02 1.679972056266080e-10 1.574526013027131e-11 3.025481461666782e-10
-6.111432657497695e+02 -2.619779880110052e+02 -2.619779880108994e+02 -2.122072687284001e-10 1.975492581104493e-10 1.732391153495160e-10
-6.111432657500869e+02 -2.619779880116359e+02 -2.619779880116467e+02 9.056835654140549e-11 -2.149328433773880e-10 -3.470542078042536e-10
-6.111432657492394e+02 -2.619779880102119e+02 -2.619779880099570e+02 -6.133124482923277e-11 2.116012464571040e-10 -7.734515106732365e-10
-6.111432657487808e+02 -2.619779880096728e+02 -2.619779880102249e+02 -2.278713855285513e-12 8.999796209347297e-11 5.166182371821042e-11
-6.104116836916771e+02 -2.616643105556938e+02 -2.616643105554108e+02 2.251664536834475e-10 -1.802101033223295e-10 6.613308053746218e-11
-6.104116836913707e+02 -2.616643105550913e+02 -2.616643105547391e+02 1.679972056266080e-10 1.574526013027131e-11 3.025481461666782e-10
-6.104116836908361e+02 -2.616643105556088e+02 -2.616643105555074e+02 1.108464739809735e-10 9.406923267385125e-11 -1.846577277483308e-10
-6.104116836910748e+02 -2.616643105553401e+02 -2.616643105549600e+02 -1.023916182617732e-10 -2.985869005623552e-10 -1.146817521226649e-10
-6.111432657507916e+02 -2.619779880117086e+02 -2.619779880116852e+02 2.908235582283923e-12 -3.586198709198570e-11 -1.372956375984009e-10
-6.111432657487808e+02 -2.619779880096728e+02 -2.619779880102249e+02 -2.278713855285513e-12 8.999796209347297e-11 5.166182371821042e-11
-6.111432657492156e+02 -2.619779880102546e+02 -2.619779880104449e+02 4.347619118373460e-11 6.131494827521072e-11 4.130027582419341e-11
-6.111432657487353e+02 -2.619779880101186e+02 -2.619779880101805e+02 -7.542724101095443e-11 2.383037603196474e-11 -5.592949010496290e-11
-6.104116836913707e+02 -2.616643105550913e+02 -2.616643105547391e+02 1.679972056266080e-10 1.574526013027131e-11 3.025481461666782e-10
-6.104116836904598e+02 -2.616643105544830e+02 -2.616643105550729e+02 -1.141692744643793e-10 4.003614655812921e-10 -3.205926558344894e-10
-6.104116836907918e+02 -2.616643105550099e+02 -2.616643105557154e+02 3.903313745439857e-11 2.445410473258003e-10 4.054058025622646e-10
-6.104116836908361e+02 -2.616643105556088e+02 -2.616643105555074e+02 1.108464739809735e-10 9.406923267385125e-11 -1.846577277483308e-10
-6.111432657487808e+02 -2.619779880096728e+02 -2.619779880102249e+02 -2.278713855285513e-12 8.999796209347297e-11 5.166182371821042e-11
-6.111432657492394e+02 -2.619779880102119e+02 -2.619779880099570e+02 -6.133124482923277e-11 2.116012464571040e-10 -7.734515106732365e-10
-6.111432657488390e+02 -2.619779880104333e+02 -2.619779880105309e+02 -7.038922851887777e-11 2.762789270418919e-10 -7.510172223689815e-11
-6.111432657492156e+02 -2.619779880102546e+02 -2.619779880104449e+02 4.347619118373460e-11 6.131494827521072e-11 4.130027582419341e-11
-6.104116836910748e+02 -2.616643105553401e+02 -2.616643105549600e+02 -1.023916182617732e-10 -2.985869005623552e-10 -1.146817521226649e-10
-6.104116836908361e+02 -2.616643105556088e+02 -2.616643105555074e+02 1.108464739809735e-10 9.406923267385125e-11 -1.846577277483308e-10
-6.104116836911512e+02 -2.616643105555099e+02 -2.616643105553253e+02 -1.810784739874200e-10 2.743694541913074e-10 2.355939071872843e-10
-6.104116836912289e+02 -2.616643105554085e+02 -2.616643105555702e+02 -3.480649001814088e-11 1.378278850462906e-10 3.126336925633640e-10
-6.111432657487353e+02 -2.619779880101186e+02 -2.619779880101805e+02 -7.542724101095443e-11 2.383037603196474e-11 -5.592949010496290e-11
-6.111432657492156e+02 -2.619779880102546e+02 -2.619779880104449e+02 4.347619118373460e-11 6.131494827521072e-11 4.130027582419341e-11
-6.111432657492766e+02 -2.619779880109187e+02 -2.619779880108861e+02 9.807536746796935e-11 2.509449365841588e-10 -1.256526998517304e-10
-6.111432657495726e+02 -2.619779880107228e+02 -2.619779880111587e+02 -1.487859505678115e-10 -1.428208486000907e-10 4.895900021303780e-11
-6.104116836908361e+02 -2.616643105556088e+02 -2.616643105555074e+02 1.108464739809735e-10 9.406923267385125e-11 -1.846577277483308e-10
-6.104116836907918e+02 -2.616643105550099e+02 -2.616643105557154e+02 3.903313745439857e-11 2.445410473258003e-10 4.054058025622646e-10
-6.104116836903984e+02 -2.616643105550127e+02 -2.616643105552488e+02 4.760242161367890e-10 -1.380264465229420e-10 -3.831568844732899e-10
-6.104116836911512e+02 -2.616643105555099e+02 -2.616643105553253e+02 -1.810784739874200e-10 2.743694541913074e-10 2.355939071872843e-10
-6.111432657492156e+02 -2.619779880102546e+02 -2.619779880104449e+02 4.347619118373460e-11 6.131494827521072e-11 4.130027582419341e-11
-6.111432657488390e+02 -2.619779880104333e+02 -2.619779880105309e+02 -7.038922851887777e-11 2.762789270418919e-10 -7.510172223689815e-11
-6.111432657482027e+02 -2.619779880094885e+02 -2.619779880095958e+02 1.072377907639632e-10 2.055891630995922e-10 -1.590507086642412e-10
-6.111432657492766e+02 -2.619779880109187e+02 -2.619779880108861e+02 9.807536746796935e-11 2.509449365841588e-10 -1.256526998517304e-10
-6.104116836912289e+02 -2.616643105554085e+02 -2.616643105555702e+02 -3.480649001814088e-11 1.378278850462906e-10 3.126336925633640e-10
-6.104116836911512e+02 -2.616643105555099e+02 -2.616643105553253e+02 -1.810784739874200e-10 2.743694541913074e-10 2.355939071872843e-10
-6.104116836917334e+02 -2.616643105544863e+02 -2.616643105556030e+02 3.280646338530081e-10 -1.135424931490312e-10 -3.370122761024972e-12
-6.104116836908699e+02 -2.616643105545293e+02 -2.616643105547213e+02 3.626255037214425e-10 1.699777257629766e-11 -2.122042387609485e-10
-6.111432657495726e+02 -2.619779880107228e+02 -2.619779880111587e+02 -1.487859505678115e-10 -1.428208486000907e-10 4.895900021303780e-11
-6.111432657492766e+02 -2.619779880109187e+02 -2.619779880108861e+02 9.807536746796935e-11 2.509449365841588e-10 -1.256526998517304e-10
-6.111432657498731e+02 -2.619779880106727e+02 -2.619779880112715e+02 1.472465522486363e-10 -1.139234870349089e-10 4.613130081168369e-11
-6.111432657501557e+02 -2.619779880120544e+02 -2.619779880111198e+02 4.161718825533164e-10 1.469887327588248e-10 -1.651072325997243e-10
-6.104116836911512e+02 -2.616643105555099e+02 -2.616643105553253e+02 -1.810784739874200e-10 2.743694541913074e-10 2.355939071872843e-10
-6.104116836903984e+02 -2.616643105550127e+02 -2.616643105552488e+02 4.760242161367890e-10 -1.380264465229420e-10 -3.831568844732899e-10
-6.104116836899825e+02 -2.616643105553985e+02 -2.616643105551047e+02 -2.663243979596910e-10 -2.931215091447276e-11 2.658140744968170e-10
-6.104116836917334e+02 -2.616643105544863e+02 -2.616643105556030e+02 3.280646338530081e-10 -1.135424931490312e-10 -3.370122761024972e-12
-6.111432657492766e+02 -2.619779880109187e+02 -2.619779880108861e+02 9.807536746796935e-11 2.509449365841588e-10 -1.256526998517304e-10
-6.111432657482027e+02 -2.619779880094885e+02 -2.619779880095958e+02 1.072377907639632e-10 2.055891630995922e-10 -1.590507086642412e-10
-6.111432657497642e+02 -2.619779880108580e+02 -2.619779880112887e+02 5.852174201273246e-10 -2.457774258753877e-10 3.312119683733814e-11
-6.111432657498731e+02 -2.619779880106727e+02 -2.619779880112715e+02 1.472465522486363e-10 -1.139234870349089e-10 4.613130081168369e-11
-6.111432657493211e+02 -2.619779880099073e+02 -2.619779880104630e+02 2.414642542394244e-10 -2.965523418389083e-11 1.398565820510376e-10
-6.111432657489916e+02 -2.619779880099416e+02 -2.619779880097965e+02 6.377422234051888e-10 -1.420667615598481e-10 1.436167100277074e-10
-6.111432657497695e+02 -2.619779880110052e+02 -2.619779880108994e+02 -2.122072687284001e-10 1.975492581104493e-10 1.732391153495160e-10
-6.111432657478979e+02 -2.619779880089726e+02 -2.619779880093662e+02 -1.902527549652069e-10 3.150620239678399e-11 2.227693955148638e-10
-6.129302362205613e+02 -2.627441807630402e+02 -2.627441807625025e+02 1.048032417185033e-09 3.252174507434677e-10 -1.537180330317688e-10
-6.129302362209099e+02 -2.627441807614564e+02 -2.627441807618416e+02 -3.279176545595038e-10 1.480950855050311e-10 2.245616408796789e-10
-6.129302362191278e+02 -2.627441807609253e+02 -2.627441807607816e+02 -9.449744506964946e-11 -3.875445726137169e-11 3.634884531304626e-10
-6.129302362209251e+02 -2.627441807616682e+02 -2.627441807616634e+02 -3.518786653416328e-10 1.164520448601276e-10 5.756373081713969e-11
-6.111432657489916e+02 -2.619779880099416e+02 -2.619779880097965e+02 6.377422234051888e-10 -1.420667615598481e-10 1.436167100277074e-10
-6.111432657490612e+02 -2.619779880099041e+02 -2.619779880096819e+02 3.309696241044575e-10 3.957743636668183e-10 -2.184332720048893e-10
-6.111432657500869e+02 -2.619779880116359e+02 -2.619779880116467e+02 9.056835654140549e-11 -2.149328433773880e-10 -3.470542078042536e-10
-6.111432657497695e+02 -2.619779880110052e+02 -2.619779880108994e+02 -2.122072687284001e-10 1.975492581104493e-10 1.732391153495160e-10
-6.129302362209099e+02 -2.627441807614564e+02 -2.627441807618416e+02 -3.279176545595038e-10 1.480950855050311e-10 2.245616408796789e-10
-6.129302362185572e+02 -2.627441807601192e+02 -2.627441807600859e+02 9.429078518091043e-11 -6.685688132169525e-11 -7.773194214539919e-10
-6.129302362195845e+02 -2.627441807619187e+02 -2.627441807610741e+02 -9.917401459312971e-11 -2.553725707898738e-10 -1.156223686617918e-10
-6.129302362191278e+02 -2.627441807609253e+02 -2.627441807607816e+02 -9.449744506964946e-11 -3.875445726137169e-11 3.634884531304626e-10
-6.111432657478979e+02 -2.619779880089726e+02 -2.619779880093662e+02 -1.902527549652069e-10 3.150620239678399e-11 2.227693955148638e-10
-6.111432657497695e+02 -2.619779880110052e+02 -2.619779880108994e+02 -2.122072687284001e-10 1.975492581104493e-10 1.732391153495160e-10
-6.111432657487808e+02 -2.619779880096728e+02 -2.619779880102249e+02 -2.278713855285513e-12 8.999796209347297e-11 5.166182371821042e-11
-6.111432657507916e+02 -2.619779880117086e+02 -2.619779880116852e+02 2.908235582283923e-12 -3.586198709198570e-11 -1.372956375984009e-10
-6.129302362209251e+02 -2.627441807616682e+02 -2.627441807616634e+02 -3.518786653416328e-10 1.164520448601276e-10 5.756373081713969e-11
-6.129302362191278e+02 -2.627441807609253e+02 -2.627441807607816e+02 -9.449744506964946e-11 -3.875445726137169e-11 3.634884531304626e-10
-6.129302362204538e+02 -2.627441807611705e+02 -2.627441807616563e+02 8.361867676483413e-11 1.572868310496610e-10 -1.155038422074146e-10
-6.129302362202778e+02 -2.627441807618674e+02 -2.627441807617938e+02 -1.625021978835991e-10 6.507022138762125e-11 1.926734938763184e-11
-6.111432657497695e+02 -2.619779880110052e+02 -2.619779880108994e+02 -2.122072687284001e-10 1.975492581104493e-10 1.732391153495160e-10
-6.111432657500869e+02 -2.619779880116359e+02 -2.619779880116467e+02 9.056835654140549e-11 -2.149328433773880e-10 -3.470542078042536e-10
-6.111432657492394e+02 -2.619779880102119e+02 -2.619779880099570e+02 -6.133124482923277e-11 2.116012464571040e-10 -7.734515106732365e-10
-6.111432657487808e+02 -2.619779880096728e+02 -2.619779880102249e+02 -2.278713855285513e-12 8.999796209347297e-11 5.166182371821042e-11
-6.129302362191278e+02 -2.627441807609253e+02 -2.627441807607816e+02 -9.449744506964946e-11 -3.875445726137169e-11 3.634884531304626e-10
-6.129302362195845e+02 -2.627441807619187e+02 -2.627441807610741e+02 -9.917401459312971e-11 -2.553725707898738e-10 -1.156223686617918e-10
-6.129302362212469e+02 -2.627441807625144e+02 -2.627441807626542e+02 2.932285651957978e-10 3.250547894745000e-10 3.942575458403312e-11
-6.129302362204538e+02 -2.627441807611705e+02 -2.627441807616563e+02 8.361867676483413e-11 1.572868310496610e-10 -1.155038422074146e-10
-6.111432657507916e+02 -2.619779880117086e+02 -2.619779880116852e+02 2.908235582283923e-12 -3.586198709198570e-11 -1.372956375984009e-10
-6.111432657487808e+02 -2.619779880096728e+02 -2.619779880102249e+02 -2.278713855285513e-12 8.999796209347297e-11 5.166182371821042e-11
-6.111432657492156e+02 -2.619779880102546e+02 -2.619779880104449e+02 4.347619118373460e-11 6.131494827521072e-11 4.130027582419341e-11
-6.111432657487353e+02 -2.619779880101186e+02 -2.619779880101805e+02 -7.542724101095443e-11 2.383037603196474e-11 -5.592949010496290e-11
-6.129302362202778e+02 -2.627441807618674e+02 -2.627441807617938e+02 -1.625021978835991e-10 6.507022138762125e-11 1.926734938763184e-11
-6.129302362204538e+02 -2.627441807611705e+02 -2.627441807616563e+02 8.361867676483413e-11 1.572868310496610e-10 -1.155038422074146e-10
-6.129302362205899e+02 -2.627441807620980e+02 -2.627441807619860e+02 1.324458467505182e-10 1.548785032175430e-11 2.311164647545556e-10
-6.129302362199954e+02 -2.627441807622168e+02 -2.627441807619675e+02 -1.675494874812671e-10 -1.159147287275047e-10 -2.671159686576851e-11
-6.111432657487808e+02 -2.619779880096728e+02 -2.619779880102249e+02 -2.278713855285513e-12 8.999796209347297e-11 5.166182371821042e-11
-6.111432657492394e+02 -2.619779880102119e+02 -2.619779880099570e+02 -6.133124482923277e-11 2.116012464571040e-10 -7.734515106732365e-10
-6.111432657488390e+02 -2.619779880104333e+02 -2.619779880105309e+02 -7.038922851887777e-11 2.762789270418919e-10 -7.510172223689815e-11
-6.111432657492156e+02 -2.619779880102546e+02 -2.619779880104449e+02 4.347619118373460e-11 6.131494827521072e-11 4.130027582419341e-11
-6.129302362204538e+02 -2.627441807611705e+02 -2.627441807616563e+02 8.361867676483413e-11 1.572868310496610e-10 -1.155038422074146e-10
-6.129302362212469e+02 -2.627441807625144e+02 -2.627441807626542e+02 2.932285651957978e-10 3.250547894745000e-10 3.942575458403312e-11
-6.129302362214945e+02 -2.627441807624398e+02 -2.627441807625893e+02 -7.024482115536899e-11 1.476094959853848e-10 -5.297935950829981e-10
-6.129302362205899e+02 -2.627441807620980e+02 -2.627441807619860e+02 1.324458467505182e-10 1.548785032175430e-11 2.311164647545556e-10
-6.111432657487353e+02 -2.619779880101186e+02 -2.619779880101805e+02 -7.542724101095443e-11 2.383037603196474e-11 -5.592949010496290e-11
-6.111432657492156e+02 -2.619779880102546e+02 -2.619779880104449e+02 4.347619118373460e-11 6.131494827521072e-11 4.130027582419341e-11
-6.111432657492766e+02 -2.619779880109187e+02 -2.619779880108861e+02 9.807536746796935e-11 2.509449365841588e-10 -1.256526998517304e-10
-6.111432657495726e+02 -2.619779880107228e+02 -2.619779880111587e+02 -1.487859505678115e-10 -1.428208486000907e-10 4.895900021303780e-11
-6.129302362199954e+02 -2.627441807622168e+02 -2.627441807619675e+02 -1.675494874812671e-10 -1.159147287275047e-10 -2.671159686576851e-11
-6.129302362205899e+02 -2.627441807620980e+02 -2.627441807619860e+02 1.324458467505182e-10 1.548785032175430e-11 2.311164647545556e-10
-6.129302362202448e+02 -2.627441807617457e+02 -2.627441807615951e+02 -7.327394630289448e-11 -3.939265046344944e-11 -1.725303136913839e-10
-6.129302362211420e+02 -2.627441807624957e+02 -2.627441807622238e+02 -2.422288499367889e-11 2.388251716892248e-10 1.169405217609308e-10
-6.111432657492156e+02 -2.619779880102546e+02 -2.619779880104449e+02 4.347619118373460e-11 6.131494827521072e-11 4.130027582419341e-11
-6.111432657488390e+02 -2.619779880104333e+02 -2.619779880105309e+02 -7.038922851887777e-11 2.762789270418919e-10 -7.510172223689815e-11
-6.111432657482027e+02 -2.619779880094885e+02 -2.619779880095958e+02 1.072377907639632e-10 2.055891630995922e-10 -1.590507086642412e-10
-6.111432657492766e+02 -2.619779880109187e+02 -2.619779880108861e+02 9.807536746796935e-11 2.509449365841588e-10 -1.256526998517304e-10
-6.129302362205899e+02 -2.627441807620980e+02 -2.627441807619860e+02 1.324458467505182e-10 1.548785032175430e-11 2.311164647545556e-10
-6.129302362214945e+02 -2.627441807624398e+02 -2.627441807625893e+02 -7.024482115536899e-11 1.476094959853848e-10 -5.297935950829981e-10
-6.129302362202588e+02 -2.627441807625457e+02 -2.627441807625453e+02 1.783444199424235e-10 -2.035136594944433e-10 -2.550119136750116e-10
-6.129302362202448e+02 -2.627441807617457e+02 -2.627441807615951e+02 -7.327394630289448e-11 -3.939265046344944e-11 -1.725303136913839e-10
-6.111432657495726e+02 -2.619779880107228e+02 -2.619779880111587e+02 -1.487859505678115e-10 -1.428208486000907e-10 4.895900021303780e-11
-6.111432657492766e+02 -2.619779880109187e+02 -2.619779880108861e+02 9.807536746796935e-11 2.509449365841588e-10 -1.256526998517304e-10
-6.111432657498731e+02 -2.619779880106727e+02 -2.619779880112715e+02 1.472465522486363e-10 -1.139234870349089e-10 4.613130081168369e-11
-6.111432657501557e+02 -2.619779880120544e+02 -2.619779880111198e+02 4.161718825533164e-10 1.469887327588248e-10 -1.651072325997243e-10
-6.129302362211420e+02 -2.627441807624957e+02 -2.627441807622238e+02 -2.422288499367889e-11 2.388251716892248e-10 1.169405217609308e-10
-6.129302362202448e+02 -2.627441807617457e+02 -2.627441807615951e+02 -7.327394630289448e-11 -3.939265046344944e-11 -1.725303136913839e-10
-6.129302362220271e+02 -2.627441807622782e+02 -2.627441807626966e+02 -1.747125679878124e-10 -3.516823164982768e-11 3.486541974250764e-10
-6.129302362217600e+02 -2.627441807613654e+02 -2.627441807621564e+02 7.355545517696267e-10 -1.627967963836378e-10 -1.325768099348874e-10
-6.111432657492766e+02 -2.619779880109187e+02 -2.619779880108861e+02 9.807536746796935e-11 2.509449365841588e-10 -1.256526998517304e-10
-6.111432657482027e+02 -2.619779880094885e+02 -2.619779880095958e+02 1.072377907639632e-10 2.055891630995922e-10 -1.590507086642412e-10
-6.111432657497642e+02 -2.619779880108580e+02 -2.619779880112887e+02 5.852174201273246e-10 -2.457774258753877e-10 3.312119683733814e-11
-6.111432657498731e+02 -2.619779880106727e+02 -2.619779880112715e+02 1.472465522486363e-10 -1.139234870349089e-10 4.613130081168369e-11
-6.129302362202448e+02 -2.627441807617457e+02 -2.627441807615951e+02 -7.327394630289448e-11 -3.939265046344944e-11 -1.725303136913839e-10
-6.129302362202588e+02 -2.627441807625457e+02 -2.627441807625453e+02 1.783444199424235e-10 -2.035136594944433e-10 -2.550119136750116e-10
-6.129302362194862e+02 -2.627441807613558e+02 -2.627441807615913e+02 9.953109082814582e-11 3.834885329667909e-11 -3.486519311760253e-10
-6.129302362220271e+02 -2.627441807622782e+02 -2.627441807626966e+02 -1.747125679878124e-10 -3.516823164982768e-11 3.486541974250764e-10
-6.129302362205613e+02 -2.627441807630402e+02 -2.627441807625025e+02 1.048032417185033e-09 3.252174507434677e-10 -1.537180330317688e-10
-6.129302362209099e+02 -2.627441807614564e+02 -2.627441807618416e+02 -3.279176545595038e-10 1.480950855050311e-10 2.245616408796789e-10
-6.129302362191278e+02 -2.627441807609253e+02 -2.627441807607816e+02 -9.449744506964946e-11 -3.875445726137169e-11 3.634884531304626e-10
-6.129302362209251e+02 -2.627441807616682e+02 -2.627441807616634e+02 -3.518786653416328e-10 1.164520448601276e-10 5.756373081713969e-11
-6.140824681827536e+02 -2.632382192510365e+02 -2.632382192511664e+02 -3.502761765846042e-10 -8.291219247447327e-11 2.913799493870277e-10
-6.140824681858962e+02 -2.632382192547287e+02 -2.632382192537308e+02 4.787353959427212e-10 1.120699939329827e-10 3.944488963163555e-10
-6.140824681847108e+02 -2.632382192536043e+02 -2.632382192532692e+02 6.127457911602080e-11 -1.350276089051435e-10 -1.408173544755891e-10
-6.140824681853071e+02 -2.632382192528575e+02 -2.632382192532762e+02 -2.145390018696026e-10 2.905618414491364e-11 -2.001878732743165e-10
-6.129302362209099e+02 -2.627441807614564e+02 -2.627441807618416e+02 -3.279176545595038e-10 1.480950855050311e-10 2.245616408796789e-10
-6.129302362185572e+02 -2.627441807601192e+02 -2.627441807600859e+02 9.429078518091043e-11 -6.685688132169525e-11 -7.773194214539919e-10
-6.129302362195845e+02 -2.627441807619187e+02 -2.627441807610741e+02 -9.917401459312971e-11 -2.553725707898738e-10 -1.156223686617918e-10
-6.129302362191278e+02 -2.627441807609253e+02 -2.627441807607816e+02 -9.449744506964946e-11 -3.875445726137169e-11 3.634884531304626e-10
-6.140824681858962e+02 -2.632382192547287e+02 -2.632382192537308e+02 4.787353959427212e-10 1.120699939329827e-10 3.944488963163555e-10
-6.140824681860828e+02 -2.632382192533350e+02 -2.632382192535563e+02 5.653486181921989e-10 1.124611064191351e-10 6.118123261987083e-10
-6.140824681825395e+02 -2.632382192515703e+02 -2.632382192515483e+02 6.189700417160030e-10 1.146651424238341e-11 7.489711871586622e-11
-6.140824681847108e+02 -2.632382192536043e+02 -2.632382192532692e+02 6.127457911602080e-11 -1.350276089051435e-10 -1.408173544755891e-10
-6.129302362209251e+02 -2.627441807616682e+02 -2.627441807616634e+02 -3.518786653416328e-10 1.164520448601276e-10 5.756373081713969e-11
-6.129302362191278e+02 -2.627441807609253e+02 -2.627441807607816e+02 -9.449744506964946e-11 -3.875445726137169e-11 3.634884531304626e-10
-6.129302362204538e+02 -2.627441807611705e+02 -2.627441807616563e+02 8.361867676483413e-11 1.572868310496610e-10 -1.155038422074146e-10
-6.129302362202778e+02 -2.627441807618674e+02 -2.627441807617938e+02 -1.625021978835991e-10 6.507022138762125e-11 1.926734938763184e-11
-6.140824681853071e+02 -2.632382192528575e+02 -2.632382192532762e+02 -2.145390018696026e-10 2.905618414491364e-11 -2.001878732743165e-10
-6.140824681847108e+02 -2.632382192536043e+02 -2.632382192532692e+02 6.127457911602080e-11 -1.350276089051435e-10 -1.408173544755891e-10
-6.140824681842312e+02 -2.632382192521288e+02 -2.632382192522800e+02 6.746641521613439e-11 1.527311050180039e-10 -3.976645903220804e-10
-6.140824681847946e+02 -2.632382192528203e+02 -2.632382192524144e+02 1.610949390373005e-10 -1.174694838970214e-11 -1.440276275608278e-10
-6.129302362191278e+02 -2.627441807609253e+02 -2.627441807607816e+02 -9.449744506964946e-11 -3.875445726137169e-11 3.634884531304626e-10
-6.129302362195845e+02 -2.627441807619187e+02 -2.627441807610741e+02 -9.917401459312971e-11 -2.553725707898738e-10 -1.156223686617918e-10
-6.129302362212469e+02 -2.627441807625144e+02 -2.627441807626542e+02 2.932285651957978e-10 3.250547894745000e-10 3.942575458403312e-11
-6.129302362204538e+02 -2.627441807611705e+02 -2.627441807616563e+02 8.361867676483413e-11 1.572868310496610e-10 -1.155038422074146e-10
-6.140824681847108e+02 -2.632382192536043e+02 -2.632382192532692e+02 6.127457911602080e-11 -1.350276089051435e-10 -1.408173544755891e-10
-6.140824681825395e+02 -2.632382192515703e+02 -2.632382192515483e+02 6.189700417160030e-10 1.146651424238341e-11 7.489711871586622e-11
-6.140824681837796e+02 -2.632382192535833e+02 -2.632382192530799e+02 -5.370583808060469e-10 -8.970001465219980e-11 -1.460449779271414e-09
-6.140824681842312e+02 -2.632382192521288e+02 -2.632382192522800e+02 6.746641521613439e-11 1.527311050180039e-10 -3.976645903220804e-10
-6.129302362202778e+02 -2.627441807618674e+02 -2.627441807617938e+02 -1.625021978835991e-10 6.507022138762125e-11 1.926734938763184e-11
-6.129302362204538e+02 -2.627441807611705e+02 -2.627441807616563e+02 8.361867676483413e-11 1.572868310496610e-10 -1.155038422074146e-10
-6.129302362205899e+02 -2.627441807620980e+02 -2.627441807619860e+02 1.324458467505182e-10 1.548785032175430e-11 2.311164647545556e-10
-6.129302362199954e+02 -2.627441807622168e+02 -2.627441807619675e+02 -1.675494874812671e-10 -1.159147287275047e-10 -2.671159686576851e-11
-6.140824681847946e+02 -2.632382192528203e+02 -2.632382192524144e+02 1.610949390373005e-10 -1.174694838970214e-11 -1.440276275608278e-10
-6.140824681842312e+02 -2.632382192521288e+02 -2.632382192522800e+02 6.746641521613439e-11 1.527311050180039e-10 -3.976645903220804e-10
-6.140824681863460e+02 -2.632382192542236e+02 -2.632382192543679e+02 4.881005488179723e-10 2.860146367649138e-11 1.082225001457484e-09
-6.140824681843005e+02 -2.632382192526318e+02 -2.632382192532791e+02 -2.884147653593508e-10 -2.255395620142386e-11 -1.201518987831563e-10
-6.129302362204538e+02 -2.627441807611705e+02 -2.627441807616563e+02 8.361867676483413e-11 1.572868310496610e-10 -1.155038422074146e-10
-6.129302362212469e+02 -2.627441807625144e+02 -2.627441807626542e+02 2.932285651957978e-10 3.250547894745000e-10 3.942575458403312e-11
-6.129302362214945e+02 -2.627441807624398e+02 -2.627441807625893e+02 -7.024482115536899e-11 1.476094959853848e-10 -5.297935950829981e-10
-6.129302362205899e+02 -2.627441807620980e+02 -2.627441807619860e+02 1.324458467505182e-10 1.548785032175430e-11 2.311164647545556e-10
-6.140824681842312e+02 -2.632382192521288e+02 -2.632382192522800e+02 6.746641521613439e-11 1.527311050180039e-10 -3.976645903220804e-10
-6.140824681837796e+02 -2.632382192535833e+02 -2.632382192530799e+02 -5.370583808060469e-10 -8.970001465219980e-11 -1.460449779271414e-09
-6.140824681846038e+02 -2.632382192520896e+02 -2.632382192522380e+02 -2.092793974716168e-10 3.948678616151818e-10 3.664317632720757e-10
-6.140824681863460e+02 -2.632382192542236e+02 -2.632382192543679e+02 4.881005488179723e-10 2.860146367649138e-11 1.082225001457484e-09
-6.129302362199954e+02 -2.627441807622168e+02 -2.627441807619675e+02 -1.675494874812671e-10 -1.159147287275047e-10 -2.671159686576851e-11
-6.129302362205899e+02 -2.627441807620980e+02 -2.627441807619860e+02 1.324458467505182e-10 1.548785032175430e-11 2.311164647545556e-10
-6.129302362202448e+02 -2.627441807617457e+02 -2.627441807615951e+02 -7.327394630289448e-11 -3.939265046344944e-11 -1.725303136913839e-10
-6.129302362211420e+02 -2.627441807624957e+02 -2.627441807622238e+02 -2.422288499367889e-11 2.388251716892248e-10 1.169405217609308e-10
-6.140824681843005e+02 -2.632382192526318e+02 -2.632382192532791e+02 -2.884147653593508e-10 -2.255395620142386e-11 -1.201518987831563e-10
-6.140824681863460e+02 -2.632382192542236e+02 -2.632382192543679e+02 4.881005488179723e-10 2.860146367649138e-11 1.082225001457484e-09
-6.140824681860865e+02 -2.632382192528010e+02 -2.632382192529448e+02 -2.448064802202139e-10 2.864014778351714e-11 -2.188389393241104e-10
-6.140824681845827e+02 -2.632382192530590e+02 -2.632382192532251e+02 -3.427578982396809e-10 -6.330212610003432e-11 -2.133417587827193e-10
-6.129302362205899e+02 -2.627441807620980e+02 -2.627441807619860e+02 1.324458467505182e-10 1.548785032175430e-11 2.311164647545556e-10
-6.129302362214945e+02 -2.627441807624398e+02 -2.627441807625893e+02 -7.024482115536899e-11 1.476094959853848e-10 -5.297935950829981e-10
-6.129302362202588e+02 -2.627441807625457e+02 -2.627441807625453e+02 1.783444199424235e-10 -2.035136594944433e-10 -2.550119136750116e-10
-6.129302362202448e+02 -2.627441807617457e+02 -2.627441807615951e+02 -7.327394630289448e-11 -3.939265046344944e-11 -1.725303136913839e-10
-6.140824681863460e+02 -2.632382192542236e+02 -2.632382192543679e+02 4.881005488179723e-10 2.860146367649138e-11 1.082225001457484e-09
-6.140824681846038e+02 -2.632382192520896e+02 -2.632382192522380e+02 -2.092793974716168e-10 3.948678616151818e-10 3.664317632720757e-10
-6.140824681789242e+02 -2.632382192493376e+02 -2.632382192487619e+02 3.313561441248401e-10 -3.021912313841116e-11 -1.466976892529795e-09
-6.140824681860865e+02 -2.632382192528010e+02 -2.632382192529448e+02 -2.448064802202139e-10 2.864014778351714e-11 -2.188389393241104e-10
-6.129302362211420e+02 -2.627441807624957e+02 -2.627441807622238e+02 -2.422288499367889e-11 2.388251716892248e-10 1.169405217609308e-10
-6.129302362202448e+02 -2.627441807617457e+02 -2.627441807615951e+02 -7.327394630289448e-11 -3.939265046344944e-11 -1.725303136913839e-10
-6.129302362220271e+02 -2.627441807622782e+02 -2.627441807626966e+02 -1.747125679878124e-10 -3.516823164982768e-11 3.486541974250764e-10
-6.129302362217600e+02 -2.627441807613654e+02 -2.627441807621564e+02 7.355545517696267e-10 -1.627967963836378e-10 -1.325768099348874e-10
-6.140824681845827e+02 -2.632382192530590e+02 -2.632382192532251e+02 -3.427578982396809e-10 -6.330212610003432e-11 -2.133417587827193e-10
-6.140824681860865e+02 -2.632382192528010e+02 -2.632382192529448e+02 -2.448064802202139e-10 2.864014778351714e-11 -2.188389393241104e-10
-6.140824681850862e+02 -2.632382192526059e+02 -2.632382192522900e+02 -1.687429103552437e-11 1.547489831927156e-10 -4.878450930350961e-10
-6.140824681891281e+02 -2.632382192556743e+02 -2.632382192545953e+02 -1.711453424373007e-10 2.260446242032454e-10 4.930932637739440e-11
-6.129302362202448e+02 -2.627441807617457e+02 -2.627441807615951e+02 -7.327394630289448e-11 -3.939265046344944e-11 -1.725303136913839e-10
-6.129302362202588e+02 -2.627441807625457e+02 -2.627441807625453e+02 1.783444199424235e-10 -2.035136594944433e-10 -2.550119136750116e-10
-6.129302362194862e+02 -2.627441807613558e+02 -2.627441807615913e+02 9.953109082814582e-11 3.834885329667909e-11 -3.486519311760253e-10
-6.129302362220271e+02 -2.627441807622782e+02 -2.627441807626966e+02 -1.747125679878124e-10 -3.516823164982768e-11 3.486541974250764e-10
-6.140824681860865e+02 -2.632382192528010e+02 -2.632382192529448e+02 -2.448064802202139e-10 2.864014778351714e-11 -2.188389393241104e-10
-6.140824681789242e+02 -2.632382192493376e+02 -2.632382192487619e+02 3.313561441248401e-10 -3.021912313841116e-11 -1.466976892529795e-09
-6.140824681844125e+02 -2.632382192527225e+02 -2.632382192525422e+02 -4.448419012203121e-10 -2.393779341455078e-10 -3.785008244789477e-10
-6.140824681850862e+02 -2.632382192526059e+02 -2.632382192522900e+02 -1.687429103552437e-11 1.547489831927156e-10 -4.878450930350961e-10
        </DataArray>
  </PointData>
  <CellData>
        <DataArray type="Float64" Name="element_GL_strains_xyz" NumberOfComponents="6" format="ascii">
-2.268874572022572e-04 5.551115123125783e-17 1.110223024625157e-16 2.607399241355308e-18 1.235990476633476e-17 7.263564108165097e-17
-2.268874572023127e-04 1.665334536937735e-16 0.000000000000000e+00 4.335490023885960e-17 -1.821459649775645e-17 1.188139937330459e-16
-2.268874572022017e-04 -1.249000902703301e-16 -1.387778780781446e-16 -3.490816090076506e-17 -3.968179951296946e-17 1.974113943572370e-17
-2.268874572021601e-04 5.551115123125783e-17 1.665334536937735e-16 2.145795267123769e-17 7.892991815694475e-17 1.500398035639455e-16
-2.268874572020907e-04 -5.551115123125783e-17 -2.498001805406602e-16 -8.324114078908276e-17 1.409462824231154e-17 2.081524495616807e-16
-2.268874572023127e-04 -6.938893903907228e-17 0.000000000000000e+00 1.235793660804215e-17 -8.673617379884070e-19 4.249796973982209e-17
-2.268874572019935e-04 8.326672684688674e-17 -1.665334536937735e-16 7.285149743700175e-17 -1.691355389077387e-16 -3.598685223003126e-17
-2.268874572020074e-04 8.326672684688674e-17 -1.387778780781446e-17 1.049466371641824e-16 -7.199102425303746e-17 1.733542581001232e-18
-2.268874572018548e-04 -2.775557561562891e-17 -1.110223024625157e-16 -8.738566603540497e-19 4.943961906533903e-17 -2.181184496520599e-16
-2.268874572020491e-04 -4.163336342344337e-17 -6.938893903907228e-17 5.376678377964718e-17 1.170938346284345e-16 6.934504910914696e-17
-2.265984699808266e-04 1.387778780781446e-17 0.000000000000000e+00 2.083397944192518e-17 1.257674520083188e-17 -5.744040500107152e-17
-2.265984699805351e-04 1.110223024625157e-16 -6.938893903907228e-17 4.315326125736157e-17 4.597017211338536e-17 1.179499921548138e-16
-2.265984699810208e-04 6.938893903907228e-17 -8.326672684688674e-17 2.311174059960604e-16 -1.604619215278546e-17 2.514680718772142e-17
-2.265984699809792e-04 8.326672684688674e-17 0.000000000000000e+00 8.152930060056563e-17 6.461844948013606e-17 -1.153484966361964e-16
-2.265984699807433e-04 -1.387778780781446e-16 1.110223024625157e-16 4.056591842709252e-17 -3.274290560906226e-17 4.117579989286132e-17
-2.265984699807155e-04 -9.714451465470120e-17 8.326672684688674e-17 8.261276565386634e-17 1.170938346284345e-16 -4.339167471333388e-18
-2.265984699809376e-04 -8.326672684688674e-17 -5.551115123125783e-17 -3.036493373888425e-17 -9.280770596475918e-17 -6.980758267669639e-17
-2.265984699808127e-04 -1.387778780781446e-16 -2.081668171172169e-16 -1.518423595548567e-17 2.602085213965211e-17 9.972006357801317e-18
-2.265984699812151e-04 -4.163336342344337e-17 -1.110223024625157e-16 3.617348180933685e-17 1.589440384863749e-16 -1.083807076602446e-16
-2.265984699809098e-04 1.387778780781446e-17 0.000000000000000e+00 3.183706624962678e-17 7.719519468096794e-17 2.458572482837326e-16
-2.266703538447712e-04 5.551115123125783e-17 1.110223024625157e-16 -6.709321840119112e-18 1.142749089799722e-16 -1.268395615908211e-16
-2.266703538448406e-04 -1.387778780781446e-17 0.000000000000000e+00 -9.235583705392069e-17 -6.071532165918825e-17 -6.981819578978004e-17
-2.266703538447434e-04 1.387778780781446e-16 5.551115123125783e-17 1.179384367356826e-16 1.624134854383286e-16 5.136493320731333e-17
-2.266703538446324e-04 1.665334536937735e-16 2.775557561562891e-17 4.595571999364965e-17 1.357421119951852e-16 -5.374359096622165e-17
-2.266703538447018e-04 -2.359223927328458e-16 5.551115123125783e-17 -3.404355496108602e-17 -1.717376241217039e-16 3.706447566935094e-17
-2.266703538445630e-04 5.551115123125783e-17 -1.942890293094024e-16 -2.125444260091341e-17 1.309716224362489e-16 2.907067708738840e-17
-2.266703538446324e-04 -5.551115123125783e-17 -1.942890293094024e-16 -8.416035381873243e-19 6.895525817007808e-17 -9.098548326045046e-18
-2.266703538444659e-04 -1.526556658859590e-16 -1.249000902703301e-16 1.540732102744847e-17 7.025630077706069e-17 2.646072677424734e-17
-2.266703538447573e-04 1.387778780781446e-17 -1.665334536937735e-16 2.727283429420673e-16 3.903127820947814e-17 2.342879492713617e-17
-2.266703538446185e-04 1.387778780781446e-17 -2.775557561562891e-17 2.709845746020382e-16 -4.336808689942086e-18 -4.507429939088434e-17
-2.271414994445692e-04 -9.714451465470120e-17 -8.326672684688674e-17 6.064044789337597e-18 1.218643241873707e-16 1.613174610922937e-16
-2.271414994445692e-04 -2.775557561562891e-17 1.110223024625157e-16 -7.371530480904575e-17 1.040834085586084e-17 4.510162815804207e-17
-2.271414994446247e-04 2.081668171172169e-16 0.000000000000000e+00 -7.870716663567297e-17 1.582935171828836e-16 1.138211304159442e-16
-2.271414994448606e-04 8.326672684688674e-17 -8.326672684688674e-17 5.897508116888843e-17 -5.204170427930432e-18 -4.942030951520849e-17
-2.271414994446525e-04 -5.551115123125783e-17 -5.551115123125783e-17 9.907834530485116e-17 -5.160802341031002e-17 -1.062951608732600e-17
-2.271414994445692e-04 1.110223024625157e-16 -5.551115123125783e-17 5.722715626578160e-17 1.218643241873707e-16 -1.656404772464283e-16
-2.271414994445553e-04 -1.110223024625157e-16 1.110223024625157e-16 -2.142143108635854e-16 8.456776945386936e-17 -7.219131364456560e-17
-2.271414994445137e-04 -1.942890293094024e-16 -1.387778780781446e-16 -1.205561882762585e-16 1.309716224362489e-16 -1.404867898085388e-16
-2.271414994446386e-04 -2.775557561562891e-17 -1.387778780781446e-16 5.112941828182852e-17 3.556183125752454e-17 -5.940482131336623e-17
-2.271414994446247e-04 4.163336342344337e-17 -2.775557561562891e-17 -5.119995725067262e-17 3.556183125752452e-17 -1.777709312598134e-16
-2.279967614978451e-04 -2.636779683484747e-16 -1.665334536937735e-16 -6.415925522124232e-17 1.448494102440633e-16 -2.559706018147167e-17
-2.279967614977479e-04 -6.938893903907228e-17 1.387778780781446e-16 1.040592796162228e-16 1.474514954580291e-17 9.798102299095055e-17
-2.279967614980533e-04 8.326672684688674e-17 0.000000000000000e+00 6.135951405975875e-17 4.987329993433331e-18 -7.177813938286591e-17
-2.279967614976924e-04 -5.551115123125783e-17 -2.775557561562891e-17 1.388530338003291e-17 -1.392115589471387e-16 -1.291993210991798e-16
-2.279967614978451e-04 -2.081668171172169e-16 -2.775557561562891e-17 9.709981677782291e-17 1.259842924428156e-16 1.335523476028564e-16
-2.279967614980810e-04 1.665334536937735e-16 -2.636779683484747e-16 -1.530936403753904e-18 1.873501354054952e-16 -2.340057132978954e-17
-2.279967614979561e-04 -9.714451465470120e-17 -2.220446049250313e-16 -6.589279202792144e-17 4.293440603042598e-17 7.675558046548544e-17
-2.279967614980255e-04 -1.526556658859590e-16 1.387778780781446e-16 1.742942203459256e-16 -9.194034422677085e-17 -4.593654981661848e-17
-2.279967614984141e-04 2.636779683484747e-16 -1.110223024625157e-16 1.300819117598213e-16 6.245004513516507e-17 -4.291423265236582e-17
-2.279967614977757e-04 6.938893903907228e-17 -1.387778780781446e-16 -8.845626168681274e-17 -3.816391647148970e-17 -2.332485140263725e-16
        </DataArray>
        <DataArray type="Float64" Name="element_cauchy_coupling_stresses_xyz" NumberOfComponents="6" format="ascii">
-8.688764192328494e-01 -8.688764192328495e-01 -8.688764192328495e-01 1.623720168263082e-33 2.658841951487262e-33 1.377352449691519e-32
-8.688764194847995e-01 -8.688764194847998e-01 -8.688764194847995e-01 4.971782761374667e-33 3.852734125011246e-33 2.311640475006748e-33
-8.688764193258203e-01 -8.688764193258203e-01 -8.688764193258203e-01 -7.316690556236227e-33 7.472482581677270e-33 -6.164374600017994e-33
-8.688764194398503e-01 -8.688764194398502e-01 -8.688764194398503e-01 2.268281224635902e-32 -1.425511626254160e-32 1.905221029556981e-33
-8.688764196649943e-01 -8.688764196649943e-01 -8.688764196649943e-01 -1.989557465604375e-33 -1.541093650004498e-32 -1.849312380005397e-32
-8.688764194394593e-01 -8.688764194394591e-01 -8.688764194394591e-01 -8.883494482973464e-34 6.358478120852059e-34 -6.934921425020224e-33
-8.688764197398172e-01 -8.688764197398172e-01 -8.688764197398172e-01 9.732624237938836e-33 3.082187300008989e-33 -2.504277181257307e-32
-8.688764191745124e-01 -8.688764191745124e-01 -8.688764191745126e-01 -1.129201812541916e-32 8.600978506705905e-33 3.159241982509218e-32
-8.688764193775632e-01 -8.688764193775632e-01 -8.688764193775630e-01 1.780968772487878e-32 -2.051580921568486e-32 -1.695203015004946e-32
-8.688764187881176e-01 -8.688764187881177e-01 -8.688764187881176e-01 2.208591329371057e-32 3.467460712510123e-33 4.546226267513271e-32
-2.156367257164054e+00 -2.156367257164054e+00 -2.156367257164053e+00 -6.025968934742612e-32 1.444774879168243e-33 -8.013684663119903e-32
-2.156367257545325e+00 -2.156367257545325e+00 -2.156367257545325e+00 1.811961883024085e-32 -2.311639806669196e-33 -8.489365222709752e-33
-2.156367257347242e+00 -2.156367257347242e+00 -2.156367257347241e+00 5.058707805060199e-32 4.160951652004567e-32 -2.928077088447659e-32
-2.156367257537404e+00 -2.156367257537404e+00 -2.156367257537404e+00 -6.807172642072569e-33 6.472591458673769e-32 5.856154176895317e-32
-2.156367257458388e+00 -2.156367257458387e+00 -2.156367257458388e+00 -9.582257008428532e-32 -1.194347233445755e-32 3.082186408892259e-33
-2.156367257557635e+00 -2.156367257557634e+00 -2.156367257557634e+00 -1.864143265133693e-32 1.541093204446125e-33 -8.014700523580838e-33
-2.156367257602034e+00 -2.156367257602033e+00 -2.156367257602033e+00 5.415325094467728e-32 -6.780810099562999e-32 -7.837444922048839e-32
-2.156367257163743e+00 -2.156367257163743e+00 -2.156367257163743e+00 -3.906644084591459e-32 -1.232874563556907e-32 9.246559226676834e-33
-2.156367257361665e+00 -2.156367257361664e+00 -2.156367257361664e+00 1.156607467797303e-31 5.085607574672250e-32 -1.017121514934450e-31
-2.156367256522404e+00 -2.156367256522404e+00 -2.156367256522404e+00 1.320079651592352e-31 3.147851757621577e-32 -2.653319155092275e-33
-2.645420203719019e+00 -2.645420203719019e+00 -2.645420203719019e+00 -1.220363185327352e-32 -1.792130184211213e-33 -4.777389277355942e-32
-2.645420203879119e+00 -2.645420203879119e+00 -2.645420203879119e+00 -5.737074392199809e-32 -4.623279945828330e-32 2.971808425810161e-32
-2.645420204162269e+00 -2.645420204162269e+00 -2.645420204162269e+00 7.205070814775848e-32 9.246559891656668e-33 5.393826603466382e-32
-2.645420204140585e+00 -2.645420204140585e+00 -2.645420204140585e+00 -3.260646858252464e-32 -6.438428267468041e-33 3.390405293607440e-32
-2.645420203998903e+00 -2.645420203998903e+00 -2.645420203998903e+00 2.475256246663506e-32 3.698623956662665e-32 1.849311978331332e-32
-2.645420204104779e+00 -2.645420204104779e+00 -2.645420204104779e+00 -2.687928278499925e-32 3.349511639704016e-32 -1.541093315276104e-32
-2.645420203763240e+00 -2.645420203763240e+00 -2.645420203763241e+00 1.517869549736977e-33 -5.547935934993996e-32 -4.359952814953599e-32
-2.645420203771256e+00 -2.645420203771256e+00 -2.645420203771256e+00 -2.032836079387477e-32 9.246559891656651e-33 -3.698623956662663e-32
-2.645420203720529e+00 -2.645420203720529e+00 -2.645420203720529e+00 -1.133354694612911e-31 -6.164373261104440e-32 6.703755921451079e-32
-2.645420203286787e+00 -2.645420203286788e+00 -2.645420203286787e+00 -9.156870576198313e-32 -6.712483284997719e-33 1.240580118797268e-31
-2.227668952567732e+00 -2.227668952567732e+00 -2.227668952567732e+00 1.892836677763720e-32 4.006844508381697e-32 -4.931500933392860e-32
-2.227668952699712e+00 -2.227668952699712e+00 -2.227668952699712e+00 -8.085747799701509e-32 2.581937216509857e-33 -2.151112584301918e-32
-2.227668952693685e+00 -2.227668952693685e+00 -2.227668952693685e+00 6.161528216073433e-32 4.777391529224330e-32 -1.232875233348213e-32
-2.227668953088421e+00 -2.227668953088420e+00 -2.227668953088420e+00 3.231746260893622e-32 1.451196028751923e-32 -6.780813783415181e-32
-2.227668952812321e+00 -2.227668952812321e+00 -2.227668952812321e+00 -4.324889410057263e-32 -4.777391529224333e-32 -1.029117170205222e-32
-2.227668953136606e+00 -2.227668953136606e+00 -2.227668953136606e+00 2.500087906184686e-32 5.008555635477123e-32 4.562841825829040e-33
-2.227668953181162e+00 -2.227668953181161e+00 -2.227668953181162e+00 1.471954040569486e-32 8.605950514435144e-32 3.698625700044642e-32
-2.227668953221698e+00 -2.227668953221698e+00 -2.227668953221698e+00 -5.423005709261340e-32 1.386984637516742e-32 -4.307004610370584e-32
-2.227668953665824e+00 -2.227668953665824e+00 -2.227668953665824e+00 1.039034473226150e-31 1.541846207266860e-32 -2.542805168780693e-32
-2.227668953511115e+00 -2.227668953511115e+00 -2.227668953511115e+00 4.446803743085124e-32 4.809259412210266e-34 -7.705470208426396e-33
-9.281779311367959e-01 -9.281779311367960e-01 -9.281779311367959e-01 -3.433297749562935e-32 1.772259664374039e-32 9.246572161951503e-33
-9.281779314349141e-01 -9.281779314349141e-01 -9.281779314349141e-01 -2.918652850705121e-33 -7.705476801626231e-34 5.721027117109388e-33
-9.281779307162932e-01 -9.281779307162932e-01 -9.281779307162932e-01 4.487533163141613e-33 6.164381441300994e-33 -8.090750641707562e-33
-9.281779314813872e-01 -9.281779314813872e-01 -9.281779314813872e-01 1.026298156953988e-32 3.390409792715548e-32 -1.741196790479315e-32
-9.281779309374527e-01 -9.281779309374527e-01 -9.281779309374526e-01 7.128479560563523e-32 1.117294136235806e-32 1.926369200406563e-32
-9.281779315659805e-01 -9.281779315659804e-01 -9.281779315659804e-01 -1.039934784093978e-32 4.445990928302613e-32 -2.003423968422826e-32
-9.281779319867712e-01 -9.281779319867712e-01 -9.281779319867712e-01 5.165191705768759e-33 2.119006120447220e-32 -1.155821520243937e-33
-9.281779319100052e-01 -9.281779319100051e-01 -9.281779319100051e-01 3.392062854044915e-32 -2.542807344536663e-32 1.772259664374038e-32
-9.281779327313682e-01 -9.281779327313681e-01 -9.281779327313681e-01 6.288822078270926e-32 3.677881247311812e-33 -3.467464560731812e-32
-9.281779326097160e-01 -9.281779326097158e-01 -9.281779326097159e-01 -1.418496131197677e-32 3.092183297799538e-33 -4.623286080975750e-32
        </DataArray>
        <DataArray type="Float64" Name="element_cauchy_stresses_xyz" NumberOfComponents="6" format="ascii">
-6.110935005486240e+02 -2.619566503228945e+02 -2.619566503228071e+02 3.995030739197641e-12 1.901955388992727e-11 1.117653098023292e-10
-6.110935005488276e+02 -2.619566503228218e+02 -2.619566503230691e+02 6.674042546598035e-11 -2.802881625884023e-11 1.828355781251921e-10
-6.110935005490609e+02 -2.619566503236950e+02 -2.619566503237095e+02 -5.371455341850054e-11 -6.106277827818762e-11 3.034433488808895e-11
-6.110935005483331e+02 -2.619566503227343e+02 -2.619566503225597e+02 3.304070070567676e-11 1.214582037883076e-10 2.308728629337836e-10
-6.110935005487844e+02 -2.619566503234475e+02 -2.619566503237823e+02 -1.281420287874197e-10 2.168896496219780e-11 3.202787506672015e-10
-6.110935005491189e+02 -2.619566503234767e+02 -2.619566503233457e+02 1.901826672512280e-11 -1.334705536135247e-12 6.538997108988444e-11
-6.110935005482897e+02 -2.619566503229381e+02 -2.619566503233019e+02 1.121004247823210e-10 -2.602675795463734e-10 -5.539103690538018e-11
-6.110935005480422e+02 -2.619566503226470e+02 -2.619566503227925e+02 1.614690836416715e-10 -1.107805594992256e-10 2.670622521498246e-12
-6.110935005479697e+02 -2.619566503229526e+02 -2.619566503230836e+02 -1.324408217699447e-12 7.607821555970909e-11 -3.356377073577321e-10
-6.110935005484060e+02 -2.619566503231418e+02 -2.619566503231709e+02 8.274780603039523e-11 1.801852473782584e-10 1.068197522007117e-10
-6.103148401395982e+02 -2.616227873599678e+02 -2.616227873599678e+02 3.199904624699415e-11 1.935322467858826e-11 -8.843850821469952e-11
-6.103148401386965e+02 -2.616227873593856e+02 -2.616227873596475e+02 6.638343263966224e-11 7.073937296311568e-11 1.814960047965422e-10
-6.103148401401219e+02 -2.616227873601572e+02 -2.616227873603900e+02 3.556713971868067e-10 -2.469204527957810e-11 3.870796173927228e-11
-6.103148401399180e+02 -2.616227873599825e+02 -2.616227873600698e+02 1.254380103906248e-10 9.943553369343615e-11 -1.774918893457999e-10
-6.103148401393364e+02 -2.616227873600697e+02 -2.616227873597642e+02 6.235753888674092e-11 -5.038511942184183e-11 6.342087789177187e-11
-6.103148401393072e+02 -2.616227873600114e+02 -2.616227873597641e+02 1.271071480194820e-10 1.801851952834078e-10 -6.668383652111773e-12
-6.103148401400347e+02 -2.616227873603900e+02 -2.616227873603755e+02 -4.669290195648233e-11 -1.428134510764789e-10 -1.074425546892444e-10
-6.103148401399330e+02 -2.616227873605646e+02 -2.616227873606373e+02 -2.334372869046881e-11 4.004115450742395e-11 1.534971418068415e-11
-6.103148401408491e+02 -2.616227873606957e+02 -2.616227873608121e+02 5.577112634421951e-11 2.445847187828481e-10 -1.668611319887888e-10
-6.103148401398018e+02 -2.616227873600552e+02 -2.616227873600698e+02 4.909850802223959e-11 1.187887583720244e-10 3.783644095052051e-10
-6.105085272419882e+02 -2.617058337495596e+02 -2.617058337494868e+02 -1.036121228548560e-11 1.758474161914270e-10 -1.951749992503861e-10
-6.105085272424539e+02 -2.617058337500108e+02 -2.617058337499963e+02 -1.421418727103099e-10 -9.342936723643183e-11 -1.074262231223239e-10
-6.105085272419155e+02 -2.617058337493995e+02 -2.617058337495305e+02 1.815137863966946e-10 2.499235573574550e-10 7.910375184058562e-11
-6.105085272416682e+02 -2.617058337492976e+02 -2.617058337495013e+02 7.074558078477296e-11 2.088813710357367e-10 -8.278349536922871e-11
-6.105085272422212e+02 -2.617058337504183e+02 -2.617058337499235e+02 -5.237591009257413e-11 -2.642716387544786e-10 5.706916366765851e-11
-6.105085272418430e+02 -2.617058337497343e+02 -2.617058337501563e+02 -3.268658713136034e-11 2.015404921814457e-10 4.468085564618903e-11
-6.105085272421630e+02 -2.617058337501418e+02 -2.617058337504328e+02 -1.374039659070236e-12 1.061090670756619e-10 -1.402469254728331e-11
-6.105085272416686e+02 -2.617058337500981e+02 -2.617058337500399e+02 2.366772004537180e-11 1.081111249450140e-10 4.068975052096109e-11
-6.105085272423521e+02 -2.617058337500254e+02 -2.617058337503747e+02 4.197572356306652e-10 6.006173608056331e-11 3.601344100063674e-11
-6.105085272418283e+02 -2.617058337497488e+02 -2.617058337497779e+02 4.171023486137042e-10 -6.673526231173728e-12 -6.943281203800417e-11
-6.117780042566012e+02 -2.622501422714281e+02 -2.622501422713844e+02 9.352340375036373e-12 1.875261754882060e-10 2.482170894240214e-10
-6.117780042562665e+02 -2.622501422710059e+02 -2.622501422708314e+02 -1.134402969566336e-10 1.601647050433072e-11 6.939075824826780e-11
-6.117780042563246e+02 -2.622501422706276e+02 -2.622501422709187e+02 -1.211061386958969e-10 2.435838222533637e-10 1.751712774962897e-10
-6.117780042571829e+02 -2.622501422712827e+02 -2.622501422715010e+02 9.074787146323769e-11 -8.008235252165361e-12 -7.609066615840714e-11
-6.117780042567613e+02 -2.622501422713844e+02 -2.622501422713845e+02 1.524827936228174e-10 -7.941499958397341e-11 -1.633976232067999e-11
-6.117780042563247e+02 -2.622501422708751e+02 -2.622501422711079e+02 8.809938061826414e-11 1.875261754882061e-10 -2.549103269004437e-10
-6.117780042563248e+02 -2.622501422711661e+02 -2.622501422708897e+02 -3.296344510225686e-10 1.301338228476875e-10 -1.111144915249442e-10
-6.117780042566014e+02 -2.622501422716318e+02 -2.622501422715591e+02 -1.854928869173086e-10 2.015405871794955e-10 -2.162129525609553e-10
-6.117780042568485e+02 -2.622501422714282e+02 -2.622501422716174e+02 7.879888770529967e-11 5.472294088979679e-11 -9.142113683080352e-11
-6.117780042565429e+02 -2.622501422710789e+02 -2.622501422711661e+02 -7.869034155663454e-11 5.472294088979677e-11 -2.736113692321255e-10
-6.140824681847304e+02 -2.632382192533162e+02 -2.632382192531270e+02 -9.878505818461827e-11 2.228960719065450e-10 -3.934966169912790e-11
-6.140824681838718e+02 -2.632382192523118e+02 -2.632382192520500e+02 1.601654507756875e-10 2.269001929587586e-11 1.508349797404785e-10
-6.140824681847154e+02 -2.632382192525012e+02 -2.632382192526031e+02 9.441872816778991e-11 7.674565350075653e-12 -1.104157343877700e-10
-6.140824681839301e+02 -2.632382192524429e+02 -2.632382192523992e+02 2.133887772535939e-11 -2.142204762934159e-10 -1.988838236798866e-10
-6.140824681844974e+02 -2.632382192529523e+02 -2.632382192527486e+02 1.495218811169805e-10 1.938661942779979e-10 2.055308808757843e-10
-6.140824681849774e+02 -2.632382192525741e+02 -2.632382192531560e+02 -2.315118003173786e-12 2.882967157593637e-10 -3.605687180237004e-11
-6.140824681849048e+02 -2.632382192530542e+02 -2.632382192532434e+02 -1.014556895937318e-10 6.606799736152085e-11 1.181037669410902e-10
-6.140824681847155e+02 -2.632382192528358e+02 -2.632382192524431e+02 2.682849364620049e-10 -1.414789438448728e-10 -7.077508012084577e-11
-6.140824681855736e+02 -2.632382192525305e+02 -2.632382192530397e+02 2.001947918983517e-10 9.609890525312117e-11 -6.608397539926856e-11
-6.140824681840755e+02 -2.632382192523120e+02 -2.632382192525884e+02 -1.361315941551229e-10 -5.872710876579627e-11 -3.590647959779578e-10
        </DataArray>
      </CellData>

    </Piece>
  </UnstructuredGrid>
</VTKFile>
