<?xml version="1.0" ?> 
<!-- 
# vtk DataFile Version 3.0
-->
<VTKFile type="UnstructuredGrid" version="0.1" compressor="vtkZLibDataCompressor" byte_order="LittleEndian">
  <UnstructuredGrid>
    <FieldData>
      <DataArray type="Float64" Name="TIME" NumberOfTuples="1" format="ascii">
3.000000000000000e-01 
      </DataArray>
    </FieldData>

    <Piece NumberOfPoints="16" NumberOfCells="4" >
      <Points>
        <DataArray type="Float64" NumberOfComponents="3" format="ascii">
7.500000000000000e-01 2.500000000000000e-01 0.000000000000000e+00
7.500000000000000e-01 0.000000000000000e+00 0.000000000000000e+00
1.000000000000000e+00 0.000000000000000e+00 0.000000000000000e+00
1.000000000000000e+00 2.500000000000000e-01 0.000000000000000e+00
0.000000000000000e+00 2.500000000000000e-01 0.000000000000000e+00
0.000000000000000e+00 0.000000000000000e+00 0.000000000000000e+00
2.500000000000000e-01 0.000000000000000e+00 0.000000000000000e+00
2.500000000000000e-01 2.500000000000000e-01 0.000000000000000e+00
7.500000000000000e-01 1.000000000000000e+00 0.000000000000000e+00
7.500000000000000e-01 7.500000000000000e-01 0.000000000000000e+00
1.000000000000000e+00 7.500000000000000e-01 0.000000000000000e+00
1.000000000000000e+00 1.000000000000000e+00 0.000000000000000e+00
5.000000000000000e-01 1.000000000000000e+00 0.000000000000000e+00
5.000000000000000e-01 7.500000000000000e-01 0.000000000000000e+00
7.500000000000000e-01 7.500000000000000e-01 0.000000000000000e+00
7.500000000000000e-01 1.000000000000000e+00 0.000000000000000e+00
        </DataArray>
      </Points>

      <Cells>
        <DataArray type="Int32" Name="connectivity" format="ascii">
0 1 2 3 4 5 6 7 8 9 10 11 12 13 14 15 
        </DataArray>
        <DataArray type="Int32" Name="offsets" format="ascii">
4 8 12 16 
        </DataArray>
        <DataArray type="UInt8" Name="types" format="ascii">
9 9 9 9 
        </DataArray>
      </Cells>

  <PointData>
        <DataArray type="Float64" Name="displacement" NumberOfComponents="2" format="ascii">
-2.562701590634101e-04 -2.287331369512213e-03
0.000000000000000e+00 0.000000000000000e+00
0.000000000000000e+00 0.000000000000000e+00
9.157151973066848e-05 8.218778813685949e-06
-2.928344583392759e-04 -4.003826196439865e-03
0.000000000000000e+00 0.000000000000000e+00
0.000000000000000e+00 0.000000000000000e+00
-2.738887284802555e-04 -1.644040807614817e-03
5.000000000000000e-02 5.000000000000000e-02
2.732726536508909e-02 4.286778105115624e-02
2.632623257451347e-02 2.134424140597982e-02
5.000000000000000e-02 5.000000000000000e-02
5.000000000000000e-02 5.000000000000000e-02
2.760053530791846e-02 4.153973344428556e-02
2.732726536508909e-02 4.286778105115624e-02
5.000000000000000e-02 5.000000000000000e-02
        </DataArray>
        <DataArray type="Float64" Name="nodal_cauchy_stresses_xyz" NumberOfComponents="6" format="ascii">
1.037010410038391e-03 1.295229779037139e-02 0.000000000000000e+00 -1.902234483657870e-04 0.000000000000000e+00 0.000000000000000e+00
-3.070213731673984e-06 -9.041437141288600e-03 0.000000000000000e+00 -5.052214283944730e-04 0.000000000000000e+00 0.000000000000000e+00
-7.708989810235010e-06 -2.284344523982443e-06 0.000000000000000e+00 1.788326431989946e-04 0.000000000000000e+00 0.000000000000000e+00
1.421313129386376e-03 -1.835586062173382e-03 0.000000000000000e+00 5.929071619809765e-04 0.000000000000000e+00 0.000000000000000e+00
4.330062290510927e-05 2.924389513835865e-02 0.000000000000000e+00 1.705022668372123e-03 0.000000000000000e+00 0.000000000000000e+00
-6.176095274075026e-06 -1.566854887374554e-02 0.000000000000000e+00 -5.673447746637825e-04 0.000000000000000e+00 0.000000000000000e+00
-2.710545502972237e-06 -6.529675752459803e-03 0.000000000000000e+00 -5.408922775742972e-04 0.000000000000000e+00 0.000000000000000e+00
-2.937399221764317e-04 1.022781614340106e-02 0.000000000000000e+00 -1.806039336451836e-04 0.000000000000000e+00 0.000000000000000e+00
7.949943202976224e-03 3.236464404428645e-02 0.000000000000000e+00 4.822606770880385e-02 0.000000000000000e+00 0.000000000000000e+00
6.070711096182436e-03 1.100331837692230e-01 0.000000000000000e+00 4.110537736208895e-02 0.000000000000000e+00 0.000000000000000e+00
1.914343268489975e-03 1.203048526215274e-01 0.000000000000000e+00 1.809488016051532e-02 0.000000000000000e+00 0.000000000000000e+00
8.483128430299266e-03 1.366805086108770e-01 0.000000000000000e+00 5.900687860072467e-02 0.000000000000000e+00 0.000000000000000e+00
8.059415733229732e-03 3.971583972492378e-02 0.000000000000000e+00 4.824460294373156e-02 0.000000000000000e+00 0.000000000000000e+00
9.297742665645157e-03 1.121114007287181e-01 0.000000000000000e+00 6.438025167547597e-02 0.000000000000000e+00 0.000000000000000e+00
6.070711096182436e-03 1.100331837692230e-01 0.000000000000000e+00 4.110537736208895e-02 0.000000000000000e+00 0.000000000000000e+00
7.949943202976224e-03 3.236464404428645e-02 0.000000000000000e+00 4.822606770880385e-02 0.000000000000000e+00 0.000000000000000e+00
        </DataArray>
  </PointData>
  <CellData>
        <DataArray type="Float64" Name="element_cauchy_stresses_xyz" NumberOfComponents="6" format="ascii">
7.127342330106238e-04 -4.486865766454897e-03 0.000000000000000e+00 2.127197670261071e-03 0.000000000000000e+00 0.000000000000000e+00
4.928331557994685e-05 -1.106892204121061e-02 0.000000000000000e+00 1.779489439288514e-03 0.000000000000000e+00 0.000000000000000e+00
3.924529648133427e-03 8.356718513366176e-02 0.000000000000000e+00 3.042437562794880e-02 0.000000000000000e+00 0.000000000000000e+00
7.874181293300494e-03 3.713018055685286e-02 0.000000000000000e+00 4.966032792632783e-02 0.000000000000000e+00 0.000000000000000e+00
        </DataArray>
      </CellData>

    </Piece>
  </UnstructuredGrid>
</VTKFile>
