<?xml version="1.0" ?> 
<!-- 
# vtk DataFile Version 3.0
-->
<VTKFile type="UnstructuredGrid" version="0.1" compressor="vtkZLibDataCompressor" byte_order="LittleEndian">
  <UnstructuredGrid>
    <FieldData>
      <DataArray type="Float64" Name="TIME" NumberOfTuples="1" format="ascii">
3.000000000000000e-01 
      </DataArray>
    </FieldData>

    <Piece NumberOfPoints="64" NumberOfCells="16" >
      <Points>
        <DataArray type="Float64" NumberOfComponents="3" format="ascii">
7.500000000000000e-01 2.500000000000000e-01 0.000000000000000e+00
7.500000000000000e-01 0.000000000000000e+00 0.000000000000000e+00
1.000000000000000e+00 0.000000000000000e+00 0.000000000000000e+00
1.000000000000000e+00 2.500000000000000e-01 0.000000000000000e+00
5.000000000000000e-01 2.500000000000000e-01 0.000000000000000e+00
5.000000000000000e-01 0.000000000000000e+00 0.000000000000000e+00
7.500000000000000e-01 0.000000000000000e+00 0.000000000000000e+00
7.500000000000000e-01 2.500000000000000e-01 0.000000000000000e+00
2.500000000000000e-01 2.500000000000000e-01 0.000000000000000e+00
2.500000000000000e-01 0.000000000000000e+00 0.000000000000000e+00
5.000000000000000e-01 0.000000000000000e+00 0.000000000000000e+00
5.000000000000000e-01 2.500000000000000e-01 0.000000000000000e+00
0.000000000000000e+00 2.500000000000000e-01 0.000000000000000e+00
0.000000000000000e+00 0.000000000000000e+00 0.000000000000000e+00
2.500000000000000e-01 0.000000000000000e+00 0.000000000000000e+00
2.500000000000000e-01 2.500000000000000e-01 0.000000000000000e+00
7.500000000000000e-01 5.000000000000000e-01 0.000000000000000e+00
7.500000000000000e-01 2.500000000000000e-01 0.000000000000000e+00
1.000000000000000e+00 2.500000000000000e-01 0.000000000000000e+00
1.000000000000000e+00 5.000000000000000e-01 0.000000000000000e+00
5.000000000000000e-01 5.000000000000000e-01 0.000000000000000e+00
5.000000000000000e-01 2.500000000000000e-01 0.000000000000000e+00
7.500000000000000e-01 2.500000000000000e-01 0.000000000000000e+00
7.500000000000000e-01 5.000000000000000e-01 0.000000000000000e+00
2.500000000000000e-01 5.000000000000000e-01 0.000000000000000e+00
2.500000000000000e-01 2.500000000000000e-01 0.000000000000000e+00
5.000000000000000e-01 2.500000000000000e-01 0.000000000000000e+00
5.000000000000000e-01 5.000000000000000e-01 0.000000000000000e+00
0.000000000000000e+00 5.000000000000000e-01 0.000000000000000e+00
0.000000000000000e+00 2.500000000000000e-01 0.000000000000000e+00
2.500000000000000e-01 2.500000000000000e-01 0.000000000000000e+00
2.500000000000000e-01 5.000000000000000e-01 0.000000000000000e+00
7.500000000000000e-01 7.500000000000000e-01 0.000000000000000e+00
7.500000000000000e-01 5.000000000000000e-01 0.000000000000000e+00
1.000000000000000e+00 5.000000000000000e-01 0.000000000000000e+00
1.000000000000000e+00 7.500000000000000e-01 0.000000000000000e+00
5.000000000000000e-01 7.500000000000000e-01 0.000000000000000e+00
5.000000000000000e-01 5.000000000000000e-01 0.000000000000000e+00
7.500000000000000e-01 5.000000000000000e-01 0.000000000000000e+00
7.500000000000000e-01 7.500000000000000e-01 0.000000000000000e+00
2.500000000000000e-01 7.500000000000000e-01 0.000000000000000e+00
2.500000000000000e-01 5.000000000000000e-01 0.000000000000000e+00
5.000000000000000e-01 5.000000000000000e-01 0.000000000000000e+00
5.000000000000000e-01 7.500000000000000e-01 0.000000000000000e+00
0.000000000000000e+00 7.500000000000000e-01 0.000000000000000e+00
0.000000000000000e+00 5.000000000000000e-01 0.000000000000000e+00
2.500000000000000e-01 5.000000000000000e-01 0.000000000000000e+00
2.500000000000000e-01 7.500000000000000e-01 0.000000000000000e+00
7.500000000000000e-01 1.000000000000000e+00 0.000000000000000e+00
7.500000000000000e-01 7.500000000000000e-01 0.000000000000000e+00
1.000000000000000e+00 7.500000000000000e-01 0.000000000000000e+00
1.000000000000000e+00 1.000000000000000e+00 0.000000000000000e+00
5.000000000000000e-01 1.000000000000000e+00 0.000000000000000e+00
5.000000000000000e-01 7.500000000000000e-01 0.000000000000000e+00
7.500000000000000e-01 7.500000000000000e-01 0.000000000000000e+00
7.500000000000000e-01 1.000000000000000e+00 0.000000000000000e+00
2.500000000000000e-01 1.000000000000000e+00 0.000000000000000e+00
2.500000000000000e-01 7.500000000000000e-01 0.000000000000000e+00
5.000000000000000e-01 7.500000000000000e-01 0.000000000000000e+00
5.000000000000000e-01 1.000000000000000e+00 0.000000000000000e+00
0.000000000000000e+00 1.000000000000000e+00 0.000000000000000e+00
0.000000000000000e+00 7.500000000000000e-01 0.000000000000000e+00
2.500000000000000e-01 7.500000000000000e-01 0.000000000000000e+00
2.500000000000000e-01 1.000000000000000e+00 0.000000000000000e+00
        </DataArray>
      </Points>

      <Cells>
        <DataArray type="Int32" Name="connectivity" format="ascii">
0 1 2 3 4 5 6 7 8 9 10 11 12 13 14 15 16 17 18 19 20 21 22 23 24 25 26 27 28 29 30 31 32 33 34 35 36 37 38 39 40 41 42 43 44 45 46 47 48 49 50 51 52 53 54 55 56 57 58 59 60 61 62 63 
        </DataArray>
        <DataArray type="Int32" Name="offsets" format="ascii">
4 8 12 16 20 24 28 32 36 40 44 48 52 56 60 64 
        </DataArray>
        <DataArray type="UInt8" Name="types" format="ascii">
9 9 9 9 9 9 9 9 9 9 9 9 9 9 9 9 
        </DataArray>
      </Cells>

  <PointData>
        <DataArray type="Float64" Name="displacement" NumberOfComponents="2" format="ascii">
-2.562701590634105e-04 -2.287331369512210e-03
0.000000000000000e+00 0.000000000000000e+00
0.000000000000000e+00 0.000000000000000e+00
9.157151973066879e-05 8.218778813685419e-06
-4.369288224987478e-04 -1.997201087269842e-03
0.000000000000000e+00 0.000000000000000e+00
0.000000000000000e+00 0.000000000000000e+00
-2.562701590634105e-04 -2.287331369512210e-03
-2.738887284802560e-04 -1.644040807614812e-03
0.000000000000000e+00 0.000000000000000e+00
0.000000000000000e+00 0.000000000000000e+00
-4.369288224987478e-04 -1.997201087269842e-03
-2.928344583392763e-04 -4.003826196439874e-03
0.000000000000000e+00 0.000000000000000e+00
0.000000000000000e+00 0.000000000000000e+00
-2.738887284802560e-04 -1.644040807614812e-03
-2.078493076649258e-03 6.084736875657417e-03
-2.562701590634105e-04 -2.287331369512210e-03
9.157151973066879e-05 8.218778813685419e-06
-3.970255592102858e-03 -8.098676929467763e-04
-7.622728831335939e-04 5.729527414934026e-03
-4.369288224987478e-04 -1.997201087269842e-03
-2.562701590634105e-04 -2.287331369512210e-03
-2.078493076649258e-03 6.084736875657417e-03
-2.121906735361291e-03 4.913777722642713e-03
-2.738887284802560e-04 -1.644040807614812e-03
-4.369288224987478e-04 -1.997201087269842e-03
-7.622728831335939e-04 5.729527414934026e-03
-2.814676854396602e-03 1.293527954928484e-02
-2.928344583392763e-04 -4.003826196439874e-03
-2.738887284802560e-04 -1.644040807614812e-03
-2.121906735361291e-03 4.913777722642713e-03
2.732726536508907e-02 4.286778105115623e-02
-2.078493076649258e-03 6.084736875657417e-03
-3.970255592102858e-03 -8.098676929467763e-04
2.632623257451347e-02 2.134424140597982e-02
2.760053530791846e-02 4.153973344428555e-02
-7.622728831335939e-04 5.729527414934026e-03
-2.078493076649258e-03 6.084736875657417e-03
2.732726536508907e-02 4.286778105115623e-02
2.830008535013879e-02 4.024739972327939e-02
-2.121906735361291e-03 4.913777722642713e-03
-7.622728831335939e-04 5.729527414934026e-03
2.760053530791846e-02 4.153973344428555e-02
2.965926937014452e-02 6.136447240678748e-02
-2.814676854396602e-03 1.293527954928484e-02
-2.121906735361291e-03 4.913777722642713e-03
2.830008535013879e-02 4.024739972327939e-02
5.000000000000000e-02 5.000000000000000e-02
2.732726536508907e-02 4.286778105115623e-02
2.632623257451347e-02 2.134424140597982e-02
5.000000000000000e-02 5.000000000000000e-02
5.000000000000000e-02 5.000000000000000e-02
2.760053530791846e-02 4.153973344428555e-02
2.732726536508907e-02 4.286778105115623e-02
5.000000000000000e-02 5.000000000000000e-02
5.000000000000000e-02 5.000000000000000e-02
2.830008535013879e-02 4.024739972327939e-02
2.760053530791846e-02 4.153973344428555e-02
5.000000000000000e-02 5.000000000000000e-02
5.000000000000000e-02 5.000000000000000e-02
2.965926937014452e-02 6.136447240678748e-02
2.830008535013879e-02 4.024739972327939e-02
5.000000000000000e-02 5.000000000000000e-02
        </DataArray>
        <DataArray type="Float64" Name="nodal_cauchy_stresses_xyz" NumberOfComponents="6" format="ascii">
1.037010410038391e-03 1.295229779037139e-02 0.000000000000000e+00 -1.902234483657870e-04 0.000000000000000e+00 0.000000000000000e+00
-3.070213731673984e-06 -9.041437141288600e-03 0.000000000000000e+00 -5.052214283944730e-04 0.000000000000000e+00 0.000000000000000e+00
-7.708989810235010e-06 -2.284344523982443e-06 0.000000000000000e+00 1.788326431989946e-04 0.000000000000000e+00 0.000000000000000e+00
1.421313129386376e-03 -1.835586062173382e-03 0.000000000000000e+00 5.929071619809765e-04 0.000000000000000e+00 0.000000000000000e+00
3.250667133512705e-05 1.222995158652703e-02 0.000000000000000e+00 -1.427468141576901e-03 0.000000000000000e+00 0.000000000000000e+00
2.715889592175155e-06 -7.892542075508543e-03 0.000000000000000e+00 -8.599666534462715e-04 0.000000000000000e+00 0.000000000000000e+00
-3.070213731673984e-06 -9.041437141288600e-03 0.000000000000000e+00 -5.052214283944730e-04 0.000000000000000e+00 0.000000000000000e+00
1.037010410038391e-03 1.295229779037139e-02 0.000000000000000e+00 -1.902234483657870e-04 0.000000000000000e+00 0.000000000000000e+00
-2.937399221764320e-04 1.022781614340107e-02 0.000000000000000e+00 -1.806039336451559e-04 0.000000000000000e+00 0.000000000000000e+00
-2.710545502972234e-06 -6.529675752459784e-03 0.000000000000000e+00 -5.408922775742972e-04 0.000000000000000e+00 0.000000000000000e+00
2.715889592175155e-06 -7.892542075508543e-03 0.000000000000000e+00 -8.599666534462715e-04 0.000000000000000e+00 0.000000000000000e+00
3.250667133512705e-05 1.222995158652703e-02 0.000000000000000e+00 -1.427468141576901e-03 0.000000000000000e+00 0.000000000000000e+00
4.330062290510865e-05 2.924389513835857e-02 0.000000000000000e+00 1.705022668372184e-03 0.000000000000000e+00 0.000000000000000e+00
-6.176095274075037e-06 -1.566854887374569e-02 0.000000000000000e+00 -5.673447746637836e-04 0.000000000000000e+00 0.000000000000000e+00
-2.710545502972234e-06 -6.529675752459784e-03 0.000000000000000e+00 -5.408922775742972e-04 0.000000000000000e+00 0.000000000000000e+00
-2.937399221764320e-04 1.022781614340107e-02 0.000000000000000e+00 -1.806039336451559e-04 0.000000000000000e+00 0.000000000000000e+00
5.223402564328340e-04 1.119110691803957e-01 0.000000000000000e+00 2.990205820410929e-02 0.000000000000000e+00 0.000000000000000e+00
1.037010410038391e-03 1.295229779037139e-02 0.000000000000000e+00 -1.902234483657870e-04 0.000000000000000e+00 0.000000000000000e+00
1.421313129386376e-03 -1.835586062173382e-03 0.000000000000000e+00 5.929071619809765e-04 0.000000000000000e+00 0.000000000000000e+00
-9.827623807783428e-04 5.131501801677500e-02 0.000000000000000e+00 1.775615478884932e-02 0.000000000000000e+00 0.000000000000000e+00
6.769810228760682e-03 1.077434768614103e-01 0.000000000000000e+00 3.838276355375993e-02 0.000000000000000e+00 0.000000000000000e+00
3.250667133512705e-05 1.222995158652703e-02 0.000000000000000e+00 -1.427468141576901e-03 0.000000000000000e+00 0.000000000000000e+00
1.037010410038391e-03 1.295229779037139e-02 0.000000000000000e+00 -1.902234483657870e-04 0.000000000000000e+00 0.000000000000000e+00
5.223402564328340e-04 1.119110691803957e-01 0.000000000000000e+00 2.990205820410929e-02 0.000000000000000e+00 0.000000000000000e+00
1.069171586781964e-02 1.028861670954012e-01 0.000000000000000e+00 3.024287498159915e-02 0.000000000000000e+00 0.000000000000000e+00
-2.937399221764320e-04 1.022781614340107e-02 0.000000000000000e+00 -1.806039336451559e-04 0.000000000000000e+00 0.000000000000000e+00
3.250667133512705e-05 1.222995158652703e-02 0.000000000000000e+00 -1.427468141576901e-03 0.000000000000000e+00 0.000000000000000e+00
6.769810228760682e-03 1.077434768614103e-01 0.000000000000000e+00 3.838276355375993e-02 0.000000000000000e+00 0.000000000000000e+00
9.487948898752811e-03 1.665525942589327e-01 0.000000000000000e+00 2.546253250156540e-02 0.000000000000000e+00 0.000000000000000e+00
4.330062290510865e-05 2.924389513835857e-02 0.000000000000000e+00 1.705022668372184e-03 0.000000000000000e+00 0.000000000000000e+00
-2.937399221764320e-04 1.022781614340107e-02 0.000000000000000e+00 -1.806039336451559e-04 0.000000000000000e+00 0.000000000000000e+00
1.069171586781964e-02 1.028861670954012e-01 0.000000000000000e+00 3.024287498159915e-02 0.000000000000000e+00 0.000000000000000e+00
6.070711096182436e-03 1.100331837692230e-01 0.000000000000000e+00 4.110537736208895e-02 0.000000000000000e+00 0.000000000000000e+00
5.223402564328340e-04 1.119110691803957e-01 0.000000000000000e+00 2.990205820410929e-02 0.000000000000000e+00 0.000000000000000e+00
-9.827623807783428e-04 5.131501801677500e-02 0.000000000000000e+00 1.775615478884932e-02 0.000000000000000e+00 0.000000000000000e+00
1.914343268489975e-03 1.203048526215274e-01 0.000000000000000e+00 1.809488016051532e-02 0.000000000000000e+00 0.000000000000000e+00
9.297742665645157e-03 1.121114007287181e-01 0.000000000000000e+00 6.438025167547597e-02 0.000000000000000e+00 0.000000000000000e+00
6.769810228760682e-03 1.077434768614103e-01 0.000000000000000e+00 3.838276355375993e-02 0.000000000000000e+00 0.000000000000000e+00
5.223402564328340e-04 1.119110691803957e-01 0.000000000000000e+00 2.990205820410929e-02 0.000000000000000e+00 0.000000000000000e+00
6.070711096182436e-03 1.100331837692230e-01 0.000000000000000e+00 4.110537736208895e-02 0.000000000000000e+00 0.000000000000000e+00
4.793098653722935e-03 1.118972750886937e-01 0.000000000000000e+00 4.178405367729270e-02 0.000000000000000e+00 0.000000000000000e+00
1.069171586781964e-02 1.028861670954012e-01 0.000000000000000e+00 3.024287498159915e-02 0.000000000000000e+00 0.000000000000000e+00
6.769810228760682e-03 1.077434768614103e-01 0.000000000000000e+00 3.838276355375993e-02 0.000000000000000e+00 0.000000000000000e+00
9.297742665645157e-03 1.121114007287181e-01 0.000000000000000e+00 6.438025167547597e-02 0.000000000000000e+00 0.000000000000000e+00
7.988174107851687e-04 1.084231108921140e-01 0.000000000000000e+00 1.960657893432169e-02 0.000000000000000e+00 0.000000000000000e+00
9.487948898752811e-03 1.665525942589327e-01 0.000000000000000e+00 2.546253250156540e-02 0.000000000000000e+00 0.000000000000000e+00
1.069171586781964e-02 1.028861670954012e-01 0.000000000000000e+00 3.024287498159915e-02 0.000000000000000e+00 0.000000000000000e+00
4.793098653722935e-03 1.118972750886937e-01 0.000000000000000e+00 4.178405367729270e-02 0.000000000000000e+00 0.000000000000000e+00
7.949943202976224e-03 3.236464404428645e-02 0.000000000000000e+00 4.822606770880385e-02 0.000000000000000e+00 0.000000000000000e+00
6.070711096182436e-03 1.100331837692230e-01 0.000000000000000e+00 4.110537736208895e-02 0.000000000000000e+00 0.000000000000000e+00
1.914343268489975e-03 1.203048526215274e-01 0.000000000000000e+00 1.809488016051532e-02 0.000000000000000e+00 0.000000000000000e+00
8.483128430299266e-03 1.366805086108770e-01 0.000000000000000e+00 5.900687860072467e-02 0.000000000000000e+00 0.000000000000000e+00
8.059415733229732e-03 3.971583972492378e-02 0.000000000000000e+00 4.824460294373156e-02 0.000000000000000e+00 0.000000000000000e+00
9.297742665645157e-03 1.121114007287181e-01 0.000000000000000e+00 6.438025167547597e-02 0.000000000000000e+00 0.000000000000000e+00
6.070711096182436e-03 1.100331837692230e-01 0.000000000000000e+00 4.110537736208895e-02 0.000000000000000e+00 0.000000000000000e+00
7.949943202976224e-03 3.236464404428645e-02 0.000000000000000e+00 4.822606770880385e-02 0.000000000000000e+00 0.000000000000000e+00
7.266635273834657e-03 4.370505518159652e-02 0.000000000000000e+00 4.705238692509525e-02 0.000000000000000e+00 0.000000000000000e+00
4.793098653722935e-03 1.118972750886937e-01 0.000000000000000e+00 4.178405367729270e-02 0.000000000000000e+00 0.000000000000000e+00
9.297742665645157e-03 1.121114007287181e-01 0.000000000000000e+00 6.438025167547597e-02 0.000000000000000e+00 0.000000000000000e+00
8.059415733229732e-03 3.971583972492378e-02 0.000000000000000e+00 4.824460294373156e-02 0.000000000000000e+00 0.000000000000000e+00
6.003891327829627e-03 -4.214563722145464e-02 0.000000000000000e+00 3.708662368823566e-02 0.000000000000000e+00 0.000000000000000e+00
7.988174107851687e-04 1.084231108921140e-01 0.000000000000000e+00 1.960657893432169e-02 0.000000000000000e+00 0.000000000000000e+00
4.793098653722935e-03 1.118972750886937e-01 0.000000000000000e+00 4.178405367729270e-02 0.000000000000000e+00 0.000000000000000e+00
7.266635273834657e-03 4.370505518159652e-02 0.000000000000000e+00 4.705238692509525e-02 0.000000000000000e+00 0.000000000000000e+00
        </DataArray>
  </PointData>
  <CellData>
        <DataArray type="Float64" Name="element_cauchy_stresses_xyz" NumberOfComponents="6" format="ascii">
7.127342330106238e-04 -4.486865766454897e-03 0.000000000000000e+00 2.127197670261071e-03 0.000000000000000e+00 0.000000000000000e+00
3.677014973122608e-04 -8.453797484273192e-03 0.000000000000000e+00 -9.696233813868550e-04 0.000000000000000e+00 0.000000000000000e+00
-3.248637285063167e-04 -7.202549051567943e-03 0.000000000000000e+00 -1.050474340574201e-03 0.000000000000000e+00 0.000000000000000e+00
4.928331557994679e-05 -1.106892204121066e-02 0.000000000000000e+00 1.779489439288541e-03 0.000000000000000e+00 0.000000000000000e+00
-2.669248394742349e-03 1.605563466334988e-02 0.000000000000000e+00 -1.063847448566393e-02 0.000000000000000e+00 0.000000000000000e+00
-2.167333583247680e-03 3.385824903653865e-02 0.000000000000000e+00 -2.219277735367742e-03 0.000000000000000e+00 0.000000000000000e+00
2.358907681378497e-03 2.974666801379329e-02 0.000000000000000e+00 -1.821562653743048e-03 0.000000000000000e+00 0.000000000000000e+00
1.670053303246913e-03 5.094110981738440e-02 0.000000000000000e+00 -1.076495664130332e-02 0.000000000000000e+00 0.000000000000000e+00
3.998797185152680e-03 1.451147305785273e-01 0.000000000000000e+00 4.320958448542606e-02 0.000000000000000e+00 0.000000000000000e+00
1.115756275359968e-02 1.870424697415165e-01 0.000000000000000e+00 7.837659616078430e-02 0.000000000000000e+00 0.000000000000000e+00
1.572382878620237e-02 1.823514733763867e-01 0.000000000000000e+00 8.004186242132232e-02 0.000000000000000e+00 0.000000000000000e+00
9.147950436330248e-03 2.174579336807990e-01 0.000000000000000e+00 5.222978901399992e-02 0.000000000000000e+00 0.000000000000000e+00
3.924529648133427e-03 8.356718513366176e-02 0.000000000000000e+00 3.042437562794880e-02 0.000000000000000e+00 0.000000000000000e+00
7.874181293300494e-03 3.713018055685286e-02 0.000000000000000e+00 4.966032792632783e-02 0.000000000000000e+00 0.000000000000000e+00
6.691281002937450e-03 4.278121507105931e-02 0.000000000000000e+00 4.901171529837307e-02 0.000000000000000e+00 0.000000000000000e+00
2.002059311303314e-03 3.681688410890963e-05 0.000000000000000e+00 2.094628938132954e-02 0.000000000000000e+00 0.000000000000000e+00
        </DataArray>
      </CellData>

    </Piece>
  </UnstructuredGrid>
</VTKFile>
