<?xml version="1.0" ?> 
<!-- 
# vtk DataFile Version 3.0
-->
<VTKFile type="UnstructuredGrid" version="0.1" compressor="vtkZLibDataCompressor" byte_order="LittleEndian">
  <UnstructuredGrid>
    <FieldData>
      <DataArray type="Float64" Name="TIME" NumberOfTuples="1" format="ascii">
1.000000000000000e-01 
      </DataArray>
    </FieldData>

    <Piece NumberOfPoints="48" NumberOfCells="12" >
      <Points>
        <DataArray type="Float64" NumberOfComponents="3" format="ascii">
5.000000000000000e-01 2.500000000000000e-01 0.000000000000000e+00
5.000000000000000e-01 0.000000000000000e+00 0.000000000000000e+00
7.500000000000000e-01 0.000000000000000e+00 0.000000000000000e+00
7.500000000000000e-01 2.500000000000000e-01 0.000000000000000e+00
2.500000000000000e-01 2.500000000000000e-01 0.000000000000000e+00
2.500000000000000e-01 0.000000000000000e+00 0.000000000000000e+00
5.000000000000000e-01 0.000000000000000e+00 0.000000000000000e+00
5.000000000000000e-01 2.500000000000000e-01 0.000000000000000e+00
7.500000000000000e-01 5.000000000000000e-01 0.000000000000000e+00
7.500000000000000e-01 2.500000000000000e-01 0.000000000000000e+00
1.000000000000000e+00 2.500000000000000e-01 0.000000000000000e+00
1.000000000000000e+00 5.000000000000000e-01 0.000000000000000e+00
5.000000000000000e-01 5.000000000000000e-01 0.000000000000000e+00
5.000000000000000e-01 2.500000000000000e-01 0.000000000000000e+00
7.500000000000000e-01 2.500000000000000e-01 0.000000000000000e+00
7.500000000000000e-01 5.000000000000000e-01 0.000000000000000e+00
2.500000000000000e-01 5.000000000000000e-01 0.000000000000000e+00
2.500000000000000e-01 2.500000000000000e-01 0.000000000000000e+00
5.000000000000000e-01 2.500000000000000e-01 0.000000000000000e+00
5.000000000000000e-01 5.000000000000000e-01 0.000000000000000e+00
0.000000000000000e+00 5.000000000000000e-01 0.000000000000000e+00
0.000000000000000e+00 2.500000000000000e-01 0.000000000000000e+00
2.500000000000000e-01 2.500000000000000e-01 0.000000000000000e+00
2.500000000000000e-01 5.000000000000000e-01 0.000000000000000e+00
7.500000000000000e-01 7.500000000000000e-01 0.000000000000000e+00
7.500000000000000e-01 5.000000000000000e-01 0.000000000000000e+00
1.000000000000000e+00 5.000000000000000e-01 0.000000000000000e+00
1.000000000000000e+00 7.500000000000000e-01 0.000000000000000e+00
5.000000000000000e-01 7.500000000000000e-01 0.000000000000000e+00
5.000000000000000e-01 5.000000000000000e-01 0.000000000000000e+00
7.500000000000000e-01 5.000000000000000e-01 0.000000000000000e+00
7.500000000000000e-01 7.500000000000000e-01 0.000000000000000e+00
2.500000000000000e-01 7.500000000000000e-01 0.000000000000000e+00
2.500000000000000e-01 5.000000000000000e-01 0.000000000000000e+00
5.000000000000000e-01 5.000000000000000e-01 0.000000000000000e+00
5.000000000000000e-01 7.500000000000000e-01 0.000000000000000e+00
0.000000000000000e+00 7.500000000000000e-01 0.000000000000000e+00
0.000000000000000e+00 5.000000000000000e-01 0.000000000000000e+00
2.500000000000000e-01 5.000000000000000e-01 0.000000000000000e+00
2.500000000000000e-01 7.500000000000000e-01 0.000000000000000e+00
2.500000000000000e-01 1.000000000000000e+00 0.000000000000000e+00
2.500000000000000e-01 7.500000000000000e-01 0.000000000000000e+00
5.000000000000000e-01 7.500000000000000e-01 0.000000000000000e+00
5.000000000000000e-01 1.000000000000000e+00 0.000000000000000e+00
0.000000000000000e+00 1.000000000000000e+00 0.000000000000000e+00
0.000000000000000e+00 7.500000000000000e-01 0.000000000000000e+00
2.500000000000000e-01 7.500000000000000e-01 0.000000000000000e+00
2.500000000000000e-01 1.000000000000000e+00 0.000000000000000e+00
        </DataArray>
      </Points>

      <Cells>
        <DataArray type="Int32" Name="connectivity" format="ascii">
0 1 2 3 4 5 6 7 8 9 10 11 12 13 14 15 16 17 18 19 20 21 22 23 24 25 26 27 28 29 30 31 32 33 34 35 36 37 38 39 40 41 42 43 44 45 46 47 
        </DataArray>
        <DataArray type="Int32" Name="offsets" format="ascii">
4 8 12 16 20 24 28 32 36 40 44 48 
        </DataArray>
        <DataArray type="UInt8" Name="types" format="ascii">
9 9 9 9 9 9 9 9 9 9 9 9 
        </DataArray>
      </Cells>

  <PointData>
        <DataArray type="Float64" Name="displacement" NumberOfComponents="2" format="ascii">
1.755889154725783e-04 2.179960188951122e-04
0.000000000000000e+00 0.000000000000000e+00
0.000000000000000e+00 0.000000000000000e+00
2.058292735896462e-04 2.458540727946164e-04
1.942864853720384e-04 2.068826835002551e-04
0.000000000000000e+00 0.000000000000000e+00
0.000000000000000e+00 0.000000000000000e+00
1.755889154725783e-04 2.179960188951122e-04
-9.639220007731460e-04 -1.470336484174569e-03
2.058292735896462e-04 2.458540727946164e-04
1.935397072626022e-04 1.352186844130871e-04
-8.638464684379952e-04 -6.004435084522783e-04
-8.678768044312318e-04 -1.289549087569237e-03
1.755889154725783e-04 2.179960188951122e-04
2.058292735896462e-04 2.458540727946164e-04
-9.639220007731460e-04 -1.470336484174569e-03
-9.150284713761312e-04 -1.158405952685493e-03
1.942864853720384e-04 2.068826835002551e-04
1.755889154725783e-04 2.179960188951122e-04
-8.678768044312318e-04 -1.289549087569237e-03
-1.147997298790356e-03 -1.936572961278488e-03
2.534391294327476e-04 2.901274357817804e-04
1.942864853720384e-04 2.068826835002551e-04
-9.150284713761312e-04 -1.158405952685493e-03
4.309407181976890e-03 8.608135598910690e-03
-9.639220007731460e-04 -1.470336484174569e-03
-8.638464684379952e-04 -6.004435084522783e-04
3.510704881018884e-03 2.728831688363652e-03
4.207734713743972e-03 7.596891482612180e-03
-8.678768044312318e-04 -1.289549087569237e-03
-9.639220007731460e-04 -1.470336484174569e-03
4.309407181976890e-03 8.608135598910690e-03
4.102403420033563e-03 6.610440982698040e-03
-9.150284713761312e-04 -1.158405952685493e-03
-8.678768044312318e-04 -1.289549087569237e-03
4.207734713743972e-03 7.596891482612180e-03
4.874271930369083e-03 1.240171156677696e-02
-1.147997298790356e-03 -1.936572961278488e-03
-9.150284713761312e-04 -1.158405952685493e-03
4.102403420033563e-03 6.610440982698040e-03
5.000000000000000e-02 5.000000000000000e-02
4.102403420033563e-03 6.610440982698040e-03
4.207734713743972e-03 7.596891482612180e-03
5.000000000000000e-02 5.000000000000000e-02
5.000000000000000e-02 5.000000000000000e-02
4.874271930369083e-03 1.240171156677696e-02
4.102403420033563e-03 6.610440982698040e-03
5.000000000000000e-02 5.000000000000000e-02
        </DataArray>
        <DataArray type="Float64" Name="nodal_cauchy_stresses_xyz" NumberOfComponents="6" format="ascii">
3.192904862696500e-05 -2.547040286147466e-03 0.000000000000000e+00 -8.162087022184352e-04 0.000000000000000e+00 0.000000000000000e+00
4.884924854376926e-07 8.733679614090916e-04 0.000000000000000e+00 3.517890184276462e-04 0.000000000000000e+00 0.000000000000000e+00
6.656308329745974e-07 9.851625456571938e-04 0.000000000000000e+00 4.124629963991466e-04 0.000000000000000e+00 0.000000000000000e+00
4.728757597492613e-05 -2.900250626105274e-03 0.000000000000000e+00 -1.030272106500742e-03 0.000000000000000e+00 0.000000000000000e+00
-1.459933214561865e-04 -2.290266533670441e-03 0.000000000000000e+00 -9.747548764207384e-04 0.000000000000000e+00 0.000000000000000e+00
5.864323018428115e-07 8.288343463724382e-04 0.000000000000000e+00 3.892039904533405e-04 0.000000000000000e+00 0.000000000000000e+00
4.884924854376926e-07 8.733679614090916e-04 0.000000000000000e+00 3.517890184276462e-04 0.000000000000000e+00 0.000000000000000e+00
3.192904862696500e-05 -2.547040286147466e-03 0.000000000000000e+00 -8.162087022184352e-04 0.000000000000000e+00 0.000000000000000e+00
2.393347484117997e-04 1.805136975061590e-02 0.000000000000000e+00 5.248220567352137e-03 0.000000000000000e+00 0.000000000000000e+00
4.728757597492613e-05 -2.900250626105274e-03 0.000000000000000e+00 -1.030272106500742e-03 0.000000000000000e+00 0.000000000000000e+00
-3.980065867435854e-05 -1.191913170639019e-03 0.000000000000000e+00 -1.078677544750141e-03 0.000000000000000e+00 0.000000000000000e+00
5.563281104260425e-04 5.284264221390828e-03 0.000000000000000e+00 5.176433005768975e-03 0.000000000000000e+00 0.000000000000000e+00
1.128572825225256e-04 1.584684792571322e-02 0.000000000000000e+00 4.096597422621646e-03 0.000000000000000e+00 0.000000000000000e+00
3.192904862696500e-05 -2.547040286147466e-03 0.000000000000000e+00 -8.162087022184352e-04 0.000000000000000e+00 0.000000000000000e+00
4.728757597492613e-05 -2.900250626105274e-03 0.000000000000000e+00 -1.030272106500742e-03 0.000000000000000e+00 0.000000000000000e+00
2.393347484117997e-04 1.805136975061590e-02 0.000000000000000e+00 5.248220567352137e-03 0.000000000000000e+00 0.000000000000000e+00
7.615687661147590e-04 1.359943795023883e-02 0.000000000000000e+00 4.887957790825080e-03 0.000000000000000e+00 0.000000000000000e+00
-1.459933214561865e-04 -2.290266533670441e-03 0.000000000000000e+00 -9.747548764207384e-04 0.000000000000000e+00 0.000000000000000e+00
3.192904862696500e-05 -2.547040286147466e-03 0.000000000000000e+00 -8.162087022184352e-04 0.000000000000000e+00 0.000000000000000e+00
1.128572825225256e-04 1.584684792571322e-02 0.000000000000000e+00 4.096597422621646e-03 0.000000000000000e+00 0.000000000000000e+00
1.220772369434418e-03 2.681895563262410e-02 0.000000000000000e+00 6.941449780258568e-03 0.000000000000000e+00 0.000000000000000e+00
-2.212089702898747e-04 -3.807336898991139e-03 0.000000000000000e+00 -1.288769600189898e-03 0.000000000000000e+00 0.000000000000000e+00
-1.459933214561865e-04 -2.290266533670441e-03 0.000000000000000e+00 -9.747548764207384e-04 0.000000000000000e+00 0.000000000000000e+00
7.615687661147590e-04 1.359943795023883e-02 0.000000000000000e+00 4.887957790825080e-03 0.000000000000000e+00 0.000000000000000e+00
1.517064792754576e-02 1.349026392053784e-01 0.000000000000000e+00 6.376480677705332e-02 0.000000000000000e+00 0.000000000000000e+00
2.393347484117997e-04 1.805136975061590e-02 0.000000000000000e+00 5.248220567352137e-03 0.000000000000000e+00 0.000000000000000e+00
5.563281104260425e-04 5.284264221390828e-03 0.000000000000000e+00 5.176433005768975e-03 0.000000000000000e+00 0.000000000000000e+00
1.276316794758232e-02 1.380806612983944e-01 0.000000000000000e+00 5.844515028973338e-02 0.000000000000000e+00 0.000000000000000e+00
1.823385687876263e-02 1.366854643387215e-01 0.000000000000000e+00 7.191245002450308e-02 0.000000000000000e+00 0.000000000000000e+00
1.128572825225256e-04 1.584684792571322e-02 0.000000000000000e+00 4.096597422621646e-03 0.000000000000000e+00 0.000000000000000e+00
2.393347484117997e-04 1.805136975061590e-02 0.000000000000000e+00 5.248220567352137e-03 0.000000000000000e+00 0.000000000000000e+00
1.517064792754576e-02 1.349026392053784e-01 0.000000000000000e+00 6.376480677705332e-02 0.000000000000000e+00 0.000000000000000e+00
1.538872405995189e-02 1.361220326686615e-01 0.000000000000000e+00 6.462572909368719e-02 0.000000000000000e+00 0.000000000000000e+00
7.615687661147590e-04 1.359943795023883e-02 0.000000000000000e+00 4.887957790825080e-03 0.000000000000000e+00 0.000000000000000e+00
1.128572825225256e-04 1.584684792571322e-02 0.000000000000000e+00 4.096597422621646e-03 0.000000000000000e+00 0.000000000000000e+00
1.823385687876263e-02 1.366854643387215e-01 0.000000000000000e+00 7.191245002450308e-02 0.000000000000000e+00 0.000000000000000e+00
1.191760101259989e-02 1.316949974968216e-01 0.000000000000000e+00 5.471429470724080e-02 0.000000000000000e+00 0.000000000000000e+00
1.220772369434418e-03 2.681895563262410e-02 0.000000000000000e+00 6.941449780258568e-03 0.000000000000000e+00 0.000000000000000e+00
7.615687661147590e-04 1.359943795023883e-02 0.000000000000000e+00 4.887957790825080e-03 0.000000000000000e+00 0.000000000000000e+00
1.538872405995189e-02 1.361220326686615e-01 0.000000000000000e+00 6.462572909368719e-02 0.000000000000000e+00 0.000000000000000e+00
3.459772098732455e-02 2.409963094620460e-01 0.000000000000000e+00 1.294929930371523e-01 0.000000000000000e+00 0.000000000000000e+00
1.538872405995189e-02 1.361220326686615e-01 0.000000000000000e+00 6.462572909368719e-02 0.000000000000000e+00 0.000000000000000e+00
1.823385687876263e-02 1.366854643387215e-01 0.000000000000000e+00 7.191245002450308e-02 0.000000000000000e+00 0.000000000000000e+00
3.444337263207365e-02 2.348175884783495e-01 0.000000000000000e+00 1.283584490750145e-01 0.000000000000000e+00 0.000000000000000e+00
3.331492150154140e-02 2.044981595601814e-01 0.000000000000000e+00 1.223313857652794e-01 0.000000000000000e+00 0.000000000000000e+00
1.191760101259989e-02 1.316949974968216e-01 0.000000000000000e+00 5.471429470724080e-02 0.000000000000000e+00 0.000000000000000e+00
1.538872405995189e-02 1.361220326686615e-01 0.000000000000000e+00 6.462572909368719e-02 0.000000000000000e+00 0.000000000000000e+00
3.459772098732455e-02 2.409963094620460e-01 0.000000000000000e+00 1.294929930371523e-01 0.000000000000000e+00 0.000000000000000e+00
        </DataArray>
  </PointData>
  <CellData>
        <DataArray type="Float64" Name="element_cauchy_stresses_xyz" NumberOfComponents="6" format="ascii">
6.105971739028254e-05 9.292754036704958e-04 0.000000000000000e+00 4.100389970329564e-04 0.000000000000000e+00 0.000000000000000e+00
-3.679614789944777e-05 8.511641160666217e-04 0.000000000000000e+00 3.816120787667105e-04 0.000000000000000e+00 0.000000000000000e+00
1.914080399039206e-04 -4.858210239912563e-03 0.000000000000000e+00 -1.449675498769412e-03 0.000000000000000e+00 0.000000000000000e+00
-1.113630950828741e-04 -6.374763633080540e-03 0.000000000000000e+00 -2.336357577504887e-03 0.000000000000000e+00 0.000000000000000e+00
7.687213940288141e-05 -5.685549045574235e-03 0.000000000000000e+00 -2.247661040043987e-03 0.000000000000000e+00 0.000000000000000e+00
3.703306402350207e-04 -7.094268484930976e-03 0.000000000000000e+00 -1.784646747605143e-03 0.000000000000000e+00 0.000000000000000e+00
-1.097979250602184e-03 2.819538568662462e-02 0.000000000000000e+00 5.047761014000791e-03 0.000000000000000e+00 0.000000000000000e+00
4.764060825670642e-04 4.038051952950554e-02 0.000000000000000e+00 1.201687679887924e-02 0.000000000000000e+00 0.000000000000000e+00
7.399554569251081e-04 3.523627785595289e-02 0.000000000000000e+00 1.166892415197587e-02 0.000000000000000e+00 0.000000000000000e+00
-6.851591953545781e-04 4.752029852546408e-02 0.000000000000000e+00 6.823230642915298e-03 0.000000000000000e+00 0.000000000000000e+00
3.509290770923178e-02 2.383662948115748e-01 0.000000000000000e+00 1.301750320715083e-01 0.000000000000000e+00 0.000000000000000e+00
3.054401760404364e-02 2.208323384743370e-01 0.000000000000000e+00 1.187691958607713e-01 0.000000000000000e+00 0.000000000000000e+00
        </DataArray>
      </CellData>

    </Piece>
  </UnstructuredGrid>
</VTKFile>
