<?xml version="1.0" ?> 
<!-- 
# vtk DataFile Version 3.0
-->
<VTKFile type="UnstructuredGrid" version="0.1" compressor="vtkZLibDataCompressor" byte_order="LittleEndian">
  <UnstructuredGrid>
    <FieldData>
      <DataArray type="Float64" Name="TIME" NumberOfTuples="1" format="ascii">
1.000000000000000e+00 
      </DataArray>
    </FieldData>

    <Piece NumberOfPoints="54" NumberOfCells="2" >
      <Points>
        <DataArray type="Float64" NumberOfComponents="3" format="ascii">
0.000000000000000e+00 0.000000000000000e+00 0.000000000000000e+00
1.000000000000000e+00 0.000000000000000e+00 0.000000000000000e+00
1.000000000000000e+00 1.000000000000000e+00 0.000000000000000e+00
0.000000000000000e+00 1.000000000000000e+00 0.000000000000000e+00
0.000000000000000e+00 0.000000000000000e+00 1.000000000000000e+00
1.000000000000000e+00 0.000000000000000e+00 1.000000000000000e+00
1.000000000000000e+00 1.000000000000000e+00 1.000000000000000e+00
0.000000000000000e+00 1.000000000000000e+00 1.000000000000000e+00
5.000000000000000e-01 0.000000000000000e+00 0.000000000000000e+00
1.000000000000000e+00 5.000000000000000e-01 0.000000000000000e+00
5.000000000000000e-01 1.000000000000000e+00 0.000000000000000e+00
0.000000000000000e+00 5.000000000000000e-01 0.000000000000000e+00
5.000000000000000e-01 0.000000000000000e+00 1.000000000000000e+00
1.000000000000000e+00 5.000000000000000e-01 1.000000000000000e+00
5.000000000000000e-01 1.000000000000000e+00 1.000000000000000e+00
0.000000000000000e+00 5.000000000000000e-01 1.000000000000000e+00
0.000000000000000e+00 0.000000000000000e+00 5.000000000000000e-01
1.000000000000000e+00 0.000000000000000e+00 5.000000000000000e-01
1.000000000000000e+00 1.000000000000000e+00 5.000000000000000e-01
0.000000000000000e+00 1.000000000000000e+00 5.000000000000000e-01
0.000000000000000e+00 5.000000000000000e-01 5.000000000000000e-01
1.000000000000000e+00 5.000000000000000e-01 5.000000000000000e-01
5.000000000000000e-01 0.000000000000000e+00 5.000000000000000e-01
5.000000000000000e-01 1.000000000000000e+00 5.000000000000000e-01
5.000000000000000e-01 5.000000000000000e-01 0.000000000000000e+00
5.000000000000000e-01 5.000000000000000e-01 1.000000000000000e+00
5.000000000000000e-01 5.000000000000000e-01 5.000000000000000e-01
1.000000000000000e+00 0.000000000000000e+00 0.000000000000000e+00
2.000000000000000e+00 0.000000000000000e+00 0.000000000000000e+00
2.000000000000000e+00 1.000000000000000e+00 0.000000000000000e+00
1.000000000000000e+00 1.000000000000000e+00 0.000000000000000e+00
1.000000000000000e+00 0.000000000000000e+00 1.000000000000000e+00
2.000000000000000e+00 0.000000000000000e+00 1.000000000000000e+00
2.000000000000000e+00 1.000000000000000e+00 1.000000000000000e+00
1.000000000000000e+00 1.000000000000000e+00 1.000000000000000e+00
1.500000000000000e+00 0.000000000000000e+00 0.000000000000000e+00
2.000000000000000e+00 5.000000000000000e-01 0.000000000000000e+00
1.500000000000000e+00 1.000000000000000e+00 0.000000000000000e+00
1.000000000000000e+00 5.000000000000000e-01 0.000000000000000e+00
1.500000000000000e+00 0.000000000000000e+00 1.000000000000000e+00
2.000000000000000e+00 5.000000000000000e-01 1.000000000000000e+00
1.500000000000000e+00 1.000000000000000e+00 1.000000000000000e+00
1.000000000000000e+00 5.000000000000000e-01 1.000000000000000e+00
1.000000000000000e+00 0.000000000000000e+00 5.000000000000000e-01
2.000000000000000e+00 0.000000000000000e+00 5.000000000000000e-01
2.000000000000000e+00 1.000000000000000e+00 5.000000000000000e-01
1.000000000000000e+00 1.000000000000000e+00 5.000000000000000e-01
1.000000000000000e+00 5.000000000000000e-01 5.000000000000000e-01
2.000000000000000e+00 5.000000000000000e-01 5.000000000000000e-01
1.500000000000000e+00 0.000000000000000e+00 5.000000000000000e-01
1.500000000000000e+00 1.000000000000000e+00 5.000000000000000e-01
1.500000000000000e+00 5.000000000000000e-01 0.000000000000000e+00
1.500000000000000e+00 5.000000000000000e-01 1.000000000000000e+00
1.500000000000000e+00 5.000000000000000e-01 5.000000000000000e-01
        </DataArray>
      </Points>

      <Cells>
        <DataArray type="Int32" Name="connectivity" format="ascii">
0 1 2 3 4 5 6 7 8 9 10 11 12 13 14 15 16 17 18 19 20 21 22 23 24 25 26 27 28 29 30 31 32 33 34 35 36 37 38 39 40 41 42 43 44 45 46 47 48 49 50 51 52 53 
        </DataArray>
        <DataArray type="Int32" Name="offsets" format="ascii">
27 54 
        </DataArray>
        <DataArray type="UInt8" Name="types" format="ascii">
29 29 
        </DataArray>
      </Cells>

  <PointData>
        <DataArray type="Float64" Name="displacement" NumberOfComponents="3" format="ascii">
0.000000000000000e+00 0.000000000000000e+00 0.000000000000000e+00
1.041820521965808e-01 -1.841134882447506e-03 -3.682885907677517e-03
1.086331900170854e-01 -1.852697170511624e-03 -3.707282286112640e-03
0.000000000000000e+00 0.000000000000000e+00 0.000000000000000e+00
0.000000000000000e+00 0.000000000000000e+00 0.000000000000000e+00
1.130922770727196e-01 -1.865794663475274e-03 -3.729694042476086e-03
1.175572043312569e-01 -1.877880031109285e-03 -3.755135564220048e-03
0.000000000000000e+00 0.000000000000000e+00 0.000000000000000e+00
5.246181194253941e-02 -4.232737628963810e-04 -8.474156420245307e-04
1.064041019123442e-01 -1.846891438832130e-03 -3.694956853863927e-03
5.444075346411343e-02 -4.257692290039966e-04 -8.540236008437876e-04
0.000000000000000e+00 0.000000000000000e+00 0.000000000000000e+00
5.642429521410539e-02 -4.299545342346713e-04 -8.575452265907886e-04
1.153216042567849e-01 -1.871813722338746e-03 -3.742296521454506e-03
5.841228543729041e-02 -4.325955347884545e-04 -8.644442235622357e-04
0.000000000000000e+00 0.000000000000000e+00 0.000000000000000e+00
0.000000000000000e+00 0.000000000000000e+00 0.000000000000000e+00
1.086234764079546e-01 -1.853214561181489e-03 -3.706094711249262e-03
1.130822745798429e-01 -1.865047355208977e-03 -3.731017529571978e-03
0.000000000000000e+00 0.000000000000000e+00 0.000000000000000e+00
0.000000000000000e+00 0.000000000000000e+00 0.000000000000000e+00
1.108495480379075e-01 -1.859106737003868e-03 -3.718433128257319e-03
5.444154849794349e-02 -4.266347531891943e-04 -8.524765548875075e-04
5.642492421793276e-02 -4.292021548474023e-04 -8.592295227770218e-04
5.345091853511159e-02 -4.245210397064324e-04 -8.507301360652128e-04
5.741788103299013e-02 -4.312744509559852e-04 -8.610044076484130e-04
5.543284871295596e-02 -4.279179413412335e-04 -8.558631518717286e-04
1.041820521965808e-01 -1.841134882447506e-03 -3.682885907677517e-03
2.002045682824053e-01 -9.562471279036189e-03 -1.912858429666427e-02
2.145297633693196e-01 -9.554437462441874e-03 -1.911978291521394e-02
1.086331900170854e-01 -1.852697170511624e-03 -3.707282286112640e-03
1.130922770727196e-01 -1.865794663475274e-03 -3.729694042476086e-03
2.285260008252954e-01 -9.552630110159546e-03 -1.909453268475953e-02
2.422152215650380e-01 -9.542847594204536e-03 -1.908222778832718e-02
1.175572043312569e-01 -1.877880031109285e-03 -3.755135564220048e-03
1.538333074653498e-01 -4.565123636238918e-03 -9.128702214792334e-03
2.074142308296199e-01 -9.558940934186031e-03 -1.912516491036542e-02
1.621428838166697e-01 -4.612742814532008e-03 -9.220267639980358e-03
1.064041019123442e-01 -1.846891438832130e-03 -3.694956853863927e-03
1.703512337460481e-01 -4.654899191658889e-03 -9.315573080660730e-03
2.354126447717573e-01 -9.548145663109289e-03 -1.908922986901375e-02
1.784614116239058e-01 -4.699015749328724e-03 -9.400133379522677e-03
1.153216042567849e-01 -1.871813722338746e-03 -3.742296521454506e-03
1.086234764079546e-01 -1.853214561181489e-03 -3.706094711249262e-03
2.145481688396726e-01 -9.559439695686242e-03 -1.911527699443622e-02
2.285453221336595e-01 -9.550399997498876e-03 -1.910440518769541e-02
1.130822745798429e-01 -1.865047355208977e-03 -3.731017529571978e-03
1.108495480379075e-01 -1.859106737003868e-03 -3.718433128257319e-03
2.215911825173633e-01 -9.555363973841968e-03 -1.911075144106303e-02
1.621429175291383e-01 -4.610597345975124e-03 -9.223217239303258e-03
1.703513197508105e-01 -4.656430702456937e-03 -9.311227778362170e-03
1.580009470174405e-01 -4.589071582534066e-03 -9.174786965451322e-03
1.744184366456784e-01 -4.677082744496498e-03 -9.358120755599175e-03
1.662595960624238e-01 -4.633645690869727e-03 -9.267506992860950e-03
        </DataArray>
        <DataArray type="Float64" Name="nodal_GL_strains_xyz" NumberOfComponents="6" format="ascii">
1.112478042148628e-01 2.023109696406100e-07 7.903535137672386e-07 7.395387700342472e-05 3.998950871783452e-07 1.464841772456045e-04
1.079391267528969e-01 -7.346278564312037e-07 -3.245583890891036e-06 6.943192868407869e-04 -2.348541437662367e-06 1.381664052699671e-03
1.140187786926489e-01 -9.108440388488908e-07 -4.500299747510351e-06 6.754672138667300e-04 -3.165408147559352e-06 1.329158132934414e-03
1.150845289643649e-01 2.125393478079136e-07 7.915312126233574e-07 7.479107754702159e-05 4.103808514880811e-07 1.455597898290638e-04
1.189449010549906e-01 2.020929836513301e-07 8.688539275453408e-07 7.301750275028382e-05 4.192632274364430e-07 1.498201291090087e-04
1.200763384909036e-01 -1.353863907478247e-06 -4.622160943560742e-06 6.424773699245858e-04 -3.936226942408538e-06 1.307624700403034e-03
1.261055399082156e-01 -1.513679567244443e-06 -5.811272851758497e-06 6.249513510705946e-04 -4.663206118662523e-06 1.257769174169830e-03
1.228306716188576e-01 2.106952342425930e-07 8.635271097913843e-07 7.382832423668867e-05 4.265728591195323e-07 1.488425594647474e-04
1.096175063993562e-01 -5.383925839590894e-07 -2.287193246730583e-06 1.711988356961094e-04 -2.794638629993823e-06 3.429096276451182e-04
1.109783694515669e-01 -8.234190350233937e-07 -3.883680516672088e-06 6.848750948903488e-04 -2.758523967349451e-06 1.355600727250960e-03
1.145423831159661e-01 -5.362777464149820e-07 -2.541775752946388e-06 1.714335707088867e-04 -2.809317088644505e-06 3.443335533262998e-04
1.131669501193178e-01 2.074156632741402e-07 7.913604682107527e-07 7.436026883518850e-05 4.052381146203069e-07 1.459367743625837e-04
1.194958829090394e-01 -6.658397279450347e-07 -2.270518554190016e-06 1.726150937540899e-04 -2.826571640600345e-06 3.438334088767086e-04
1.230917871027962e-01 -1.434286845134125e-06 -5.227650095512197e-06 6.336910869252275e-04 -4.301163709577119e-06 1.282889976103395e-03
1.244758403104412e-01 -6.639993280032003e-07 -2.526207723500316e-06 1.728364706746020e-04 -2.846413491547118e-06 3.452307256995324e-04
1.208879370711910e-01 2.063867628674444e-07 8.666014980330555e-07 7.341158714117721e-05 4.230178291817512e-07 1.492526103867965e-04
1.150988373697574e-01 2.026183394328910e-07 8.294609976392523e-07 7.331841833548403e-05 4.099796003393068e-07 1.480559626969469e-04
1.140069669745168e-01 -1.055014285056605e-06 -3.944047418993987e-06 6.687781422735984e-04 -3.148443965686848e-06 1.344486294782206e-03
1.200642518091052e-01 -1.223127580235901e-06 -5.164620315343672e-06 6.505925318782255e-04 -3.920163207146099e-06 1.293285189838987e-03
1.189588196625725e-01 2.120300924079509e-07 8.274036350809677e-07 7.414890646973290e-05 4.188765760230874e-07 1.471085228107677e-04
1.170292931656381e-01 2.073158268591076e-07 8.288469853765530e-07 7.372182261570328e-05 4.145281302603699e-07 1.475001264970137e-04
1.170357895720775e-01 -1.139663329990801e-06 -4.565143034731918e-06 6.596641024122390e-04 -3.535788254254426e-06 1.319076039118114e-03
1.145315939582824e-01 -6.015091412823114e-07 -2.278874025352532e-06 1.719566242456296e-04 -2.810578220120186e-06 3.434286183996875e-04
1.194847714684611e-01 -5.994603286084404e-07 -2.534012099767379e-06 1.721843800895703e-04 -2.827767895634268e-06 3.448379386367635e-04
1.120735739184905e-01 -5.373362268209877e-07 -2.413912865577900e-06 1.713233937364136e-04 -2.801980081252944e-06 3.436464186804786e-04
1.219798709278574e-01 -6.649208692791243e-07 -2.397649171665632e-06 1.727326494057198e-04 -2.836459534099757e-06 3.445565980297412e-04
1.170020006994060e-01 -6.004859379182825e-07 -2.405800268778790e-06 1.720775843344305e-04 -2.819157659052116e-06 3.441580645492796e-04
1.079391267528969e-01 -7.346278564312037e-07 -3.245583890891036e-06 6.943192868407869e-04 -2.348541437662367e-06 1.381664052699671e-03
9.383888179079490e-02 1.089102227692545e-04 4.311833234527081e-04 1.773516438065361e-03 2.094045511407025e-04 3.552285332557975e-03
1.093865326630029e-01 1.076680654624004e-04 4.174492270971602e-04 1.769084820115318e-03 2.047034478485058e-04 3.567277849174430e-03
1.140187786926489e-01 -9.108440388488908e-07 -4.500299747510351e-06 6.754672138667300e-04 -3.165408147559352e-06 1.329158132934414e-03
1.200763384909036e-01 -1.353863907478247e-06 -4.622160943560742e-06 6.424773699245858e-04 -3.936226942408538e-06 1.307624700403034e-03
1.244954624386882e-01 1.020949992489596e-04 4.214365494101232e-04 1.788727968787254e-03 2.002177008121502e-04 3.536054334111836e-03
1.391979250712840e-01 1.009468183594145e-04 4.080782254155314e-04 1.785446221952678e-03 1.959294833182748e-04 3.553335691187857e-03
1.261055399082156e-01 -1.513679567244443e-06 -5.811272851758497e-06 6.249513510705946e-04 -4.663206118662523e-06 1.257769174169830e-03
1.007809010132200e-01 -1.321419539953723e-05 -5.137895006430980e-05 7.221539059808344e-04 -2.253545450723942e-05 1.442022636206594e-03
1.016821804774086e-01 1.082731145456237e-04 4.242701918869541e-04 1.772121883036648e-03 2.070336336490102e-04 3.558363367370990e-03
1.116514420089701e-01 -1.296192467111578e-05 -4.757776670424097e-05 7.163547471543027e-04 -2.121486312279433e-05 1.427574043721878e-03
1.109783694515669e-01 -8.234190350233937e-07 -3.883680516672088e-06 6.848750948903488e-04 -2.758523967349451e-06 1.355600727250960e-03
1.222444504902699e-01 -1.133127974529017e-05 -4.943690597023706e-05 7.076128180703318e-04 -1.996585807908756e-05 1.418652170942294e-03
1.319090230332559e-01 1.015079985085939e-04 4.147106908718524e-04 1.787782209851790e-03 1.980560340414467e-04 3.543400185832917e-03
1.325754365418821e-01 -1.111528731954546e-05 -4.578080115286604e-05 7.016566013190036e-04 -1.878459514618803e-05 1.403892280881540e-03
1.230917871027962e-01 -1.434286845134125e-06 -5.227650095512197e-06 6.336910869252275e-04 -4.301163709577119e-06 1.282889976103395e-03
1.140069669745168e-01 -1.055014285056605e-06 -3.944047418993987e-06 6.687781422735984e-04 -3.148443965686848e-06 1.344486294782206e-03
1.094374599575263e-01 1.054566597543709e-04 4.260672835390636e-04 1.778341037966727e-03 2.047330646411353e-04 3.550465808775803e-03
1.245482402998173e-01 1.042611822912201e-04 4.125459834327138e-04 1.774607797938765e-03 2.002440152875919e-04 3.566098813141837e-03
1.200642518091052e-01 -1.223127580235901e-06 -5.164620315343672e-06 6.505925318782255e-04 -3.920163207146099e-06 1.293285189838987e-03
1.170357895720775e-01 -1.139663329990801e-06 -4.565143034731918e-06 6.596641024122390e-04 -3.535788254254426e-06 1.319076039118114e-03
1.170586239807305e-01 1.048445595294008e-04 4.192606769138097e-04 1.777228995319285e-03 2.024698025346224e-04 3.556918573929923e-03
1.116830355012041e-01 -1.225511693168652e-05 -5.042846095011830e-05 7.142889231022672e-04 -2.124651836313371e-05 1.430987471720220e-03
1.222766987287133e-01 -1.202138989791854e-05 -4.669863793640343e-05 7.084135353591564e-04 -1.999570080510602e-05 1.416375993023685e-03
1.062596991960450e-01 -1.308938216906105e-05 -4.946054188952180e-05 7.193358576733545e-04 -2.187411337755897e-05 1.434499998161238e-03
1.274499184384617e-01 -1.122445822743011e-05 -4.759184563684592e-05 7.047144457917170e-04 -1.937423605732269e-05 1.410976205251214e-03
1.170215672022955e-01 -1.213949968964512e-05 -4.854612867949415e-05 7.114321474302005e-04 -2.062008676500478e-05 1.423385119755279e-03
        </DataArray>
        <DataArray type="Float64" Name="nodal_cauchy_stresses_xyz" NumberOfComponents="6" format="ascii">
1.230039360991515e+01 1.287313110039882e-06 5.035247652846088e-06 9.040987897120472e-03 2.608398958512168e-06 1.790749619454958e-02
1.190521374351452e+01 -4.618648556476142e-04 -1.867906430629360e-03 3.163061974012015e-02 -1.002445652281325e-03 6.263809577005211e-02
1.263809973015092e+01 -4.595800160539307e-04 -1.892894717047147e-03 2.654388013578001e-02 -1.034981200438411e-03 5.114981048771031e-02
1.276448287447773e+01 1.201798751896040e-06 4.511630340566782e-06 9.199689008121497e-03 2.344038923705638e-06 1.790415041516621e-02
1.323399412470198e+01 1.022556596100256e-06 4.336194323715207e-06 9.036540983870895e-03 2.089511998712605e-06 1.854144922348967e-02
1.337468347109534e+01 -4.718012752512771e-04 -1.839504601854767e-03 2.014151665978256e-02 -1.059517557265826e-03 4.229580325051640e-02
1.411402178626177e+01 -4.647037654070692e-04 -1.845238388228717e-03 1.506338064177658e-02 -1.076864720114134e-03 3.082445969628786e-02
1.370916002651159e+01 9.309514021000123e-07 3.788224686599362e-06 9.192882739073956e-03 1.844784396838950e-06 1.853332685055049e-02
1.210406840091438e+01 -7.219432927113042e-05 -3.012218590509057e-04 -3.063886501619969e-03 -3.000515440784813e-04 -6.082314157957715e-03
1.227078902837229e+01 -4.611149572669275e-04 -1.882867567232469e-03 2.910031231835851e-02 -1.019593815955783e-03 5.694023257159279e-02
1.269884911492863e+01 -7.020208320344490e-05 -3.175491148062008e-04 -4.079584985699844e-03 -2.973023703275915e-04 -8.033207235623084e-03
1.253221608666443e+01 1.244909208510276e-06 4.765147789366871e-06 9.118729174440841e-03 2.473383274703602e-06 1.789562234795687e-02
1.330127844418064e+01 -8.031043893457920e-05 -2.850540108574590e-04 -5.035576248677891e-03 -2.946977981712744e-04 -1.018723532383587e-02
1.374368250748511e+01 -4.685638746698649e-04 -1.844672478254960e-03 1.761272237165804e-02 -1.068941667487546e-03 3.660255234080444e-02
1.391117239551398e+01 -7.821737023975636e-05 -3.009788763612529e-04 -6.093034625532829e-03 -2.922345449428296e-04 -1.222163406306096e-02
1.347127328010234e+01 9.770179049085816e-07 4.053387700125811e-06 9.113186246901692e-03 1.964209202730412e-06 1.852784974852199e-02
1.276622233594159e+01 1.146496877398058e-06 4.691026535546817e-06 9.018680572556684e-03 2.337512374353057e-06 1.821172422955760e-02
1.263668961928235e+01 -4.692535130560409e-04 -1.859635309519912e-03 2.597653328881328e-02 -1.034361335827345e-03 5.256546051303328e-02
1.337319627665273e+01 -4.644793576008803e-04 -1.874347587233874e-03 2.089024106544608e-02 -1.059043095498289e-03 4.107450417033350e-02
1.323568665913186e+01 1.057672070085212e-06 4.154514584413954e-06 9.176864893615360e-03 2.082760324163802e-06 1.820632638487048e-02
1.300069164447860e+01 1.102392157496435e-06 4.414210419351785e-06 9.096194893220819e-03 2.207250849961111e-06 1.819913490418028e-02
1.300417858085946e+01 -4.672162008832920e-04 -1.869366751724641e-03 2.344497733655999e-02 -1.047513164532488e-03 4.686417675328323e-02
1.269753351305633e+01 -7.626143834211290e-05 -2.932638359174409e-04 -4.031157700251697e-03 -2.974500552873419e-04 -8.105966011119806e-03
1.329993097073984e+01 -7.421314455759593e-05 -3.093914150103303e-04 -5.067697565132364e-03 -2.948392437567665e-04 -1.009858862420389e-02
1.240016640032559e+01 -7.120601685730945e-05 -3.093972964372452e-04 -3.568140925099727e-03 -2.986963678563413e-04 -7.048493865560030e-03
1.360496311307535e+01 -7.927190567399981e-05 -2.930169870749502e-04 -5.560704499466527e-03 -2.934832827895522e-04 -1.119512908111499e-02
1.299745443700438e+01 -7.524521405848464e-05 -3.013338690529811e-04 -4.545821428491223e-03 -2.961629430614819e-04 -9.092974447755871e-03
1.190521374351452e+01 -4.618648556476142e-04 -1.867906430629360e-03 3.163061974012015e-02 -1.002445652281325e-03 6.263809577005211e-02
1.023851216972304e+01 7.484083348400972e-03 2.950346667633606e-02 6.269341147595460e-02 1.419174883191677e-02 1.257654859551577e-01
1.208616840809094e+01 7.502958307757053e-03 2.869061854161029e-02 4.538092221961673e-02 1.401266424662846e-02 9.307158583551757e-02
1.263809973015092e+01 -4.595800160539307e-04 -1.892894717047147e-03 2.654388013578001e-02 -1.034981200438411e-03 5.114981048771031e-02
1.337468347109534e+01 -4.718012752512771e-04 -1.839504601854767e-03 2.014151665978256e-02 -1.059517557265826e-03 4.229580325051640e-02
1.392193771837248e+01 7.070836998788172e-03 2.962055507836814e-02 3.110418952106073e-02 1.382813293504606e-02 5.882368320308381e-02
1.574558011592773e+01 7.074886016876995e-03 2.874851283141429e-02 1.596179765827514e-02 1.363824396772678e-02 3.046778820324590e-02
1.411402178626177e+01 -4.647037654070692e-04 -1.845238388228717e-03 1.506338064177658e-02 -1.076864720114134e-03 3.082445969628786e-02
1.105106028204633e+01 -1.674096725242641e-03 -6.554903431348303e-03 -5.682159699204032e-03 -2.991366940230470e-03 -1.163089645504815e-02
1.116529744103859e+01 7.492321234000112e-03 2.910341534880695e-02 5.394634349035637e-02 1.410330935041143e-02 1.089468905765946e-01
1.235257109531345e+01 -1.570205660602107e-03 -5.879880505110489e-03 -1.443200514633668e-02 -2.710920544639005e-03 -2.948339330220226e-02
1.227078902837229e+01 -4.611149572669275e-04 -1.882867567232469e-03 2.910031231835851e-02 -1.019593815955783e-03 5.694023257159279e-02
1.364073894994800e+01 -1.342911541910918e-03 -5.750016428465912e-03 -2.327845066146099e-02 -2.446517960166435e-03 -4.611882232983777e-02
1.483691481867371e+01 7.071986912488367e-03 2.918906714248920e-02 2.344822053707485e-02 1.373417417116626e-02 4.422222922672032e-02
1.491518903541153e+01 -1.251547004948738e-03 -5.125095360611750e-03 -3.152104421847900e-02 -2.197103515246278e-03 -6.295641643914371e-02
1.374368250748511e+01 -4.685638746698649e-04 -1.844672478254960e-03 1.761272237165804e-02 -1.068941667487546e-03 3.660255234080444e-02
1.263668961928235e+01 -4.692535130560409e-04 -1.859635309519912e-03 2.597653328881328e-02 -1.034361335827345e-03 5.256546051303328e-02
1.209235590052201e+01 7.283399278684584e-03 2.954429314975785e-02 4.597954274311052e-02 1.401430783439763e-02 9.157908835536382e-02
1.392839777774933e+01 7.293940920967055e-03 2.870444310534068e-02 2.980027842695329e-02 1.382958587398984e-02 6.107846719737054e-02
1.337319627665273e+01 -4.644793576008803e-04 -1.874347587233874e-03 2.089024106544608e-02 -1.059043095498289e-03 4.107450417033350e-02
1.300417858085946e+01 -4.672162008832920e-04 -1.869366751724641e-03 2.344497733655999e-02 -1.047513164532488e-03 4.686417675328323e-02
1.301345319087755e+01 7.287649273892595e-03 2.912988613079763e-02 3.780191232478637e-02 1.392302537573091e-02 7.588080159615312e-02
1.235651685109017e+01 -1.503114317909426e-03 -6.146364909995842e-03 -1.471329902748740e-02 -2.712786822239126e-03 -2.915932463872414e-02
1.364454549028813e+01 -1.405711355017789e-03 -5.496847980770568e-03 -2.320475617380174e-02 -2.448212541196586e-03 -4.649507042333610e-02
1.170446115368170e+01 -1.621755104902688e-03 -6.211886643620016e-03 -1.009322736764781e-02 -2.849558205890956e-03 -2.067484536721690e-02
1.428063350196128e+01 -1.296890102209769e-03 -5.432500121702362e-03 -2.743356669960124e-02 -2.320403314224465e-03 -5.465056017470588e-02
1.300319456285497e+01 -1.454046523339069e-03 -5.816331158438630e-03 -1.899401054066163e-02 -2.579005988833736e-03 -3.794251991984701e-02
        </DataArray>
  </PointData>
  <CellData>
        <DataArray type="Float64" Name="element_GL_strains_xyz" NumberOfComponents="6" format="ascii">
1.170184862440948e-01 -7.432260033441912e-07 -2.977904582461092e-06 2.266812950086052e-04 -2.709548135733023e-06 4.533915278729662e-04
1.169583030284841e-01 1.365633334465821e-05 5.462434606535438e-05 9.377035251160749e-04 2.781596576616106e-05 1.875181614129476e-03
        </DataArray>
        <DataArray type="Float64" Name="element_cauchy_stresses_xyz" NumberOfComponents="6" format="ascii">
1.300080369301909e+01 -1.233039846078906e-04 -4.937489863568522e-04 9.053670366458462e-04 -3.567251154241052e-04 1.813166807787527e-03
1.300190900356176e+01 4.753215135241769e-04 1.901767156659716e-03 3.851117174109635e-03 9.961168403530625e-04 7.684873965080521e-03
        </DataArray>
      </CellData>

    </Piece>
  </UnstructuredGrid>
</VTKFile>
