<?xml version="1.0" ?> 
<!-- 
# vtk DataFile Version 3.0
-->
<VTKFile type="UnstructuredGrid" version="0.1" compressor="vtkZLibDataCompressor" byte_order="LittleEndian">
  <UnstructuredGrid>
    <FieldData>
      <DataArray type="Float64" Name="TIME" NumberOfTuples="1" format="ascii">
0.000000000000000e+00 
      </DataArray>
    </FieldData>

    <Piece NumberOfPoints="54" NumberOfCells="2" >
      <Points>
        <DataArray type="Float64" NumberOfComponents="3" format="ascii">
0.000000000000000e+00 0.000000000000000e+00 0.000000000000000e+00
1.000000000000000e+00 0.000000000000000e+00 0.000000000000000e+00
1.000000000000000e+00 1.000000000000000e+00 0.000000000000000e+00
0.000000000000000e+00 1.000000000000000e+00 0.000000000000000e+00
0.000000000000000e+00 0.000000000000000e+00 1.000000000000000e+00
1.000000000000000e+00 0.000000000000000e+00 1.000000000000000e+00
1.000000000000000e+00 1.000000000000000e+00 1.000000000000000e+00
0.000000000000000e+00 1.000000000000000e+00 1.000000000000000e+00
5.000000000000000e-01 0.000000000000000e+00 0.000000000000000e+00
1.000000000000000e+00 5.000000000000000e-01 0.000000000000000e+00
5.000000000000000e-01 1.000000000000000e+00 0.000000000000000e+00
0.000000000000000e+00 5.000000000000000e-01 0.000000000000000e+00
5.000000000000000e-01 0.000000000000000e+00 1.000000000000000e+00
1.000000000000000e+00 5.000000000000000e-01 1.000000000000000e+00
5.000000000000000e-01 1.000000000000000e+00 1.000000000000000e+00
0.000000000000000e+00 5.000000000000000e-01 1.000000000000000e+00
0.000000000000000e+00 0.000000000000000e+00 5.000000000000000e-01
1.000000000000000e+00 0.000000000000000e+00 5.000000000000000e-01
1.000000000000000e+00 1.000000000000000e+00 5.000000000000000e-01
0.000000000000000e+00 1.000000000000000e+00 5.000000000000000e-01
0.000000000000000e+00 5.000000000000000e-01 5.000000000000000e-01
1.000000000000000e+00 5.000000000000000e-01 5.000000000000000e-01
5.000000000000000e-01 0.000000000000000e+00 5.000000000000000e-01
5.000000000000000e-01 1.000000000000000e+00 5.000000000000000e-01
5.000000000000000e-01 5.000000000000000e-01 0.000000000000000e+00
5.000000000000000e-01 5.000000000000000e-01 1.000000000000000e+00
5.000000000000000e-01 5.000000000000000e-01 5.000000000000000e-01
1.000000000000000e+00 0.000000000000000e+00 0.000000000000000e+00
2.000000000000000e+00 0.000000000000000e+00 0.000000000000000e+00
2.000000000000000e+00 1.000000000000000e+00 0.000000000000000e+00
1.000000000000000e+00 1.000000000000000e+00 0.000000000000000e+00
1.000000000000000e+00 0.000000000000000e+00 1.000000000000000e+00
2.000000000000000e+00 0.000000000000000e+00 1.000000000000000e+00
2.000000000000000e+00 1.000000000000000e+00 1.000000000000000e+00
1.000000000000000e+00 1.000000000000000e+00 1.000000000000000e+00
1.500000000000000e+00 0.000000000000000e+00 0.000000000000000e+00
2.000000000000000e+00 5.000000000000000e-01 0.000000000000000e+00
1.500000000000000e+00 1.000000000000000e+00 0.000000000000000e+00
1.000000000000000e+00 5.000000000000000e-01 0.000000000000000e+00
1.500000000000000e+00 0.000000000000000e+00 1.000000000000000e+00
2.000000000000000e+00 5.000000000000000e-01 1.000000000000000e+00
1.500000000000000e+00 1.000000000000000e+00 1.000000000000000e+00
1.000000000000000e+00 5.000000000000000e-01 1.000000000000000e+00
1.000000000000000e+00 0.000000000000000e+00 5.000000000000000e-01
2.000000000000000e+00 0.000000000000000e+00 5.000000000000000e-01
2.000000000000000e+00 1.000000000000000e+00 5.000000000000000e-01
1.000000000000000e+00 1.000000000000000e+00 5.000000000000000e-01
1.000000000000000e+00 5.000000000000000e-01 5.000000000000000e-01
2.000000000000000e+00 5.000000000000000e-01 5.000000000000000e-01
1.500000000000000e+00 0.000000000000000e+00 5.000000000000000e-01
1.500000000000000e+00 1.000000000000000e+00 5.000000000000000e-01
1.500000000000000e+00 5.000000000000000e-01 0.000000000000000e+00
1.500000000000000e+00 5.000000000000000e-01 1.000000000000000e+00
1.500000000000000e+00 5.000000000000000e-01 5.000000000000000e-01
        </DataArray>
      </Points>

      <Cells>
        <DataArray type="Int32" Name="connectivity" format="ascii">
0 1 2 3 4 5 6 7 8 9 10 11 12 13 14 15 16 17 18 19 20 21 22 23 24 25 26 27 28 29 30 31 32 33 34 35 36 37 38 39 40 41 42 43 44 45 46 47 48 49 50 51 52 53 
        </DataArray>
        <DataArray type="Int32" Name="offsets" format="ascii">
27 54 
        </DataArray>
        <DataArray type="UInt8" Name="types" format="ascii">
29 29 
        </DataArray>
      </Cells>

  <PointData>
        <DataArray type="Float64" Name="displacement" NumberOfComponents="3" format="ascii">
0.000000000000000e+00 0.000000000000000e+00 0.000000000000000e+00
0.000000000000000e+00 0.000000000000000e+00 0.000000000000000e+00
0.000000000000000e+00 0.000000000000000e+00 0.000000000000000e+00
0.000000000000000e+00 0.000000000000000e+00 0.000000000000000e+00
0.000000000000000e+00 0.000000000000000e+00 0.000000000000000e+00
0.000000000000000e+00 0.000000000000000e+00 0.000000000000000e+00
0.000000000000000e+00 0.000000000000000e+00 0.000000000000000e+00
0.000000000000000e+00 0.000000000000000e+00 0.000000000000000e+00
0.000000000000000e+00 0.000000000000000e+00 0.000000000000000e+00
0.000000000000000e+00 0.000000000000000e+00 0.000000000000000e+00
0.000000000000000e+00 0.000000000000000e+00 0.000000000000000e+00
0.000000000000000e+00 0.000000000000000e+00 0.000000000000000e+00
0.000000000000000e+00 0.000000000000000e+00 0.000000000000000e+00
0.000000000000000e+00 0.000000000000000e+00 0.000000000000000e+00
0.000000000000000e+00 0.000000000000000e+00 0.000000000000000e+00
0.000000000000000e+00 0.000000000000000e+00 0.000000000000000e+00
0.000000000000000e+00 0.000000000000000e+00 0.000000000000000e+00
0.000000000000000e+00 0.000000000000000e+00 0.000000000000000e+00
0.000000000000000e+00 0.000000000000000e+00 0.000000000000000e+00
0.000000000000000e+00 0.000000000000000e+00 0.000000000000000e+00
0.000000000000000e+00 0.000000000000000e+00 0.000000000000000e+00
0.000000000000000e+00 0.000000000000000e+00 0.000000000000000e+00
0.000000000000000e+00 0.000000000000000e+00 0.000000000000000e+00
0.000000000000000e+00 0.000000000000000e+00 0.000000000000000e+00
0.000000000000000e+00 0.000000000000000e+00 0.000000000000000e+00
0.000000000000000e+00 0.000000000000000e+00 0.000000000000000e+00
0.000000000000000e+00 0.000000000000000e+00 0.000000000000000e+00
0.000000000000000e+00 0.000000000000000e+00 0.000000000000000e+00
0.000000000000000e+00 0.000000000000000e+00 0.000000000000000e+00
0.000000000000000e+00 0.000000000000000e+00 0.000000000000000e+00
0.000000000000000e+00 0.000000000000000e+00 0.000000000000000e+00
0.000000000000000e+00 0.000000000000000e+00 0.000000000000000e+00
0.000000000000000e+00 0.000000000000000e+00 0.000000000000000e+00
0.000000000000000e+00 0.000000000000000e+00 0.000000000000000e+00
0.000000000000000e+00 0.000000000000000e+00 0.000000000000000e+00
0.000000000000000e+00 0.000000000000000e+00 0.000000000000000e+00
0.000000000000000e+00 0.000000000000000e+00 0.000000000000000e+00
0.000000000000000e+00 0.000000000000000e+00 0.000000000000000e+00
0.000000000000000e+00 0.000000000000000e+00 0.000000000000000e+00
0.000000000000000e+00 0.000000000000000e+00 0.000000000000000e+00
0.000000000000000e+00 0.000000000000000e+00 0.000000000000000e+00
0.000000000000000e+00 0.000000000000000e+00 0.000000000000000e+00
0.000000000000000e+00 0.000000000000000e+00 0.000000000000000e+00
0.000000000000000e+00 0.000000000000000e+00 0.000000000000000e+00
0.000000000000000e+00 0.000000000000000e+00 0.000000000000000e+00
0.000000000000000e+00 0.000000000000000e+00 0.000000000000000e+00
0.000000000000000e+00 0.000000000000000e+00 0.000000000000000e+00
0.000000000000000e+00 0.000000000000000e+00 0.000000000000000e+00
0.000000000000000e+00 0.000000000000000e+00 0.000000000000000e+00
0.000000000000000e+00 0.000000000000000e+00 0.000000000000000e+00
0.000000000000000e+00 0.000000000000000e+00 0.000000000000000e+00
0.000000000000000e+00 0.000000000000000e+00 0.000000000000000e+00
0.000000000000000e+00 0.000000000000000e+00 0.000000000000000e+00
0.000000000000000e+00 0.000000000000000e+00 0.000000000000000e+00
        </DataArray>
        <DataArray type="Float64" Name="nodal_GL_strains_xyz" NumberOfComponents="6" format="ascii">
-2.313980782408014e-16 -3.638961707441307e-16 3.379104106020892e-16 6.966537914595488e-19 -3.537760183734910e-16 -1.774995514181864e-16
-1.294078200550696e-16 1.864071143022699e-16 -2.036476351777515e-16 3.915369511462088e-16 -9.667285572188048e-17 -1.819383280535172e-16
-2.417159856185308e-15 -8.544310505692818e-16 1.942401946723032e-16 -1.217164567775229e-15 8.725221081189674e-16 5.726706429845909e-16
-2.297606728600250e-16 -1.081810380323086e-15 3.328534127277889e-16 5.307722064094751e-16 2.594988689954434e-16 1.457195681294651e-16
-3.902418126672308e-17 1.210596942770144e-16 -1.278267258079018e-15 2.427754331708128e-16 -1.475590122459366e-15 -1.254015548522275e-15
-1.327020041325341e-15 -1.472007688211065e-16 -1.014899132832475e-15 -1.191054326240396e-15 -8.076552809492077e-16 -1.158939292580902e-15
-1.876672844851960e-16 -9.065660438266319e-16 -2.951548209883342e-16 -2.065192281211533e-16 4.626253878812189e-16 -4.401556063685787e-16
-4.108807099211002e-16 -5.399194533489328e-17 -3.468845421860714e-16 -2.260525908708382e-16 1.293319429495156e-15 -8.223062449925391e-16
4.625929269271189e-16 1.263433611448186e-17 -3.034198724555389e-18 -1.268337800643785e-16 1.576733085261838e-16 7.861592051679093e-17
-1.939470700600315e-16 1.811200370610823e-16 -3.235662782409287e-17 1.642453661199341e-16 4.348817764549503e-17 8.681702424647409e-17
-1.194409801374816e-16 9.946991781971084e-17 -2.149937642474529e-16 -1.507219760918790e-16 -5.976463681799801e-16 -3.722256052810499e-16
-1.086846614407402e-17 4.239191310457950e-16 -3.779086089612000e-17 2.447576608395726e-16 -1.333436450061066e-16 1.791614702062026e-16
1.194409801374619e-16 1.472463098747118e-16 2.149937642474331e-16 -1.268337800643785e-16 3.817696689472939e-16 2.488674914338091e-16
7.014748872022272e-17 7.834267419518627e-18 5.276915763440090e-17 1.883418573633279e-16 3.760433310844026e-17 1.921346057690176e-16
4.625929269271189e-16 1.159267745434198e-15 1.880713694953871e-16 -1.507219760918790e-16 1.815615045536843e-16 -1.693686359318033e-17
-3.779086089612000e-17 -1.850371707708515e-16 -5.864485819907497e-17 1.387778780781238e-16 -1.693686359318035e-17 2.434332583617720e-16
-3.034198724555389e-18 -3.779086089612000e-17 4.239191310457950e-16 3.911526337393576e-17 2.427990939846929e-16 1.583114226545389e-16
-2.091180636827996e-16 -1.418120768026891e-16 2.886169191847989e-16 -4.226752780053017e-17 1.699422878941885e-16 1.655969653409056e-16
-4.929349141725885e-17 -5.668629134419531e-17 1.018699521672122e-16 4.376756933505499e-16 2.935352542553754e-17 3.501456291549918e-16
2.388819602749059e-17 -5.864485819907497e-17 -1.850371707708515e-16 8.424285047328540e-17 3.917133709749465e-18 9.292895655200103e-17
-4.170799460587931e-17 0.000000000000000e+00 0.000000000000000e+00 -1.850371707708515e-16 0.000000000000000e+00 -2.085399730293966e-17
2.475991626796704e-16 0.000000000000000e+00 -1.641831734679119e-16 -1.064710043756821e-16 -3.947440085523568e-18 -7.989056887298389e-17
0.000000000000000e+00 -4.170799460587931e-17 0.000000000000000e+00 1.641831734679119e-16 -1.850371707708515e-16 0.000000000000000e+00
0.000000000000000e+00 -3.283663469358237e-16 0.000000000000000e+00 2.085399730293966e-17 -1.850371707708515e-16 0.000000000000000e+00
0.000000000000000e+00 0.000000000000000e+00 -4.170799460587931e-17 0.000000000000000e+00 -1.641831734679119e-16 -1.641831734679119e-16
0.000000000000000e+00 0.000000000000000e+00 -3.283663469358237e-16 0.000000000000000e+00 -2.085399730293966e-17 -2.085399730293966e-17
0.000000000000000e+00 0.000000000000000e+00 0.000000000000000e+00 0.000000000000000e+00 0.000000000000000e+00 0.000000000000000e+00
-1.294078200550696e-16 1.864071143022699e-16 -2.036476351777515e-16 3.915369511462088e-16 -9.667285572188048e-17 -1.819383280535172e-16
-1.593153716397501e-15 -5.574099318827120e-16 -1.382095777101101e-15 9.963073596668418e-16 -9.008794789979192e-17 7.404206170693488e-16
-5.545670357383070e-15 -7.414357030786626e-16 9.259566413920677e-16 -1.250021647898534e-15 6.128443453975404e-16 2.730536847079228e-15
-2.417159856185308e-15 -8.544310505692818e-16 1.942401946723032e-16 -1.217164567775229e-15 8.725221081189674e-16 5.726706429845909e-16
-1.327020041325341e-15 -1.472007688211065e-16 -1.014899132832475e-15 -1.191054326240396e-15 -8.076552809492077e-16 -1.158939292580902e-15
-1.705755511548082e-15 -2.214499295643785e-16 -2.163326448984372e-15 -1.330763955093855e-15 -9.553434365688438e-16 -1.673593486468728e-15
2.047195287992156e-15 9.237142955456434e-17 -3.868827405452209e-16 -5.867623705955718e-16 -5.816043514688564e-16 7.037266455604897e-16
-1.876672844851960e-16 -9.065660438266319e-16 -2.951548209883342e-16 -2.065192281211533e-16 4.626253878812189e-16 -4.401556063685787e-16
0.000000000000000e+00 8.165011924134188e-17 4.689345706977727e-17 -3.405031418340957e-16 1.637417059753002e-16 1.003528528049345e-16
5.561065947457882e-17 5.472772448930162e-16 -1.911055682199623e-16 9.662841597963755e-17 1.513747982645505e-16 -5.017516248206575e-16
0.000000000000000e+00 1.650661084531005e-16 -2.996780822133501e-16 1.659266139488513e-15 -6.423885615104116e-16 -6.432154227719418e-16
-1.939470700600315e-16 1.811200370610823e-16 -3.235662782409287e-17 1.642453661199341e-16 4.348817764549503e-17 8.681702424647409e-17
0.000000000000000e+00 4.517244607830448e-16 6.080733668314228e-16 2.041477275928398e-15 2.414746915068947e-16 1.506722219702549e-15
-6.845380236088272e-16 6.951332434312922e-17 1.850371707708317e-16 1.305270202268134e-16 2.706875436835239e-16 1.072046769959892e-16
0.000000000000000e+00 -2.050082330886025e-16 -4.786468555351107e-16 7.105774833756801e-16 -1.945812344371149e-16 5.781167733548214e-16
7.014748872022272e-17 7.834267419518627e-18 5.276915763440090e-17 1.883418573633279e-16 3.760433310844026e-17 1.921346057690176e-16
-2.091180636827996e-16 -1.418120768026891e-16 2.886169191847989e-16 -4.226752780053017e-17 1.699422878941885e-16 1.655969653409056e-16
2.866583523299840e-16 -2.189108979572122e-16 5.442430461684608e-16 1.340773176263736e-16 -3.166027079498764e-17 2.747499900068744e-16
1.134496614421574e-15 1.572318410335818e-16 -1.454804399043236e-16 5.862432459020557e-16 3.169725033873011e-16 8.990048305513778e-16
-4.929349141725885e-17 -5.668629134419531e-17 1.018699521672122e-16 4.376756933505499e-16 2.935352542553754e-17 3.501456291549918e-16
2.475991626796704e-16 0.000000000000000e+00 -1.641831734679119e-16 -1.064710043756821e-16 -3.947440085523568e-18 -7.989056887298389e-17
1.396881376955053e-15 0.000000000000000e+00 -4.170799460587931e-17 -1.571323327903386e-16 -1.523476617530904e-17 -1.894392064927951e-16
0.000000000000000e+00 -4.170799460587931e-17 0.000000000000000e+00 -6.567326938716474e-16 -2.085399730293966e-17 0.000000000000000e+00
0.000000000000000e+00 -3.283663469358237e-16 0.000000000000000e+00 -8.341598921175862e-17 -1.641831734679119e-16 0.000000000000000e+00
0.000000000000000e+00 0.000000000000000e+00 -4.170799460587931e-17 0.000000000000000e+00 -1.641831734679119e-16 0.000000000000000e+00
0.000000000000000e+00 0.000000000000000e+00 -3.283663469358237e-16 0.000000000000000e+00 -2.085399730293966e-17 0.000000000000000e+00
0.000000000000000e+00 0.000000000000000e+00 0.000000000000000e+00 0.000000000000000e+00 0.000000000000000e+00 0.000000000000000e+00
        </DataArray>
        <DataArray type="Float64" Name="nodal_cauchy_stresses_xyz" NumberOfComponents="6" format="ascii">
-2.313980782408014e-14 -3.638961707441305e-14 3.379104106020898e-14 6.966537914596365e-17 -3.537760183734910e-14 -1.774995514181864e-14
-1.294078200550709e-14 1.864071143022703e-14 -2.036476351777514e-14 3.915369511462090e-14 -9.667285572188041e-15 -1.819383280535168e-14
-2.417159856185308e-13 -8.544310505692802e-14 1.942401946723032e-14 -1.217164567775229e-13 8.725221081189678e-14 5.726706429845910e-14
-2.297606728600248e-14 -1.081810380323084e-13 3.328534127277891e-14 5.307722064094750e-14 2.594988689954436e-14 1.457195681294649e-14
-3.902418126672288e-15 1.210596942770151e-14 -1.278267258079015e-13 2.427754331708129e-14 -1.475590122459366e-13 -1.254015548522276e-13
-1.327020041325343e-13 -1.472007688211063e-14 -1.014899132832475e-13 -1.191054326240397e-13 -8.076552809492078e-14 -1.158939292580902e-13
-1.876672844851955e-14 -9.065660438266310e-14 -2.951548209883341e-14 -2.065192281211538e-14 4.626253878812193e-14 -4.401556063685789e-14
-4.108807099210998e-14 -5.399194533489188e-15 -3.468845421860688e-14 -2.260525908708386e-14 1.293319429495157e-13 -8.223062449925396e-14
4.625929269271190e-14 1.263433611448194e-15 -3.034198724555419e-16 -1.268337800643785e-14 1.576733085261838e-14 7.861592051679098e-15
-1.939470700600307e-14 1.811200370610823e-14 -3.235662782409298e-15 1.642453661199340e-14 4.348817764549504e-15 8.681702424647404e-15
-1.194409801374813e-14 9.946991781971179e-15 -2.149937642474527e-14 -1.507219760918783e-14 -5.976463681799801e-14 -3.722256052810498e-14
-1.086846614407392e-15 4.239191310457951e-14 -3.779086089612000e-15 2.447576608395725e-14 -1.333436450061066e-14 1.791614702062026e-14
1.194409801374619e-14 1.472463098747118e-14 2.149937642474331e-14 -1.268337800643785e-14 3.817696689472939e-14 2.488674914338092e-14
7.014748872022294e-15 7.834267419518655e-16 5.276915763440106e-15 1.883418573633280e-14 3.760433310844033e-15 1.921346057690179e-14
4.625929269271189e-14 1.159267745434199e-13 1.880713694953871e-14 -1.507219760918790e-14 1.815615045536843e-14 -1.693686359318034e-15
-3.779086089611998e-15 -1.850371707708515e-14 -5.864485819907485e-15 1.387778780781238e-14 -1.693686359318036e-15 2.434332583617721e-14
-3.034198724555316e-16 -3.779086089612001e-15 4.239191310457950e-14 3.911526337393573e-15 2.427990939846930e-14 1.583114226545390e-14
-2.091180636827997e-14 -1.418120768026890e-14 2.886169191847989e-14 -4.226752780053020e-15 1.699422878941885e-14 1.655969653409056e-14
-4.929349141725893e-15 -5.668629134419489e-15 1.018699521672124e-14 4.376756933505499e-14 2.935352542553782e-15 3.501456291549920e-14
2.388819602749062e-15 -5.864485819907497e-15 -1.850371707708515e-14 8.424285047328539e-15 3.917133709749528e-16 9.292895655200106e-15
-4.170799460587930e-15 8.217301096051854e-30 9.261035184477808e-31 -1.850371707708515e-14 9.261035184477808e-31 -2.085399730293965e-15
2.475991626796708e-14 4.551228130522290e-30 -1.641831734679117e-14 -1.064710043756820e-14 -3.947440085523523e-16 -7.989056887298388e-15
7.291197577604074e-30 -4.170799460587930e-15 8.217301096051854e-30 1.641831734679118e-14 -1.850371707708515e-14 -7.291197577604074e-30
9.261035184477808e-31 -3.283663469358236e-14 8.217301096051854e-30 2.085399730293965e-15 -1.850371707708514e-14 -9.261035184477808e-31
7.291197577604074e-30 7.291197577604074e-30 -4.170799460587930e-15 7.291197577604074e-30 -1.641831734679118e-14 -1.641831734679118e-14
9.261035184477808e-31 9.261035184477808e-31 -3.283663469358236e-14 9.261035184477808e-31 -2.085399730293965e-15 -2.085399730293965e-15
0.000000000000000e+00 0.000000000000000e+00 0.000000000000000e+00 0.000000000000000e+00 0.000000000000000e+00 0.000000000000000e+00
-1.294078200550709e-14 1.864071143022703e-14 -2.036476351777514e-14 3.915369511462090e-14 -9.667285572188041e-15 -1.819383280535168e-14
-1.593153716397502e-13 -5.574099318827126e-14 -1.382095777101101e-13 9.963073596668420e-14 -9.008794789979204e-15 7.404206170693483e-14
-5.545670357383062e-13 -7.414357030786631e-14 9.259566413920689e-14 -1.250021647898532e-13 6.128443453975406e-14 2.730536847079229e-13
-2.417159856185308e-13 -8.544310505692802e-14 1.942401946723032e-14 -1.217164567775229e-13 8.725221081189678e-14 5.726706429845910e-14
-1.327020041325343e-13 -1.472007688211063e-14 -1.014899132832475e-13 -1.191054326240397e-13 -8.076552809492078e-14 -1.158939292580902e-13
-1.705755511548087e-13 -2.214499295643786e-14 -2.163326448984371e-13 -1.330763955093855e-13 -9.553434365688440e-14 -1.673593486468728e-13
2.047195287992161e-13 9.237142955456449e-15 -3.868827405452181e-14 -5.867623705955694e-14 -5.816043514688546e-14 7.037266455604911e-14
-1.876672844851955e-14 -9.065660438266310e-14 -2.951548209883341e-14 -2.065192281211538e-14 4.626253878812193e-14 -4.401556063685789e-14
3.885038248684129e-28 8.165011924134196e-15 4.689345706977733e-15 -3.405031418340953e-14 1.637417059753002e-14 1.003528528049342e-14
5.561065947457980e-15 5.472772448930161e-14 -1.911055682199622e-14 9.662841597963771e-15 1.513747982645505e-14 -5.017516248206571e-14
6.713761561093920e-28 1.650661084531015e-14 -2.996780822133500e-14 1.659266139488514e-13 -6.423885615104116e-14 -6.432154227719432e-14
-1.939470700600307e-14 1.811200370610823e-14 -3.235662782409298e-15 1.642453661199340e-14 4.348817764549504e-15 8.681702424647404e-15
8.899110521404194e-28 4.517244607830449e-14 6.080733668314229e-14 2.041477275928399e-13 2.414746915068949e-14 1.506722219702550e-13
-6.845380236088276e-14 6.951332434312929e-15 1.850371707708317e-14 1.305270202268136e-14 2.706875436835239e-14 1.072046769959894e-14
2.442283595275388e-28 -2.050082330886026e-14 -4.786468555351108e-14 7.105774833756802e-14 -1.945812344371148e-14 5.781167733548210e-14
7.014748872022294e-15 7.834267419518655e-16 5.276915763440106e-15 1.883418573633280e-14 3.760433310844033e-15 1.921346057690179e-14
-2.091180636827997e-14 -1.418120768026890e-14 2.886169191847989e-14 -4.226752780053020e-15 1.699422878941885e-14 1.655969653409056e-14
2.866583523299835e-14 -2.189108979572120e-14 5.442430461684610e-14 1.340773176263740e-14 -3.166027079498756e-15 2.747499900068749e-14
1.134496614421575e-13 1.572318410335821e-14 -1.454804399043224e-14 5.862432459020568e-14 3.169725033873015e-14 8.990048305513793e-14
-4.929349141725893e-15 -5.668629134419489e-15 1.018699521672124e-14 4.376756933505499e-14 2.935352542553782e-15 3.501456291549920e-14
2.475991626796708e-14 4.551228130522290e-30 -1.641831734679117e-14 -1.064710043756820e-14 -3.947440085523523e-16 -7.989056887298388e-15
1.396881376955055e-13 6.917558983462791e-30 -4.170799460587919e-15 -1.571323327903389e-14 -1.523476617530894e-15 -1.894392064927954e-14
1.166591612416652e-28 -4.170799460587930e-15 9.261035184477808e-31 -6.567326938716474e-14 -2.085399730293965e-15 0.000000000000000e+00
1.481765629516449e-29 -3.283663469358236e-14 7.291197577604074e-30 -8.341598921175862e-15 -1.641831734679118e-14 0.000000000000000e+00
0.000000000000000e+00 7.291197577604074e-30 -4.170799460587930e-15 0.000000000000000e+00 -1.641831734679118e-14 0.000000000000000e+00
0.000000000000000e+00 9.261035184477808e-31 -3.283663469358236e-14 0.000000000000000e+00 -2.085399730293965e-15 0.000000000000000e+00
0.000000000000000e+00 0.000000000000000e+00 0.000000000000000e+00 0.000000000000000e+00 0.000000000000000e+00 0.000000000000000e+00
        </DataArray>
  </PointData>
  <CellData>
        <DataArray type="Float64" Name="element_GL_strains_xyz" NumberOfComponents="6" format="ascii">
-4.111937128241320e-17 -2.055968564120660e-17 -3.700743415417188e-17 -6.681897833392151e-18 -1.490577208987478e-17 -1.978869742966136e-17
6.990293118010244e-17 -2.055968564120660e-17 -6.167905692361981e-17 3.337583023827349e-17 -3.145714826640634e-17 7.217626906710469e-17
        </DataArray>
        <DataArray type="Float64" Name="element_cauchy_stresses_xyz" NumberOfComponents="6" format="ascii">
-4.111937128241309e-15 -2.055968564120645e-15 -3.700743415417180e-15 -6.681897833392122e-16 -1.490577208987472e-15 -1.978869742966137e-15
6.990293118010319e-15 -2.055968564120652e-15 -6.167905692361968e-15 3.337583023827360e-15 -3.145714826640630e-15 7.217626906710475e-15
        </DataArray>
      </CellData>

    </Piece>
  </UnstructuredGrid>
</VTKFile>
