<?xml version="1.0" ?> 
<!-- 
# vtk DataFile Version 3.0
-->
<VTKFile type="UnstructuredGrid" version="0.1" compressor="vtkZLibDataCompressor" byte_order="LittleEndian">
  <UnstructuredGrid>
    <FieldData>
      <DataArray type="Float64" Name="TIME" NumberOfTuples="1" format="ascii">
1.000000000000000e+02 
      </DataArray>
    </FieldData>

    <Piece NumberOfPoints="24" NumberOfCells="3" >
      <Points>
        <DataArray type="Float64" NumberOfComponents="3" format="ascii">
0.000000000000000e+00 0.000000000000000e+00 0.000000000000000e+00
1.000000000000000e+00 0.000000000000000e+00 0.000000000000000e+00
1.000000000000000e+00 1.000000000000000e+00 0.000000000000000e+00
0.000000000000000e+00 1.000000000000000e+00 0.000000000000000e+00
0.000000000000000e+00 0.000000000000000e+00 1.000000000000000e+00
1.000000000000000e+00 0.000000000000000e+00 1.000000000000000e+00
1.000000000000000e+00 1.000000000000000e+00 1.000000000000000e+00
0.000000000000000e+00 1.000000000000000e+00 1.000000000000000e+00
1.000000000000000e+00 0.000000000000000e+00 0.000000000000000e+00
2.000000000000000e+00 0.000000000000000e+00 0.000000000000000e+00
2.000000000000000e+00 1.000000000000000e+00 0.000000000000000e+00
1.000000000000000e+00 1.000000000000000e+00 0.000000000000000e+00
1.000000000000000e+00 0.000000000000000e+00 1.000000000000000e+00
2.000000000000000e+00 0.000000000000000e+00 1.000000000000000e+00
2.000000000000000e+00 1.000000000000000e+00 1.000000000000000e+00
1.000000000000000e+00 1.000000000000000e+00 1.000000000000000e+00
2.000000000000000e+00 0.000000000000000e+00 0.000000000000000e+00
3.000000000000000e+00 0.000000000000000e+00 0.000000000000000e+00
3.000000000000000e+00 1.000000000000000e+00 0.000000000000000e+00
2.000000000000000e+00 1.000000000000000e+00 0.000000000000000e+00
2.000000000000000e+00 0.000000000000000e+00 1.000000000000000e+00
3.000000000000000e+00 0.000000000000000e+00 1.000000000000000e+00
3.000000000000000e+00 1.000000000000000e+00 1.000000000000000e+00
2.000000000000000e+00 1.000000000000000e+00 1.000000000000000e+00
        </DataArray>
      </Points>

      <Cells>
        <DataArray type="Int32" Name="connectivity" format="ascii">
0 1 2 3 4 5 6 7 8 9 10 11 12 13 14 15 16 17 18 19 20 21 22 23 
        </DataArray>
        <DataArray type="Int32" Name="offsets" format="ascii">
8 16 24 
        </DataArray>
        <DataArray type="UInt8" Name="types" format="ascii">
12 12 12 
        </DataArray>
      </Cells>

  <PointData>
        <DataArray type="Float64" Name="displacement" NumberOfComponents="3" format="ascii">
9.372717742927480e-01 -1.221908636781889e-02 -1.236374382686079e-02
9.794635255051580e-01 -1.707204393709628e-02 -1.756829891524320e-02
9.885533295666524e-01 1.639391297765372e-02 -1.795811827538128e-02
9.457970078138936e-01 1.225426320962774e-02 -1.272453558753776e-02
9.542626143990214e-01 -1.290579630244203e-02 1.239892066866963e-02
9.975771081349908e-01 -1.778536376187255e-02 1.614475940996566e-02
1.006534934343319e+00 1.697271770194801e-02 1.640010803946971e-02
9.626686034943378e-01 1.287061946063319e-02 1.268935874572893e-02
9.794635255051580e-01 -1.707204393709628e-02 -1.756829891524320e-02
1.022452979170373e+00 1.080271074809378e-02 1.015671607764431e-02
1.032486032707661e+00 -1.250404997880543e-02 1.036215949234595e-02
9.885533295666524e-01 1.639391297765372e-02 -1.795811827538128e-02
9.975771081349908e-01 -1.778536376187255e-02 1.614475940996566e-02
1.042424676298019e+00 1.138911746660803e-02 -1.372987211241174e-02
1.052268758743201e+00 -1.343147371564305e-02 -1.427621346820162e-02
1.006534934343319e+00 1.697271770194801e-02 1.640010803946971e-02
1.022452979170373e+00 1.080271074809378e-02 1.015671607764431e-02
1.143724072375617e+00 2.477608591827990e-03 -9.316118562892583e-03
1.160058919910500e+00 -2.655208757984547e-02 -9.020946129414434e-03
1.032486032707661e+00 -1.250404997880543e-02 1.036215949234595e-02
1.042424676298019e+00 1.138911746660803e-02 -1.372987211241174e-02
1.176129890527842e+00 3.144825052701650e-03 -3.890501046347917e-02
1.191949325340542e+00 -2.737071844423902e-02 -3.935115653149696e-02
1.052268758743201e+00 -1.343147371564305e-02 -1.427621346820162e-02
        </DataArray>
        <DataArray type="Float64" Name="nodal_GL_strains_xyz" NumberOfComponents="6" format="ascii">
4.309359599929018e-02 2.480228331776444e-02 2.520688045964199e-02 1.957068374544452e-03 -4.642067671932898e-04 6.187836808190919e-03
4.361723402076899e-02 3.392949111122980e-02 3.430369881037171e-02 1.068559395345073e-02 -4.833275797635866e-04 1.526090888845071e-02
4.441816984342044e-02 3.392949111123033e-02 3.496156029717960e-02 -1.655625146114419e-03 1.770339206345145e-04 1.534946550142413e-02
4.367910172822786e-02 2.480228331776365e-02 2.587239509270495e-02 6.565824829571262e-03 2.026545341945250e-04 6.113493762379271e-03
4.425795826052994e-02 2.613707404449866e-02 2.520688045964120e-02 1.882444802237341e-03 -1.319835126407553e-04 1.078340021934993e-02
4.520515573143605e-02 3.525085621709006e-02 3.430369881037187e-02 1.096077545215282e-02 -1.547178888918179e-04 2.702027398851482e-03
4.597814371339019e-02 3.525085621708949e-02 3.496156029717913e-02 -2.124783886571950e-03 5.062857165700234e-04 2.419524198204833e-03
4.483023922304015e-02 2.613707404449905e-02 2.587239509270534e-02 6.491350890583591e-03 5.359459127059519e-04 1.070866853745821e-02
4.361723402076899e-02 3.392949111122980e-02 3.430369881037171e-02 1.068559395345073e-02 -4.833275797635866e-04 1.526090888845071e-02
8.648396075163151e-02 -2.312234713535702e-02 -2.354811905201294e-02 1.020067940645604e-02 4.880321669437848e-04 1.281875753870022e-02
9.056655852532070e-02 -2.312234713535694e-02 -2.429162529472748e-02 -5.041105071883762e-03 -2.587753552847869e-04 1.292491253133965e-02
4.441816984342044e-02 3.392949111123033e-02 3.496156029717960e-02 -1.655625146114419e-03 1.770339206345145e-04 1.534946550142413e-02
4.520515573143605e-02 3.525085621709006e-02 3.430369881037187e-02 1.096077545215282e-02 -1.547178888918179e-04 2.702027398851482e-03
9.456285796412287e-02 -2.461492987517735e-02 -2.354811905201276e-02 1.046987130019766e-02 1.157628932684800e-04 -2.557372348858271e-03
9.847643914187450e-02 -2.461492987517704e-02 -2.429162529472719e-02 -5.426741749864804e-03 -6.300123243234290e-04 -2.779851362439798e-03
4.597814371339019e-02 3.525085621708949e-02 3.496156029717913e-02 -2.124783886571950e-03 5.062857165700234e-04 2.419524198204833e-03
8.648396075163151e-02 -2.312234713535702e-02 -2.354811905201294e-02 1.020067940645604e-02 4.880321669437848e-04 1.281875753870022e-02
1.288270494610151e-01 -2.848116716348714e-02 -2.864169412464750e-02 5.113500565348730e-03 7.253664435241401e-04 8.716316324121965e-03
1.359758790920298e-01 -2.848116716348787e-02 -2.937658299523004e-02 2.386573136831405e-03 -1.246755458983695e-07 8.587089960510802e-03
9.056655852532070e-02 -2.312234713535694e-02 -2.429162529472748e-02 -5.041105071883762e-03 -2.587753552847869e-04 1.292491253133965e-02
9.456285796412287e-02 -2.461492987517735e-02 -2.354811905201276e-02 1.046987130019766e-02 1.157628932684800e-04 -2.557372348858271e-03
1.429733627259029e-01 -2.993064688352132e-02 -2.864169412464822e-02 4.976738882070801e-03 3.571707491799351e-04 6.151012874536718e-03
1.498268300800085e-01 -2.993064688352113e-02 -2.937658299522984e-02 2.263386095469988e-03 -3.668178517837868e-04 6.020493515527923e-03
9.847643914187450e-02 -2.461492987517704e-02 -2.429162529472719e-02 -5.426741749864804e-03 -6.300123243234290e-04 -2.779851362439798e-03
        </DataArray>
        <DataArray type="Float64" Name="nodal_cauchy_stresses_xyz" NumberOfComponents="6" format="ascii">
1.832262356390391e+02 -5.839275745710462e-01 -5.786670522732583e-01 -8.275240761590350e-01 -3.858184516286900e-03 -8.261269161999750e-01
1.822506980261662e+02 7.969960123768622e-01 7.992630969880765e-01 2.185366445613774e+00 6.316698919843965e-02 2.217463722912887e+00
1.837360425486996e+02 7.704324275613239e-01 7.791165764108110e-01 -2.208961576138317e+00 -7.350477511420382e-02 2.286931029071738e+00
1.843448957777538e+02 -6.089268091823563e-01 -5.920815918306501e-01 8.332289415638532e-01 -1.795283441995520e-03 -8.375441657213835e-01
1.854492492348890e+02 -6.099390468718477e-01 -6.278341304070585e-01 -8.429171033095710e-01 -6.396022896934587e-03 8.299175785957504e-01
1.851898147889532e+02 7.594656475455399e-01 7.489556068644705e-01 2.340086030550564e+00 -8.210446665550911e-02 -2.280109837222687e+00
1.866121780272114e+02 7.383126201477942e-01 7.342218532270844e-01 -2.394623189138607e+00 8.903889023767945e-02 -2.380515965463497e+00
1.865394657730191e+02 -6.333393761678154e-01 -6.396483262394848e-01 8.333677597092654e-01 9.959366000019270e-03 8.260810073591038e-01
1.822506980261662e+02 7.969960123768622e-01 7.992630969880765e-01 2.185366445613774e+00 6.316698919843965e-02 2.217463722912887e+00
1.921249414721077e+02 1.128653457127959e+00 8.780425043193523e-01 3.063677650730232e+00 3.560124410323702e-01 2.283340865071590e+00
1.997521548803681e+02 2.009363655996240e+00 1.270476067528120e+00 -4.744732864591266e+00 -2.118360986643135e-01 2.296186956554689e+00
1.837360425486996e+02 7.704324275613239e-01 7.791165764108110e-01 -2.208961576138317e+00 -7.350477511420382e-02 2.286931029071738e+00
1.851898147889532e+02 7.594656475455399e-01 7.489556068644705e-01 2.340086030550564e+00 -8.210446665550911e-02 -2.280109837222687e+00
2.073590491477516e+02 1.780722732054717e+00 2.510498642564823e+00 3.196011118825649e+00 -1.083225792655849e-02 -5.753722983280419e+00
2.149539998132237e+02 2.408692784607879e+00 2.650298318564691e+00 -5.098008703849094e+00 -2.454429641178958e-01 -5.987273142206414e+00
1.866121780272114e+02 7.383126201477942e-01 7.342218532270844e-01 -2.394623189138607e+00 8.903889023767945e-02 -2.380515965463497e+00
1.921249414721077e+02 1.128653457127959e+00 8.780425043193523e-01 3.063677650730232e+00 3.560124410323702e-01 2.283340865071590e+00
1.852449098479215e+02 -6.509043964469890e+00 -6.988781992755221e+00 3.973718884462014e+00 6.702400565199489e-01 5.832484964791609e+00
1.986095401144883e+02 -4.894646990347559e+00 -6.352687378037500e+00 -1.117013033556979e-02 -1.415595819592534e-01 5.591384730723980e+00
1.997521548803681e+02 2.009363655996240e+00 1.270476067528120e+00 -4.744732864591266e+00 -2.118360986643135e-01 2.296186956554689e+00
2.073590491477516e+02 1.780722732054717e+00 2.510498642564823e+00 3.196011118825649e+00 -1.083225792655849e-02 -5.753722983280419e+00
2.120489891079560e+02 -5.507537247636802e+00 -4.030095119813481e+00 3.770902613350939e+00 2.692512748305789e-01 1.804094231901317e+00
2.254877303393384e+02 -4.426844771380239e+00 -3.927703441507266e+00 -3.743404285863825e-01 -5.567773107080638e-01 1.479153695932859e+00
2.149539998132237e+02 2.408692784607879e+00 2.650298318564691e+00 -5.098008703849094e+00 -2.454429641178958e-01 -5.987273142206414e+00
        </DataArray>
  </PointData>
  <CellData>
        <DataArray type="Float64" Name="current_reference_density" format="ascii">
1.103010235477769e+00
1.107214091525794e+00
0.000000000000000e+00
        </DataArray>
        <DataArray type="Float64" Name="element_GL_strains_xyz" NumberOfComponents="6" format="ascii">
4.396522380277212e-02 3.009878026997370e-02 3.015533253270128e-02 4.368895560665254e-03 2.374490636098541e-05 8.737787301351057e-03
4.564412785173566e-02 5.222834610308202e-03 5.220100681696691e-03 4.668118904082485e-03 -2.898779381514321e-05 9.336274648261093e-03
1.394007803397391e-01 -2.646819389257553e-02 -2.639742622587524e-02 1.934762546790034e-03 5.256387879755611e-05 3.869070137065558e-03
        </DataArray>
        <DataArray type="Float64" Name="element_cauchy_stresses_xyz" NumberOfComponents="6" format="ascii">
1.839538653766542e+02 1.281650738765009e-01 1.273365796369436e-01 1.059741382008650e-03 -7.664021299084084e-04 2.124039979834319e-03
1.931667100387593e+02 -4.012296098184192e+00 -4.014276651610447e+00 -3.812838544720587e-02 -1.732930100803925e-03 -7.624769623486038e-02
2.059930212400076e+02 3.510515136083824e+00 3.512470859482368e+00 4.118067965286998e-02 3.506810956716025e-03 8.212945853740589e-02
        </DataArray>
        <DataArray type="Float64" Name="mixture_constituent_elasthyper_prestretch" NumberOfComponents="9" format="ascii">
1.000000000000000e+00 1.000000000000000e+00 1.000000000000000e+00 0.000000000000000e+00 0.000000000000000e+00 0.000000000000000e+00 0.000000000000000e+00 0.000000000000000e+00 0.000000000000000e+00
1.000000000000000e+00 1.000000000000000e+00 1.000000000000000e+00 0.000000000000000e+00 0.000000000000000e+00 0.000000000000000e+00 0.000000000000000e+00 0.000000000000000e+00 0.000000000000000e+00
0.000000000000000e+00 0.000000000000000e+00 0.000000000000000e+00 0.000000000000000e+00 0.000000000000000e+00 0.000000000000000e+00 0.000000000000000e+00 0.000000000000000e+00 0.000000000000000e+00
        </DataArray>
      </CellData>

    </Piece>
  </UnstructuredGrid>
</VTKFile>
