<?xml version="1.0" ?> 
<!-- 
# vtk DataFile Version 3.0
-->
<VTKFile type="UnstructuredGrid" version="0.1" compressor="vtkZLibDataCompressor" byte_order="LittleEndian">
  <UnstructuredGrid>
    <FieldData>
      <DataArray type="Float64" Name="TIME" NumberOfTuples="1" format="ascii">
5.000000000000000e+01 
      </DataArray>
    </FieldData>

    <Piece NumberOfPoints="24" NumberOfCells="3" >
      <Points>
        <DataArray type="Float64" NumberOfComponents="3" format="ascii">
0.000000000000000e+00 0.000000000000000e+00 0.000000000000000e+00
1.000000000000000e+00 0.000000000000000e+00 0.000000000000000e+00
1.000000000000000e+00 1.000000000000000e+00 0.000000000000000e+00
0.000000000000000e+00 1.000000000000000e+00 0.000000000000000e+00
0.000000000000000e+00 0.000000000000000e+00 1.000000000000000e+00
1.000000000000000e+00 0.000000000000000e+00 1.000000000000000e+00
1.000000000000000e+00 1.000000000000000e+00 1.000000000000000e+00
0.000000000000000e+00 1.000000000000000e+00 1.000000000000000e+00
1.000000000000000e+00 0.000000000000000e+00 0.000000000000000e+00
2.000000000000000e+00 0.000000000000000e+00 0.000000000000000e+00
2.000000000000000e+00 1.000000000000000e+00 0.000000000000000e+00
1.000000000000000e+00 1.000000000000000e+00 0.000000000000000e+00
1.000000000000000e+00 0.000000000000000e+00 1.000000000000000e+00
2.000000000000000e+00 0.000000000000000e+00 1.000000000000000e+00
2.000000000000000e+00 1.000000000000000e+00 1.000000000000000e+00
1.000000000000000e+00 1.000000000000000e+00 1.000000000000000e+00
2.000000000000000e+00 0.000000000000000e+00 0.000000000000000e+00
3.000000000000000e+00 0.000000000000000e+00 0.000000000000000e+00
3.000000000000000e+00 1.000000000000000e+00 0.000000000000000e+00
2.000000000000000e+00 1.000000000000000e+00 0.000000000000000e+00
2.000000000000000e+00 0.000000000000000e+00 1.000000000000000e+00
3.000000000000000e+00 0.000000000000000e+00 1.000000000000000e+00
3.000000000000000e+00 1.000000000000000e+00 1.000000000000000e+00
2.000000000000000e+00 1.000000000000000e+00 1.000000000000000e+00
        </DataArray>
      </Points>

      <Cells>
        <DataArray type="Int32" Name="connectivity" format="ascii">
0 1 2 3 4 5 6 7 8 9 10 11 12 13 14 15 16 17 18 19 20 21 22 23 
        </DataArray>
        <DataArray type="Int32" Name="offsets" format="ascii">
8 16 24 
        </DataArray>
        <DataArray type="UInt8" Name="types" format="ascii">
12 12 12 
        </DataArray>
      </Cells>

  <PointData>
        <DataArray type="Float64" Name="displacement" NumberOfComponents="3" format="ascii">
9.372636546873878e-01 -1.210978436736987e-02 -1.225363582604404e-02
9.791955214983740e-01 -1.692721243023628e-02 -1.742290786689751e-02
9.882888658914051e-01 1.624853704047492e-02 -1.781106344337154e-02
9.457943577506134e-01 1.214497641370685e-02 -1.261285058470364e-02
9.542653489164488e-01 -1.279332501291038e-02 1.228882787238093e-02
9.973160743824095e-01 -1.763720487590775e-02 1.599827925768207e-02
1.006277221375335e+00 1.682401372732474e-02 1.625196355748244e-02
9.626766386455502e-01 1.275813296657345e-02 1.257765853836679e-02
9.791955214983740e-01 -1.692721243023628e-02 -1.742290786689751e-02
1.021889471780855e+00 1.081224020005253e-02 1.016648533568974e-02
1.031922543176539e+00 -1.251289452397935e-02 1.037171716952864e-02
9.882888658914051e-01 1.624853704047492e-02 -1.781106344337154e-02
9.973160743824095e-01 -1.763720487590775e-02 1.599827925768207e-02
1.041861200608690e+00 1.139823324300352e-02 -1.373828155076856e-02
1.051705293483902e+00 -1.343992355751628e-02 -1.428443007076370e-02
1.006277221375335e+00 1.682401372732474e-02 1.625196355748244e-02
1.021889471780855e+00 1.081224020005253e-02 1.016648533568974e-02
1.143162527674596e+00 2.474051665474501e-03 -9.319550308481740e-03
1.159497480202995e+00 -2.654826423645612e-02 -9.024396480538139e-03
1.031922543176539e+00 -1.251289452397935e-02 1.037171716952864e-02
1.041861200608690e+00 1.139823324300352e-02 -1.373828155076856e-02
1.175568539496999e+00 3.141227808041722e-03 -3.890104234175737e-02
1.191388048989386e+00 -2.736684814251163e-02 -3.934716298135527e-02
1.051705293483902e+00 -1.343992355751628e-02 -1.428443007076370e-02
        </DataArray>
        <DataArray type="Float64" Name="nodal_GL_strains_xyz" NumberOfComponents="6" format="ascii">
4.282263989294809e-02 2.457852370356402e-02 2.498154238906947e-02 1.977531816830847e-03 -4.615684464544745e-04 6.209923778063195e-03
4.332651276287142e-02 3.363098356393680e-02 3.400352134212951e-02 1.065874347759337e-02 -4.805591794608031e-04 1.523447314821573e-02
4.412429945800414e-02 3.363098356393691e-02 3.465779880981409e-02 -1.627306922976740e-03 1.762258805173407e-04 1.532237088237649e-02
4.340600941675643e-02 2.457852370356397e-02 2.564364518379432e-02 6.548620867180390e-03 2.018888908958726e-04 6.135564554654702e-03
4.398270524571606e-02 2.590649617395053e-02 2.498154238906876e-02 1.902947108335293e-03 -1.310459469348770e-04 1.076776007282775e-02
4.490816367513397e-02 3.494518727630467e-02 3.400352134212921e-02 1.093271386532272e-02 -1.537372418242349e-04 2.731291373752514e-03
4.567805740425213e-02 3.494518727630426e-02 3.465779880981413e-02 -2.095467243524152e-03 5.036814105653941e-04 2.449234408721477e-03
4.455280127615358e-02 2.590649617395072e-02 2.564364518379451e-02 6.473964957196618e-03 5.334691861017839e-04 1.069290151513254e-02
4.332651276287142e-02 3.363098356393680e-02 3.400352134212951e-02 1.065874347759337e-02 -4.805591794608031e-04 1.523447314821573e-02
8.633002515493755e-02 -2.313899714017267e-02 -2.356453904549500e-02 1.016363323183307e-02 4.876855873164631e-04 1.278095226960988e-02
9.041045113561988e-02 -2.313899714017248e-02 -2.430758748872557e-02 -5.005210620703209e-03 -2.586642418300755e-04 1.288670062895833e-02
4.412429945800414e-02 3.363098356393691e-02 3.465779880981409e-02 -1.627306922976740e-03 1.762258805173407e-04 1.532237088237649e-02
4.490816367513397e-02 3.494518727630467e-02 3.400352134212921e-02 1.093271386532272e-02 -1.537372418242349e-04 2.731291373752514e-03
9.440461724521110e-02 -2.463066384057894e-02 -2.356453904549469e-02 1.043203621575851e-02 1.156448867579489e-04 -2.521894374448100e-03
9.831610388053263e-02 -2.463066384057883e-02 -2.430758748872557e-02 -5.390104927683720e-03 -6.296719845020732e-04 -2.744013283032859e-03
4.567805740425213e-02 3.494518727630426e-02 3.465779880981413e-02 -2.095467243524152e-03 5.036814105653941e-04 2.449234408721477e-03
8.633002515493755e-02 -2.313899714017267e-02 -2.356453904549500e-02 1.016363323183307e-02 4.876855873164631e-04 1.278095226960988e-02
1.288296646770804e-01 -2.847397496461080e-02 -2.863448299643911e-02 5.107191365235746e-03 7.253444075972685e-04 8.709978470605227e-03
1.359783127719889e-01 -2.847397496461192e-02 -2.936933605068066e-02 2.392747184066022e-03 -1.104693534261848e-07 8.580833553110158e-03
9.041045113561988e-02 -2.313899714017248e-02 -2.430758748872557e-02 -5.005210620703209e-03 -2.586642418300755e-04 1.288670062895833e-02
9.440461724521110e-02 -2.463066384057894e-02 -2.356453904549469e-02 1.043203621575851e-02 1.156448867579489e-04 -2.521894374448100e-03
1.429756123858693e-01 -2.992338234440763e-02 -2.863448299643948e-02 4.970603256001752e-03 3.571666934242381e-04 6.157068716476568e-03
1.498288942287146e-01 -2.992338234440732e-02 -2.936933605068052e-02 2.269364587564194e-03 -3.667858094212209e-04 6.026445909353002e-03
9.831610388053263e-02 -2.463066384057883e-02 -2.430758748872557e-02 -5.390104927683720e-03 -6.296719845020732e-04 -2.744013283032859e-03
        </DataArray>
        <DataArray type="Float64" Name="nodal_cauchy_stresses_xyz" NumberOfComponents="6" format="ascii">
1.833085895755931e+02 -5.792882836640240e-01 -5.740527669387858e-01 -8.214716250357450e-01 -3.886969657544231e-03 -8.200509758446446e-01
1.823433620651901e+02 7.942260039236604e-01 7.964776359927632e-01 2.177947976201299e+00 6.256952293947937e-02 2.210055260776735e+00
1.838315848899603e+02 7.677847164136451e-01 7.764264497826103e-01 -2.201380460084410e+00 -7.287212539318574e-02 2.279368318378674e+00
1.844291209736573e+02 -6.041988579530220e-01 -5.874275214071388e-01 8.271859537265566e-01 -1.750663820673830e-03 -8.314354797834683e-01
1.855353198042075e+02 -6.052168945347256e-01 -6.230391954029378e-01 -8.367930212048255e-01 -6.334414704802614e-03 8.238542211499279e-01
1.852882045260748e+02 7.568806176832171e-01 7.464090313405296e-01 2.332373478430749e+00 -8.143350761230515e-02 -2.272390945737472e+00
1.867133835968839e+02 7.358382110675877e-01 7.317589398752017e-01 -2.386777715861942e+00 8.832645018665335e-02 -2.372672549494576e+00
1.866273561884111e+02 -6.285220287298314e-01 -6.348070723814522e-01 8.272403988162658e-01 9.879660009023912e-03 8.199721605685005e-01
1.823433620651901e+02 7.942260039236604e-01 7.964776359927632e-01 2.177947976201299e+00 6.256952293947937e-02 2.210055260776735e+00
1.921320396448423e+02 1.118292906291181e+00 8.678664422081548e-01 3.046047281177189e+00 3.552523455675268e-01 2.265463608189135e+00
1.997612822302082e+02 1.998435835980789e+00 1.260102175110222e+00 -4.727315571532573e+00 -2.110696536608384e-01 2.278004829613667e+00
1.838315848899603e+02 7.677847164136451e-01 7.764264497826103e-01 -2.201380460084410e+00 -7.287212539318574e-02 2.279368318378674e+00
1.852882045260748e+02 7.568806176832171e-01 7.464090313405296e-01 2.332373478430749e+00 -8.143350761230515e-02 -2.272390945737472e+00
2.073702233809216e+02 1.769956536223768e+00 2.499177946430192e+00 3.177788412665619e+00 -1.005173530684757e-02 -5.736289997414215e+00
2.149672382556780e+02 2.397340962426717e+00 2.638761470910126e+00 -5.080036059545317e+00 -2.462459415110063e-01 -5.969572233347437e+00
1.867133835968839e+02 7.358382110675877e-01 7.317589398752017e-01 -2.386777715861942e+00 8.832645018665335e-02 -2.372672549494576e+00
1.921320396448423e+02 1.118292906291181e+00 8.678664422081548e-01 3.046047281177189e+00 3.552523455675268e-01 2.265463608189135e+00
1.852526292271808e+02 -6.485084670353539e+00 -6.964594019316391e+00 3.964738586325140e+00 6.703967064283773e-01 5.823468400649145e+00
1.986170115673256e+02 -4.871099775670596e+00 -6.328460069540006e+00 -2.186383705385819e-03 -1.415707712642955e-01 5.582307649915118e+00
1.997612822302082e+02 1.998435835980789e+00 1.260102175110222e+00 -4.727315571532573e+00 -2.110696536608384e-01 2.278004829613667e+00
2.073702233809216e+02 1.769956536223768e+00 2.499177946430192e+00 3.177788412665619e+00 -1.005173530684757e-02 -5.736289997414215e+00
2.120561882542404e+02 -5.483471146293674e+00 -4.006703172735859e+00 3.761791661678395e+00 2.693700988741982e-01 1.813124094926948e+00
2.254946306854316e+02 -4.403134246977192e+00 -3.904215600250136e+00 -3.652121055503927e-01 -5.570092112427831e-01 1.488257961105958e+00
2.149672382556780e+02 2.397340962426717e+00 2.638761470910126e+00 -5.080036059545317e+00 -2.462459415110063e-01 -5.969572233347437e+00
        </DataArray>
  </PointData>
  <CellData>
        <DataArray type="Float64" Name="current_reference_density_gp_0" format="ascii">
1.100937046248156e+00
1.104106911243961e+00
0.000000000000000e+00
        </DataArray>
        <DataArray type="Float64" Name="current_reference_density_gp_1" format="ascii">
1.100937046248156e+00
1.104106911243961e+00
0.000000000000000e+00
        </DataArray>
        <DataArray type="Float64" Name="current_reference_density_gp_2" format="ascii">
1.101774018759586e+00
1.105557631889785e+00
0.000000000000000e+00
        </DataArray>
        <DataArray type="Float64" Name="current_reference_density_gp_3" format="ascii">
1.101774018759585e+00
1.105557631889785e+00
0.000000000000000e+00
        </DataArray>
        <DataArray type="Float64" Name="current_reference_density_gp_4" format="ascii">
1.102606025173971e+00
1.106992526146665e+00
0.000000000000000e+00
        </DataArray>
        <DataArray type="Float64" Name="current_reference_density_gp_5" format="ascii">
1.102606025173972e+00
1.106992526146665e+00
0.000000000000000e+00
        </DataArray>
        <DataArray type="Float64" Name="current_reference_density_gp_6" format="ascii">
1.103433157056366e+00
1.108411267124583e+00
0.000000000000000e+00
        </DataArray>
        <DataArray type="Float64" Name="current_reference_density_gp_7" format="ascii">
1.103433157056366e+00
1.108411267124583e+00
0.000000000000000e+00
        </DataArray>
        <DataArray type="Float64" Name="element_GL_strains_xyz" NumberOfComponents="6" format="ascii">
4.369103895789365e-02 2.983351198153159e-02 2.989018423392661e-02 4.369949381666578e-03 2.382724975429786e-05 8.739894631690191e-03
4.532747769223718e-02 5.064994888855506e-03 5.062324407606678e-03 4.667945924042064e-03 -2.894435477243990e-05 9.335928186429495e-03
1.394031210159133e-01 -2.647333629851822e-02 -2.640256970123585e-02 1.934735355997680e-03 5.256319763502761e-05 3.869015516696571e-03
        </DataArray>
        <DataArray type="Float64" Name="element_cauchy_stresses_xyz" NumberOfComponents="6" format="ascii">
1.840459467591739e+02 1.277186981356182e-01 1.268894281840554e-01 1.057027780040354e-03 -7.671659244216652e-04 2.118626428328926e-03
1.932257247774409e+02 -3.995451093321180e+00 -3.997434120147293e+00 -3.798242991148654e-02 -1.735011214937160e-03 -7.595576008247973e-02
2.059952638953309e+02 3.494919354666129e+00 3.496877287629098e+00 4.099892062535004e-02 3.507820269415429e-03 8.176596048121526e-02
        </DataArray>
        <DataArray type="Float64" Name="mixture_constituent_elasthyper_prestretch_gp_0" NumberOfComponents="9" format="ascii">
1.000000000000000e+00 1.000000000000000e+00 1.000000000000000e+00 0.000000000000000e+00 0.000000000000000e+00 0.000000000000000e+00 0.000000000000000e+00 0.000000000000000e+00 0.000000000000000e+00
1.000000000000000e+00 1.000000000000000e+00 1.000000000000000e+00 0.000000000000000e+00 0.000000000000000e+00 0.000000000000000e+00 0.000000000000000e+00 0.000000000000000e+00 0.000000000000000e+00
0.000000000000000e+00 0.000000000000000e+00 0.000000000000000e+00 0.000000000000000e+00 0.000000000000000e+00 0.000000000000000e+00 0.000000000000000e+00 0.000000000000000e+00 0.000000000000000e+00
        </DataArray>
        <DataArray type="Float64" Name="mixture_constituent_elasthyper_prestretch_gp_1" NumberOfComponents="9" format="ascii">
1.000000000000000e+00 1.000000000000000e+00 1.000000000000000e+00 0.000000000000000e+00 0.000000000000000e+00 0.000000000000000e+00 0.000000000000000e+00 0.000000000000000e+00 0.000000000000000e+00
1.000000000000000e+00 1.000000000000000e+00 1.000000000000000e+00 0.000000000000000e+00 0.000000000000000e+00 0.000000000000000e+00 0.000000000000000e+00 0.000000000000000e+00 0.000000000000000e+00
0.000000000000000e+00 0.000000000000000e+00 0.000000000000000e+00 0.000000000000000e+00 0.000000000000000e+00 0.000000000000000e+00 0.000000000000000e+00 0.000000000000000e+00 0.000000000000000e+00
        </DataArray>
        <DataArray type="Float64" Name="mixture_constituent_elasthyper_prestretch_gp_2" NumberOfComponents="9" format="ascii">
1.000000000000000e+00 1.000000000000000e+00 1.000000000000000e+00 0.000000000000000e+00 0.000000000000000e+00 0.000000000000000e+00 0.000000000000000e+00 0.000000000000000e+00 0.000000000000000e+00
1.000000000000000e+00 1.000000000000000e+00 1.000000000000000e+00 0.000000000000000e+00 0.000000000000000e+00 0.000000000000000e+00 0.000000000000000e+00 0.000000000000000e+00 0.000000000000000e+00
0.000000000000000e+00 0.000000000000000e+00 0.000000000000000e+00 0.000000000000000e+00 0.000000000000000e+00 0.000000000000000e+00 0.000000000000000e+00 0.000000000000000e+00 0.000000000000000e+00
        </DataArray>
        <DataArray type="Float64" Name="mixture_constituent_elasthyper_prestretch_gp_3" NumberOfComponents="9" format="ascii">
1.000000000000000e+00 1.000000000000000e+00 1.000000000000000e+00 0.000000000000000e+00 0.000000000000000e+00 0.000000000000000e+00 0.000000000000000e+00 0.000000000000000e+00 0.000000000000000e+00
1.000000000000000e+00 1.000000000000000e+00 1.000000000000000e+00 0.000000000000000e+00 0.000000000000000e+00 0.000000000000000e+00 0.000000000000000e+00 0.000000000000000e+00 0.000000000000000e+00
0.000000000000000e+00 0.000000000000000e+00 0.000000000000000e+00 0.000000000000000e+00 0.000000000000000e+00 0.000000000000000e+00 0.000000000000000e+00 0.000000000000000e+00 0.000000000000000e+00
        </DataArray>
        <DataArray type="Float64" Name="mixture_constituent_elasthyper_prestretch_gp_4" NumberOfComponents="9" format="ascii">
1.000000000000000e+00 1.000000000000000e+00 1.000000000000000e+00 0.000000000000000e+00 0.000000000000000e+00 0.000000000000000e+00 0.000000000000000e+00 0.000000000000000e+00 0.000000000000000e+00
1.000000000000000e+00 1.000000000000000e+00 1.000000000000000e+00 0.000000000000000e+00 0.000000000000000e+00 0.000000000000000e+00 0.000000000000000e+00 0.000000000000000e+00 0.000000000000000e+00
0.000000000000000e+00 0.000000000000000e+00 0.000000000000000e+00 0.000000000000000e+00 0.000000000000000e+00 0.000000000000000e+00 0.000000000000000e+00 0.000000000000000e+00 0.000000000000000e+00
        </DataArray>
        <DataArray type="Float64" Name="mixture_constituent_elasthyper_prestretch_gp_5" NumberOfComponents="9" format="ascii">
1.000000000000000e+00 1.000000000000000e+00 1.000000000000000e+00 0.000000000000000e+00 0.000000000000000e+00 0.000000000000000e+00 0.000000000000000e+00 0.000000000000000e+00 0.000000000000000e+00
1.000000000000000e+00 1.000000000000000e+00 1.000000000000000e+00 0.000000000000000e+00 0.000000000000000e+00 0.000000000000000e+00 0.000000000000000e+00 0.000000000000000e+00 0.000000000000000e+00
0.000000000000000e+00 0.000000000000000e+00 0.000000000000000e+00 0.000000000000000e+00 0.000000000000000e+00 0.000000000000000e+00 0.000000000000000e+00 0.000000000000000e+00 0.000000000000000e+00
        </DataArray>
        <DataArray type="Float64" Name="mixture_constituent_elasthyper_prestretch_gp_6" NumberOfComponents="9" format="ascii">
1.000000000000000e+00 1.000000000000000e+00 1.000000000000000e+00 0.000000000000000e+00 0.000000000000000e+00 0.000000000000000e+00 0.000000000000000e+00 0.000000000000000e+00 0.000000000000000e+00
1.000000000000000e+00 1.000000000000000e+00 1.000000000000000e+00 0.000000000000000e+00 0.000000000000000e+00 0.000000000000000e+00 0.000000000000000e+00 0.000000000000000e+00 0.000000000000000e+00
0.000000000000000e+00 0.000000000000000e+00 0.000000000000000e+00 0.000000000000000e+00 0.000000000000000e+00 0.000000000000000e+00 0.000000000000000e+00 0.000000000000000e+00 0.000000000000000e+00
        </DataArray>
        <DataArray type="Float64" Name="mixture_constituent_elasthyper_prestretch_gp_7" NumberOfComponents="9" format="ascii">
1.000000000000000e+00 1.000000000000000e+00 1.000000000000000e+00 0.000000000000000e+00 0.000000000000000e+00 0.000000000000000e+00 0.000000000000000e+00 0.000000000000000e+00 0.000000000000000e+00
1.000000000000000e+00 1.000000000000000e+00 1.000000000000000e+00 0.000000000000000e+00 0.000000000000000e+00 0.000000000000000e+00 0.000000000000000e+00 0.000000000000000e+00 0.000000000000000e+00
0.000000000000000e+00 0.000000000000000e+00 0.000000000000000e+00 0.000000000000000e+00 0.000000000000000e+00 0.000000000000000e+00 0.000000000000000e+00 0.000000000000000e+00 0.000000000000000e+00
        </DataArray>
      </CellData>

    </Piece>
  </UnstructuredGrid>
</VTKFile>
