<?xml version="1.0" ?> 
<!-- 
# vtk DataFile Version 3.0
-->
<VTKFile type="UnstructuredGrid" version="0.1" compressor="vtkZLibDataCompressor" byte_order="LittleEndian">
  <UnstructuredGrid>
    <FieldData>
      <DataArray type="Float64" Name="TIME" NumberOfTuples="1" format="ascii">
5.000000000000000e+00 
      </DataArray>
    </FieldData>

    <Piece NumberOfPoints="304" NumberOfCells="31" >
      <Points>
        <DataArray type="Float64" NumberOfComponents="3" format="ascii">
0.000000000000000e+00 0.000000000000000e+00 0.000000000000000e+00
1.000000000000000e+00 0.000000000000000e+00 0.000000000000000e+00
1.000000000000000e+00 1.000000000000000e+00 0.000000000000000e+00
0.000000000000000e+00 1.000000000000000e+00 0.000000000000000e+00
0.000000000000000e+00 0.000000000000000e+00 1.000000000000000e+00
1.000000000000000e+00 0.000000000000000e+00 1.000000000000000e+00
1.000000000000000e+00 1.000000000000000e+00 1.000000000000000e+00
0.000000000000000e+00 1.000000000000000e+00 1.000000000000000e+00
1.000000000000000e+00 0.000000000000000e+00 0.000000000000000e+00
2.000000000000000e+00 0.000000000000000e+00 0.000000000000000e+00
2.000000000000000e+00 1.000000000000000e+00 0.000000000000000e+00
1.000000000000000e+00 1.000000000000000e+00 0.000000000000000e+00
1.000000000000000e+00 0.000000000000000e+00 1.000000000000000e+00
2.000000000000000e+00 0.000000000000000e+00 1.000000000000000e+00
2.000000000000000e+00 1.000000000000000e+00 1.000000000000000e+00
1.000000000000000e+00 1.000000000000000e+00 1.000000000000000e+00
2.000000000000000e+00 0.000000000000000e+00 0.000000000000000e+00
3.000000000000000e+00 0.000000000000000e+00 0.000000000000000e+00
3.000000000000000e+00 1.000000000000000e+00 0.000000000000000e+00
2.000000000000000e+00 1.000000000000000e+00 0.000000000000000e+00
2.000000000000000e+00 0.000000000000000e+00 1.000000000000000e+00
3.000000000000000e+00 0.000000000000000e+00 1.000000000000000e+00
3.000000000000000e+00 1.000000000000000e+00 1.000000000000000e+00
2.000000000000000e+00 1.000000000000000e+00 1.000000000000000e+00
0.000000000000000e+00 1.500000000000000e+00 1.000000000000000e+00
0.000000000000000e+00 1.500000000000000e+00 0.000000000000000e+00
0.000000000000000e+00 2.000000000000000e+00 5.000000000000000e-01
5.000000000000000e-01 1.500000000000000e+00 5.000000000000000e-01
0.000000000000000e+00 1.500000000000000e+00 5.000000000000000e-01
0.000000000000000e+00 1.750000000000000e+00 2.500000000000000e-01
0.000000000000000e+00 1.750000000000000e+00 7.500000000000000e-01
2.500000000000000e-01 1.500000000000000e+00 7.500000000000000e-01
2.500000000000000e-01 1.500000000000000e+00 2.500000000000000e-01
2.500000000000000e-01 1.750000000000000e+00 5.000000000000000e-01
0.000000000000000e+00 1.500000000000000e+00 0.000000000000000e+00
0.000000000000000e+00 2.500000000000000e+00 0.000000000000000e+00
0.000000000000000e+00 2.000000000000000e+00 5.000000000000000e-01
5.000000000000000e-01 2.000000000000000e+00 0.000000000000000e+00
0.000000000000000e+00 2.000000000000000e+00 0.000000000000000e+00
0.000000000000000e+00 2.250000000000000e+00 2.500000000000000e-01
0.000000000000000e+00 1.750000000000000e+00 2.500000000000000e-01
2.500000000000000e-01 1.750000000000000e+00 0.000000000000000e+00
2.500000000000000e-01 2.250000000000000e+00 0.000000000000000e+00
2.500000000000000e-01 2.000000000000000e+00 2.500000000000000e-01
0.000000000000000e+00 2.500000000000000e+00 0.000000000000000e+00
0.000000000000000e+00 2.500000000000000e+00 1.000000000000000e+00
0.000000000000000e+00 2.000000000000000e+00 5.000000000000000e-01
5.000000000000000e-01 2.500000000000000e+00 5.000000000000000e-01
0.000000000000000e+00 2.500000000000000e+00 5.000000000000000e-01
0.000000000000000e+00 2.250000000000000e+00 7.500000000000000e-01
0.000000000000000e+00 2.250000000000000e+00 2.500000000000000e-01
2.500000000000000e-01 2.500000000000000e+00 2.500000000000000e-01
2.500000000000000e-01 2.500000000000000e+00 7.500000000000000e-01
2.500000000000000e-01 2.250000000000000e+00 5.000000000000000e-01
0.000000000000000e+00 2.500000000000000e+00 1.000000000000000e+00
0.000000000000000e+00 1.500000000000000e+00 1.000000000000000e+00
0.000000000000000e+00 2.000000000000000e+00 5.000000000000000e-01
5.000000000000000e-01 2.000000000000000e+00 1.000000000000000e+00
0.000000000000000e+00 2.000000000000000e+00 1.000000000000000e+00
0.000000000000000e+00 1.750000000000000e+00 7.500000000000000e-01
0.000000000000000e+00 2.250000000000000e+00 7.500000000000000e-01
2.500000000000000e-01 2.250000000000000e+00 1.000000000000000e+00
2.500000000000000e-01 1.750000000000000e+00 1.000000000000000e+00
2.500000000000000e-01 2.000000000000000e+00 7.500000000000000e-01
0.000000000000000e+00 1.500000000000000e+00 1.000000000000000e+00
1.000000000000000e+00 1.500000000000000e+00 1.000000000000000e+00
5.000000000000000e-01 1.500000000000000e+00 5.000000000000000e-01
5.000000000000000e-01 2.000000000000000e+00 1.000000000000000e+00
5.000000000000000e-01 1.500000000000000e+00 1.000000000000000e+00
7.500000000000000e-01 1.500000000000000e+00 7.500000000000000e-01
2.500000000000000e-01 1.500000000000000e+00 7.500000000000000e-01
2.500000000000000e-01 1.750000000000000e+00 1.000000000000000e+00
7.500000000000000e-01 1.750000000000000e+00 1.000000000000000e+00
5.000000000000000e-01 1.750000000000000e+00 7.500000000000000e-01
0.000000000000000e+00 1.500000000000000e+00 0.000000000000000e+00
1.000000000000000e+00 1.500000000000000e+00 0.000000000000000e+00
5.000000000000000e-01 2.000000000000000e+00 0.000000000000000e+00
5.000000000000000e-01 1.500000000000000e+00 5.000000000000000e-01
5.000000000000000e-01 1.500000000000000e+00 0.000000000000000e+00
7.500000000000000e-01 1.750000000000000e+00 0.000000000000000e+00
2.500000000000000e-01 1.750000000000000e+00 0.000000000000000e+00
2.500000000000000e-01 1.500000000000000e+00 2.500000000000000e-01
7.500000000000000e-01 1.500000000000000e+00 2.500000000000000e-01
5.000000000000000e-01 1.750000000000000e+00 2.500000000000000e-01
0.000000000000000e+00 2.500000000000000e+00 0.000000000000000e+00
1.000000000000000e+00 2.500000000000000e+00 0.000000000000000e+00
5.000000000000000e-01 2.500000000000000e+00 5.000000000000000e-01
5.000000000000000e-01 2.000000000000000e+00 0.000000000000000e+00
5.000000000000000e-01 2.500000000000000e+00 0.000000000000000e+00
7.500000000000000e-01 2.500000000000000e+00 2.500000000000000e-01
2.500000000000000e-01 2.500000000000000e+00 2.500000000000000e-01
2.500000000000000e-01 2.250000000000000e+00 0.000000000000000e+00
7.500000000000000e-01 2.250000000000000e+00 0.000000000000000e+00
5.000000000000000e-01 2.250000000000000e+00 2.500000000000000e-01
0.000000000000000e+00 2.500000000000000e+00 1.000000000000000e+00
1.000000000000000e+00 2.500000000000000e+00 1.000000000000000e+00
5.000000000000000e-01 2.000000000000000e+00 1.000000000000000e+00
5.000000000000000e-01 2.500000000000000e+00 5.000000000000000e-01
5.000000000000000e-01 2.500000000000000e+00 1.000000000000000e+00
7.500000000000000e-01 2.250000000000000e+00 1.000000000000000e+00
2.500000000000000e-01 2.250000000000000e+00 1.000000000000000e+00
2.500000000000000e-01 2.500000000000000e+00 7.500000000000000e-01
7.500000000000000e-01 2.500000000000000e+00 7.500000000000000e-01
5.000000000000000e-01 2.250000000000000e+00 7.500000000000000e-01
1.000000000000000e+00 1.500000000000000e+00 1.000000000000000e+00
1.000000000000000e+00 1.500000000000000e+00 0.000000000000000e+00
5.000000000000000e-01 1.500000000000000e+00 5.000000000000000e-01
1.000000000000000e+00 2.000000000000000e+00 5.000000000000000e-01
1.000000000000000e+00 1.500000000000000e+00 5.000000000000000e-01
7.500000000000000e-01 1.500000000000000e+00 2.500000000000000e-01
7.500000000000000e-01 1.500000000000000e+00 7.500000000000000e-01
1.000000000000000e+00 1.750000000000000e+00 7.500000000000000e-01
1.000000000000000e+00 1.750000000000000e+00 2.500000000000000e-01
7.500000000000000e-01 1.750000000000000e+00 5.000000000000000e-01
1.000000000000000e+00 1.500000000000000e+00 0.000000000000000e+00
1.000000000000000e+00 2.500000000000000e+00 0.000000000000000e+00
5.000000000000000e-01 2.000000000000000e+00 0.000000000000000e+00
1.000000000000000e+00 2.000000000000000e+00 5.000000000000000e-01
1.000000000000000e+00 2.000000000000000e+00 0.000000000000000e+00
7.500000000000000e-01 2.250000000000000e+00 0.000000000000000e+00
7.500000000000000e-01 1.750000000000000e+00 0.000000000000000e+00
1.000000000000000e+00 1.750000000000000e+00 2.500000000000000e-01
1.000000000000000e+00 2.250000000000000e+00 2.500000000000000e-01
7.500000000000000e-01 2.000000000000000e+00 2.500000000000000e-01
1.000000000000000e+00 2.500000000000000e+00 0.000000000000000e+00
1.000000000000000e+00 2.500000000000000e+00 1.000000000000000e+00
5.000000000000000e-01 2.500000000000000e+00 5.000000000000000e-01
1.000000000000000e+00 2.000000000000000e+00 5.000000000000000e-01
1.000000000000000e+00 2.500000000000000e+00 5.000000000000000e-01
7.500000000000000e-01 2.500000000000000e+00 7.500000000000000e-01
7.500000000000000e-01 2.500000000000000e+00 2.500000000000000e-01
1.000000000000000e+00 2.250000000000000e+00 2.500000000000000e-01
1.000000000000000e+00 2.250000000000000e+00 7.500000000000000e-01
7.500000000000000e-01 2.250000000000000e+00 5.000000000000000e-01
1.000000000000000e+00 2.500000000000000e+00 1.000000000000000e+00
1.000000000000000e+00 1.500000000000000e+00 1.000000000000000e+00
5.000000000000000e-01 2.000000000000000e+00 1.000000000000000e+00
1.000000000000000e+00 2.000000000000000e+00 5.000000000000000e-01
1.000000000000000e+00 2.000000000000000e+00 1.000000000000000e+00
7.500000000000000e-01 1.750000000000000e+00 1.000000000000000e+00
7.500000000000000e-01 2.250000000000000e+00 1.000000000000000e+00
1.000000000000000e+00 2.250000000000000e+00 7.500000000000000e-01
1.000000000000000e+00 1.750000000000000e+00 7.500000000000000e-01
7.500000000000000e-01 2.000000000000000e+00 7.500000000000000e-01
0.000000000000000e+00 2.000000000000000e+00 5.000000000000000e-01
5.000000000000000e-01 1.500000000000000e+00 5.000000000000000e-01
5.000000000000000e-01 2.000000000000000e+00 1.000000000000000e+00
0.000000000000000e+00 1.500000000000000e+00 1.000000000000000e+00
2.500000000000000e-01 1.750000000000000e+00 5.000000000000000e-01
5.000000000000000e-01 1.750000000000000e+00 7.500000000000000e-01
2.500000000000000e-01 2.000000000000000e+00 7.500000000000000e-01
0.000000000000000e+00 1.750000000000000e+00 7.500000000000000e-01
2.500000000000000e-01 1.500000000000000e+00 7.500000000000000e-01
2.500000000000000e-01 1.750000000000000e+00 1.000000000000000e+00
0.000000000000000e+00 2.000000000000000e+00 5.000000000000000e-01
5.000000000000000e-01 2.000000000000000e+00 0.000000000000000e+00
5.000000000000000e-01 1.500000000000000e+00 5.000000000000000e-01
0.000000000000000e+00 1.500000000000000e+00 0.000000000000000e+00
2.500000000000000e-01 2.000000000000000e+00 2.500000000000000e-01
5.000000000000000e-01 1.750000000000000e+00 2.500000000000000e-01
2.500000000000000e-01 1.750000000000000e+00 5.000000000000000e-01
0.000000000000000e+00 1.750000000000000e+00 2.500000000000000e-01
2.500000000000000e-01 1.750000000000000e+00 0.000000000000000e+00
2.500000000000000e-01 1.500000000000000e+00 2.500000000000000e-01
0.000000000000000e+00 2.000000000000000e+00 5.000000000000000e-01
5.000000000000000e-01 2.500000000000000e+00 5.000000000000000e-01
5.000000000000000e-01 2.000000000000000e+00 0.000000000000000e+00
0.000000000000000e+00 2.500000000000000e+00 0.000000000000000e+00
2.500000000000000e-01 2.250000000000000e+00 5.000000000000000e-01
5.000000000000000e-01 2.250000000000000e+00 2.500000000000000e-01
2.500000000000000e-01 2.000000000000000e+00 2.500000000000000e-01
0.000000000000000e+00 2.250000000000000e+00 2.500000000000000e-01
2.500000000000000e-01 2.500000000000000e+00 2.500000000000000e-01
2.500000000000000e-01 2.250000000000000e+00 0.000000000000000e+00
0.000000000000000e+00 2.000000000000000e+00 5.000000000000000e-01
5.000000000000000e-01 2.000000000000000e+00 1.000000000000000e+00
5.000000000000000e-01 2.500000000000000e+00 5.000000000000000e-01
0.000000000000000e+00 2.500000000000000e+00 1.000000000000000e+00
2.500000000000000e-01 2.000000000000000e+00 7.500000000000000e-01
5.000000000000000e-01 2.250000000000000e+00 7.500000000000000e-01
2.500000000000000e-01 2.250000000000000e+00 5.000000000000000e-01
0.000000000000000e+00 2.250000000000000e+00 7.500000000000000e-01
2.500000000000000e-01 2.250000000000000e+00 1.000000000000000e+00
2.500000000000000e-01 2.500000000000000e+00 7.500000000000000e-01
1.000000000000000e+00 2.000000000000000e+00 5.000000000000000e-01
5.000000000000000e-01 2.000000000000000e+00 1.000000000000000e+00
5.000000000000000e-01 1.500000000000000e+00 5.000000000000000e-01
1.000000000000000e+00 1.500000000000000e+00 1.000000000000000e+00
7.500000000000000e-01 2.000000000000000e+00 7.500000000000000e-01
5.000000000000000e-01 1.750000000000000e+00 7.500000000000000e-01
7.500000000000000e-01 1.750000000000000e+00 5.000000000000000e-01
1.000000000000000e+00 1.750000000000000e+00 7.500000000000000e-01
7.500000000000000e-01 1.750000000000000e+00 1.000000000000000e+00
7.500000000000000e-01 1.500000000000000e+00 7.500000000000000e-01
1.000000000000000e+00 2.000000000000000e+00 5.000000000000000e-01
5.000000000000000e-01 1.500000000000000e+00 5.000000000000000e-01
5.000000000000000e-01 2.000000000000000e+00 0.000000000000000e+00
1.000000000000000e+00 1.500000000000000e+00 0.000000000000000e+00
7.500000000000000e-01 1.750000000000000e+00 5.000000000000000e-01
5.000000000000000e-01 1.750000000000000e+00 2.500000000000000e-01
7.500000000000000e-01 2.000000000000000e+00 2.500000000000000e-01
1.000000000000000e+00 1.750000000000000e+00 2.500000000000000e-01
7.500000000000000e-01 1.500000000000000e+00 2.500000000000000e-01
7.500000000000000e-01 1.750000000000000e+00 0.000000000000000e+00
1.000000000000000e+00 2.000000000000000e+00 5.000000000000000e-01
5.000000000000000e-01 2.000000000000000e+00 0.000000000000000e+00
5.000000000000000e-01 2.500000000000000e+00 5.000000000000000e-01
1.000000000000000e+00 2.500000000000000e+00 0.000000000000000e+00
7.500000000000000e-01 2.000000000000000e+00 2.500000000000000e-01
5.000000000000000e-01 2.250000000000000e+00 2.500000000000000e-01
7.500000000000000e-01 2.250000000000000e+00 5.000000000000000e-01
1.000000000000000e+00 2.250000000000000e+00 2.500000000000000e-01
7.500000000000000e-01 2.250000000000000e+00 0.000000000000000e+00
7.500000000000000e-01 2.500000000000000e+00 2.500000000000000e-01
1.000000000000000e+00 2.000000000000000e+00 5.000000000000000e-01
5.000000000000000e-01 2.500000000000000e+00 5.000000000000000e-01
5.000000000000000e-01 2.000000000000000e+00 1.000000000000000e+00
1.000000000000000e+00 2.500000000000000e+00 1.000000000000000e+00
7.500000000000000e-01 2.250000000000000e+00 5.000000000000000e-01
5.000000000000000e-01 2.250000000000000e+00 7.500000000000000e-01
7.500000000000000e-01 2.000000000000000e+00 7.500000000000000e-01
1.000000000000000e+00 2.250000000000000e+00 7.500000000000000e-01
7.500000000000000e-01 2.500000000000000e+00 7.500000000000000e-01
7.500000000000000e-01 2.250000000000000e+00 1.000000000000000e+00
0.000000000000000e+00 2.000000000000000e+00 5.000000000000000e-01
5.000000000000000e-01 2.000000000000000e+00 1.000000000000000e+00
5.000000000000000e-01 1.500000000000000e+00 5.000000000000000e-01
5.000000000000000e-01 2.000000000000000e+00 5.000000000000000e-01
2.500000000000000e-01 2.000000000000000e+00 7.500000000000000e-01
5.000000000000000e-01 1.750000000000000e+00 7.500000000000000e-01
2.500000000000000e-01 1.750000000000000e+00 5.000000000000000e-01
2.500000000000000e-01 2.000000000000000e+00 5.000000000000000e-01
5.000000000000000e-01 2.000000000000000e+00 7.500000000000000e-01
5.000000000000000e-01 1.750000000000000e+00 5.000000000000000e-01
0.000000000000000e+00 2.000000000000000e+00 5.000000000000000e-01
5.000000000000000e-01 1.500000000000000e+00 5.000000000000000e-01
5.000000000000000e-01 2.000000000000000e+00 0.000000000000000e+00
5.000000000000000e-01 2.000000000000000e+00 5.000000000000000e-01
2.500000000000000e-01 1.750000000000000e+00 5.000000000000000e-01
5.000000000000000e-01 1.750000000000000e+00 2.500000000000000e-01
2.500000000000000e-01 2.000000000000000e+00 2.500000000000000e-01
2.500000000000000e-01 2.000000000000000e+00 5.000000000000000e-01
5.000000000000000e-01 1.750000000000000e+00 5.000000000000000e-01
5.000000000000000e-01 2.000000000000000e+00 2.500000000000000e-01
0.000000000000000e+00 2.000000000000000e+00 5.000000000000000e-01
5.000000000000000e-01 2.000000000000000e+00 0.000000000000000e+00
5.000000000000000e-01 2.500000000000000e+00 5.000000000000000e-01
5.000000000000000e-01 2.000000000000000e+00 5.000000000000000e-01
2.500000000000000e-01 2.000000000000000e+00 2.500000000000000e-01
5.000000000000000e-01 2.250000000000000e+00 2.500000000000000e-01
2.500000000000000e-01 2.250000000000000e+00 5.000000000000000e-01
2.500000000000000e-01 2.000000000000000e+00 5.000000000000000e-01
5.000000000000000e-01 2.000000000000000e+00 2.500000000000000e-01
5.000000000000000e-01 2.250000000000000e+00 5.000000000000000e-01
0.000000000000000e+00 2.000000000000000e+00 5.000000000000000e-01
5.000000000000000e-01 2.500000000000000e+00 5.000000000000000e-01
5.000000000000000e-01 2.000000000000000e+00 1.000000000000000e+00
5.000000000000000e-01 2.000000000000000e+00 5.000000000000000e-01
2.500000000000000e-01 2.250000000000000e+00 5.000000000000000e-01
5.000000000000000e-01 2.250000000000000e+00 7.500000000000000e-01
2.500000000000000e-01 2.000000000000000e+00 7.500000000000000e-01
2.500000000000000e-01 2.000000000000000e+00 5.000000000000000e-01
5.000000000000000e-01 2.250000000000000e+00 5.000000000000000e-01
5.000000000000000e-01 2.000000000000000e+00 7.500000000000000e-01
1.000000000000000e+00 2.000000000000000e+00 5.000000000000000e-01
5.000000000000000e-01 1.500000000000000e+00 5.000000000000000e-01
5.000000000000000e-01 2.000000000000000e+00 1.000000000000000e+00
5.000000000000000e-01 2.000000000000000e+00 5.000000000000000e-01
7.500000000000000e-01 1.750000000000000e+00 5.000000000000000e-01
5.000000000000000e-01 1.750000000000000e+00 7.500000000000000e-01
7.500000000000000e-01 2.000000000000000e+00 7.500000000000000e-01
7.500000000000000e-01 2.000000000000000e+00 5.000000000000000e-01
5.000000000000000e-01 1.750000000000000e+00 5.000000000000000e-01
5.000000000000000e-01 2.000000000000000e+00 7.500000000000000e-01
1.000000000000000e+00 2.000000000000000e+00 5.000000000000000e-01
5.000000000000000e-01 2.000000000000000e+00 0.000000000000000e+00
5.000000000000000e-01 1.500000000000000e+00 5.000000000000000e-01
5.000000000000000e-01 2.000000000000000e+00 5.000000000000000e-01
7.500000000000000e-01 2.000000000000000e+00 2.500000000000000e-01
5.000000000000000e-01 1.750000000000000e+00 2.500000000000000e-01
7.500000000000000e-01 1.750000000000000e+00 5.000000000000000e-01
7.500000000000000e-01 2.000000000000000e+00 5.000000000000000e-01
5.000000000000000e-01 2.000000000000000e+00 2.500000000000000e-01
5.000000000000000e-01 1.750000000000000e+00 5.000000000000000e-01
1.000000000000000e+00 2.000000000000000e+00 5.000000000000000e-01
5.000000000000000e-01 2.500000000000000e+00 5.000000000000000e-01
5.000000000000000e-01 2.000000000000000e+00 0.000000000000000e+00
5.000000000000000e-01 2.000000000000000e+00 5.000000000000000e-01
7.500000000000000e-01 2.250000000000000e+00 5.000000000000000e-01
5.000000000000000e-01 2.250000000000000e+00 2.500000000000000e-01
7.500000000000000e-01 2.000000000000000e+00 2.500000000000000e-01
7.500000000000000e-01 2.000000000000000e+00 5.000000000000000e-01
5.000000000000000e-01 2.250000000000000e+00 5.000000000000000e-01
5.000000000000000e-01 2.000000000000000e+00 2.500000000000000e-01
1.000000000000000e+00 2.000000000000000e+00 5.000000000000000e-01
5.000000000000000e-01 2.000000000000000e+00 1.000000000000000e+00
5.000000000000000e-01 2.500000000000000e+00 5.000000000000000e-01
5.000000000000000e-01 2.000000000000000e+00 5.000000000000000e-01
7.500000000000000e-01 2.000000000000000e+00 7.500000000000000e-01
5.000000000000000e-01 2.250000000000000e+00 7.500000000000000e-01
7.500000000000000e-01 2.250000000000000e+00 5.000000000000000e-01
7.500000000000000e-01 2.000000000000000e+00 5.000000000000000e-01
5.000000000000000e-01 2.000000000000000e+00 7.500000000000000e-01
5.000000000000000e-01 2.250000000000000e+00 5.000000000000000e-01
        </DataArray>
      </Points>

      <Cells>
        <DataArray type="Int32" Name="connectivity" format="ascii">
0 1 2 3 4 5 6 7 8 9 10 11 12 13 14 15 16 17 18 19 20 21 22 23 24 25 26 27 28 29 30 31 32 33 34 35 36 37 38 39 40 41 42 43 44 45 46 47 48 49 50 51 52 53 54 55 56 57 58 59 60 61 62 63 64 65 66 67 68 69 70 71 72 73 74 75 76 77 78 79 80 81 82 83 84 85 86 87 88 89 90 91 92 93 94 95 96 97 98 99 100 101 102 103 104 105 106 107 108 109 110 111 112 113 114 115 116 117 118 119 120 121 122 123 124 125 126 127 128 129 130 131 132 133 134 135 136 137 138 139 140 141 142 143 144 145 146 147 148 149 150 151 152 153 154 155 156 157 158 159 160 161 162 163 164 165 166 167 168 169 170 171 172 173 174 175 176 177 178 179 180 181 182 183 184 185 186 187 188 189 190 191 192 193 194 195 196 197 198 199 200 201 202 203 204 205 206 207 208 209 210 211 212 213 214 215 216 217 218 219 220 221 222 223 224 225 226 227 228 229 230 231 232 233 234 235 236 237 238 239 240 241 242 243 244 245 246 247 248 249 250 251 252 253 254 255 256 257 258 259 260 261 262 263 264 265 266 267 268 269 270 271 272 273 274 275 276 277 278 279 280 281 282 283 284 285 286 287 288 289 290 291 292 293 294 295 296 297 298 299 300 301 302 303 
        </DataArray>
        <DataArray type="Int32" Name="offsets" format="ascii">
8 16 24 34 44 54 64 74 84 94 104 114 124 134 144 154 164 174 184 194 204 214 224 234 244 254 264 274 284 294 304 
        </DataArray>
        <DataArray type="UInt8" Name="types" format="ascii">
12 12 12 24 24 24 24 24 24 24 24 24 24 24 24 24 24 24 24 24 24 24 24 24 24 24 24 24 24 24 24 
        </DataArray>
      </Cells>

  <PointData>
        <DataArray type="Float64" Name="displacement" NumberOfComponents="3" format="ascii">
9.361658302051223e-01 -2.751978303310153e-03 -2.785936187129876e-03
9.560362218612385e-01 -5.272258948372944e-03 -5.662106951855029e-03
9.655828179182078e-01 4.534117674622470e-03 -5.780300122514064e-03
9.454383301840914e-01 2.788942932922705e-03 -2.929615660034490e-03
9.546362421445374e-01 -3.002667040674779e-03 2.822900816742348e-03
9.750508246129405e-01 -5.442036856973475e-03 4.118269768455663e-03
9.844403045510228e-01 4.568825866325373e-03 4.101453741871422e-03
9.637595974662501e-01 2.965702411062247e-03 2.892651030422009e-03
9.560362218612385e-01 -5.272258948372944e-03 -5.662106951855029e-03
9.759755398847718e-01 1.155724553776381e-02 1.092086097281175e-02
9.859707751171485e-01 -1.323289333316253e-02 1.112027624412229e-02
9.655828179182078e-01 4.534117674622470e-03 -5.780300122514064e-03
9.750508246129405e-01 -5.442036856973475e-03 4.118269768455663e-03
9.958721072034291e-01 1.213146279869233e-02 -1.444258324864157e-02
1.005679471384646e+00 -1.414790979901369e-02 -1.498265277317620e-02
9.844403045510228e-01 4.568825866325373e-03 4.101453741871422e-03
9.759755398847718e-01 1.155724553776381e-02 1.092086097281175e-02
1.097383868196657e+00 2.201074198565168e-03 -9.572069280864168e-03
1.113702282689965e+00 -2.622933383086801e-02 -9.281206859838024e-03
9.859707751171485e-01 -1.323289333316253e-02 1.112027624412229e-02
9.958721072034291e-01 1.213146279869233e-02 -1.444258324864157e-02
1.129755433448600e+00 2.858948130460832e-03 -3.855590578639762e-02
1.145555826606135e+00 -2.703719983630190e-02 -3.899629721476719e-02
1.005679471384646e+00 -1.414790979901369e-02 -1.498265277317620e-02
1.456958950637163e+00 -5.277815636966545e-03 -6.413130300968735e-03
1.406867640568568e+00 9.835620315977549e-04 -2.832340651570134e-03
1.388926488847673e+00 6.781090572195725e-04 1.355510320593389e-03
1.401804099439370e+00 1.203177175877164e-02 9.934359199291164e-04
1.396678610633052e+00 -2.639240851638245e-03 -2.069683650058674e-03
1.378321972273172e+00 1.742968414799355e-03 1.901570765992832e-03
1.402180075200681e+00 7.264968681628525e-04 -8.139093891211741e-04
1.423652211806385e+00 -6.002957679836990e-04 -6.181789141253475e-03
1.398288866826447e+00 2.625615657723634e-03 5.723564526545427e-05
1.389457812092538e+00 3.004483846790438e-03 1.345100376420241e-03
1.406867640568568e+00 9.835620315977549e-04 -2.832340651570134e-03
1.432313487238555e+00 -5.481200630526466e-03 -6.099878196880883e-03
1.388926488847673e+00 6.781090572195725e-04 1.355510320593389e-03
1.390569638965421e+00 6.468548017344599e-04 1.257561844165712e-02
1.385263038126965e+00 -9.628407558513788e-04 -2.165514735295557e-03
1.390346618808415e+00 -1.099928191340375e-03 1.291670019481200e-03
1.378321972273172e+00 1.742968414799355e-03 1.901570765992832e-03
1.392909077888538e+00 2.248283906745953e-03 1.327898101000148e-03
1.405788875499532e+00 -5.118796262794144e-03 -3.984210179447316e-04
1.383650289609933e+00 7.371206340501109e-04 3.844782621463137e-03
1.432313487238555e+00 -5.481200630526466e-03 -6.099878196880883e-03
1.480856363569754e+00 2.670557099979361e-04 -3.658422075984186e-03
1.388926488847673e+00 6.781090572195725e-04 1.355510320593389e-03
1.423686876357191e+00 -1.177134626845372e-02 4.156125808821683e-04
1.418924158864564e+00 3.075377148565050e-03 -2.361321397324732e-03
1.413837244176955e+00 -4.788439903073348e-04 -5.996722307275498e-04
1.390346618808415e+00 -1.099928191340375e-03 1.291670019481200e-03
1.421482458325813e+00 -4.033965308623500e-03 -1.588664988722768e-03
1.446086677820876e+00 -1.245775634442797e-03 -5.291955600575191e-03
1.400922251437880e+00 -1.723145669061137e-03 1.090980381784483e-03
1.480856363569754e+00 2.670557099979361e-04 -3.658422075984186e-03
1.456958950637163e+00 -5.277815636966545e-03 -6.413130300968735e-03
1.388926488847673e+00 6.781090572195725e-04 1.355510320593389e-03
1.434349072742861e+00 6.837576054392822e-05 -1.203417927856180e-02
1.429762371456954e+00 -1.254681743703488e-03 3.037201451430304e-03
1.402180075200681e+00 7.264968681628525e-04 -8.139093891211741e-04
1.413837244176955e+00 -4.788439903073348e-04 -5.996722307275498e-04
1.451038101084270e+00 -2.967875323415326e-03 -3.068671293218693e-03
1.438917609954745e+00 -6.594771408315299e-04 -4.357123744691350e-03
1.406579301659310e+00 4.830753977139384e-04 -1.280287586122077e-03
1.456958950637163e+00 -5.277815636966545e-03 -6.413130300968735e-03
1.486056326386223e+00 5.024178593131712e-03 -3.130793060850019e-02
1.401804099439370e+00 1.203177175877164e-02 9.934359199291164e-04
1.434349072742861e+00 6.837576054392822e-05 -1.203417927856180e-02
1.471209078477241e+00 -4.900823916285920e-03 -1.117699433650660e-02
1.441806320950966e+00 1.002267277677619e-02 -1.552338214081071e-02
1.423652211806385e+00 -6.002957679836990e-04 -6.181789141253475e-03
1.438917609954745e+00 -6.594771408315299e-04 -4.357123744691350e-03
1.457808609716924e+00 3.198701714122397e-03 -2.297645353061244e-02
1.413670082113779e+00 6.812537180210559e-03 -6.055511878010449e-03
1.406867640568568e+00 9.835620315977549e-04 -2.832340651570134e-03
1.430613634627740e+00 3.873286978371977e-03 -4.597129470752429e-03
1.390569638965421e+00 6.468548017344599e-04 1.257561844165712e-02
1.401804099439370e+00 1.203177175877164e-02 9.934359199291164e-04
1.418506977091166e+00 1.549874205955437e-03 -3.663337467502950e-03
1.410621974548723e+00 3.561775925440764e-03 6.049269581865843e-03
1.392909077888538e+00 2.248283906745953e-03 1.327898101000148e-03
1.398288866826447e+00 2.625615657723634e-03 5.723564526545427e-05
1.416254743927835e+00 9.917590925752199e-03 -2.705108670863756e-04
1.389846102438088e+00 6.975652800012355e-03 7.519918883669878e-03
1.432313487238555e+00 -5.481200630526466e-03 -6.099878196880883e-03
1.458880643228078e+00 -2.177335008621196e-02 -4.090517068029850e-03
1.423686876357191e+00 -1.177134626845372e-02 4.156125808821683e-04
1.390569638965421e+00 6.468548017344599e-04 1.257561844165712e-02
1.445299268181155e+00 -8.736582299130597e-03 -7.125601042662846e-03
1.440058894564478e+00 -1.829684931692673e-02 -6.843807757808241e-04
1.421482458325813e+00 -4.033965308623500e-03 -1.588664988722768e-03
1.405788875499532e+00 -5.118796262794144e-03 -3.984210179447316e-04
1.423620473176457e+00 -1.122738677947435e-02 5.997567230818849e-03
1.401856349341306e+00 -6.099671054792975e-03 7.288742387854858e-03
1.480856363569754e+00 2.670557099979361e-04 -3.658422075984186e-03
1.512241300527309e+00 -2.314526498073167e-02 -3.203567049302432e-02
1.434349072742861e+00 6.837576054392822e-05 -1.203417927856180e-02
1.423686876357191e+00 -1.177134626845372e-02 4.156125808821683e-04
1.496294585697293e+00 -3.188393835741073e-03 -8.615016038809471e-03
1.469964389962901e+00 -1.175296203166366e-02 -2.329934229795835e-02
1.451038101084270e+00 -2.967875323415326e-03 -3.068671293218693e-03
1.446086677820876e+00 -1.245775634442797e-03 -5.291955600575191e-03
1.464768456881780e+00 -1.877599723496900e-02 -1.599682521325048e-02
1.425300724046780e+00 -6.512695673115762e-03 -6.400489015139892e-03
1.486056326386223e+00 5.024178593131712e-03 -3.130793060850019e-02
1.430613634627740e+00 3.873286978371977e-03 -4.597129470752429e-03
1.401804099439370e+00 1.203177175877164e-02 9.934359199291164e-04
1.479859569056323e+00 -9.536335229698227e-03 -1.906981768481663e-02
1.466247114025592e+00 5.575106175975584e-03 -1.867684491804075e-02
1.416254743927835e+00 9.917590925752199e-03 -2.705108670863756e-04
1.441806320950966e+00 1.002267277677619e-02 -1.552338214081071e-02
1.485809286670073e+00 -2.325054427966175e-03 -2.541107240594862e-02
1.457338568122395e+00 -2.690990015912006e-03 -1.185002418085539e-02
1.436377855252446e+00 3.367515530323733e-03 -8.362215914272350e-03
1.430613634627740e+00 3.873286978371977e-03 -4.597129470752429e-03
1.458880643228078e+00 -2.177335008621196e-02 -4.090517068029850e-03
1.390569638965421e+00 6.468548017344599e-04 1.257561844165712e-02
1.479859569056323e+00 -9.536335229698227e-03 -1.906981768481663e-02
1.453385784131784e+00 -9.290468194401538e-03 -3.530461007512583e-03
1.423620473176457e+00 -1.122738677947435e-02 5.997567230818849e-03
1.410621974548723e+00 3.561775925440764e-03 6.049269581865843e-03
1.457338568122395e+00 -2.690990015912006e-03 -1.185002418085539e-02
1.471739065577271e+00 -1.592530480380516e-02 -1.168513305882488e-02
1.430118786865338e+00 -4.125723924992086e-03 -7.334232959164670e-04
1.458880643228078e+00 -2.177335008621196e-02 -4.090517068029850e-03
1.512241300527309e+00 -2.314526498073167e-02 -3.203567049302432e-02
1.423686876357191e+00 -1.177134626845372e-02 4.156125808821683e-04
1.479859569056323e+00 -9.536335229698227e-03 -1.906981768481663e-02
1.491406132717229e+00 -2.397045975392018e-02 -1.885087948376369e-02
1.464768456881780e+00 -1.877599723496900e-02 -1.599682521325048e-02
1.440058894564478e+00 -1.829684931692673e-02 -6.843807757808241e-04
1.471739065577271e+00 -1.592530480380516e-02 -1.168513305882488e-02
1.499580285939932e+00 -1.635637137129128e-02 -2.564049917541744e-02
1.448741881206446e+00 -1.188976893309415e-02 -8.577658531502252e-03
1.512241300527309e+00 -2.314526498073167e-02 -3.203567049302432e-02
1.486056326386223e+00 5.024178593131712e-03 -3.130793060850019e-02
1.434349072742861e+00 6.837576054392822e-05 -1.203417927856180e-02
1.479859569056323e+00 -9.536335229698227e-03 -1.906981768481663e-02
1.503709764295364e+00 -9.465413149288058e-03 -3.324627464478960e-02
1.457808609716924e+00 3.198701714122397e-03 -2.297645353061244e-02
1.469964389962901e+00 -1.175296203166366e-02 -2.329934229795835e-02
1.499580285939932e+00 -1.635637137129128e-02 -2.564049917541744e-02
1.485809286670073e+00 -2.325054427966175e-03 -2.541107240594862e-02
1.454847862729585e+00 -4.341475274832443e-03 -1.630519620011676e-02
1.388926488847673e+00 6.781090572195725e-04 1.355510320593389e-03
1.401804099439370e+00 1.203177175877164e-02 9.934359199291164e-04
1.434349072742861e+00 6.837576054392822e-05 -1.203417927856180e-02
1.456958950637163e+00 -5.277815636966545e-03 -6.413130300968735e-03
1.389457812092538e+00 3.004483846790438e-03 1.345100376420241e-03
1.413670082113779e+00 6.812537180210559e-03 -6.055511878010449e-03
1.406579301659310e+00 4.830753977139384e-04 -1.280287586122077e-03
1.402180075200681e+00 7.264968681628525e-04 -8.139093891211741e-04
1.423652211806385e+00 -6.002957679836990e-04 -6.181789141253475e-03
1.438917609954745e+00 -6.594771408315299e-04 -4.357123744691350e-03
1.388926488847673e+00 6.781090572195725e-04 1.355510320593389e-03
1.390569638965421e+00 6.468548017344599e-04 1.257561844165712e-02
1.401804099439370e+00 1.203177175877164e-02 9.934359199291164e-04
1.406867640568568e+00 9.835620315977549e-04 -2.832340651570134e-03
1.383650289609933e+00 7.371206340501109e-04 3.844782621463137e-03
1.389846102438088e+00 6.975652800012355e-03 7.519918883669878e-03
1.389457812092538e+00 3.004483846790438e-03 1.345100376420241e-03
1.378321972273172e+00 1.742968414799355e-03 1.901570765992832e-03
1.392909077888538e+00 2.248283906745953e-03 1.327898101000148e-03
1.398288866826447e+00 2.625615657723634e-03 5.723564526545427e-05
1.388926488847673e+00 6.781090572195725e-04 1.355510320593389e-03
1.423686876357191e+00 -1.177134626845372e-02 4.156125808821683e-04
1.390569638965421e+00 6.468548017344599e-04 1.257561844165712e-02
1.432313487238555e+00 -5.481200630526466e-03 -6.099878196880883e-03
1.400922251437880e+00 -1.723145669061137e-03 1.090980381784483e-03
1.401856349341306e+00 -6.099671054792975e-03 7.288742387854858e-03
1.383650289609933e+00 7.371206340501109e-04 3.844782621463137e-03
1.390346618808415e+00 -1.099928191340375e-03 1.291670019481200e-03
1.421482458325813e+00 -4.033965308623500e-03 -1.588664988722768e-03
1.405788875499532e+00 -5.118796262794144e-03 -3.984210179447316e-04
1.388926488847673e+00 6.781090572195725e-04 1.355510320593389e-03
1.434349072742861e+00 6.837576054392822e-05 -1.203417927856180e-02
1.423686876357191e+00 -1.177134626845372e-02 4.156125808821683e-04
1.480856363569754e+00 2.670557099979361e-04 -3.658422075984186e-03
1.406579301659310e+00 4.830753977139384e-04 -1.280287586122077e-03
1.425300724046780e+00 -6.512695673115762e-03 -6.400489015139892e-03
1.400922251437880e+00 -1.723145669061137e-03 1.090980381784483e-03
1.413837244176955e+00 -4.788439903073348e-04 -5.996722307275498e-04
1.451038101084270e+00 -2.967875323415326e-03 -3.068671293218693e-03
1.446086677820876e+00 -1.245775634442797e-03 -5.291955600575191e-03
1.479859569056323e+00 -9.536335229698227e-03 -1.906981768481663e-02
1.434349072742861e+00 6.837576054392822e-05 -1.203417927856180e-02
1.401804099439370e+00 1.203177175877164e-02 9.934359199291164e-04
1.486056326386223e+00 5.024178593131712e-03 -3.130793060850019e-02
1.454847862729585e+00 -4.341475274832443e-03 -1.630519620011676e-02
1.413670082113779e+00 6.812537180210559e-03 -6.055511878010449e-03
1.436377855252446e+00 3.367515530323733e-03 -8.362215914272350e-03
1.485809286670073e+00 -2.325054427966175e-03 -2.541107240594862e-02
1.457808609716924e+00 3.198701714122397e-03 -2.297645353061244e-02
1.441806320950966e+00 1.002267277677619e-02 -1.552338214081071e-02
1.479859569056323e+00 -9.536335229698227e-03 -1.906981768481663e-02
1.401804099439370e+00 1.203177175877164e-02 9.934359199291164e-04
1.390569638965421e+00 6.468548017344599e-04 1.257561844165712e-02
1.430613634627740e+00 3.873286978371977e-03 -4.597129470752429e-03
1.436377855252446e+00 3.367515530323733e-03 -8.362215914272350e-03
1.389846102438088e+00 6.975652800012355e-03 7.519918883669878e-03
1.430118786865338e+00 -4.125723924992086e-03 -7.334232959164670e-04
1.457338568122395e+00 -2.690990015912006e-03 -1.185002418085539e-02
1.416254743927835e+00 9.917590925752199e-03 -2.705108670863756e-04
1.410621974548723e+00 3.561775925440764e-03 6.049269581865843e-03
1.479859569056323e+00 -9.536335229698227e-03 -1.906981768481663e-02
1.390569638965421e+00 6.468548017344599e-04 1.257561844165712e-02
1.423686876357191e+00 -1.177134626845372e-02 4.156125808821683e-04
1.458880643228078e+00 -2.177335008621196e-02 -4.090517068029850e-03
1.430118786865338e+00 -4.125723924992086e-03 -7.334232959164670e-04
1.401856349341306e+00 -6.099671054792975e-03 7.288742387854858e-03
1.448741881206446e+00 -1.188976893309415e-02 -8.577658531502252e-03
1.471739065577271e+00 -1.592530480380516e-02 -1.168513305882488e-02
1.423620473176457e+00 -1.122738677947435e-02 5.997567230818849e-03
1.440058894564478e+00 -1.829684931692673e-02 -6.843807757808241e-04
1.479859569056323e+00 -9.536335229698227e-03 -1.906981768481663e-02
1.423686876357191e+00 -1.177134626845372e-02 4.156125808821683e-04
1.434349072742861e+00 6.837576054392822e-05 -1.203417927856180e-02
1.512241300527309e+00 -2.314526498073167e-02 -3.203567049302432e-02
1.448741881206446e+00 -1.188976893309415e-02 -8.577658531502252e-03
1.425300724046780e+00 -6.512695673115762e-03 -6.400489015139892e-03
1.454847862729585e+00 -4.341475274832443e-03 -1.630519620011676e-02
1.499580285939932e+00 -1.635637137129128e-02 -2.564049917541744e-02
1.464768456881780e+00 -1.877599723496900e-02 -1.599682521325048e-02
1.469964389962901e+00 -1.175296203166366e-02 -2.329934229795835e-02
1.388926488847673e+00 6.781090572195725e-04 1.355510320593389e-03
1.434349072742861e+00 6.837576054392822e-05 -1.203417927856180e-02
1.401804099439370e+00 1.203177175877164e-02 9.934359199291164e-04
1.403243164415973e+00 5.521705138858589e-04 1.103682796972518e-03
1.406579301659310e+00 4.830753977139384e-04 -1.280287586122077e-03
1.413670082113779e+00 6.812537180210559e-03 -6.055511878010449e-03
1.389457812092538e+00 3.004483846790438e-03 1.345100376420241e-03
1.396052447664934e+00 6.158140350999260e-04 1.230767873687843e-03
1.415319433430810e+00 3.507635270284121e-04 -4.978027135090777e-03
1.397757326576333e+00 5.990836257395733e-03 1.149165644955949e-03
1.388926488847673e+00 6.781090572195725e-04 1.355510320593389e-03
1.401804099439370e+00 1.203177175877164e-02 9.934359199291164e-04
1.390569638965421e+00 6.468548017344599e-04 1.257561844165712e-02
1.403243164415973e+00 5.521705138858589e-04 1.103682796972518e-03
1.389457812092538e+00 3.004483846790438e-03 1.345100376420241e-03
1.389846102438088e+00 6.975652800012355e-03 7.519918883669878e-03
1.383650289609933e+00 7.371206340501109e-04 3.844782621463137e-03
1.396052447664934e+00 6.158140350999260e-04 1.230767873687843e-03
1.397757326576333e+00 5.990836257395733e-03 1.149165644955949e-03
1.391794318785593e+00 6.514350960951069e-04 6.630592524150384e-03
1.388926488847673e+00 6.781090572195725e-04 1.355510320593389e-03
1.390569638965421e+00 6.468548017344599e-04 1.257561844165712e-02
1.423686876357191e+00 -1.177134626845372e-02 4.156125808821683e-04
1.403243164415973e+00 5.521705138858589e-04 1.103682796972518e-03
1.383650289609933e+00 7.371206340501109e-04 3.844782621463137e-03
1.401856349341306e+00 -6.099671054792975e-03 7.288742387854858e-03
1.400922251437880e+00 -1.723145669061137e-03 1.090980381784483e-03
1.396052447664934e+00 6.158140350999260e-04 1.230767873687843e-03
1.391794318785593e+00 6.514350960951069e-04 6.630592524150384e-03
1.409519979302240e+00 -5.167134113413358e-03 8.485943377768599e-04
1.388926488847673e+00 6.781090572195725e-04 1.355510320593389e-03
1.423686876357191e+00 -1.177134626845372e-02 4.156125808821683e-04
1.434349072742861e+00 6.837576054392822e-05 -1.203417927856180e-02
1.403243164415973e+00 5.521705138858589e-04 1.103682796972518e-03
1.400922251437880e+00 -1.723145669061137e-03 1.090980381784483e-03
1.425300724046780e+00 -6.512695673115762e-03 -6.400489015139892e-03
1.406579301659310e+00 4.830753977139384e-04 -1.280287586122077e-03
1.396052447664934e+00 6.158140350999260e-04 1.230767873687843e-03
1.409519979302240e+00 -5.167134113413358e-03 8.485943377768599e-04
1.415319433430810e+00 3.507635270284121e-04 -4.978027135090777e-03
1.479859569056323e+00 -9.536335229698227e-03 -1.906981768481663e-02
1.401804099439370e+00 1.203177175877164e-02 9.934359199291164e-04
1.434349072742861e+00 6.837576054392822e-05 -1.203417927856180e-02
1.403243164415973e+00 5.521705138858589e-04 1.103682796972518e-03
1.436377855252446e+00 3.367515530323733e-03 -8.362215914272350e-03
1.413670082113779e+00 6.812537180210559e-03 -6.055511878010449e-03
1.454847862729585e+00 -4.341475274832443e-03 -1.630519620011676e-02
1.441834914116853e+00 -4.275603410672288e-03 -8.550660890618735e-03
1.397757326576333e+00 5.990836257395733e-03 1.149165644955949e-03
1.415319433430810e+00 3.507635270284121e-04 -4.978027135090777e-03
1.479859569056323e+00 -9.536335229698227e-03 -1.906981768481663e-02
1.390569638965421e+00 6.468548017344599e-04 1.257561844165712e-02
1.401804099439370e+00 1.203177175877164e-02 9.934359199291164e-04
1.403243164415973e+00 5.521705138858589e-04 1.103682796972518e-03
1.430118786865338e+00 -4.125723924992086e-03 -7.334232959164670e-04
1.389846102438088e+00 6.975652800012355e-03 7.519918883669878e-03
1.436377855252446e+00 3.367515530323733e-03 -8.362215914272350e-03
1.441834914116853e+00 -4.275603410672288e-03 -8.550660890618735e-03
1.391794318785593e+00 6.514350960951069e-04 6.630592524150384e-03
1.397757326576333e+00 5.990836257395733e-03 1.149165644955949e-03
1.479859569056323e+00 -9.536335229698227e-03 -1.906981768481663e-02
1.423686876357191e+00 -1.177134626845372e-02 4.156125808821683e-04
1.390569638965421e+00 6.468548017344599e-04 1.257561844165712e-02
1.403243164415973e+00 5.521705138858589e-04 1.103682796972518e-03
1.448741881206446e+00 -1.188976893309415e-02 -8.577658531502252e-03
1.401856349341306e+00 -6.099671054792975e-03 7.288742387854858e-03
1.430118786865338e+00 -4.125723924992086e-03 -7.334232959164670e-04
1.441834914116853e+00 -4.275603410672288e-03 -8.550660890618735e-03
1.409519979302240e+00 -5.167134113413358e-03 8.485943377768599e-04
1.391794318785593e+00 6.514350960951069e-04 6.630592524150384e-03
1.479859569056323e+00 -9.536335229698227e-03 -1.906981768481663e-02
1.434349072742861e+00 6.837576054392822e-05 -1.203417927856180e-02
1.423686876357191e+00 -1.177134626845372e-02 4.156125808821683e-04
1.403243164415973e+00 5.521705138858589e-04 1.103682796972518e-03
1.454847862729585e+00 -4.341475274832443e-03 -1.630519620011676e-02
1.425300724046780e+00 -6.512695673115762e-03 -6.400489015139892e-03
1.448741881206446e+00 -1.188976893309415e-02 -8.577658531502252e-03
1.441834914116853e+00 -4.275603410672288e-03 -8.550660890618735e-03
1.415319433430810e+00 3.507635270284121e-04 -4.978027135090777e-03
1.409519979302240e+00 -5.167134113413358e-03 8.485943377768599e-04
        </DataArray>
        <DataArray type="Float64" Name="nodal_GL_strains_xyz" NumberOfComponents="6" format="ascii">
2.007212298037386e-02 5.597729589495530e-03 5.793680631702998e-03 3.461387742431573e-03 -1.126981685562609e-04 7.972728678395168e-03
2.014329451172137e-02 9.849408284806450e-03 9.956760283082927e-03 8.480424326522219e-03 -5.313755824587940e-05 1.315641089256305e-02
2.051936533297208e-02 9.849408284807491e-03 1.005367897518181e-02 8.250347298034521e-04 4.696217825013866e-05 1.316713338372332e-02
2.035005339177838e-02 5.597729589494762e-03 6.005647185728950e-03 5.607211494922978e-03 1.015830359709619e-04 7.911534212280075e-03
2.062393146723358e-02 6.026412058431967e-03 5.793680631702895e-03 3.427812830788461e-03 -6.774921484791114e-06 1.007522268823140e-02
2.088793622691444e-02 1.004949452094304e-02 9.956760283083024e-03 8.613150405399237e-03 -4.621593768361411e-06 5.344374975710815e-03
2.124899995985671e-02 1.004949452094243e-02 1.005367897518111e-02 4.721362511432162e-04 9.536490587126899e-05 5.113516710015665e-03
2.089380210984154e-02 6.026412058432351e-03 6.005647185729334e-03 5.462343804888347e-03 2.076263429256465e-04 9.958004898221018e-03
2.014329451172137e-02 9.849408284806450e-03 9.956760283082927e-03 8.480424326522219e-03 -5.313755824587940e-05 1.315641089256305e-02
7.461401875395800e-02 -2.448520150940674e-02 -2.490244654806123e-02 7.171601995375608e-03 4.748661383235664e-04 9.697434641392172e-03
7.842630139300034e-02 -2.448520150940667e-02 -2.562853199920029e-02 -2.133810614755059e-03 -2.546435250338021e-04 9.736508048296094e-03
2.051936533297208e-02 9.849408284807491e-03 1.005367897518181e-02 8.250347298034521e-04 4.696217825013866e-05 1.316713338372332e-02
2.088793622691444e-02 1.004949452094304e-02 9.956760283083024e-03 8.613150405399237e-03 -4.621593768361411e-06 5.344374975710815e-03
8.215660580141877e-02 -2.594297445677901e-02 -2.490244654806078e-02 7.308426550351944e-03 1.112002230827932e-04 3.186059438604187e-04
8.580859136405686e-02 -2.594297445677903e-02 -2.562853199920041e-02 -2.390499711096150e-03 -6.170630609322103e-04 1.597898557536138e-04
2.124899995985671e-02 1.004949452094243e-02 1.005367897518111e-02 4.721362511432162e-04 9.536490587126899e-05 5.113516710015665e-03
7.461401875395800e-02 -2.448520150940674e-02 -2.490244654806123e-02 7.171601995375608e-03 4.748661383235664e-04 9.697434641392172e-03
1.290135714648468e-01 -2.789775766282209e-02 -2.805393568327468e-02 4.602064987636364e-03 7.184070162592161e-04 8.198144483303603e-03
1.361639255118356e-01 -2.789775766282317e-02 -2.877957074687745e-02 2.885272125607503e-03 2.220880137727743e-06 8.068580540965001e-03
7.842630139300034e-02 -2.448520150940667e-02 -2.562853199920029e-02 -2.133810614755059e-03 -2.546435250338021e-04 9.736508048296094e-03
8.215660580141877e-02 -2.594297445677901e-02 -2.490244654806078e-02 7.308426550351944e-03 1.112002230827932e-04 3.186059438604187e-04
1.431612706162430e-01 -2.932866333404510e-02 -2.805393568327540e-02 4.465887851842699e-03 3.548561839478744e-04 6.642349012016161e-03
1.500129849182414e-01 -2.932866333404481e-02 -2.877957074687726e-02 2.758877270588613e-03 -3.598633511531015e-04 6.509541778920790e-03
8.580859136405686e-02 -2.594297445677903e-02 -2.562853199920041e-02 -2.390499711096150e-03 -6.170630609322103e-04 1.597898557536138e-04
3.017617931358114e-02 3.162887968039913e-02 1.781238231370300e-02 -6.341012143725576e-02 -2.019881681063664e-03 8.874182305153122e-02
2.907222259096398e-02 1.263328400152142e-02 1.812474921345037e-02 -5.318377868527193e-02 6.296097673768712e-03 -4.380091864926389e-02
3.794483110503209e-02 -2.766235798211903e-03 -2.798207812888953e-03 1.159382745088511e-02 9.639241186974838e-05 2.318430101188602e-02
7.572481922741923e-02 -1.069415232905059e-02 -2.690791372976279e-02 -1.096863931575679e-02 2.161511398272627e-03 2.101080293027641e-02
3.400383929443515e-02 2.799880220325335e-02 9.129934440921237e-04 -5.562131433703486e-02 3.619759748511304e-03 2.151339647530869e-02
3.811196689272542e-02 2.184043353842193e-03 4.396447789898129e-03 -1.602649479682573e-02 2.771406414561072e-03 -5.877836303316571e-03
3.937327207988033e-02 8.882293473656617e-03 3.253631301700165e-03 -1.990408587050537e-02 1.160863957477098e-03 4.900714160935282e-02
2.317227313796011e-02 2.473830940928970e-02 -8.487968959107913e-03 -3.886878593689356e-02 -2.422405954865172e-03 6.698136887360384e-02
2.333110478680644e-02 1.201566848898026e-02 1.823046737334651e-03 -3.506188330245134e-02 1.032522119978832e-02 -1.406600733539473e-02
2.735223135934151e-02 -5.519014655681886e-03 -1.270981605551498e-02 9.185938333791829e-03 1.261114117779524e-03 2.662304123011890e-02
2.907222259096398e-02 1.263328400152142e-02 1.812474921345037e-02 -5.318377868527193e-02 6.296097673768712e-03 -4.380091864926389e-02
2.961819821442846e-02 1.250055248113828e-02 2.755121627187452e-02 7.622215266272023e-02 -3.876647082732684e-03 -4.949577968894889e-02
3.794483110503209e-02 -2.766235798211903e-03 -2.798207812888953e-03 1.159382745088511e-02 9.639241186974838e-05 2.318430101188602e-02
7.464398143281636e-02 -2.744426678694769e-02 -8.566469615541594e-03 1.071346817136576e-02 1.032252158141991e-03 -4.415934155780623e-03
3.377656502681343e-02 -3.057770778502634e-03 3.006355464287091e-02 1.099613273853127e-02 1.968420036210723e-03 -4.508893016051436e-02
3.873261266427896e-02 1.586701058399912e-03 7.672913711789180e-03 3.783207256376446e-02 -6.021756707144039e-04 -8.065065505631994e-03
3.811196689272542e-02 2.184043353842193e-03 4.396447789898129e-03 -1.602649479682573e-02 2.771406414561072e-03 -5.877836303316571e-03
2.333948632731633e-02 -4.317611690502116e-03 1.757037736992416e-02 -2.606346881994962e-02 9.429521593138640e-03 -2.491502770114532e-02
2.325399897637490e-02 -9.495829967613069e-03 2.395961181427187e-02 5.307566377428696e-02 -5.349898440766753e-03 -2.712043105911544e-02
2.687455835448810e-02 -1.286257592290950e-02 -5.255081420803123e-03 1.343549850348010e-02 6.553934414735993e-04 2.034259728437377e-02
2.961819821442846e-02 1.250055248113828e-02 2.755121627187452e-02 7.622215266272023e-02 -3.876647082732684e-03 -4.949577968894889e-02
3.074698212770146e-02 3.164324566283157e-02 2.739735629334131e-02 8.421582773049037e-02 5.566748062413086e-04 9.220497731360214e-02
3.794483110503209e-02 -2.766235798211903e-03 -2.798207812888953e-03 1.159382745088511e-02 9.639241186974838e-05 2.318430101188602e-02
7.786993627347830e-02 -1.526583895625544e-02 -2.606588874620538e-02 2.298139739483467e-02 -2.377296886285046e-03 2.023389555746937e-02
3.450019397798580e-02 2.487974280241326e-02 7.380648921922932e-03 7.523451687666444e-02 -3.090791501387478e-03 2.059820040715220e-02
4.004518339979636e-02 8.506618531215121e-03 6.756288380680039e-03 4.075404041908453e-02 -2.619231338846747e-03 5.023871022321660e-02
3.873261266427896e-02 1.586701058399912e-03 7.672913711789180e-03 3.783207256376446e-02 -6.021756707144039e-04 -8.065065505631994e-03
2.322721619889154e-02 7.972792415290501e-03 7.754504251806219e-03 5.617016612666512e-02 -8.061617491639335e-03 -1.790190927198834e-02
2.309633807397157e-02 2.051598321362714e-02 -2.344689404561993e-03 5.882414867293503e-02 5.416440976346662e-04 6.870061785425230e-02
2.828238233883316e-02 -6.101841375750341e-03 -1.269895986177439e-02 1.250454657295575e-02 -1.186643900864504e-03 2.616039542688392e-02
3.074698212770146e-02 3.164324566283157e-02 2.739735629334131e-02 8.421582773049037e-02 5.566748062413086e-04 9.220497731360214e-02
3.017617931358114e-02 3.162887968039913e-02 1.781238231370300e-02 -6.341012143725576e-02 -2.019881681063664e-03 8.874182305153122e-02
3.794483110503209e-02 -2.766235798211903e-03 -2.798207812888953e-03 1.159382745088511e-02 9.639241186974838e-05 2.318430101188602e-02
7.894238732239914e-02 -2.572666366422853e-02 -1.773663327595890e-02 9.935652817379237e-03 -1.247708298015490e-03 2.850036977877177e-02
3.476451124932402e-02 9.955298983414736e-03 2.373645153390941e-02 1.008056718899692e-02 -1.438734153465101e-03 8.433623111678853e-02
3.937327207988033e-02 8.882293473656617e-03 3.253631301700165e-03 -1.990408587050537e-02 1.160863957477098e-03 4.900714160935282e-02
4.004518339979636e-02 8.506618531215121e-03 6.756288380680039e-03 4.075404041908453e-02 -2.619231338846747e-03 5.023871022321660e-02
2.309779677852375e-02 2.746998187606597e-03 1.551891666934305e-02 5.752828262701989e-02 1.434496902077246e-03 6.764127987235605e-02
2.315602860817782e-02 7.719944783741541e-03 9.302977895146608e-03 -3.263419647864572e-02 -5.130446097748403e-03 6.658874395451378e-02
2.873121647745232e-02 -1.281343786191574e-02 -6.452105459256964e-03 1.297251747355798e-02 -5.807580766917795e-04 2.306657131439164e-02
3.017617931358114e-02 3.162887968039913e-02 1.781238231370300e-02 -6.341012143725576e-02 -2.019881681063664e-03 8.874182305153122e-02
1.405661382771257e-01 -1.509687731789065e-02 -1.817430757326996e-02 -1.099174399192973e-04 -1.392206120480305e-02 1.226031481522510e-02
7.572481922741923e-02 -1.069415232905059e-02 -2.690791372976279e-02 -1.096863931575679e-02 2.161511398272627e-03 2.101080293027641e-02
7.894238732239914e-02 -2.572666366422853e-02 -1.773663327595890e-02 9.935652817379237e-03 -1.247708298015490e-03 2.850036977877177e-02
3.002697690267314e-02 3.608402897642275e-02 2.102825747547089e-02 -5.104536695086458e-02 -2.761694868713207e-02 7.463817218439675e-02
1.107079916863916e-01 -9.634789541972019e-03 -2.592161154308021e-02 -5.702151401670876e-03 -1.021354844494677e-02 1.761724546116846e-02
2.317227313796011e-02 2.473830940928970e-02 -8.487968959107913e-03 -3.886878593689356e-02 -2.422405954865172e-03 6.698136887360384e-02
2.315602860817782e-02 7.719944783741541e-03 9.302977895146608e-03 -3.263419647864572e-02 -5.130446097748403e-03 6.658874395451378e-02
1.143729446932813e-01 -1.648367470107674e-02 -1.877308670685456e-02 -8.089472024343245e-04 -1.058252376678448e-02 1.757863755558579e-02
8.278652618703777e-02 -1.650540634031666e-02 -2.672303790035520e-02 -5.560840926763466e-03 -1.981562416737663e-03 3.013299789437173e-02
2.907222259096398e-02 1.263328400152142e-02 1.812474921345037e-02 -5.318377868527193e-02 6.296097673768712e-03 -4.380091864926389e-02
1.178491044824179e-01 -1.708043092555843e-02 -1.491233231273049e-02 2.555223993067401e-03 1.377793049463210e-02 6.856455407616570e-03
7.464398143281636e-02 -2.744426678694769e-02 -8.566469615541594e-03 1.071346817136576e-02 1.032252158141991e-03 -4.415934155780623e-03
7.572481922741923e-02 -1.069415232905059e-02 -2.690791372976279e-02 -1.096863931575679e-02 2.161511398272627e-03 2.101080293027641e-02
2.393546010507163e-02 1.443823655647940e-02 2.124081252249831e-02 -3.880763127415152e-02 2.341801767117516e-02 -3.006642773649763e-02
1.005646625328014e-01 -1.904620569868441e-02 -9.319372794147754e-03 2.183173059591040e-03 1.243725672001466e-02 -1.920714564859372e-03
2.333948632731633e-02 -4.317611690502116e-03 1.757037736992416e-02 -2.606346881994962e-02 9.429521593138640e-03 -2.491502770114532e-02
2.333110478680644e-02 1.201566848898026e-02 1.823046737334651e-03 -3.506188330245134e-02 1.032522119978832e-02 -1.406600733539473e-02
1.017904197436988e-01 -1.275721619745386e-02 -1.532490971301699e-02 -6.358022110442143e-03 1.250801696024409e-02 8.042287672515205e-03
8.119197092830338e-02 -1.838418293274806e-02 -1.500644449964959e-02 -6.142211419280010e-03 5.713610750653310e-03 2.475516837694589e-03
2.961819821442846e-02 1.250055248113828e-02 2.755121627187452e-02 7.622215266272023e-02 -3.876647082732684e-03 -4.949577968894889e-02
1.295079634152297e-01 -1.892133957111826e-02 -1.420993956942154e-02 7.108967406985640e-03 -1.344622979378917e-02 5.412391759426935e-03
7.786993627347830e-02 -1.526583895625544e-02 -2.606588874620538e-02 2.298139739483467e-02 -2.377296886285046e-03 2.023389555746937e-02
7.464398143281636e-02 -2.744426678694769e-02 -8.566469615541594e-03 1.071346817136576e-02 1.032252158141991e-03 -4.415934155780623e-03
2.704700176793973e-02 1.425485186124895e-02 3.184923635475168e-02 6.158639356574096e-02 -2.518386668646279e-02 -3.670756014621644e-02
1.088182576132481e-01 -1.750869534815122e-02 -1.426804858311350e-02 1.423610017480127e-02 -1.149022304497235e-02 6.307831659908812e-03
2.322721619889154e-02 7.972792415290501e-03 7.754504251806219e-03 5.617016612666512e-02 -8.061617491639335e-03 -1.790190927198834e-02
2.325399897637490e-02 -9.495829967613069e-03 2.395961181427187e-02 5.307566377428696e-02 -5.349898440766753e-03 -2.712043105911544e-02
1.051482037020929e-01 -2.452248466868328e-02 -7.823438835675161e-03 1.088471455936132e-02 -1.119524998397516e-02 -1.662520364776425e-03
8.196988762783231e-02 -2.423279915098818e-02 -1.406906874713569e-02 2.263030700239659e-02 -3.944809590054985e-03 2.569753927195308e-03
3.074698212770146e-02 3.164324566283157e-02 2.739735629334131e-02 8.421582773049037e-02 5.566748062413086e-04 9.220497731360214e-02
1.510825043040130e-01 -1.601215879928298e-02 -1.653929506452394e-02 9.346123138424169e-03 1.509612901083777e-02 1.327603950787542e-02
7.894238732239914e-02 -2.572666366422853e-02 -1.773663327595890e-02 9.935652817379237e-03 -1.247708298015490e-03 2.850036977877177e-02
7.786993627347830e-02 -1.526583895625544e-02 -2.606588874620538e-02 2.298139739483467e-02 -2.377296886285046e-03 2.023389555746937e-02
3.288836401328554e-02 3.648033746800593e-02 3.223439898807505e-02 7.188878267389996e-02 3.061885436754267e-02 7.934263646383058e-02
1.184881905124755e-01 -2.121255555377794e-02 -1.710882072686704e-02 1.297113696066617e-02 9.663083985864775e-03 1.705956324249307e-02
2.309779677852375e-02 2.746998187606597e-03 1.551891666934305e-02 5.752828262701989e-02 1.434496902077246e-03 6.764127987235605e-02
2.309633807397157e-02 2.051598321362714e-02 -2.344689404561993e-03 5.882414867293503e-02 5.416440976346662e-04 6.870061785425230e-02
1.172674920226619e-01 -1.422125511544860e-02 -2.411254809462449e-02 1.332035481221767e-02 9.517412838451852e-03 1.844650732093394e-02
8.363750195111777e-02 -2.237431002466479e-02 -2.580519663575280e-02 2.130523888028587e-02 -1.922118480916565e-04 2.929546198434411e-02
1.405661382771257e-01 -1.509687731789065e-02 -1.817430757326996e-02 -1.099174399192973e-04 -1.392206120480305e-02 1.226031481522510e-02
1.178491044824179e-01 -1.708043092555843e-02 -1.491233231273049e-02 2.555223993067401e-03 1.377793049463210e-02 6.856455407616570e-03
7.572481922741923e-02 -1.069415232905059e-02 -2.690791372976279e-02 -1.096863931575679e-02 2.161511398272627e-03 2.101080293027641e-02
1.770555702114044e-01 -3.158245942986977e-02 -3.065545920974065e-02 5.740873074099623e-03 6.473151414658629e-04 1.148211732252613e-02
1.659686142680566e-01 -3.120055453231948e-02 -2.465534172731494e-02 6.117304910765248e-03 1.260490443842885e-03 9.778362951359133e-03
1.017904197436988e-01 -1.275721619745386e-02 -1.532490971301699e-02 -6.358022110442143e-03 1.250801696024409e-02 8.042287672515205e-03
1.107079916863916e-01 -9.634789541972019e-03 -2.592161154308021e-02 -5.702151401670876e-03 -1.021354844494677e-02 1.761724546116846e-02
1.809490792786705e-01 -2.943792366382297e-02 -2.654623466081147e-02 6.182216104963358e-03 -1.610112297966181e-03 7.602914544925291e-03
1.653777841922574e-01 -2.784133494637558e-02 -2.772629583848231e-02 6.997090905143965e-03 2.652456642301242e-03 1.152589988533807e-02
1.583347142639799e-01 -2.833128222203552e-02 -3.068494806896817e-02 -1.468367654001634e-03 -1.704768969092777e-04 1.136239405857434e-02
1.178491044824179e-01 -1.708043092555843e-02 -1.491233231273049e-02 2.555223993067401e-03 1.377793049463210e-02 6.856455407616570e-03
1.295079634152297e-01 -1.892133957111826e-02 -1.420993956942154e-02 7.108967406985640e-03 -1.344622979378917e-02 5.412391759426935e-03
7.464398143281636e-02 -2.744426678694769e-02 -8.566469615541594e-03 1.071346817136576e-02 1.032252158141991e-03 -4.415934155780623e-03
1.770555702114044e-01 -3.158245942986977e-02 -3.065545920974065e-02 5.740873074099623e-03 6.473151414658629e-04 1.148211732252613e-02
1.592680048068644e-01 -2.472663100432359e-02 -3.122676487508351e-02 4.917558479622908e-03 8.314117477453362e-04 8.520747320887227e-03
1.051482037020929e-01 -2.452248466868328e-02 -7.823438835675161e-03 1.088471455936132e-02 -1.119524998397516e-02 -1.662520364776425e-03
1.005646625328014e-01 -1.904620569868441e-02 -9.319372794147754e-03 2.183173059591040e-03 1.243725672001466e-02 -1.920714564859372e-03
1.653777841922574e-01 -2.784133494637558e-02 -2.772629583848231e-02 6.997090905143965e-03 2.652456642301242e-03 1.152589988533807e-02
1.733751115880714e-01 -2.733861290693063e-02 -2.864907508708276e-02 2.576932321627503e-03 -1.573203133390843e-03 1.111531153105113e-02
1.569420846839326e-01 -3.105792592374002e-02 -2.807102570955791e-02 5.745710411651533e-03 2.630626213423010e-05 2.414835580160642e-03
1.295079634152297e-01 -1.892133957111826e-02 -1.420993956942154e-02 7.108967406985640e-03 -1.344622979378917e-02 5.412391759426935e-03
1.510825043040130e-01 -1.601215879928298e-02 -1.653929506452394e-02 9.346123138424169e-03 1.509612901083777e-02 1.327603950787542e-02
7.786993627347830e-02 -1.526583895625544e-02 -2.606588874620538e-02 2.298139739483467e-02 -2.377296886285046e-03 2.023389555746937e-02
1.770555702114044e-01 -3.158245942986977e-02 -3.065545920974065e-02 5.740873074099623e-03 6.473151414658629e-04 1.148211732252613e-02
1.793532664250047e-01 -3.023671724841187e-02 -2.603802534762522e-02 -1.236336978920697e-03 -5.291258648066282e-04 9.674270913415528e-03
1.172674920226619e-01 -1.422125511544860e-02 -2.411254809462449e-02 1.332035481221767e-02 9.517412838451852e-03 1.844650732093394e-02
1.088182576132481e-01 -1.750869534815122e-02 -1.426804858311350e-02 1.423610017480127e-02 -1.149022304497235e-02 6.307831659908812e-03
1.733751115880714e-01 -2.733861290693063e-02 -2.864907508708276e-02 2.576932321627503e-03 -1.573203133390843e-03 1.111531153105113e-02
1.881369305115449e-01 -2.854668498846391e-02 -2.707861212894056e-02 3.357228660497074e-03 2.693824012165565e-03 7.980121216140494e-03
1.611212992739005e-01 -2.827979917240172e-02 -3.071910132532789e-02 8.935523975705805e-03 6.084492187227078e-04 1.112807678496652e-02
1.510825043040130e-01 -1.601215879928298e-02 -1.653929506452394e-02 9.346123138424169e-03 1.509612901083777e-02 1.327603950787542e-02
1.405661382771257e-01 -1.509687731789065e-02 -1.817430757326996e-02 -1.099174399192973e-04 -1.392206120480305e-02 1.226031481522510e-02
7.894238732239914e-02 -2.572666366422853e-02 -1.773663327595890e-02 9.935652817379237e-03 -1.247708298015490e-03 2.850036977877177e-02
1.770555702114044e-01 -3.158245942986977e-02 -3.065545920974065e-02 5.740873074099623e-03 6.473151414658629e-04 1.148211732252613e-02
1.860080867644271e-01 -2.737005768735153e-02 -2.935909156599860e-02 4.813251483582795e-03 -9.810997865787381e-05 1.233504044281305e-03
1.143729446932813e-01 -1.648367470107674e-02 -1.877308670685456e-02 -8.089472024343245e-04 -1.058252376678448e-02 1.757863755558579e-02
1.184881905124755e-01 -2.121255555377794e-02 -1.710882072686704e-02 1.297113696066617e-02 9.663083985864775e-03 1.705956324249307e-02
1.881369305115449e-01 -2.854668498846391e-02 -2.707861212894056e-02 3.357228660497074e-03 2.693824012165565e-03 7.980121216140494e-03
1.809490792786705e-01 -2.943792366382297e-02 -2.654623466081147e-02 6.182216104963358e-03 -1.610112297966181e-03 7.602914544925291e-03
1.625220405230121e-01 -3.111150131617221e-02 -2.797638675862350e-02 5.510731997108945e-03 4.117375054403707e-04 1.253986223051572e-02
3.794483110503209e-02 -2.766235798211903e-03 -2.798207812888953e-03 1.159382745088511e-02 9.639241186974838e-05 2.318430101188602e-02
7.572481922741923e-02 -1.069415232905059e-02 -2.690791372976279e-02 -1.096863931575679e-02 2.161511398272627e-03 2.101080293027641e-02
7.894238732239914e-02 -2.572666366422853e-02 -1.773663327595890e-02 9.935652817379237e-03 -1.247708298015490e-03 2.850036977877177e-02
3.017617931358114e-02 3.162887968039913e-02 1.781238231370300e-02 -6.341012143725576e-02 -2.019881681063664e-03 8.874182305153122e-02
2.735223135934151e-02 -5.519014655681886e-03 -1.270981605551498e-02 9.185938333791829e-03 1.261114117779524e-03 2.662304123011890e-02
8.278652618703777e-02 -1.650540634031666e-02 -2.672303790035520e-02 -5.560840926763466e-03 -1.981562416737663e-03 3.013299789437173e-02
2.873121647745232e-02 -1.281343786191574e-02 -6.452105459256964e-03 1.297251747355798e-02 -5.807580766917795e-04 2.306657131439164e-02
3.937327207988033e-02 8.882293473656617e-03 3.253631301700165e-03 -1.990408587050537e-02 1.160863957477098e-03 4.900714160935282e-02
2.317227313796011e-02 2.473830940928970e-02 -8.487968959107913e-03 -3.886878593689356e-02 -2.422405954865172e-03 6.698136887360384e-02
2.315602860817782e-02 7.719944783741541e-03 9.302977895146608e-03 -3.263419647864572e-02 -5.130446097748403e-03 6.658874395451378e-02
3.794483110503209e-02 -2.766235798211903e-03 -2.798207812888953e-03 1.159382745088511e-02 9.639241186974838e-05 2.318430101188602e-02
7.464398143281636e-02 -2.744426678694769e-02 -8.566469615541594e-03 1.071346817136576e-02 1.032252158141991e-03 -4.415934155780623e-03
7.572481922741923e-02 -1.069415232905059e-02 -2.690791372976279e-02 -1.096863931575679e-02 2.161511398272627e-03 2.101080293027641e-02
2.907222259096398e-02 1.263328400152142e-02 1.812474921345037e-02 -5.318377868527193e-02 6.296097673768712e-03 -4.380091864926389e-02
2.687455835448810e-02 -1.286257592290950e-02 -5.255081420803123e-03 1.343549850348010e-02 6.553934414735993e-04 2.034259728437377e-02
8.119197092830338e-02 -1.838418293274806e-02 -1.500644449964959e-02 -6.142211419280010e-03 5.713610750653310e-03 2.475516837694589e-03
2.735223135934151e-02 -5.519014655681886e-03 -1.270981605551498e-02 9.185938333791829e-03 1.261114117779524e-03 2.662304123011890e-02
3.811196689272542e-02 2.184043353842193e-03 4.396447789898129e-03 -1.602649479682573e-02 2.771406414561072e-03 -5.877836303316571e-03
2.333948632731633e-02 -4.317611690502116e-03 1.757037736992416e-02 -2.606346881994962e-02 9.429521593138640e-03 -2.491502770114532e-02
2.333110478680644e-02 1.201566848898026e-02 1.823046737334651e-03 -3.506188330245134e-02 1.032522119978832e-02 -1.406600733539473e-02
3.794483110503209e-02 -2.766235798211903e-03 -2.798207812888953e-03 1.159382745088511e-02 9.639241186974838e-05 2.318430101188602e-02
7.786993627347830e-02 -1.526583895625544e-02 -2.606588874620538e-02 2.298139739483467e-02 -2.377296886285046e-03 2.023389555746937e-02
7.464398143281636e-02 -2.744426678694769e-02 -8.566469615541594e-03 1.071346817136576e-02 1.032252158141991e-03 -4.415934155780623e-03
2.961819821442846e-02 1.250055248113828e-02 2.755121627187452e-02 7.622215266272023e-02 -3.876647082732684e-03 -4.949577968894889e-02
2.828238233883316e-02 -6.101841375750341e-03 -1.269895986177439e-02 1.250454657295575e-02 -1.186643900864504e-03 2.616039542688392e-02
8.196988762783231e-02 -2.423279915098818e-02 -1.406906874713569e-02 2.263030700239659e-02 -3.944809590054985e-03 2.569753927195308e-03
2.687455835448810e-02 -1.286257592290950e-02 -5.255081420803123e-03 1.343549850348010e-02 6.553934414735993e-04 2.034259728437377e-02
3.873261266427896e-02 1.586701058399912e-03 7.672913711789180e-03 3.783207256376446e-02 -6.021756707144039e-04 -8.065065505631994e-03
2.322721619889154e-02 7.972792415290501e-03 7.754504251806219e-03 5.617016612666512e-02 -8.061617491639335e-03 -1.790190927198834e-02
2.325399897637490e-02 -9.495829967613069e-03 2.395961181427187e-02 5.307566377428696e-02 -5.349898440766753e-03 -2.712043105911544e-02
3.794483110503209e-02 -2.766235798211903e-03 -2.798207812888953e-03 1.159382745088511e-02 9.639241186974838e-05 2.318430101188602e-02
7.894238732239914e-02 -2.572666366422853e-02 -1.773663327595890e-02 9.935652817379237e-03 -1.247708298015490e-03 2.850036977877177e-02
7.786993627347830e-02 -1.526583895625544e-02 -2.606588874620538e-02 2.298139739483467e-02 -2.377296886285046e-03 2.023389555746937e-02
3.074698212770146e-02 3.164324566283157e-02 2.739735629334131e-02 8.421582773049037e-02 5.566748062413086e-04 9.220497731360214e-02
2.873121647745232e-02 -1.281343786191574e-02 -6.452105459256964e-03 1.297251747355798e-02 -5.807580766917795e-04 2.306657131439164e-02
8.363750195111777e-02 -2.237431002466479e-02 -2.580519663575280e-02 2.130523888028587e-02 -1.922118480916565e-04 2.929546198434411e-02
2.828238233883316e-02 -6.101841375750341e-03 -1.269895986177439e-02 1.250454657295575e-02 -1.186643900864504e-03 2.616039542688392e-02
4.004518339979636e-02 8.506618531215121e-03 6.756288380680039e-03 4.075404041908453e-02 -2.619231338846747e-03 5.023871022321660e-02
2.309779677852375e-02 2.746998187606597e-03 1.551891666934305e-02 5.752828262701989e-02 1.434496902077246e-03 6.764127987235605e-02
2.309633807397157e-02 2.051598321362714e-02 -2.344689404561993e-03 5.882414867293503e-02 5.416440976346662e-04 6.870061785425230e-02
1.770555702114044e-01 -3.158245942986977e-02 -3.065545920974065e-02 5.740873074099623e-03 6.473151414658629e-04 1.148211732252613e-02
7.894238732239914e-02 -2.572666366422853e-02 -1.773663327595890e-02 9.935652817379237e-03 -1.247708298015490e-03 2.850036977877177e-02
7.572481922741923e-02 -1.069415232905059e-02 -2.690791372976279e-02 -1.096863931575679e-02 2.161511398272627e-03 2.101080293027641e-02
1.405661382771257e-01 -1.509687731789065e-02 -1.817430757326996e-02 -1.099174399192973e-04 -1.392206120480305e-02 1.226031481522510e-02
1.625220405230121e-01 -3.111150131617221e-02 -2.797638675862350e-02 5.510731997108945e-03 4.117375054403707e-04 1.253986223051572e-02
8.278652618703777e-02 -1.650540634031666e-02 -2.672303790035520e-02 -5.560840926763466e-03 -1.981562416737663e-03 3.013299789437173e-02
1.583347142639799e-01 -2.833128222203552e-02 -3.068494806896817e-02 -1.468367654001634e-03 -1.704768969092777e-04 1.136239405857434e-02
1.809490792786705e-01 -2.943792366382297e-02 -2.654623466081147e-02 6.182216104963358e-03 -1.610112297966181e-03 7.602914544925291e-03
1.143729446932813e-01 -1.648367470107674e-02 -1.877308670685456e-02 -8.089472024343245e-04 -1.058252376678448e-02 1.757863755558579e-02
1.107079916863916e-01 -9.634789541972019e-03 -2.592161154308021e-02 -5.702151401670876e-03 -1.021354844494677e-02 1.761724546116846e-02
1.770555702114044e-01 -3.158245942986977e-02 -3.065545920974065e-02 5.740873074099623e-03 6.473151414658629e-04 1.148211732252613e-02
7.572481922741923e-02 -1.069415232905059e-02 -2.690791372976279e-02 -1.096863931575679e-02 2.161511398272627e-03 2.101080293027641e-02
7.464398143281636e-02 -2.744426678694769e-02 -8.566469615541594e-03 1.071346817136576e-02 1.032252158141991e-03 -4.415934155780623e-03
1.178491044824179e-01 -1.708043092555843e-02 -1.491233231273049e-02 2.555223993067401e-03 1.377793049463210e-02 6.856455407616570e-03
1.583347142639799e-01 -2.833128222203552e-02 -3.068494806896817e-02 -1.468367654001634e-03 -1.704768969092777e-04 1.136239405857434e-02
8.119197092830338e-02 -1.838418293274806e-02 -1.500644449964959e-02 -6.142211419280010e-03 5.713610750653310e-03 2.475516837694589e-03
1.569420846839326e-01 -3.105792592374002e-02 -2.807102570955791e-02 5.745710411651533e-03 2.630626213423010e-05 2.414835580160642e-03
1.653777841922574e-01 -2.784133494637558e-02 -2.772629583848231e-02 6.997090905143965e-03 2.652456642301242e-03 1.152589988533807e-02
1.017904197436988e-01 -1.275721619745386e-02 -1.532490971301699e-02 -6.358022110442143e-03 1.250801696024409e-02 8.042287672515205e-03
1.005646625328014e-01 -1.904620569868441e-02 -9.319372794147754e-03 2.183173059591040e-03 1.243725672001466e-02 -1.920714564859372e-03
1.770555702114044e-01 -3.158245942986977e-02 -3.065545920974065e-02 5.740873074099623e-03 6.473151414658629e-04 1.148211732252613e-02
7.464398143281636e-02 -2.744426678694769e-02 -8.566469615541594e-03 1.071346817136576e-02 1.032252158141991e-03 -4.415934155780623e-03
7.786993627347830e-02 -1.526583895625544e-02 -2.606588874620538e-02 2.298139739483467e-02 -2.377296886285046e-03 2.023389555746937e-02
1.295079634152297e-01 -1.892133957111826e-02 -1.420993956942154e-02 7.108967406985640e-03 -1.344622979378917e-02 5.412391759426935e-03
1.569420846839326e-01 -3.105792592374002e-02 -2.807102570955791e-02 5.745710411651533e-03 2.630626213423010e-05 2.414835580160642e-03
8.196988762783231e-02 -2.423279915098818e-02 -1.406906874713569e-02 2.263030700239659e-02 -3.944809590054985e-03 2.569753927195308e-03
1.611212992739005e-01 -2.827979917240172e-02 -3.071910132532789e-02 8.935523975705805e-03 6.084492187227078e-04 1.112807678496652e-02
1.733751115880714e-01 -2.733861290693063e-02 -2.864907508708276e-02 2.576932321627503e-03 -1.573203133390843e-03 1.111531153105113e-02
1.051482037020929e-01 -2.452248466868328e-02 -7.823438835675161e-03 1.088471455936132e-02 -1.119524998397516e-02 -1.662520364776425e-03
1.088182576132481e-01 -1.750869534815122e-02 -1.426804858311350e-02 1.423610017480127e-02 -1.149022304497235e-02 6.307831659908812e-03
1.770555702114044e-01 -3.158245942986977e-02 -3.065545920974065e-02 5.740873074099623e-03 6.473151414658629e-04 1.148211732252613e-02
7.786993627347830e-02 -1.526583895625544e-02 -2.606588874620538e-02 2.298139739483467e-02 -2.377296886285046e-03 2.023389555746937e-02
7.894238732239914e-02 -2.572666366422853e-02 -1.773663327595890e-02 9.935652817379237e-03 -1.247708298015490e-03 2.850036977877177e-02
1.510825043040130e-01 -1.601215879928298e-02 -1.653929506452394e-02 9.346123138424169e-03 1.509612901083777e-02 1.327603950787542e-02
1.611212992739005e-01 -2.827979917240172e-02 -3.071910132532789e-02 8.935523975705805e-03 6.084492187227078e-04 1.112807678496652e-02
8.363750195111777e-02 -2.237431002466479e-02 -2.580519663575280e-02 2.130523888028587e-02 -1.922118480916565e-04 2.929546198434411e-02
1.625220405230121e-01 -3.111150131617221e-02 -2.797638675862350e-02 5.510731997108945e-03 4.117375054403707e-04 1.253986223051572e-02
1.881369305115449e-01 -2.854668498846391e-02 -2.707861212894056e-02 3.357228660497074e-03 2.693824012165565e-03 7.980121216140494e-03
1.172674920226619e-01 -1.422125511544860e-02 -2.411254809462449e-02 1.332035481221767e-02 9.517412838451852e-03 1.844650732093394e-02
1.184881905124755e-01 -2.121255555377794e-02 -1.710882072686704e-02 1.297113696066617e-02 9.663083985864775e-03 1.705956324249307e-02
3.794483110503209e-02 -2.766235798211903e-03 -2.798207812888953e-03 1.159382745088511e-02 9.639241186974838e-05 2.318430101188602e-02
7.894238732239914e-02 -2.572666366422853e-02 -1.773663327595890e-02 9.935652817379237e-03 -1.247708298015490e-03 2.850036977877177e-02
7.572481922741923e-02 -1.069415232905059e-02 -2.690791372976279e-02 -1.096863931575679e-02 2.161511398272627e-03 2.101080293027641e-02
9.883087556701339e-02 -2.046373121369596e-02 -2.048674215809576e-02 9.166487464523027e-03 2.624310369543740e-05 1.832650630211834e-02
2.873121647745232e-02 -1.281343786191574e-02 -6.452105459256964e-03 1.297251747355798e-02 -5.807580766917795e-04 2.306657131439164e-02
8.278652618703777e-02 -1.650540634031666e-02 -2.672303790035520e-02 -5.560840926763466e-03 -1.981562416737663e-03 3.013299789437173e-02
2.735223135934151e-02 -5.519014655681886e-03 -1.270981605551498e-02 9.185938333791829e-03 1.261114117779524e-03 2.662304123011890e-02
2.897816708441727e-02 -7.754018751163227e-03 -7.726286105119867e-03 1.250736943658544e-02 8.226271233191765e-05 2.500760342715138e-02
1.044180903068717e-01 -2.462376921110664e-02 -2.393337040324425e-02 9.174219573661270e-03 -4.534684250671059e-05 1.992773408364110e-02
1.011776360340698e-01 -2.256136037713720e-02 -2.422625371969987e-02 2.133548500721733e-03 1.864304827499315e-05 1.881978573251224e-02
3.794483110503209e-02 -2.766235798211903e-03 -2.798207812888953e-03 1.159382745088511e-02 9.639241186974838e-05 2.318430101188602e-02
7.572481922741923e-02 -1.069415232905059e-02 -2.690791372976279e-02 -1.096863931575679e-02 2.161511398272627e-03 2.101080293027641e-02
7.464398143281636e-02 -2.744426678694769e-02 -8.566469615541594e-03 1.071346817136576e-02 1.032252158141991e-03 -4.415934155780623e-03
9.883087556701339e-02 -2.046373121369596e-02 -2.048674215809576e-02 9.166487464523027e-03 2.624310369543740e-05 1.832650630211834e-02
2.735223135934151e-02 -5.519014655681886e-03 -1.270981605551498e-02 9.185938333791829e-03 1.261114117779524e-03 2.662304123011890e-02
8.119197092830338e-02 -1.838418293274806e-02 -1.500644449964959e-02 -6.142211419280010e-03 5.713610750653310e-03 2.475516837694589e-03
2.687455835448810e-02 -1.286257592290950e-02 -5.255081420803123e-03 1.343549850348010e-02 6.553934414735993e-04 2.034259728437377e-02
2.897816708441727e-02 -7.754018751163227e-03 -7.726286105119867e-03 1.250736943658544e-02 8.226271233191765e-05 2.500760342715138e-02
1.011776360340698e-01 -2.256136037713720e-02 -2.422625371969987e-02 2.133548500721733e-03 1.864304827499315e-05 1.881978573251224e-02
1.000886766294407e-01 -2.412682282814640e-02 -2.221037596713078e-02 9.498354240314260e-03 7.301293302074607e-07 9.804690041315052e-03
3.794483110503209e-02 -2.766235798211903e-03 -2.798207812888953e-03 1.159382745088511e-02 9.639241186974838e-05 2.318430101188602e-02
7.464398143281636e-02 -2.744426678694769e-02 -8.566469615541594e-03 1.071346817136576e-02 1.032252158141991e-03 -4.415934155780623e-03
7.786993627347830e-02 -1.526583895625544e-02 -2.606588874620538e-02 2.298139739483467e-02 -2.377296886285046e-03 2.023389555746937e-02
9.883087556701339e-02 -2.046373121369596e-02 -2.048674215809576e-02 9.166487464523027e-03 2.624310369543740e-05 1.832650630211834e-02
2.687455835448810e-02 -1.286257592290950e-02 -5.255081420803123e-03 1.343549850348010e-02 6.553934414735993e-04 2.034259728437377e-02
8.196988762783231e-02 -2.423279915098818e-02 -1.406906874713569e-02 2.263030700239659e-02 -3.944809590054985e-03 2.569753927195308e-03
2.828238233883316e-02 -6.101841375750341e-03 -1.269895986177439e-02 1.250454657295575e-02 -1.186643900864504e-03 2.616039542688392e-02
2.897816708441727e-02 -7.754018751163227e-03 -7.726286105119867e-03 1.250736943658544e-02 8.226271233191765e-05 2.500760342715138e-02
1.000886766294407e-01 -2.412682282814640e-02 -2.221037596713078e-02 9.498354240314260e-03 7.301293302074607e-07 9.804690041315052e-03
1.033415208610906e-01 -2.342043037867897e-02 -2.448065811341325e-02 1.272487944676508e-02 -6.332523280466631e-05 1.849599666100724e-02
3.794483110503209e-02 -2.766235798211903e-03 -2.798207812888953e-03 1.159382745088511e-02 9.639241186974838e-05 2.318430101188602e-02
7.786993627347830e-02 -1.526583895625544e-02 -2.606588874620538e-02 2.298139739483467e-02 -2.377296886285046e-03 2.023389555746937e-02
7.894238732239914e-02 -2.572666366422853e-02 -1.773663327595890e-02 9.935652817379237e-03 -1.247708298015490e-03 2.850036977877177e-02
9.883087556701339e-02 -2.046373121369596e-02 -2.048674215809576e-02 9.166487464523027e-03 2.624310369543740e-05 1.832650630211834e-02
2.828238233883316e-02 -6.101841375750341e-03 -1.269895986177439e-02 1.250454657295575e-02 -1.186643900864504e-03 2.616039542688392e-02
8.363750195111777e-02 -2.237431002466479e-02 -2.580519663575280e-02 2.130523888028587e-02 -1.922118480916565e-04 2.929546198434411e-02
2.873121647745232e-02 -1.281343786191574e-02 -6.452105459256964e-03 1.297251747355798e-02 -5.807580766917795e-04 2.306657131439164e-02
2.897816708441727e-02 -7.754018751163227e-03 -7.726286105119867e-03 1.250736943658544e-02 8.226271233191765e-05 2.500760342715138e-02
1.033415208610906e-01 -2.342043037867897e-02 -2.448065811341325e-02 1.272487944676508e-02 -6.332523280466631e-05 1.849599666100724e-02
1.044180903068717e-01 -2.462376921110664e-02 -2.393337040324425e-02 9.174219573661270e-03 -4.534684250671059e-05 1.992773408364110e-02
1.770555702114044e-01 -3.158245942986977e-02 -3.065545920974065e-02 5.740873074099623e-03 6.473151414658629e-04 1.148211732252613e-02
7.572481922741923e-02 -1.069415232905059e-02 -2.690791372976279e-02 -1.096863931575679e-02 2.161511398272627e-03 2.101080293027641e-02
7.894238732239914e-02 -2.572666366422853e-02 -1.773663327595890e-02 9.935652817379237e-03 -1.247708298015490e-03 2.850036977877177e-02
9.883087556701339e-02 -2.046373121369596e-02 -2.048674215809576e-02 9.166487464523027e-03 2.624310369543740e-05 1.832650630211834e-02
1.583347142639799e-01 -2.833128222203552e-02 -3.068494806896817e-02 -1.468367654001634e-03 -1.704768969092777e-04 1.136239405857434e-02
8.278652618703777e-02 -1.650540634031666e-02 -2.672303790035520e-02 -5.560840926763466e-03 -1.981562416737663e-03 3.013299789437173e-02
1.625220405230121e-01 -3.111150131617221e-02 -2.797638675862350e-02 5.510731997108945e-03 4.117375054403707e-04 1.253986223051572e-02
1.659653418363812e-01 -2.840598983827941e-02 -2.806693273512418e-02 5.414245017091898e-03 2.564232584478190e-04 1.082561581061330e-02
1.011776360340698e-01 -2.256136037713720e-02 -2.422625371969987e-02 2.133548500721733e-03 1.864304827499315e-05 1.881978573251224e-02
1.044180903068717e-01 -2.462376921110664e-02 -2.393337040324425e-02 9.174219573661270e-03 -4.534684250671059e-05 1.992773408364110e-02
1.770555702114044e-01 -3.158245942986977e-02 -3.065545920974065e-02 5.740873074099623e-03 6.473151414658629e-04 1.148211732252613e-02
7.464398143281636e-02 -2.744426678694769e-02 -8.566469615541594e-03 1.071346817136576e-02 1.032252158141991e-03 -4.415934155780623e-03
7.572481922741923e-02 -1.069415232905059e-02 -2.690791372976279e-02 -1.096863931575679e-02 2.161511398272627e-03 2.101080293027641e-02
9.883087556701339e-02 -2.046373121369596e-02 -2.048674215809576e-02 9.166487464523027e-03 2.624310369543740e-05 1.832650630211834e-02
1.569420846839326e-01 -3.105792592374002e-02 -2.807102570955791e-02 5.745710411651533e-03 2.630626213423010e-05 2.414835580160642e-03
8.119197092830338e-02 -1.838418293274806e-02 -1.500644449964959e-02 -6.142211419280010e-03 5.713610750653310e-03 2.475516837694589e-03
1.583347142639799e-01 -2.833128222203552e-02 -3.068494806896817e-02 -1.468367654001634e-03 -1.704768969092777e-04 1.136239405857434e-02
1.659653418363812e-01 -2.840598983827941e-02 -2.806693273512418e-02 5.414245017091898e-03 2.564232584478190e-04 1.082561581061330e-02
1.000886766294407e-01 -2.412682282814640e-02 -2.221037596713078e-02 9.498354240314260e-03 7.301293302074607e-07 9.804690041315052e-03
1.011776360340698e-01 -2.256136037713720e-02 -2.422625371969987e-02 2.133548500721733e-03 1.864304827499315e-05 1.881978573251224e-02
1.770555702114044e-01 -3.158245942986977e-02 -3.065545920974065e-02 5.740873074099623e-03 6.473151414658629e-04 1.148211732252613e-02
7.786993627347830e-02 -1.526583895625544e-02 -2.606588874620538e-02 2.298139739483467e-02 -2.377296886285046e-03 2.023389555746937e-02
7.464398143281636e-02 -2.744426678694769e-02 -8.566469615541594e-03 1.071346817136576e-02 1.032252158141991e-03 -4.415934155780623e-03
9.883087556701339e-02 -2.046373121369596e-02 -2.048674215809576e-02 9.166487464523027e-03 2.624310369543740e-05 1.832650630211834e-02
1.611212992739005e-01 -2.827979917240172e-02 -3.071910132532789e-02 8.935523975705805e-03 6.084492187227078e-04 1.112807678496652e-02
8.196988762783231e-02 -2.423279915098818e-02 -1.406906874713569e-02 2.263030700239659e-02 -3.944809590054985e-03 2.569753927195308e-03
1.569420846839326e-01 -3.105792592374002e-02 -2.807102570955791e-02 5.745710411651533e-03 2.630626213423010e-05 2.414835580160642e-03
1.659653418363812e-01 -2.840598983827941e-02 -2.806693273512418e-02 5.414245017091898e-03 2.564232584478190e-04 1.082561581061330e-02
1.033415208610906e-01 -2.342043037867897e-02 -2.448065811341325e-02 1.272487944676508e-02 -6.332523280466631e-05 1.849599666100724e-02
1.000886766294407e-01 -2.412682282814640e-02 -2.221037596713078e-02 9.498354240314260e-03 7.301293302074607e-07 9.804690041315052e-03
1.770555702114044e-01 -3.158245942986977e-02 -3.065545920974065e-02 5.740873074099623e-03 6.473151414658629e-04 1.148211732252613e-02
7.894238732239914e-02 -2.572666366422853e-02 -1.773663327595890e-02 9.935652817379237e-03 -1.247708298015490e-03 2.850036977877177e-02
7.786993627347830e-02 -1.526583895625544e-02 -2.606588874620538e-02 2.298139739483467e-02 -2.377296886285046e-03 2.023389555746937e-02
9.883087556701339e-02 -2.046373121369596e-02 -2.048674215809576e-02 9.166487464523027e-03 2.624310369543740e-05 1.832650630211834e-02
1.625220405230121e-01 -3.111150131617221e-02 -2.797638675862350e-02 5.510731997108945e-03 4.117375054403707e-04 1.253986223051572e-02
8.363750195111777e-02 -2.237431002466479e-02 -2.580519663575280e-02 2.130523888028587e-02 -1.922118480916565e-04 2.929546198434411e-02
1.611212992739005e-01 -2.827979917240172e-02 -3.071910132532789e-02 8.935523975705805e-03 6.084492187227078e-04 1.112807678496652e-02
1.659653418363812e-01 -2.840598983827941e-02 -2.806693273512418e-02 5.414245017091898e-03 2.564232584478190e-04 1.082561581061330e-02
1.044180903068717e-01 -2.462376921110664e-02 -2.393337040324425e-02 9.174219573661270e-03 -4.534684250671059e-05 1.992773408364110e-02
1.033415208610906e-01 -2.342043037867897e-02 -2.448065811341325e-02 1.272487944676508e-02 -6.332523280466631e-05 1.849599666100724e-02
        </DataArray>
        <DataArray type="Float64" Name="nodal_cauchy_stresses_xyz" NumberOfComponents="6" format="ascii">
1.904151074931675e+02 -1.978015311354181e-01 -1.962351310199696e-01 -4.133591758136230e-01 -2.025704631646828e-03 -4.042081771866617e-01
1.899349552365929e+02 5.310866437603650e-01 5.295153466438978e-01 1.481522088957446e+00 2.565428924284572e-02 1.510238356530384e+00
1.917676356119184e+02 5.232718736442620e-01 5.208232035663571e-01 -1.490588694131994e+00 -3.056865175268328e-02 1.557685944715715e+00
1.917802090383180e+02 -2.064786850269623e-01 -2.005837211403694e-01 4.226083778143178e-01 -6.602548153974992e-04 -4.040947171129634e-01
1.931276858605510e+02 -2.060290473271994e-01 -2.131031633100638e-01 -4.049939100454465e-01 -2.173592854120908e-03 4.143672318245533e-01
1.935662315729209e+02 5.150392975833764e-01 5.152756579901228e-01 1.593352140471550e+00 -3.347075449563622e-02 -1.545040533561542e+00
1.953308057296198e+02 5.097571477497379e-01 5.091182367284084e-01 -1.635789625106120e+00 3.442497697270137e-02 -1.625855614376399e+00
1.944577177509350e+02 -2.137986574116024e-01 -2.165430141358000e-01 3.975428821925689e-01 2.532251999692545e-03 3.975531891719936e-01
1.899349552365929e+02 5.310866437603650e-01 5.295153466438978e-01 1.481522088957446e+00 2.565428924284572e-02 1.510238356530384e+00
1.927169472245851e+02 3.632556971013714e-01 1.216230396565048e-01 1.600167107208849e+00 3.133387444317567e-01 7.874077290148958e-01
2.005637017862143e+02 1.208490093653844e+00 4.964676776458101e-01 -3.304004456527556e+00 -1.621228128898521e-01 7.562533926832045e-01
1.917676356119184e+02 5.232718736442620e-01 5.208232035663571e-01 -1.490588694131994e+00 -3.056865175268328e-02 1.557685944715715e+00
1.935662315729209e+02 5.150392975833764e-01 5.152756579901228e-01 1.593352140471550e+00 -3.347075449563622e-02 -1.545040533561542e+00
2.083920224428180e+02 9.771033454997102e-01 1.680070069712766e+00 1.645670166789189e+00 4.631529343489604e-02 -4.304640863045810e+00
2.162103680694132e+02 1.563628891877920e+00 1.796314779475557e+00 -3.573050828016445e+00 -3.104860489748107e-01 -4.496788670399384e+00
1.953308057296198e+02 5.097571477497379e-01 5.091182367284084e-01 -1.635789625106120e+00 3.442497697270137e-02 -1.625855614376399e+00
1.927169472245851e+02 3.632556971013714e-01 1.216230396565048e-01 1.600167107208849e+00 3.133387444317567e-01 7.874077290148958e-01
1.858168486056129e+02 -4.567853559576919e+00 -5.025094146454697e+00 3.254286204540099e+00 6.777369006110913e-01 5.109236107616247e+00
1.991918053887568e+02 -2.974416959535877e+00 -4.365355660832098e+00 7.165185583967650e-01 -1.413044280250903e-01 4.853609456386462e+00
2.005637017862143e+02 1.208490093653844e+00 4.964676776458101e-01 -3.304004456527556e+00 -1.621228128898521e-01 7.562533926832045e-01
2.083920224428180e+02 9.771033454997102e-01 1.680070069712766e+00 1.645670166789189e+00 4.631529343489604e-02 -4.304640863045810e+00
2.126387591306282e+02 -3.518784651755810e+00 -2.108076878840935e+00 3.021569707645974e+00 2.763799179299496e-01 2.544513974765388e+00
2.260820128046402e+02 -2.458560840255714e+00 -1.981545453821417e+00 3.845888989732008e-01 -5.698076960033691e-01 2.235436151773415e+00
2.162103680694132e+02 1.563628891877920e+00 1.796314779475557e+00 -3.573050828016445e+00 -3.104860489748107e-01 -4.496788670399384e+00
2.395104954359830e+02 8.602987645909900e-01 3.636921896083711e-01 -1.133481436749813e+00 1.636377154037171e-01 -1.152619206882983e-01
2.343926957077841e+02 3.281254256757464e-01 4.618785059846615e-01 -2.741581183156634e-01 5.092355054693860e-02 -6.489892342782866e-01
2.754387123733695e+02 -3.195367373599485e+00 -3.207727435721600e+00 -6.007750469463597e-02 -7.071359117348060e-03 -1.197756176708722e-01
2.304372910350413e+02 5.953648197860493e-01 -3.496572525715909e+00 8.191568010415642e-01 -7.567624884081814e-02 2.976520262631090e+00
2.546457108211565e+02 -4.423188366560480e-01 -9.002160484498811e-01 -5.552663124856251e-01 1.011662107956857e-01 -1.502581871544815e+00
2.747670789300545e+02 -2.347104467199364e+00 -2.304223465095000e+00 -4.812538575704651e-01 3.179682727980013e-04 -8.891433764360581e-01
2.809389722752312e+02 -2.340885973639086e+00 -2.520729933881797e+00 -6.506369881009549e-01 8.940104494249061e-02 -6.405809276274791e-01
2.156918408942615e+02 -5.041220300200495e-01 -1.448194947379638e+00 3.520886147631239e+00 8.506436727949339e-02 6.181278884911281e-01
2.131528518963720e+02 -2.706541794908892e-01 -5.071571423271756e-01 3.612676951878049e+00 1.981519228035673e-01 9.556822554176794e-01
2.382864796360844e+02 -3.202444529816156e+00 -3.457079038535465e+00 3.805199932311724e+00 3.766529877158737e-02 9.757834942466544e-01
2.343926957077841e+02 3.281254256757464e-01 4.618785059846615e-01 -2.741581183156634e-01 5.092355054693860e-02 -6.489892342782866e-01
2.368985262275627e+02 2.991159563302567e-01 7.455869127587449e-01 -6.878073194289847e-02 4.204590016750004e-02 -1.113647692528291e+00
2.754387123733695e+02 -3.195367373599485e+00 -3.207727435721600e+00 -6.007750469463597e-02 -7.071359117348060e-03 -1.197756176708722e-01
2.264285182893989e+02 -2.797025071874021e+00 1.298156571491213e+00 1.573032925231705e+00 -1.344410404971684e-01 2.955473532978850e-01
2.531067977774001e+02 -8.394890882555022e-01 -2.869424789644525e-01 -7.363233079029206e-01 4.706017827823371e-02 -9.477754994305876e-01
2.778094582710560e+02 -2.456881856284251e+00 -2.303066814949286e+00 -2.653404824980208e-01 3.703328445245722e-02 -9.908494892545474e-01
2.747670789300545e+02 -2.347104467199364e+00 -2.304223465095000e+00 -4.812538575704651e-01 3.179682727980013e-04 -8.891433764360581e-01
2.132662863752234e+02 -6.612902598805898e-01 -1.622231738364948e-01 5.921407886353629e-01 1.623039648576206e-01 3.448597951542207e+00
2.144753974815518e+02 -1.121783131774366e+00 -2.726274851365612e-01 2.430928355100090e-01 -3.372939612438798e-02 3.381508167731625e+00
2.362528316272060e+02 -3.354707536122159e+00 -3.115715131236984e+00 5.036919629423809e-01 1.470205502759005e-02 3.886179783926267e+00
2.368985262275627e+02 2.991159563302567e-01 7.455869127587449e-01 -6.878073194289847e-02 4.204590016750004e-02 -1.113647692528291e+00
2.422077876848078e+02 7.712452287746232e-01 5.875173387299892e-01 6.480696582743699e-01 -3.186242956512447e-01 2.072641709278983e-01
2.754387123733695e+02 -3.195367373599485e+00 -3.207727435721600e+00 -6.007750469463597e-02 -7.071359117348060e-03 -1.197756176708722e-01
2.375700249527461e+02 -1.016710410504195e+00 -4.016807470752373e+00 -2.432970896551981e+00 -2.801564150862476e-01 2.655417856132083e+00
2.579171102917158e+02 -7.900573128803527e-01 -1.011651929753532e+00 -3.330628726172595e-01 -1.147357330342117e-01 -1.556445470792271e+00
2.841806509462438e+02 -2.439619751412298e+00 -2.508503891518810e+00 -1.679130928046255e-01 -1.582090646442172e-01 -6.108660560645435e-01
2.778094582710560e+02 -2.456881856284251e+00 -2.303066814949286e+00 -2.653404824980208e-01 3.703328445245722e-02 -9.908494892545474e-01
2.140700529148046e+02 -5.804296373022844e-01 -5.682770314960734e-01 -3.979468941752676e+00 -1.428999377061138e-01 7.920604869023133e-01
2.168309617011866e+02 -8.406671966367402e-01 -1.535224269758937e+00 -3.974618464378159e+00 -1.900077019318114e-01 5.885791444392844e-01
2.421388950381489e+02 -3.357819370959061e+00 -3.593588808614581e+00 -3.706295155508416e+00 -5.332574693824096e-02 9.076526365645639e-01
2.422077876848078e+02 7.712452287746232e-01 5.875173387299892e-01 6.480696582743699e-01 -3.186242956512447e-01 2.072641709278983e-01
2.395104954359830e+02 8.602987645909900e-01 3.636921896083711e-01 -1.133481436749813e+00 1.636377154037171e-01 -1.152619206882983e-01
2.754387123733695e+02 -3.195367373599485e+00 -3.207727435721600e+00 -6.007750469463597e-02 -7.071359117348060e-03 -1.197756176708722e-01
2.407156643768341e+02 -3.878089212960202e+00 -1.901772794328152e+00 1.251710352099521e+00 -2.218273688448421e-01 -3.495078790614114e+00
2.596334221563943e+02 -1.064687649527557e+00 -9.823120991112688e-01 -7.904851098982606e-01 -6.064804525718302e-02 -8.286766123163465e-01
2.809389722752312e+02 -2.340885973639086e+00 -2.520729933881797e+00 -6.506369881009549e-01 8.940104494249061e-02 -6.405809276274791e-01
2.841806509462438e+02 -2.439619751412298e+00 -2.508503891518810e+00 -1.679130928046255e-01 -1.582090646442172e-01 -6.108660560645435e-01
2.166776952725157e+02 -1.291594164083967e+00 -9.363857951530261e-01 2.810528782974714e-01 -1.490488021665770e-01 -4.249579754698118e+00
2.152484386492508e+02 -8.051132636110095e-01 -7.996243453963574e-01 3.609736719810270e-01 -2.896189869629072e-02 -4.230056035702034e+00
2.439474924566711e+02 -3.630252324125308e+00 -3.426362091153446e+00 4.356571247104078e-01 -3.022120466716146e-02 -3.689752264376563e+00
2.395104954359830e+02 8.602987645909900e-01 3.636921896083711e-01 -1.133481436749813e+00 1.636377154037171e-01 -1.152619206882983e-01
2.750838180863441e+02 2.869380382233834e+00 6.738750840784009e+00 6.181916780699498e+00 -2.668757710334407e+00 -1.032404262210685e+01
2.304372910350413e+02 5.953648197860493e-01 -3.496572525715909e+00 8.191568010415642e-01 -7.567624884081814e-02 2.976520262631090e+00
2.407156643768341e+02 -3.878089212960202e+00 -1.901772794328152e+00 1.251710352099521e+00 -2.218273688448421e-01 -3.495078790614114e+00
2.446751817945631e+02 1.677689072465394e+00 1.311959754739520e+00 1.232299332514495e+00 -4.952877120900481e-01 -4.324068729013360e+00
2.407115149350125e+02 9.253978606093294e-01 -6.531224752369099e-01 4.871123259795061e+00 -9.033311597796880e-01 -6.653194084433639e+00
2.156918408942615e+02 -5.041220300200495e-01 -1.448194947379638e+00 3.520886147631239e+00 8.506436727949339e-02 6.181278884911281e-01
2.152484386492508e+02 -8.051132636110095e-01 -7.996243453963574e-01 3.609736719810270e-01 -2.896189869629072e-02 -4.230056035702034e+00
2.492509133291949e+02 -1.977739513580815e+00 5.509938860341084e-01 6.671570980840211e+00 -9.542314733153422e-01 -8.969664256289098e+00
2.600752999032126e+02 -1.121335009575676e+00 -2.514514819943012e+00 1.215114045889395e+00 1.575521559055559e+00 -1.986923358553669e-01
2.343926957077841e+02 3.281254256757464e-01 4.618785059846615e-01 -2.741581183156634e-01 5.092355054693860e-02 -6.489892342782866e-01
2.276468553570624e+02 1.668396281017189e+00 8.468207306715037e-01 5.583949156009425e+00 2.665350818580754e+00 4.546399423380109e+00
2.264285182893989e+02 -2.797025071874021e+00 1.298156571491213e+00 1.573032925231705e+00 -1.344410404971684e-01 2.955473532978850e-01
2.304372910350413e+02 5.953648197860493e-01 -3.496572525715909e+00 8.191568010415642e-01 -7.567624884081814e-02 2.976520262631090e+00
2.248658456797612e+02 1.225722013915361e+00 1.385554878817351e+00 -2.505946880933763e-01 3.795044951873207e-01 -1.140181957605355e+00
2.181303723969437e+02 -2.258039070531930e+00 4.994628545734709e-01 7.092604792566240e+00 1.825157889713305e-01 1.632475434076215e+00
2.132662863752234e+02 -6.612902598805898e-01 -1.622231738364948e-01 5.921407886353629e-01 1.623039648576206e-01 3.448597951542207e+00
2.131528518963720e+02 -2.706541794908892e-01 -5.071571423271756e-01 3.612676951878049e+00 1.981519228035673e-01 9.556822554176794e-01
2.214209121639903e+02 4.143019295516970e-01 -2.952672172283157e+00 2.529605215556368e+00 2.195865103440513e-01 7.318529074645316e+00
2.520811612999738e+02 2.357085377854782e-01 3.956484227792569e-01 4.847377477440538e-01 -1.561803341967013e+00 1.023173615276062e+00
2.368985262275627e+02 2.991159563302567e-01 7.455869127587449e-01 -6.878073194289847e-02 4.204590016750004e-02 -1.113647692528291e+00
2.515600374948033e+02 4.607548944802968e+00 1.442183249385461e+00 -8.262022802613615e+00 -2.443566023918185e+00 4.615392144572940e+00
2.375700249527461e+02 -1.016710410504195e+00 -4.016807470752373e+00 -2.432970896551981e+00 -2.801564150862476e-01 2.655417856132083e+00
2.264285182893989e+02 -2.797025071874021e+00 1.298156571491213e+00 1.573032925231705e+00 -1.344410404971684e-01 2.955473532978850e-01
2.351463091121394e+02 1.151916390622701e+00 1.576674118671090e+00 -2.438013103907323e+00 -4.092115531718046e-01 -4.467350050758484e-01
2.370374075810793e+02 4.693551451593416e-01 -2.794969032473207e+00 -6.119152705609147e+00 -6.743236297556852e-01 6.889245658600644e+00
2.140700529148046e+02 -5.804296373022844e-01 -5.682770314960734e-01 -3.979468941752676e+00 -1.428999377061138e-01 7.920604869023133e-01
2.144753974815518e+02 -1.121783131774366e+00 -2.726274851365612e-01 2.430928355100090e-01 -3.372939612438798e-02 3.381508167731625e+00
2.278426311330221e+02 -1.111195360733344e+00 8.031232349764494e-01 -6.545911640997252e+00 -6.069895119528617e-01 2.707316258974329e+00
2.560305023150172e+02 -1.199748389273605e+00 -2.482213218641065e-01 4.146618915970013e-03 1.403033462197445e+00 1.308536709820523e+00
2.422077876848078e+02 7.712452287746232e-01 5.875173387299892e-01 6.480696582743699e-01 -3.186242956512447e-01 2.072641709278983e-01
2.982225491147429e+02 5.824097832331189e+00 7.347267518978112e+00 -9.685593600285436e+00 3.334833320261572e+00 -1.121905918931613e+01
2.407156643768341e+02 -3.878089212960202e+00 -1.901772794328152e+00 1.251710352099521e+00 -2.218273688448421e-01 -3.495078790614114e+00
2.375700249527461e+02 -1.016710410504195e+00 -4.016807470752373e+00 -2.432970896551981e+00 -2.801564150862476e-01 2.655417856132083e+00
2.535372002518484e+02 1.736400483962983e+00 1.634766845929323e+00 -4.067369394450159e+00 6.349068558770279e-01 -5.163976889063793e+00
2.587345355852760e+02 -8.389818358072858e-01 6.742730476200822e-01 -6.933040482657571e+00 1.106947199287296e+00 -1.040731253134920e+01
2.166776952725157e+02 -1.291594164083967e+00 -9.363857951530261e-01 2.810528782974714e-01 -1.490488021665770e-01 -4.249579754698118e+00
2.168309617011866e+02 -8.406671966367402e-01 -1.535224269758937e+00 -3.974618464378159e+00 -1.900077019318114e-01 5.885791444392844e-01
2.561035427044022e+02 8.003820387209060e-01 -5.058432630416697e-01 -8.823447668626226e+00 1.087164970176314e+00 -7.032576197882086e+00
2.642168691195953e+02 -2.664509849777182e+00 -3.266198965148723e+00 -1.043407389035169e+00 -2.052546125334829e+00 -8.008896050726664e-01
2.750838180863441e+02 2.869380382233834e+00 6.738750840784009e+00 6.181916780699498e+00 -2.668757710334407e+00 -1.032404262210685e+01
2.276468553570624e+02 1.668396281017189e+00 8.468207306715037e-01 5.583949156009425e+00 2.665350818580754e+00 4.546399423380109e+00
2.304372910350413e+02 5.953648197860493e-01 -3.496572525715909e+00 8.191568010415642e-01 -7.567624884081814e-02 2.976520262631090e+00
2.828620624942120e+02 -4.900530846676734e+00 -4.275903464170046e+00 1.175654046743924e+00 4.469342060441669e-01 2.352327111080458e+00
2.599769863597034e+02 9.526472587721324e-02 7.925062738150993e+00 1.509489928153474e+00 1.231517923857485e+00 1.020857786442397e+00
2.214209121639903e+02 4.143019295516970e-01 -2.952672172283157e+00 2.529605215556368e+00 2.195865103440513e-01 7.318529074645316e+00
2.407115149350125e+02 9.253978606093294e-01 -6.531224752369099e-01 4.871123259795061e+00 -9.033311597796880e-01 -6.653194084433639e+00
2.905669970815718e+02 5.331049388116472e+00 8.983048731318096e+00 8.128666690015434e-01 -2.378023307299072e+00 -5.640300817546762e-01
2.591115651752193e+02 4.403626511235061e+00 4.005904805320314e+00 1.743784848522754e+00 2.867051348665032e+00 1.919261258592798e+00
2.448468822942340e+02 -1.452802067734236e+00 -5.160859912547775e+00 -4.668865494959454e+00 -2.093857620455562e-01 3.962555849785608e+00
2.276468553570624e+02 1.668396281017189e+00 8.468207306715037e-01 5.583949156009425e+00 2.665350818580754e+00 4.546399423380109e+00
2.515600374948033e+02 4.607548944802968e+00 1.442183249385461e+00 -8.262022802613615e+00 -2.443566023918185e+00 4.615392144572940e+00
2.264285182893989e+02 -2.797025071874021e+00 1.298156571491213e+00 1.573032925231705e+00 -1.344410404971684e-01 2.955473532978850e-01
2.828620624942120e+02 -4.900530846676734e+00 -4.275903464170046e+00 1.175654046743924e+00 4.469342060441669e-01 2.352327111080458e+00
2.458211798006394e+02 6.909597272327511e+00 -1.460806134034936e+00 6.515789250307473e-01 7.706975215054835e-01 -3.476130402336621e-01
2.278426311330221e+02 -1.111195360733344e+00 8.031232349764494e-01 -6.545911640997252e+00 -6.069895119528617e-01 2.707316258974329e+00
2.181303723969437e+02 -2.258039070531930e+00 4.994628545734709e-01 7.092604792566240e+00 1.825157889713305e-01 1.632475434076215e+00
2.591115651752193e+02 4.403626511235061e+00 4.005904805320314e+00 1.743784848522754e+00 2.867051348665032e+00 1.919261258592798e+00
2.749064785752419e+02 6.838602908835124e+00 4.403615476717386e+00 -9.436985558588479e-01 -2.202392303859743e+00 1.318561132623882e+00
2.411590474413806e+02 -5.067732839202201e+00 -1.234624190636463e+00 2.052917214154632e+00 -1.135405930583738e-01 -4.495025086308656e+00
2.515600374948033e+02 4.607548944802968e+00 1.442183249385461e+00 -8.262022802613615e+00 -2.443566023918185e+00 4.615392144572940e+00
2.982225491147429e+02 5.824097832331189e+00 7.347267518978112e+00 -9.685593600285436e+00 3.334833320261572e+00 -1.121905918931613e+01
2.375700249527461e+02 -1.016710410504195e+00 -4.016807470752373e+00 -2.432970896551981e+00 -2.801564150862476e-01 2.655417856132083e+00
2.828620624942120e+02 -4.900530846676734e+00 -4.275903464170046e+00 1.175654046743924e+00 4.469342060441669e-01 2.352327111080458e+00
2.875349647117955e+02 3.764791220634518e+00 8.462614716501545e+00 -5.518850834674789e+00 -6.253000774033268e-01 4.789554462581651e-01
2.561035427044022e+02 8.003820387209060e-01 -5.058432630416697e-01 -8.823447668626226e+00 1.087164970176314e+00 -7.032576197882086e+00
2.370374075810793e+02 4.693551451593416e-01 -2.794969032473207e+00 -6.119152705609147e+00 -6.743236297556852e-01 6.889245658600644e+00
2.749064785752419e+02 6.838602908835124e+00 4.403615476717386e+00 -9.436985558588479e-01 -2.202392303859743e+00 1.318561132623882e+00
3.060353704628570e+02 8.001630933052031e+00 9.615074082294838e+00 -4.955849478329601e-01 3.374609223424008e+00 -4.458024930330176e-01
2.513351909665411e+02 -1.586844382091805e+00 -4.956263505524531e+00 4.570633314299876e+00 2.042545923808536e-01 3.702093436132833e+00
2.982225491147429e+02 5.824097832331189e+00 7.347267518978112e+00 -9.685593600285436e+00 3.334833320261572e+00 -1.121905918931613e+01
2.750838180863441e+02 2.869380382233834e+00 6.738750840784009e+00 6.181916780699498e+00 -2.668757710334407e+00 -1.032404262210685e+01
2.407156643768341e+02 -3.878089212960202e+00 -1.901772794328152e+00 1.251710352099521e+00 -2.218273688448421e-01 -3.495078790614114e+00
2.828620624942120e+02 -4.900530846676734e+00 -4.275903464170046e+00 1.175654046743924e+00 4.469342060441669e-01 2.352327111080458e+00
3.009913785097640e+02 8.027583722629579e+00 5.856091420104647e+00 1.107290613070440e-01 -1.640813025793706e-01 -7.672076400292963e+00
2.492509133291949e+02 -1.977739513580815e+00 5.509938860341084e-01 6.671570980840211e+00 -9.542314733153422e-01 -8.969664256289098e+00
2.587345355852760e+02 -8.389818358072858e-01 6.742730476200822e-01 -6.933040482657571e+00 1.106947199287296e+00 -1.040731253134920e+01
3.060353704628570e+02 8.001630933052031e+00 9.615074082294838e+00 -4.955849478329601e-01 3.374609223424008e+00 -4.458024930330176e-01
2.905669970815718e+02 5.331049388116472e+00 8.983048731318096e+00 8.128666690015434e-01 -2.378023307299072e+00 -5.640300817546762e-01
2.541662866291775e+02 -4.690502483393908e+00 -1.484704750100503e+00 1.791901619809140e+00 1.076393369726214e-01 4.333351333141149e+00
2.754387123733695e+02 -3.195367373599485e+00 -3.207727435721600e+00 -6.007750469463597e-02 -7.071359117348060e-03 -1.197756176708722e-01
2.304372910350413e+02 5.953648197860493e-01 -3.496572525715909e+00 8.191568010415642e-01 -7.567624884081814e-02 2.976520262631090e+00
2.407156643768341e+02 -3.878089212960202e+00 -1.901772794328152e+00 1.251710352099521e+00 -2.218273688448421e-01 -3.495078790614114e+00
2.395104954359830e+02 8.602987645909900e-01 3.636921896083711e-01 -1.133481436749813e+00 1.636377154037171e-01 -1.152619206882983e-01
2.382864796360844e+02 -3.202444529816156e+00 -3.457079038535465e+00 3.805199932311724e+00 3.766529877158737e-02 9.757834942466544e-01
2.600752999032126e+02 -1.121335009575676e+00 -2.514514819943012e+00 1.215114045889395e+00 1.575521559055559e+00 -1.986923358553669e-01
2.439474924566711e+02 -3.630252324125308e+00 -3.426362091153446e+00 4.356571247104078e-01 -3.022120466716146e-02 -3.689752264376563e+00
2.809389722752312e+02 -2.340885973639086e+00 -2.520729933881797e+00 -6.506369881009549e-01 8.940104494249061e-02 -6.405809276274791e-01
2.156918408942615e+02 -5.041220300200495e-01 -1.448194947379638e+00 3.520886147631239e+00 8.506436727949339e-02 6.181278884911281e-01
2.152484386492508e+02 -8.051132636110095e-01 -7.996243453963574e-01 3.609736719810270e-01 -2.896189869629072e-02 -4.230056035702034e+00
2.754387123733695e+02 -3.195367373599485e+00 -3.207727435721600e+00 -6.007750469463597e-02 -7.071359117348060e-03 -1.197756176708722e-01
2.264285182893989e+02 -2.797025071874021e+00 1.298156571491213e+00 1.573032925231705e+00 -1.344410404971684e-01 2.955473532978850e-01
2.304372910350413e+02 5.953648197860493e-01 -3.496572525715909e+00 8.191568010415642e-01 -7.567624884081814e-02 2.976520262631090e+00
2.343926957077841e+02 3.281254256757464e-01 4.618785059846615e-01 -2.741581183156634e-01 5.092355054693860e-02 -6.489892342782866e-01
2.362528316272060e+02 -3.354707536122159e+00 -3.115715131236984e+00 5.036919629423809e-01 1.470205502759005e-02 3.886179783926267e+00
2.520811612999738e+02 2.357085377854782e-01 3.956484227792569e-01 4.847377477440538e-01 -1.561803341967013e+00 1.023173615276062e+00
2.382864796360844e+02 -3.202444529816156e+00 -3.457079038535465e+00 3.805199932311724e+00 3.766529877158737e-02 9.757834942466544e-01
2.747670789300545e+02 -2.347104467199364e+00 -2.304223465095000e+00 -4.812538575704651e-01 3.179682727980013e-04 -8.891433764360581e-01
2.132662863752234e+02 -6.612902598805898e-01 -1.622231738364948e-01 5.921407886353629e-01 1.623039648576206e-01 3.448597951542207e+00
2.131528518963720e+02 -2.706541794908892e-01 -5.071571423271756e-01 3.612676951878049e+00 1.981519228035673e-01 9.556822554176794e-01
2.754387123733695e+02 -3.195367373599485e+00 -3.207727435721600e+00 -6.007750469463597e-02 -7.071359117348060e-03 -1.197756176708722e-01
2.375700249527461e+02 -1.016710410504195e+00 -4.016807470752373e+00 -2.432970896551981e+00 -2.801564150862476e-01 2.655417856132083e+00
2.264285182893989e+02 -2.797025071874021e+00 1.298156571491213e+00 1.573032925231705e+00 -1.344410404971684e-01 2.955473532978850e-01
2.368985262275627e+02 2.991159563302567e-01 7.455869127587449e-01 -6.878073194289847e-02 4.204590016750004e-02 -1.113647692528291e+00
2.421388950381489e+02 -3.357819370959061e+00 -3.593588808614581e+00 -3.706295155508416e+00 -5.332574693824096e-02 9.076526365645639e-01
2.560305023150172e+02 -1.199748389273605e+00 -2.482213218641065e-01 4.146618915970013e-03 1.403033462197445e+00 1.308536709820523e+00
2.362528316272060e+02 -3.354707536122159e+00 -3.115715131236984e+00 5.036919629423809e-01 1.470205502759005e-02 3.886179783926267e+00
2.778094582710560e+02 -2.456881856284251e+00 -2.303066814949286e+00 -2.653404824980208e-01 3.703328445245722e-02 -9.908494892545474e-01
2.140700529148046e+02 -5.804296373022844e-01 -5.682770314960734e-01 -3.979468941752676e+00 -1.428999377061138e-01 7.920604869023133e-01
2.144753974815518e+02 -1.121783131774366e+00 -2.726274851365612e-01 2.430928355100090e-01 -3.372939612438798e-02 3.381508167731625e+00
2.754387123733695e+02 -3.195367373599485e+00 -3.207727435721600e+00 -6.007750469463597e-02 -7.071359117348060e-03 -1.197756176708722e-01
2.407156643768341e+02 -3.878089212960202e+00 -1.901772794328152e+00 1.251710352099521e+00 -2.218273688448421e-01 -3.495078790614114e+00
2.375700249527461e+02 -1.016710410504195e+00 -4.016807470752373e+00 -2.432970896551981e+00 -2.801564150862476e-01 2.655417856132083e+00
2.422077876848078e+02 7.712452287746232e-01 5.875173387299892e-01 6.480696582743699e-01 -3.186242956512447e-01 2.072641709278983e-01
2.439474924566711e+02 -3.630252324125308e+00 -3.426362091153446e+00 4.356571247104078e-01 -3.022120466716146e-02 -3.689752264376563e+00
2.642168691195953e+02 -2.664509849777182e+00 -3.266198965148723e+00 -1.043407389035169e+00 -2.052546125334829e+00 -8.008896050726664e-01
2.421388950381489e+02 -3.357819370959061e+00 -3.593588808614581e+00 -3.706295155508416e+00 -5.332574693824096e-02 9.076526365645639e-01
2.841806509462438e+02 -2.439619751412298e+00 -2.508503891518810e+00 -1.679130928046255e-01 -1.582090646442172e-01 -6.108660560645435e-01
2.166776952725157e+02 -1.291594164083967e+00 -9.363857951530261e-01 2.810528782974714e-01 -1.490488021665770e-01 -4.249579754698118e+00
2.168309617011866e+02 -8.406671966367402e-01 -1.535224269758937e+00 -3.974618464378159e+00 -1.900077019318114e-01 5.885791444392844e-01
2.828620624942120e+02 -4.900530846676734e+00 -4.275903464170046e+00 1.175654046743924e+00 4.469342060441669e-01 2.352327111080458e+00
2.407156643768341e+02 -3.878089212960202e+00 -1.901772794328152e+00 1.251710352099521e+00 -2.218273688448421e-01 -3.495078790614114e+00
2.304372910350413e+02 5.953648197860493e-01 -3.496572525715909e+00 8.191568010415642e-01 -7.567624884081814e-02 2.976520262631090e+00
2.750838180863441e+02 2.869380382233834e+00 6.738750840784009e+00 6.181916780699498e+00 -2.668757710334407e+00 -1.032404262210685e+01
2.541662866291775e+02 -4.690502483393908e+00 -1.484704750100503e+00 1.791901619809140e+00 1.076393369726214e-01 4.333351333141149e+00
2.600752999032126e+02 -1.121335009575676e+00 -2.514514819943012e+00 1.215114045889395e+00 1.575521559055559e+00 -1.986923358553669e-01
2.448468822942340e+02 -1.452802067734236e+00 -5.160859912547775e+00 -4.668865494959454e+00 -2.093857620455562e-01 3.962555849785608e+00
2.905669970815718e+02 5.331049388116472e+00 8.983048731318096e+00 8.128666690015434e-01 -2.378023307299072e+00 -5.640300817546762e-01
2.492509133291949e+02 -1.977739513580815e+00 5.509938860341084e-01 6.671570980840211e+00 -9.542314733153422e-01 -8.969664256289098e+00
2.407115149350125e+02 9.253978606093294e-01 -6.531224752369099e-01 4.871123259795061e+00 -9.033311597796880e-01 -6.653194084433639e+00
2.828620624942120e+02 -4.900530846676734e+00 -4.275903464170046e+00 1.175654046743924e+00 4.469342060441669e-01 2.352327111080458e+00
2.304372910350413e+02 5.953648197860493e-01 -3.496572525715909e+00 8.191568010415642e-01 -7.567624884081814e-02 2.976520262631090e+00
2.264285182893989e+02 -2.797025071874021e+00 1.298156571491213e+00 1.573032925231705e+00 -1.344410404971684e-01 2.955473532978850e-01
2.276468553570624e+02 1.668396281017189e+00 8.468207306715037e-01 5.583949156009425e+00 2.665350818580754e+00 4.546399423380109e+00
2.448468822942340e+02 -1.452802067734236e+00 -5.160859912547775e+00 -4.668865494959454e+00 -2.093857620455562e-01 3.962555849785608e+00
2.520811612999738e+02 2.357085377854782e-01 3.956484227792569e-01 4.847377477440538e-01 -1.561803341967013e+00 1.023173615276062e+00
2.411590474413806e+02 -5.067732839202201e+00 -1.234624190636463e+00 2.052917214154632e+00 -1.135405930583738e-01 -4.495025086308656e+00
2.591115651752193e+02 4.403626511235061e+00 4.005904805320314e+00 1.743784848522754e+00 2.867051348665032e+00 1.919261258592798e+00
2.214209121639903e+02 4.143019295516970e-01 -2.952672172283157e+00 2.529605215556368e+00 2.195865103440513e-01 7.318529074645316e+00
2.181303723969437e+02 -2.258039070531930e+00 4.994628545734709e-01 7.092604792566240e+00 1.825157889713305e-01 1.632475434076215e+00
2.828620624942120e+02 -4.900530846676734e+00 -4.275903464170046e+00 1.175654046743924e+00 4.469342060441669e-01 2.352327111080458e+00
2.264285182893989e+02 -2.797025071874021e+00 1.298156571491213e+00 1.573032925231705e+00 -1.344410404971684e-01 2.955473532978850e-01
2.375700249527461e+02 -1.016710410504195e+00 -4.016807470752373e+00 -2.432970896551981e+00 -2.801564150862476e-01 2.655417856132083e+00
2.515600374948033e+02 4.607548944802968e+00 1.442183249385461e+00 -8.262022802613615e+00 -2.443566023918185e+00 4.615392144572940e+00
2.411590474413806e+02 -5.067732839202201e+00 -1.234624190636463e+00 2.052917214154632e+00 -1.135405930583738e-01 -4.495025086308656e+00
2.560305023150172e+02 -1.199748389273605e+00 -2.482213218641065e-01 4.146618915970013e-03 1.403033462197445e+00 1.308536709820523e+00
2.513351909665411e+02 -1.586844382091805e+00 -4.956263505524531e+00 4.570633314299876e+00 2.042545923808536e-01 3.702093436132833e+00
2.749064785752419e+02 6.838602908835124e+00 4.403615476717386e+00 -9.436985558588479e-01 -2.202392303859743e+00 1.318561132623882e+00
2.278426311330221e+02 -1.111195360733344e+00 8.031232349764494e-01 -6.545911640997252e+00 -6.069895119528617e-01 2.707316258974329e+00
2.370374075810793e+02 4.693551451593416e-01 -2.794969032473207e+00 -6.119152705609147e+00 -6.743236297556852e-01 6.889245658600644e+00
2.828620624942120e+02 -4.900530846676734e+00 -4.275903464170046e+00 1.175654046743924e+00 4.469342060441669e-01 2.352327111080458e+00
2.375700249527461e+02 -1.016710410504195e+00 -4.016807470752373e+00 -2.432970896551981e+00 -2.801564150862476e-01 2.655417856132083e+00
2.407156643768341e+02 -3.878089212960202e+00 -1.901772794328152e+00 1.251710352099521e+00 -2.218273688448421e-01 -3.495078790614114e+00
2.982225491147429e+02 5.824097832331189e+00 7.347267518978112e+00 -9.685593600285436e+00 3.334833320261572e+00 -1.121905918931613e+01
2.513351909665411e+02 -1.586844382091805e+00 -4.956263505524531e+00 4.570633314299876e+00 2.042545923808536e-01 3.702093436132833e+00
2.642168691195953e+02 -2.664509849777182e+00 -3.266198965148723e+00 -1.043407389035169e+00 -2.052546125334829e+00 -8.008896050726664e-01
2.541662866291775e+02 -4.690502483393908e+00 -1.484704750100503e+00 1.791901619809140e+00 1.076393369726214e-01 4.333351333141149e+00
3.060353704628570e+02 8.001630933052031e+00 9.615074082294838e+00 -4.955849478329601e-01 3.374609223424008e+00 -4.458024930330176e-01
2.561035427044022e+02 8.003820387209060e-01 -5.058432630416697e-01 -8.823447668626226e+00 1.087164970176314e+00 -7.032576197882086e+00
2.587345355852760e+02 -8.389818358072858e-01 6.742730476200822e-01 -6.933040482657571e+00 1.106947199287296e+00 -1.040731253134920e+01
2.754387123733695e+02 -3.195367373599485e+00 -3.207727435721600e+00 -6.007750469463597e-02 -7.071359117348060e-03 -1.197756176708722e-01
2.407156643768341e+02 -3.878089212960202e+00 -1.901772794328152e+00 1.251710352099521e+00 -2.218273688448421e-01 -3.495078790614114e+00
2.304372910350413e+02 5.953648197860493e-01 -3.496572525715909e+00 8.191568010415642e-01 -7.567624884081814e-02 2.976520262631090e+00
2.522096969607588e+02 1.279340188039123e+01 1.249176204147234e+01 1.119163966415255e+00 -1.758746002561380e-01 2.233071518867983e+00
2.439474924566711e+02 -3.630252324125308e+00 -3.426362091153446e+00 4.356571247104078e-01 -3.022120466716146e-02 -3.689752264376563e+00
2.600752999032126e+02 -1.121335009575676e+00 -2.514514819943012e+00 1.215114045889395e+00 1.575521559055559e+00 -1.986923358553669e-01
2.382864796360844e+02 -3.202444529816156e+00 -3.457079038535465e+00 3.805199932311724e+00 3.766529877158737e-02 9.757834942466544e-01
2.331666368118373e+02 -3.515010382122658e+00 -3.531764991949702e+00 1.906424943144387e-01 -1.000982931273638e-02 3.809029659888393e-01
2.777667449129245e+02 5.134786208101063e+00 5.005974439687356e+00 1.181833435047586e+00 -2.924315243493321e-01 1.489239452203140e+00
2.680155116614184e+02 7.465862168146884e+00 6.008684361044955e+00 -1.038820415125066e+00 7.572495910330701e-02 2.601491006963871e+00
2.754387123733695e+02 -3.195367373599485e+00 -3.207727435721600e+00 -6.007750469463597e-02 -7.071359117348060e-03 -1.197756176708722e-01
2.304372910350413e+02 5.953648197860493e-01 -3.496572525715909e+00 8.191568010415642e-01 -7.567624884081814e-02 2.976520262631090e+00
2.264285182893989e+02 -2.797025071874021e+00 1.298156571491213e+00 1.573032925231705e+00 -1.344410404971684e-01 2.955473532978850e-01
2.522096969607588e+02 1.279340188039123e+01 1.249176204147234e+01 1.119163966415255e+00 -1.758746002561380e-01 2.233071518867983e+00
2.382864796360844e+02 -3.202444529816156e+00 -3.457079038535465e+00 3.805199932311724e+00 3.766529877158737e-02 9.757834942466544e-01
2.520811612999738e+02 2.357085377854782e-01 3.956484227792569e-01 4.847377477440538e-01 -1.561803341967013e+00 1.023173615276062e+00
2.362528316272060e+02 -3.354707536122159e+00 -3.115715131236984e+00 5.036919629423809e-01 1.470205502759005e-02 3.886179783926267e+00
2.331666368118373e+02 -3.515010382122658e+00 -3.531764991949702e+00 1.906424943144387e-01 -1.000982931273638e-02 3.809029659888393e-01
2.680155116614184e+02 7.465862168146884e+00 6.008684361044955e+00 -1.038820415125066e+00 7.572495910330701e-02 2.601491006963871e+00
2.643480997771524e+02 6.782591675405216e+00 8.070654669502641e+00 1.345604492542733e+00 -5.090274095340386e-02 -6.919243498524053e-01
2.754387123733695e+02 -3.195367373599485e+00 -3.207727435721600e+00 -6.007750469463597e-02 -7.071359117348060e-03 -1.197756176708722e-01
2.264285182893989e+02 -2.797025071874021e+00 1.298156571491213e+00 1.573032925231705e+00 -1.344410404971684e-01 2.955473532978850e-01
2.375700249527461e+02 -1.016710410504195e+00 -4.016807470752373e+00 -2.432970896551981e+00 -2.801564150862476e-01 2.655417856132083e+00
2.522096969607588e+02 1.279340188039123e+01 1.249176204147234e+01 1.119163966415255e+00 -1.758746002561380e-01 2.233071518867983e+00
2.362528316272060e+02 -3.354707536122159e+00 -3.115715131236984e+00 5.036919629423809e-01 1.470205502759005e-02 3.886179783926267e+00
2.560305023150172e+02 -1.199748389273605e+00 -2.482213218641065e-01 4.146618915970013e-03 1.403033462197445e+00 1.308536709820523e+00
2.421388950381489e+02 -3.357819370959061e+00 -3.593588808614581e+00 -3.706295155508416e+00 -5.332574693824096e-02 9.076526365645639e-01
2.331666368118373e+02 -3.515010382122658e+00 -3.531764991949702e+00 1.906424943144387e-01 -1.000982931273638e-02 3.809029659888393e-01
2.643480997771524e+02 6.782591675405216e+00 8.070654669502641e+00 1.345604492542733e+00 -5.090274095340386e-02 -6.919243498524053e-01
2.747229403823432e+02 5.925669882110855e+00 5.190274933816468e+00 1.432652813574946e+00 -4.188089622806013e-01 2.437852782681766e+00
2.754387123733695e+02 -3.195367373599485e+00 -3.207727435721600e+00 -6.007750469463597e-02 -7.071359117348060e-03 -1.197756176708722e-01
2.375700249527461e+02 -1.016710410504195e+00 -4.016807470752373e+00 -2.432970896551981e+00 -2.801564150862476e-01 2.655417856132083e+00
2.407156643768341e+02 -3.878089212960202e+00 -1.901772794328152e+00 1.251710352099521e+00 -2.218273688448421e-01 -3.495078790614114e+00
2.522096969607588e+02 1.279340188039123e+01 1.249176204147234e+01 1.119163966415255e+00 -1.758746002561380e-01 2.233071518867983e+00
2.421388950381489e+02 -3.357819370959061e+00 -3.593588808614581e+00 -3.706295155508416e+00 -5.332574693824096e-02 9.076526365645639e-01
2.642168691195953e+02 -2.664509849777182e+00 -3.266198965148723e+00 -1.043407389035169e+00 -2.052546125334829e+00 -8.008896050726664e-01
2.439474924566711e+02 -3.630252324125308e+00 -3.426362091153446e+00 4.356571247104078e-01 -3.022120466716146e-02 -3.689752264376563e+00
2.331666368118373e+02 -3.515010382122658e+00 -3.531764991949702e+00 1.906424943144387e-01 -1.000982931273638e-02 3.809029659888393e-01
2.747229403823432e+02 5.925669882110855e+00 5.190274933816468e+00 1.432652813574946e+00 -4.188089622806013e-01 2.437852782681766e+00
2.777667449129245e+02 5.134786208101063e+00 5.005974439687356e+00 1.181833435047586e+00 -2.924315243493321e-01 1.489239452203140e+00
2.828620624942120e+02 -4.900530846676734e+00 -4.275903464170046e+00 1.175654046743924e+00 4.469342060441669e-01 2.352327111080458e+00
2.304372910350413e+02 5.953648197860493e-01 -3.496572525715909e+00 8.191568010415642e-01 -7.567624884081814e-02 2.976520262631090e+00
2.407156643768341e+02 -3.878089212960202e+00 -1.901772794328152e+00 1.251710352099521e+00 -2.218273688448421e-01 -3.495078790614114e+00
2.522096969607588e+02 1.279340188039123e+01 1.249176204147234e+01 1.119163966415255e+00 -1.758746002561380e-01 2.233071518867983e+00
2.448468822942340e+02 -1.452802067734236e+00 -5.160859912547775e+00 -4.668865494959454e+00 -2.093857620455562e-01 3.962555849785608e+00
2.600752999032126e+02 -1.121335009575676e+00 -2.514514819943012e+00 1.215114045889395e+00 1.575521559055559e+00 -1.986923358553669e-01
2.541662866291775e+02 -4.690502483393908e+00 -1.484704750100503e+00 1.791901619809140e+00 1.076393369726214e-01 4.333351333141149e+00
2.595728955729996e+02 3.562458916048404e+00 3.457604641370520e+00 1.475147452936852e+00 -3.489146709876409e-02 2.945200136349664e+00
2.680155116614184e+02 7.465862168146884e+00 6.008684361044955e+00 -1.038820415125066e+00 7.572495910330701e-02 2.601491006963871e+00
2.777667449129245e+02 5.134786208101063e+00 5.005974439687356e+00 1.181833435047586e+00 -2.924315243493321e-01 1.489239452203140e+00
2.828620624942120e+02 -4.900530846676734e+00 -4.275903464170046e+00 1.175654046743924e+00 4.469342060441669e-01 2.352327111080458e+00
2.264285182893989e+02 -2.797025071874021e+00 1.298156571491213e+00 1.573032925231705e+00 -1.344410404971684e-01 2.955473532978850e-01
2.304372910350413e+02 5.953648197860493e-01 -3.496572525715909e+00 8.191568010415642e-01 -7.567624884081814e-02 2.976520262631090e+00
2.522096969607588e+02 1.279340188039123e+01 1.249176204147234e+01 1.119163966415255e+00 -1.758746002561380e-01 2.233071518867983e+00
2.411590474413806e+02 -5.067732839202201e+00 -1.234624190636463e+00 2.052917214154632e+00 -1.135405930583738e-01 -4.495025086308656e+00
2.520811612999738e+02 2.357085377854782e-01 3.956484227792569e-01 4.847377477440538e-01 -1.561803341967013e+00 1.023173615276062e+00
2.448468822942340e+02 -1.452802067734236e+00 -5.160859912547775e+00 -4.668865494959454e+00 -2.093857620455562e-01 3.962555849785608e+00
2.595728955729996e+02 3.562458916048404e+00 3.457604641370520e+00 1.475147452936852e+00 -3.489146709876409e-02 2.945200136349664e+00
2.643480997771524e+02 6.782591675405216e+00 8.070654669502641e+00 1.345604492542733e+00 -5.090274095340386e-02 -6.919243498524053e-01
2.680155116614184e+02 7.465862168146884e+00 6.008684361044955e+00 -1.038820415125066e+00 7.572495910330701e-02 2.601491006963871e+00
2.828620624942120e+02 -4.900530846676734e+00 -4.275903464170046e+00 1.175654046743924e+00 4.469342060441669e-01 2.352327111080458e+00
2.375700249527461e+02 -1.016710410504195e+00 -4.016807470752373e+00 -2.432970896551981e+00 -2.801564150862476e-01 2.655417856132083e+00
2.264285182893989e+02 -2.797025071874021e+00 1.298156571491213e+00 1.573032925231705e+00 -1.344410404971684e-01 2.955473532978850e-01
2.522096969607588e+02 1.279340188039123e+01 1.249176204147234e+01 1.119163966415255e+00 -1.758746002561380e-01 2.233071518867983e+00
2.513351909665411e+02 -1.586844382091805e+00 -4.956263505524531e+00 4.570633314299876e+00 2.042545923808536e-01 3.702093436132833e+00
2.560305023150172e+02 -1.199748389273605e+00 -2.482213218641065e-01 4.146618915970013e-03 1.403033462197445e+00 1.308536709820523e+00
2.411590474413806e+02 -5.067732839202201e+00 -1.234624190636463e+00 2.052917214154632e+00 -1.135405930583738e-01 -4.495025086308656e+00
2.595728955729996e+02 3.562458916048404e+00 3.457604641370520e+00 1.475147452936852e+00 -3.489146709876409e-02 2.945200136349664e+00
2.747229403823432e+02 5.925669882110855e+00 5.190274933816468e+00 1.432652813574946e+00 -4.188089622806013e-01 2.437852782681766e+00
2.643480997771524e+02 6.782591675405216e+00 8.070654669502641e+00 1.345604492542733e+00 -5.090274095340386e-02 -6.919243498524053e-01
2.828620624942120e+02 -4.900530846676734e+00 -4.275903464170046e+00 1.175654046743924e+00 4.469342060441669e-01 2.352327111080458e+00
2.407156643768341e+02 -3.878089212960202e+00 -1.901772794328152e+00 1.251710352099521e+00 -2.218273688448421e-01 -3.495078790614114e+00
2.375700249527461e+02 -1.016710410504195e+00 -4.016807470752373e+00 -2.432970896551981e+00 -2.801564150862476e-01 2.655417856132083e+00
2.522096969607588e+02 1.279340188039123e+01 1.249176204147234e+01 1.119163966415255e+00 -1.758746002561380e-01 2.233071518867983e+00
2.541662866291775e+02 -4.690502483393908e+00 -1.484704750100503e+00 1.791901619809140e+00 1.076393369726214e-01 4.333351333141149e+00
2.642168691195953e+02 -2.664509849777182e+00 -3.266198965148723e+00 -1.043407389035169e+00 -2.052546125334829e+00 -8.008896050726664e-01
2.513351909665411e+02 -1.586844382091805e+00 -4.956263505524531e+00 4.570633314299876e+00 2.042545923808536e-01 3.702093436132833e+00
2.595728955729996e+02 3.562458916048404e+00 3.457604641370520e+00 1.475147452936852e+00 -3.489146709876409e-02 2.945200136349664e+00
2.777667449129245e+02 5.134786208101063e+00 5.005974439687356e+00 1.181833435047586e+00 -2.924315243493321e-01 1.489239452203140e+00
2.747229403823432e+02 5.925669882110855e+00 5.190274933816468e+00 1.432652813574946e+00 -4.188089622806013e-01 2.437852782681766e+00
        </DataArray>
  </PointData>
  <CellData>
        <DataArray type="Float64" Name="current_reference_density_gp_0" format="ascii">
1.033021625487335e+00
1.033462207538672e+00
0.000000000000000e+00
1.054325743918510e+00
1.052038623460510e+00
1.052664074238823e+00
1.055124134394959e+00
1.059496452781781e+00
1.052170955104767e+00
1.055889900321889e+00
1.062988773829737e+00
0.000000000000000e+00
0.000000000000000e+00
0.000000000000000e+00
0.000000000000000e+00
1.042997994723760e+00
1.040471050043200e+00
1.041759662893424e+00
1.044201248009908e+00
0.000000000000000e+00
0.000000000000000e+00
0.000000000000000e+00
0.000000000000000e+00
1.057112526790263e+00
1.055595837730885e+00
1.056353392470641e+00
1.057875262771547e+00
0.000000000000000e+00
0.000000000000000e+00
0.000000000000000e+00
0.000000000000000e+00
        </DataArray>
        <DataArray type="Float64" Name="current_reference_density_gp_1" format="ascii">
1.033021625487335e+00
1.033462207538672e+00
0.000000000000000e+00
1.051845239809714e+00
1.053257041816419e+00
1.055300324143040e+00
1.053751536773716e+00
1.063794061183597e+00
1.053997206794049e+00
1.058929834359623e+00
1.068612155766827e+00
0.000000000000000e+00
0.000000000000000e+00
0.000000000000000e+00
0.000000000000000e+00
1.034466679956324e+00
1.034253376882296e+00
1.034970744868525e+00
1.035106352547389e+00
0.000000000000000e+00
0.000000000000000e+00
0.000000000000000e+00
0.000000000000000e+00
1.069669599801772e+00
1.064263773379078e+00
1.063719296278570e+00
1.069215593318122e+00
0.000000000000000e+00
0.000000000000000e+00
0.000000000000000e+00
0.000000000000000e+00
        </DataArray>
        <DataArray type="Float64" Name="current_reference_density_gp_2" format="ascii">
1.033319724368058e+00
1.033969898289493e+00
0.000000000000000e+00
1.074227409381578e+00
1.072544995757525e+00
1.077568391885523e+00
1.079204204549761e+00
1.077667850068344e+00
1.079311907190232e+00
1.081523141250847e+00
1.080282657878686e+00
0.000000000000000e+00
0.000000000000000e+00
0.000000000000000e+00
0.000000000000000e+00
1.035175352219703e+00
1.034482503529192e+00
1.034269315341484e+00
1.034869899805308e+00
0.000000000000000e+00
0.000000000000000e+00
0.000000000000000e+00
0.000000000000000e+00
1.065833109012224e+00
1.062939115789178e+00
1.067626989315300e+00
1.070469068455863e+00
0.000000000000000e+00
0.000000000000000e+00
0.000000000000000e+00
0.000000000000000e+00
        </DataArray>
        <DataArray type="Float64" Name="current_reference_density_gp_3" format="ascii">
1.033319724368058e+00
1.033969898289493e+00
0.000000000000000e+00
1.008612110026619e+00
1.009335749896114e+00
1.007046374858037e+00
1.006239093573048e+00
1.081485305977111e+00
1.080512503458309e+00
1.077824851599997e+00
1.078966090906099e+00
0.000000000000000e+00
0.000000000000000e+00
0.000000000000000e+00
0.000000000000000e+00
1.038021561256737e+00
1.042420709603623e+00
1.040191332017822e+00
1.035844263679119e+00
0.000000000000000e+00
0.000000000000000e+00
0.000000000000000e+00
0.000000000000000e+00
1.057499361744179e+00
1.055980015046666e+00
1.056738914122125e+00
1.058263418527771e+00
0.000000000000000e+00
0.000000000000000e+00
0.000000000000000e+00
0.000000000000000e+00
        </DataArray>
        <DataArray type="Float64" Name="current_reference_density_gp_4" format="ascii">
1.033615702751975e+00
1.034472032834799e+00
0.000000000000000e+00
0.000000000000000e+00
0.000000000000000e+00
0.000000000000000e+00
0.000000000000000e+00
0.000000000000000e+00
0.000000000000000e+00
0.000000000000000e+00
0.000000000000000e+00
0.000000000000000e+00
0.000000000000000e+00
0.000000000000000e+00
0.000000000000000e+00
0.000000000000000e+00
0.000000000000000e+00
0.000000000000000e+00
0.000000000000000e+00
0.000000000000000e+00
0.000000000000000e+00
0.000000000000000e+00
0.000000000000000e+00
0.000000000000000e+00
0.000000000000000e+00
0.000000000000000e+00
0.000000000000000e+00
0.000000000000000e+00
0.000000000000000e+00
0.000000000000000e+00
0.000000000000000e+00
        </DataArray>
        <DataArray type="Float64" Name="current_reference_density_gp_5" format="ascii">
1.033615702751976e+00
1.034472032834798e+00
0.000000000000000e+00
0.000000000000000e+00
0.000000000000000e+00
0.000000000000000e+00
0.000000000000000e+00
0.000000000000000e+00
0.000000000000000e+00
0.000000000000000e+00
0.000000000000000e+00
0.000000000000000e+00
0.000000000000000e+00
0.000000000000000e+00
0.000000000000000e+00
0.000000000000000e+00
0.000000000000000e+00
0.000000000000000e+00
0.000000000000000e+00
0.000000000000000e+00
0.000000000000000e+00
0.000000000000000e+00
0.000000000000000e+00
0.000000000000000e+00
0.000000000000000e+00
0.000000000000000e+00
0.000000000000000e+00
0.000000000000000e+00
0.000000000000000e+00
0.000000000000000e+00
0.000000000000000e+00
        </DataArray>
        <DataArray type="Float64" Name="current_reference_density_gp_6" format="ascii">
1.033909596329415e+00
1.034968485135053e+00
0.000000000000000e+00
0.000000000000000e+00
0.000000000000000e+00
0.000000000000000e+00
0.000000000000000e+00
0.000000000000000e+00
0.000000000000000e+00
0.000000000000000e+00
0.000000000000000e+00
0.000000000000000e+00
0.000000000000000e+00
0.000000000000000e+00
0.000000000000000e+00
0.000000000000000e+00
0.000000000000000e+00
0.000000000000000e+00
0.000000000000000e+00
0.000000000000000e+00
0.000000000000000e+00
0.000000000000000e+00
0.000000000000000e+00
0.000000000000000e+00
0.000000000000000e+00
0.000000000000000e+00
0.000000000000000e+00
0.000000000000000e+00
0.000000000000000e+00
0.000000000000000e+00
0.000000000000000e+00
        </DataArray>
        <DataArray type="Float64" Name="current_reference_density_gp_7" format="ascii">
1.033909596329415e+00
1.034968485135053e+00
0.000000000000000e+00
0.000000000000000e+00
0.000000000000000e+00
0.000000000000000e+00
0.000000000000000e+00
0.000000000000000e+00
0.000000000000000e+00
0.000000000000000e+00
0.000000000000000e+00
0.000000000000000e+00
0.000000000000000e+00
0.000000000000000e+00
0.000000000000000e+00
0.000000000000000e+00
0.000000000000000e+00
0.000000000000000e+00
0.000000000000000e+00
0.000000000000000e+00
0.000000000000000e+00
0.000000000000000e+00
0.000000000000000e+00
0.000000000000000e+00
0.000000000000000e+00
0.000000000000000e+00
0.000000000000000e+00
0.000000000000000e+00
0.000000000000000e+00
0.000000000000000e+00
0.000000000000000e+00
        </DataArray>
        <DataArray type="Float64" Name="element_GL_strains_xyz" NumberOfComponents="6" format="ascii">
2.048497748730693e-02 7.906581834584786e-03 7.978455106922550e-03 4.558164100009501e-03 3.445021302974312e-05 9.116317269897443e-03
2.091482052842528e-02 -7.683256147065609e-03 -7.679090779650746e-03 4.684542131469624e-03 -2.389130754208919e-05 9.369080495397478e-03
1.395879381277917e-01 -2.688853210497226e-02 -2.681817862495034e-02 1.927767015295311e-03 5.234264865513369e-05 3.855059134075518e-03
2.759567787704301e-02 1.407854915596995e-02 -6.688160838156432e-03 -2.309751306183504e-02 3.382464534728808e-03 2.506111976193375e-02
2.738158565714596e-02 -8.890742038049473e-03 1.557723108815356e-02 1.271690972081489e-02 1.786279142439051e-03 -1.201695624915708e-02
2.800881390741813e-02 1.155631152327286e-02 -3.242174904346376e-03 4.425199189679335e-02 -3.074061073142029e-03 2.435356774331233e-02
2.820904006571254e-02 -1.935594680431904e-03 1.046475617916032e-02 1.200904284886238e-02 -1.477436431868880e-03 5.435133230307895e-02
3.832805061103628e-02 2.037721380739296e-02 -4.402537185499156e-03 -3.609280861974669e-02 -1.934032530746704e-02 6.187306430040876e-02
3.639616215653502e-02 7.018353838734656e-03 1.622490811679403e-02 -3.097970943566001e-02 2.562310804124284e-02 -2.164896762006873e-02
3.736104490973294e-02 -3.311549413814854e-03 2.280934898164921e-02 5.144425044921007e-02 -2.237850118859589e-02 -2.458460551820161e-02
3.930152385866637e-02 1.027346572827512e-02 2.417310164144953e-03 5.515168342820956e-02 1.645894098401319e-02 6.340232324897627e-02
1.564897194298925e-01 -2.861289629599736e-02 -2.688498659205787e-02 4.572310390719654e-03 5.035283170498647e-04 1.047156608116806e-02
1.525120739930635e-01 -2.719359625848101e-02 -2.836303408394726e-02 5.287909817125977e-03 4.145008974723224e-04 7.621339660154182e-03
1.644646529919450e-01 -2.834504347371831e-02 -2.742605338763017e-02 1.443062629613222e-03 1.078345772622851e-04 1.028219632317198e-02
1.684452153549681e-01 -2.820719763206000e-02 -2.785854558826951e-02 5.097793803931475e-03 1.977802139870311e-04 4.414875169235390e-03
2.346489728128945e-02 3.251958937847924e-03 -6.057011199566240e-03 -1.140213777128739e-02 -8.308831220132065e-04 4.534061907596879e-02
2.351389835078044e-02 -2.959944740602419e-03 4.300113567741737e-04 -9.716306667943566e-03 4.908275473232519e-03 2.097353685183245e-03
2.349478124253368e-02 -6.221217831989298e-03 3.480426917368232e-03 3.366791789528442e-02 -2.754079195736279e-03 1.009299697051174e-03
2.342216991153526e-02 1.314156288110546e-04 -2.863080835496204e-03 3.441726731349383e-02 -9.407642438420980e-04 4.549226799605127e-02
1.556516005049451e-01 -2.794123872548601e-02 -2.785980276267423e-02 6.091810277963125e-03 -3.534216894834152e-04 5.743080751275489e-03
1.450891747488058e-01 -2.726260918699204e-02 -2.702873737374856e-02 6.356020081237182e-03 5.455717019245204e-05 1.043070182087857e-02
1.504927971298220e-01 -2.771606929314027e-02 -2.741900306401435e-02 1.787270406986163e-03 -8.017934382995072e-05 1.024094929934001e-02
1.605873773577765e-01 -2.823086924434527e-02 -2.808545144761990e-02 1.821143100749804e-03 8.504767198243361e-04 5.703019622980486e-03
3.473617688890701e-02 -1.727787325695355e-02 -1.774867197399503e-02 1.129800706337934e-02 1.994169979269822e-03 2.355283298244556e-02
3.348149916729826e-02 -1.699906540432637e-02 -1.684234216944215e-02 1.164791793163898e-02 -1.671625187015156e-03 2.349953723412717e-02
3.410858066045580e-02 -1.746339492134936e-02 -1.699891907821256e-02 1.199334817502961e-02 1.843713683533828e-03 2.320946457720956e-02
3.536575040883178e-02 -1.768371500022735e-02 -1.784637509241968e-02 1.189487950637040e-02 -2.140823608183409e-03 2.339490015063379e-02
1.694998795108463e-01 -2.760644275459641e-02 -2.774544781049386e-02 1.067329924939842e-03 1.970039362920401e-03 1.323218758592823e-02
1.664259110551867e-01 -2.733056929365139e-02 -2.708002815678315e-02 1.384044489758708e-03 -1.819030338448233e-03 6.268875283855210e-03
1.679617368848920e-01 -2.767454825513348e-02 -2.723508138690926e-02 8.419711694506612e-03 1.989625148453431e-03 6.056711685658052e-03
1.710358286600710e-01 -2.789424902800197e-02 -2.784391978682563e-02 8.534043786563753e-03 -1.772267309165312e-03 1.324231680414966e-02
        </DataArray>
        <DataArray type="Float64" Name="element_cauchy_stresses_xyz" NumberOfComponents="6" format="ascii">
1.919926172309658e+02 1.647739633217662e-01 1.638590136851291e-01 1.517762761776380e-03 -8.400106422135495e-04 3.041337886462814e-03
1.981409237761279e+02 -2.639407280464339e+00 -2.641609295950415e+00 -2.601673470147370e-02 -1.911896503428384e-03 -5.202135677098968e-02
2.061758941705030e+02 2.229576073357032e+00 2.231735138925722e+00 2.616363981390873e-02 3.607840414334908e-03 5.209660642959751e-02
2.338937041730476e+02 -1.241603934298640e+00 -1.668697981675191e+00 1.525894522572793e+00 1.043652308109385e-01 1.575602064876390e-01
2.325976622050317e+02 -1.583942154193963e+00 -1.097389984021704e+00 9.407887201759343e-02 4.854518089048078e-02 1.455279923485653e+00
2.363958641221694e+02 -1.532693966039610e+00 -1.802046503773019e+00 -1.732919854109914e+00 -1.182405027495562e-01 9.464241595657280e-02
2.376083603741198e+02 -1.853093409811025e+00 -1.680550399476444e+00 3.124640719015181e-02 -6.234607825431079e-02 -1.870408617471432e+00
2.786158591895152e+02 -2.101152162031275e+00 -2.618590945654188e+00 3.160922241223694e+00 -3.810807613803141e-01 -6.403515377943835e+00
2.659760776278119e+02 -1.099912709528935e+00 -9.168414063423288e-01 1.716201184379215e+00 4.388274269809521e-01 7.746751366281946e-01
2.723087574492307e+02 -1.977948237670663e+00 -1.441284661866972e+00 -4.480489406348767e+00 -3.992117536408414e-01 1.445869960810744e+00
2.849162469648500e+02 -2.881197696667924e+00 -3.045092586507330e+00 -6.117447335632690e+00 3.886719259027858e-01 -7.266777229795130e+00
2.410534376875247e+02 1.561126281369753e+00 3.192814501797367e+00 6.282406087137946e-01 3.405362939817558e-01 2.685970514538893e+00
2.325067580188782e+02 2.581947173400827e+00 8.994918210254259e-01 1.448107274683017e+00 2.539266502364190e-01 -1.833767736539187e-01
2.573282479148639e+02 3.396973066220429e+00 3.919558223241593e+00 -2.575510557943562e+00 4.604771172091099e-03 2.291947448880940e+00
2.650963622179036e+02 4.036030792551922e+00 4.566475380687614e+00 1.054197344776928e+00 9.078281299249524e-02 -3.694696598320376e+00
2.181571205055236e+02 -1.914588630805363e+00 -2.197653088808425e+00 2.339007904845260e+00 2.656675029019465e-03 -1.359539588390613e+00
2.168356675201744e+02 -1.677408368684314e+00 -1.602035136116597e+00 2.026395327835184e+00 1.114412862553504e-01 2.387898783450453e+00
2.175181353601890e+02 -1.981104498054207e+00 -1.727369818252123e+00 -1.499382672997901e+00 -6.302235286604152e-02 2.530103845223345e+00
2.187417813991437e+02 -2.192499292452659e+00 -2.297114713817087e+00 -1.864695240807100e+00 -8.697356791752123e-02 -1.554334396117082e+00
2.386826160830522e+02 2.083564686845504e+00 2.249736551271710e+00 2.752406769329318e+00 -7.800273809222431e-01 -1.707649599209061e+00
2.184962964759424e+02 1.575172754166264e+00 1.384842595059173e+00 3.043781987718589e+00 -2.694015661148713e-01 3.701862320999803e+00
2.286671643737228e+02 1.992226590127523e+00 1.644763988228823e+00 -1.933848565637011e+00 -3.296528428185567e-01 3.429763350588964e+00
2.485559895384036e+02 2.508932590795213e+00 2.516516236199529e+00 -2.105907483213890e+00 1.122118676688075e+00 -1.899440997078931e+00
2.714644643913109e+02 -5.579295244041634e+00 -5.602338021529220e+00 1.770866114386082e+00 2.183718548259572e-02 -1.718571883792577e+00
2.656708512855226e+02 -5.375931996001417e+00 -5.388688316073179e+00 1.777107445349902e+00 -3.392969384945030e-02 1.822901113907833e+00
2.685699911216757e+02 -5.484827495139836e+00 -5.491917966941957e+00 -1.708559944326897e+00 1.786789858813938e-02 1.803196924392200e+00
2.743558844547028e+02 -5.680625008484937e+00 -5.698012271103394e+00 -1.769370835479318e+00 -4.492691032129818e-02 -1.765769737300716e+00
2.684821974711932e+02 5.358837033785063e+00 4.176667766350919e+00 -2.040846878447796e+00 2.536083690564710e+00 5.302366968013898e+00
2.607692223701870e+02 6.765930404426131e+00 6.803853881647517e+00 -1.800655924650171e+00 -2.481599130079340e+00 -5.343288967363131e-01
2.645893937986002e+02 5.418470017795603e+00 6.079267507181490e+00 4.256899878636616e+00 2.323179881620634e+00 -7.289692333170232e-01
2.724448655011233e+02 4.116551701475658e+00 3.556975361522945e+00 4.212024825453543e+00 -3.097653650764500e+00 5.212412658030515e+00
        </DataArray>
        <DataArray type="Float64" Name="mixture_constituent_0_growth_scalar_gp_0" format="ascii">
1.330216254873337e+00
1.334622075386711e+00
0.000000000000000e+00
1.543257439185090e+00
1.520386234605102e+00
1.526640742388153e+00
1.551241343949636e+00
1.594964527817804e+00
1.521709551047678e+00
1.558899003218857e+00
1.629887738297372e+00
0.000000000000000e+00
0.000000000000000e+00
0.000000000000000e+00
0.000000000000000e+00
1.429979947237591e+00
1.404710500431962e+00
1.417596628934291e+00
1.442012480099034e+00
0.000000000000000e+00
0.000000000000000e+00
0.000000000000000e+00
0.000000000000000e+00
1.571125267902588e+00
1.555958377308878e+00
1.563533924706407e+00
1.578752627715424e+00
0.000000000000000e+00
0.000000000000000e+00
0.000000000000000e+00
0.000000000000000e+00
        </DataArray>
        <DataArray type="Float64" Name="mixture_constituent_0_growth_scalar_gp_1" format="ascii">
1.330216254873337e+00
1.334622075386711e+00
0.000000000000000e+00
1.518452398097230e+00
1.532570418164171e+00
1.553003241430321e+00
1.537515367737153e+00
1.637940611835910e+00
1.539972067940507e+00
1.589298343596185e+00
1.686121557668307e+00
0.000000000000000e+00
0.000000000000000e+00
0.000000000000000e+00
0.000000000000000e+00
1.344666799563242e+00
1.342533768822938e+00
1.349707448685250e+00
1.351063525473859e+00
0.000000000000000e+00
0.000000000000000e+00
0.000000000000000e+00
0.000000000000000e+00
1.696695998017678e+00
1.642637733790809e+00
1.637192962785745e+00
1.692155933181295e+00
0.000000000000000e+00
0.000000000000000e+00
0.000000000000000e+00
0.000000000000000e+00
        </DataArray>
        <DataArray type="Float64" Name="mixture_constituent_0_growth_scalar_gp_2" format="ascii">
1.333197243680584e+00
1.339698982894946e+00
0.000000000000000e+00
1.742274093815787e+00
1.725449957575287e+00
1.775683918855246e+00
1.792042045497651e+00
1.776678500683428e+00
1.793119071902336e+00
1.815231412508399e+00
1.802826578786864e+00
0.000000000000000e+00
0.000000000000000e+00
0.000000000000000e+00
0.000000000000000e+00
1.351753522196988e+00
1.344825035291882e+00
1.342693153414852e+00
1.348698998053079e+00
0.000000000000000e+00
0.000000000000000e+00
0.000000000000000e+00
0.000000000000000e+00
1.658331090122275e+00
1.629391157891764e+00
1.676269893152988e+00
1.704690684558588e+00
0.000000000000000e+00
0.000000000000000e+00
0.000000000000000e+00
0.000000000000000e+00
        </DataArray>
        <DataArray type="Float64" Name="mixture_constituent_0_growth_scalar_gp_3" format="ascii">
1.333197243680576e+00
1.339698982894946e+00
0.000000000000000e+00
1.086121100266205e+00
1.093357498961166e+00
1.070463748580376e+00
1.062390935730436e+00
1.814853059771091e+00
1.805125034583052e+00
1.778248515999947e+00
1.789660909061024e+00
0.000000000000000e+00
0.000000000000000e+00
0.000000000000000e+00
0.000000000000000e+00
1.380215612567401e+00
1.424207096036237e+00
1.401913320178252e+00
1.358442636791212e+00
0.000000000000000e+00
0.000000000000000e+00
0.000000000000000e+00
0.000000000000000e+00
1.574993617441820e+00
1.559800150466663e+00
1.567389141221257e+00
1.582634185277718e+00
0.000000000000000e+00
0.000000000000000e+00
0.000000000000000e+00
0.000000000000000e+00
        </DataArray>
        <DataArray type="Float64" Name="mixture_constituent_0_growth_scalar_gp_4" format="ascii">
1.336157027519760e+00
1.344720328347977e+00
0.000000000000000e+00
0.000000000000000e+00
0.000000000000000e+00
0.000000000000000e+00
0.000000000000000e+00
0.000000000000000e+00
0.000000000000000e+00
0.000000000000000e+00
0.000000000000000e+00
0.000000000000000e+00
0.000000000000000e+00
0.000000000000000e+00
0.000000000000000e+00
0.000000000000000e+00
0.000000000000000e+00
0.000000000000000e+00
0.000000000000000e+00
0.000000000000000e+00
0.000000000000000e+00
0.000000000000000e+00
0.000000000000000e+00
0.000000000000000e+00
0.000000000000000e+00
0.000000000000000e+00
0.000000000000000e+00
0.000000000000000e+00
0.000000000000000e+00
0.000000000000000e+00
0.000000000000000e+00
        </DataArray>
        <DataArray type="Float64" Name="mixture_constituent_0_growth_scalar_gp_5" format="ascii">
1.336157027519767e+00
1.344720328347982e+00
0.000000000000000e+00
0.000000000000000e+00
0.000000000000000e+00
0.000000000000000e+00
0.000000000000000e+00
0.000000000000000e+00
0.000000000000000e+00
0.000000000000000e+00
0.000000000000000e+00
0.000000000000000e+00
0.000000000000000e+00
0.000000000000000e+00
0.000000000000000e+00
0.000000000000000e+00
0.000000000000000e+00
0.000000000000000e+00
0.000000000000000e+00
0.000000000000000e+00
0.000000000000000e+00
0.000000000000000e+00
0.000000000000000e+00
0.000000000000000e+00
0.000000000000000e+00
0.000000000000000e+00
0.000000000000000e+00
0.000000000000000e+00
0.000000000000000e+00
0.000000000000000e+00
0.000000000000000e+00
        </DataArray>
        <DataArray type="Float64" Name="mixture_constituent_0_growth_scalar_gp_6" format="ascii">
1.339095963294150e+00
1.349684851350512e+00
0.000000000000000e+00
0.000000000000000e+00
0.000000000000000e+00
0.000000000000000e+00
0.000000000000000e+00
0.000000000000000e+00
0.000000000000000e+00
0.000000000000000e+00
0.000000000000000e+00
0.000000000000000e+00
0.000000000000000e+00
0.000000000000000e+00
0.000000000000000e+00
0.000000000000000e+00
0.000000000000000e+00
0.000000000000000e+00
0.000000000000000e+00
0.000000000000000e+00
0.000000000000000e+00
0.000000000000000e+00
0.000000000000000e+00
0.000000000000000e+00
0.000000000000000e+00
0.000000000000000e+00
0.000000000000000e+00
0.000000000000000e+00
0.000000000000000e+00
0.000000000000000e+00
0.000000000000000e+00
        </DataArray>
        <DataArray type="Float64" Name="mixture_constituent_0_growth_scalar_gp_7" format="ascii">
1.339095963294150e+00
1.349684851350512e+00
0.000000000000000e+00
0.000000000000000e+00
0.000000000000000e+00
0.000000000000000e+00
0.000000000000000e+00
0.000000000000000e+00
0.000000000000000e+00
0.000000000000000e+00
0.000000000000000e+00
0.000000000000000e+00
0.000000000000000e+00
0.000000000000000e+00
0.000000000000000e+00
0.000000000000000e+00
0.000000000000000e+00
0.000000000000000e+00
0.000000000000000e+00
0.000000000000000e+00
0.000000000000000e+00
0.000000000000000e+00
0.000000000000000e+00
0.000000000000000e+00
0.000000000000000e+00
0.000000000000000e+00
0.000000000000000e+00
0.000000000000000e+00
0.000000000000000e+00
0.000000000000000e+00
0.000000000000000e+00
        </DataArray>
        <DataArray type="Float64" Name="mixture_constituent_0_lambda_r_gp_0" format="ascii">
1.003796130761457e+00
1.003839952447367e+00
0.000000000000000e+00
1.005776114984316e+00
1.005576108414929e+00
1.005631150756867e+00
1.005845313523845e+00
1.006218706555637e+00
1.005585237303982e+00
1.005909774759671e+00
1.006512877610851e+00
0.000000000000000e+00
0.000000000000000e+00
0.000000000000000e+00
0.000000000000000e+00
1.004755463667236e+00
1.004518398423025e+00
1.004639770885644e+00
1.004867013424781e+00
0.000000000000000e+00
0.000000000000000e+00
0.000000000000000e+00
0.000000000000000e+00
1.006020004259969e+00
1.005888993793247e+00
1.005954559198839e+00
1.006085505629325e+00
0.000000000000000e+00
0.000000000000000e+00
0.000000000000000e+00
0.000000000000000e+00
        </DataArray>
        <DataArray type="Float64" Name="mixture_constituent_0_lambda_r_gp_1" format="ascii">
1.003796130761457e+00
1.003839952447367e+00
0.000000000000000e+00
1.005559099532065e+00
1.005683007937471e+00
1.005860508226587e+00
1.005726222773810e+00
1.006577760290909e+00
1.005745060289047e+00
1.006169497383663e+00
1.006972963700607e+00
0.000000000000000e+00
0.000000000000000e+00
0.000000000000000e+00
0.000000000000000e+00
1.003938937148527e+00
1.003917907631837e+00
1.003988573868131e+00
1.004001864557385e+00
0.000000000000000e+00
0.000000000000000e+00
0.000000000000000e+00
0.000000000000000e+00
1.007058746328191e+00
1.006617262885743e+00
1.006572169534297e+00
1.007022101794919e+00
0.000000000000000e+00
0.000000000000000e+00
0.000000000000000e+00
0.000000000000000e+00
        </DataArray>
        <DataArray type="Float64" Name="mixture_constituent_0_lambda_r_gp_2" format="ascii">
1.003825804754505e+00
1.003890292306552e+00
0.000000000000000e+00
1.007426476869890e+00
1.007292373388519e+00
1.007690099902070e+00
1.007817905661311e+00
1.007699987460720e+00
1.007833880871947e+00
1.008001884363845e+00
1.007899919691722e+00
0.000000000000000e+00
0.000000000000000e+00
0.000000000000000e+00
0.000000000000000e+00
1.004008653925087e+00
1.003940519722596e+00
1.003919471601187e+00
1.003978631282239e+00
0.000000000000000e+00
0.000000000000000e+00
0.000000000000000e+00
0.000000000000000e+00
1.006746565235910e+00
1.006507360516133e+00
1.006893211906127e+00
1.007123144102521e+00
0.000000000000000e+00
0.000000000000000e+00
0.000000000000000e+00
0.000000000000000e+00
        </DataArray>
        <DataArray type="Float64" Name="mixture_constituent_0_lambda_r_gp_3" format="ascii">
1.003825804754505e+00
1.003890292306552e+00
0.000000000000000e+00
1.001100523100902e+00
1.001190508551395e+00
1.000902890948601e+00
1.000799327413301e+00
1.007995781951444e+00
1.007926961031754e+00
1.007715181742255e+00
1.007798010284745e+00
0.000000000000000e+00
0.000000000000000e+00
0.000000000000000e+00
0.000000000000000e+00
1.004285362552705e+00
1.004703415806995e+00
1.004492948622052e+00
1.004074171899195e+00
0.000000000000000e+00
0.000000000000000e+00
0.000000000000000e+00
0.000000000000000e+00
1.006052840290428e+00
1.005921901074847e+00
1.005987432117021e+00
1.006118305161134e+00
0.000000000000000e+00
0.000000000000000e+00
0.000000000000000e+00
0.000000000000000e+00
        </DataArray>
        <DataArray type="Float64" Name="mixture_constituent_0_lambda_r_gp_4" format="ascii">
1.003855205189945e+00
1.003939903258968e+00
0.000000000000000e+00
0.000000000000000e+00
0.000000000000000e+00
0.000000000000000e+00
0.000000000000000e+00
0.000000000000000e+00
0.000000000000000e+00
0.000000000000000e+00
0.000000000000000e+00
0.000000000000000e+00
0.000000000000000e+00
0.000000000000000e+00
0.000000000000000e+00
0.000000000000000e+00
0.000000000000000e+00
0.000000000000000e+00
0.000000000000000e+00
0.000000000000000e+00
0.000000000000000e+00
0.000000000000000e+00
0.000000000000000e+00
0.000000000000000e+00
0.000000000000000e+00
0.000000000000000e+00
0.000000000000000e+00
0.000000000000000e+00
0.000000000000000e+00
0.000000000000000e+00
0.000000000000000e+00
        </DataArray>
        <DataArray type="Float64" Name="mixture_constituent_0_lambda_r_gp_5" format="ascii">
1.003855205189945e+00
1.003939903258968e+00
0.000000000000000e+00
0.000000000000000e+00
0.000000000000000e+00
0.000000000000000e+00
0.000000000000000e+00
0.000000000000000e+00
0.000000000000000e+00
0.000000000000000e+00
0.000000000000000e+00
0.000000000000000e+00
0.000000000000000e+00
0.000000000000000e+00
0.000000000000000e+00
0.000000000000000e+00
0.000000000000000e+00
0.000000000000000e+00
0.000000000000000e+00
0.000000000000000e+00
0.000000000000000e+00
0.000000000000000e+00
0.000000000000000e+00
0.000000000000000e+00
0.000000000000000e+00
0.000000000000000e+00
0.000000000000000e+00
0.000000000000000e+00
0.000000000000000e+00
0.000000000000000e+00
0.000000000000000e+00
        </DataArray>
        <DataArray type="Float64" Name="mixture_constituent_0_lambda_r_gp_6" format="ascii">
1.003884337286586e+00
1.003988780442358e+00
0.000000000000000e+00
0.000000000000000e+00
0.000000000000000e+00
0.000000000000000e+00
0.000000000000000e+00
0.000000000000000e+00
0.000000000000000e+00
0.000000000000000e+00
0.000000000000000e+00
0.000000000000000e+00
0.000000000000000e+00
0.000000000000000e+00
0.000000000000000e+00
0.000000000000000e+00
0.000000000000000e+00
0.000000000000000e+00
0.000000000000000e+00
0.000000000000000e+00
0.000000000000000e+00
0.000000000000000e+00
0.000000000000000e+00
0.000000000000000e+00
0.000000000000000e+00
0.000000000000000e+00
0.000000000000000e+00
0.000000000000000e+00
0.000000000000000e+00
0.000000000000000e+00
0.000000000000000e+00
        </DataArray>
        <DataArray type="Float64" Name="mixture_constituent_0_lambda_r_gp_7" format="ascii">
1.003884337286586e+00
1.003988780442358e+00
0.000000000000000e+00
0.000000000000000e+00
0.000000000000000e+00
0.000000000000000e+00
0.000000000000000e+00
0.000000000000000e+00
0.000000000000000e+00
0.000000000000000e+00
0.000000000000000e+00
0.000000000000000e+00
0.000000000000000e+00
0.000000000000000e+00
0.000000000000000e+00
0.000000000000000e+00
0.000000000000000e+00
0.000000000000000e+00
0.000000000000000e+00
0.000000000000000e+00
0.000000000000000e+00
0.000000000000000e+00
0.000000000000000e+00
0.000000000000000e+00
0.000000000000000e+00
0.000000000000000e+00
0.000000000000000e+00
0.000000000000000e+00
0.000000000000000e+00
0.000000000000000e+00
0.000000000000000e+00
        </DataArray>
        <DataArray type="Float64" Name="mixture_constituent_0_sig_gp_0" format="ascii">
1.483034550592644e+03
1.490868543727535e+03
0.000000000000000e+00
1.669033780387402e+03
1.649310887483270e+03
1.655559486660256e+03
1.676298793353489e+03
1.706836915863470e+03
1.697330740316416e+03
1.702645207417510e+03
1.710120518329749e+03
0.000000000000000e+00
0.000000000000000e+00
0.000000000000000e+00
0.000000000000000e+00
1.671938313760497e+03
1.665009258029296e+03
1.668785968172611e+03
1.674521174043657e+03
0.000000000000000e+00
0.000000000000000e+00
0.000000000000000e+00
0.000000000000000e+00
1.640887298068678e+03
1.636252882740826e+03
1.638589099178715e+03
1.643136454779988e+03
0.000000000000000e+00
0.000000000000000e+00
0.000000000000000e+00
0.000000000000000e+00
        </DataArray>
        <DataArray type="Float64" Name="mixture_constituent_0_sig_gp_1" format="ascii">
1.483034550592644e+03
1.490868543727535e+03
0.000000000000000e+00
1.647906074679770e+03
1.659616109488783e+03
1.677611964262516e+03
1.665066515995153e+03
1.735197954840428e+03
1.709529377341004e+03
1.723158633026812e+03
1.746115167413762e+03
0.000000000000000e+00
0.000000000000000e+00
0.000000000000000e+00
0.000000000000000e+00
1.602554808274629e+03
1.595775442999029e+03
1.594207270247290e+03
1.602050088750056e+03
0.000000000000000e+00
0.000000000000000e+00
0.000000000000000e+00
0.000000000000000e+00
1.738624544998997e+03
1.727985101076435e+03
1.726510282599913e+03
1.737914556671848e+03
0.000000000000000e+00
0.000000000000000e+00
0.000000000000000e+00
0.000000000000000e+00
        </DataArray>
        <DataArray type="Float64" Name="mixture_constituent_0_sig_gp_2" format="ascii">
1.486173473672291e+03
1.496208778345277e+03
0.000000000000000e+00
1.702135368339415e+03
1.700953000802988e+03
1.704008036427465e+03
1.704720135457660e+03
1.700176591718048e+03
1.676109994541020e+03
1.694850531004702e+03
1.719102516467871e+03
0.000000000000000e+00
0.000000000000000e+00
0.000000000000000e+00
0.000000000000000e+00
1.597087130650801e+03
1.593733398702128e+03
1.599988733872031e+03
1.603775697737135e+03
0.000000000000000e+00
0.000000000000000e+00
0.000000000000000e+00
0.000000000000000e+00
1.731235927286757e+03
1.724814321172899e+03
1.734925788794581e+03
1.740057542003850e+03
0.000000000000000e+00
0.000000000000000e+00
0.000000000000000e+00
0.000000000000000e+00
        </DataArray>
        <DataArray type="Float64" Name="mixture_constituent_0_sig_gp_3" format="ascii">
1.486173473672309e+03
1.496208778345277e+03
0.000000000000000e+00
1.529264812814964e+03
1.525235628643064e+03
1.536629539713949e+03
1.540086971919095e+03
1.708097299553585e+03
1.679012998372793e+03
1.686403251894180e+03
1.716718316954363e+03
0.000000000000000e+00
0.000000000000000e+00
0.000000000000000e+00
0.000000000000000e+00
1.606275363680561e+03
1.596606469241239e+03
1.601420322949706e+03
1.611042901280590e+03
0.000000000000000e+00
0.000000000000000e+00
0.000000000000000e+00
0.000000000000000e+00
1.649826664253419e+03
1.645251182920890e+03
1.647557836841841e+03
1.652046859961288e+03
0.000000000000000e+00
0.000000000000000e+00
0.000000000000000e+00
0.000000000000000e+00
        </DataArray>
        <DataArray type="Float64" Name="mixture_constituent_0_sig_gp_4" format="ascii">
1.489277937389370e+03
1.501450905093761e+03
0.000000000000000e+00
0.000000000000000e+00
0.000000000000000e+00
0.000000000000000e+00
0.000000000000000e+00
0.000000000000000e+00
0.000000000000000e+00
0.000000000000000e+00
0.000000000000000e+00
0.000000000000000e+00
0.000000000000000e+00
0.000000000000000e+00
0.000000000000000e+00
0.000000000000000e+00
0.000000000000000e+00
0.000000000000000e+00
0.000000000000000e+00
0.000000000000000e+00
0.000000000000000e+00
0.000000000000000e+00
0.000000000000000e+00
0.000000000000000e+00
0.000000000000000e+00
0.000000000000000e+00
0.000000000000000e+00
0.000000000000000e+00
0.000000000000000e+00
0.000000000000000e+00
0.000000000000000e+00
        </DataArray>
        <DataArray type="Float64" Name="mixture_constituent_0_sig_gp_5" format="ascii">
1.489277937389416e+03
1.501450905093734e+03
0.000000000000000e+00
0.000000000000000e+00
0.000000000000000e+00
0.000000000000000e+00
0.000000000000000e+00
0.000000000000000e+00
0.000000000000000e+00
0.000000000000000e+00
0.000000000000000e+00
0.000000000000000e+00
0.000000000000000e+00
0.000000000000000e+00
0.000000000000000e+00
0.000000000000000e+00
0.000000000000000e+00
0.000000000000000e+00
0.000000000000000e+00
0.000000000000000e+00
0.000000000000000e+00
0.000000000000000e+00
0.000000000000000e+00
0.000000000000000e+00
0.000000000000000e+00
0.000000000000000e+00
0.000000000000000e+00
0.000000000000000e+00
0.000000000000000e+00
0.000000000000000e+00
0.000000000000000e+00
        </DataArray>
        <DataArray type="Float64" Name="mixture_constituent_0_sig_gp_6" format="ascii">
1.492348679914381e+03
1.506595411661576e+03
0.000000000000000e+00
0.000000000000000e+00
0.000000000000000e+00
0.000000000000000e+00
0.000000000000000e+00
0.000000000000000e+00
0.000000000000000e+00
0.000000000000000e+00
0.000000000000000e+00
0.000000000000000e+00
0.000000000000000e+00
0.000000000000000e+00
0.000000000000000e+00
0.000000000000000e+00
0.000000000000000e+00
0.000000000000000e+00
0.000000000000000e+00
0.000000000000000e+00
0.000000000000000e+00
0.000000000000000e+00
0.000000000000000e+00
0.000000000000000e+00
0.000000000000000e+00
0.000000000000000e+00
0.000000000000000e+00
0.000000000000000e+00
0.000000000000000e+00
0.000000000000000e+00
0.000000000000000e+00
        </DataArray>
        <DataArray type="Float64" Name="mixture_constituent_0_sig_gp_7" format="ascii">
1.492348679914381e+03
1.506595411661576e+03
0.000000000000000e+00
0.000000000000000e+00
0.000000000000000e+00
0.000000000000000e+00
0.000000000000000e+00
0.000000000000000e+00
0.000000000000000e+00
0.000000000000000e+00
0.000000000000000e+00
0.000000000000000e+00
0.000000000000000e+00
0.000000000000000e+00
0.000000000000000e+00
0.000000000000000e+00
0.000000000000000e+00
0.000000000000000e+00
0.000000000000000e+00
0.000000000000000e+00
0.000000000000000e+00
0.000000000000000e+00
0.000000000000000e+00
0.000000000000000e+00
0.000000000000000e+00
0.000000000000000e+00
0.000000000000000e+00
0.000000000000000e+00
0.000000000000000e+00
0.000000000000000e+00
0.000000000000000e+00
        </DataArray>
        <DataArray type="Float64" Name="mixture_constituent_0_sig_h_gp_0" format="ascii">
1.000000000000006e+03
1.000000000000006e+03
0.000000000000000e+00
1.000000000000006e+03
1.000000000000006e+03
1.000000000000006e+03
1.000000000000006e+03
1.000000000000006e+03
1.000000000000006e+03
1.000000000000006e+03
1.000000000000006e+03
0.000000000000000e+00
0.000000000000000e+00
0.000000000000000e+00
0.000000000000000e+00
1.000000000000006e+03
1.000000000000006e+03
1.000000000000006e+03
1.000000000000006e+03
0.000000000000000e+00
0.000000000000000e+00
0.000000000000000e+00
0.000000000000000e+00
1.000000000000006e+03
1.000000000000006e+03
1.000000000000006e+03
1.000000000000006e+03
0.000000000000000e+00
0.000000000000000e+00
0.000000000000000e+00
0.000000000000000e+00
        </DataArray>
        <DataArray type="Float64" Name="mixture_constituent_0_sig_h_gp_1" format="ascii">
1.000000000000006e+03
1.000000000000006e+03
0.000000000000000e+00
1.000000000000006e+03
1.000000000000006e+03
1.000000000000006e+03
1.000000000000006e+03
1.000000000000006e+03
1.000000000000006e+03
1.000000000000006e+03
1.000000000000006e+03
0.000000000000000e+00
0.000000000000000e+00
0.000000000000000e+00
0.000000000000000e+00
1.000000000000006e+03
1.000000000000006e+03
1.000000000000006e+03
1.000000000000006e+03
0.000000000000000e+00
0.000000000000000e+00
0.000000000000000e+00
0.000000000000000e+00
1.000000000000006e+03
1.000000000000006e+03
1.000000000000006e+03
1.000000000000006e+03
0.000000000000000e+00
0.000000000000000e+00
0.000000000000000e+00
0.000000000000000e+00
        </DataArray>
        <DataArray type="Float64" Name="mixture_constituent_0_sig_h_gp_2" format="ascii">
1.000000000000006e+03
1.000000000000006e+03
0.000000000000000e+00
1.000000000000006e+03
1.000000000000006e+03
1.000000000000006e+03
1.000000000000006e+03
1.000000000000006e+03
1.000000000000006e+03
1.000000000000006e+03
1.000000000000006e+03
0.000000000000000e+00
0.000000000000000e+00
0.000000000000000e+00
0.000000000000000e+00
1.000000000000006e+03
1.000000000000006e+03
1.000000000000006e+03
1.000000000000006e+03
0.000000000000000e+00
0.000000000000000e+00
0.000000000000000e+00
0.000000000000000e+00
1.000000000000006e+03
1.000000000000006e+03
1.000000000000006e+03
1.000000000000006e+03
0.000000000000000e+00
0.000000000000000e+00
0.000000000000000e+00
0.000000000000000e+00
        </DataArray>
        <DataArray type="Float64" Name="mixture_constituent_0_sig_h_gp_3" format="ascii">
1.000000000000006e+03
1.000000000000006e+03
0.000000000000000e+00
1.000000000000006e+03
1.000000000000006e+03
1.000000000000006e+03
1.000000000000006e+03
1.000000000000006e+03
1.000000000000006e+03
1.000000000000006e+03
1.000000000000006e+03
0.000000000000000e+00
0.000000000000000e+00
0.000000000000000e+00
0.000000000000000e+00
1.000000000000006e+03
1.000000000000006e+03
1.000000000000006e+03
1.000000000000006e+03
0.000000000000000e+00
0.000000000000000e+00
0.000000000000000e+00
0.000000000000000e+00
1.000000000000006e+03
1.000000000000006e+03
1.000000000000006e+03
1.000000000000006e+03
0.000000000000000e+00
0.000000000000000e+00
0.000000000000000e+00
0.000000000000000e+00
        </DataArray>
        <DataArray type="Float64" Name="mixture_constituent_0_sig_h_gp_4" format="ascii">
1.000000000000006e+03
1.000000000000006e+03
0.000000000000000e+00
0.000000000000000e+00
0.000000000000000e+00
0.000000000000000e+00
0.000000000000000e+00
0.000000000000000e+00
0.000000000000000e+00
0.000000000000000e+00
0.000000000000000e+00
0.000000000000000e+00
0.000000000000000e+00
0.000000000000000e+00
0.000000000000000e+00
0.000000000000000e+00
0.000000000000000e+00
0.000000000000000e+00
0.000000000000000e+00
0.000000000000000e+00
0.000000000000000e+00
0.000000000000000e+00
0.000000000000000e+00
0.000000000000000e+00
0.000000000000000e+00
0.000000000000000e+00
0.000000000000000e+00
0.000000000000000e+00
0.000000000000000e+00
0.000000000000000e+00
0.000000000000000e+00
        </DataArray>
        <DataArray type="Float64" Name="mixture_constituent_0_sig_h_gp_5" format="ascii">
1.000000000000006e+03
1.000000000000006e+03
0.000000000000000e+00
0.000000000000000e+00
0.000000000000000e+00
0.000000000000000e+00
0.000000000000000e+00
0.000000000000000e+00
0.000000000000000e+00
0.000000000000000e+00
0.000000000000000e+00
0.000000000000000e+00
0.000000000000000e+00
0.000000000000000e+00
0.000000000000000e+00
0.000000000000000e+00
0.000000000000000e+00
0.000000000000000e+00
0.000000000000000e+00
0.000000000000000e+00
0.000000000000000e+00
0.000000000000000e+00
0.000000000000000e+00
0.000000000000000e+00
0.000000000000000e+00
0.000000000000000e+00
0.000000000000000e+00
0.000000000000000e+00
0.000000000000000e+00
0.000000000000000e+00
0.000000000000000e+00
        </DataArray>
        <DataArray type="Float64" Name="mixture_constituent_0_sig_h_gp_6" format="ascii">
1.000000000000006e+03
1.000000000000006e+03
0.000000000000000e+00
0.000000000000000e+00
0.000000000000000e+00
0.000000000000000e+00
0.000000000000000e+00
0.000000000000000e+00
0.000000000000000e+00
0.000000000000000e+00
0.000000000000000e+00
0.000000000000000e+00
0.000000000000000e+00
0.000000000000000e+00
0.000000000000000e+00
0.000000000000000e+00
0.000000000000000e+00
0.000000000000000e+00
0.000000000000000e+00
0.000000000000000e+00
0.000000000000000e+00
0.000000000000000e+00
0.000000000000000e+00
0.000000000000000e+00
0.000000000000000e+00
0.000000000000000e+00
0.000000000000000e+00
0.000000000000000e+00
0.000000000000000e+00
0.000000000000000e+00
0.000000000000000e+00
        </DataArray>
        <DataArray type="Float64" Name="mixture_constituent_0_sig_h_gp_7" format="ascii">
1.000000000000006e+03
1.000000000000006e+03
0.000000000000000e+00
0.000000000000000e+00
0.000000000000000e+00
0.000000000000000e+00
0.000000000000000e+00
0.000000000000000e+00
0.000000000000000e+00
0.000000000000000e+00
0.000000000000000e+00
0.000000000000000e+00
0.000000000000000e+00
0.000000000000000e+00
0.000000000000000e+00
0.000000000000000e+00
0.000000000000000e+00
0.000000000000000e+00
0.000000000000000e+00
0.000000000000000e+00
0.000000000000000e+00
0.000000000000000e+00
0.000000000000000e+00
0.000000000000000e+00
0.000000000000000e+00
0.000000000000000e+00
0.000000000000000e+00
0.000000000000000e+00
0.000000000000000e+00
0.000000000000000e+00
0.000000000000000e+00
        </DataArray>
        <DataArray type="Float64" Name="mixture_constituent_1_elasthyper_prestretch_gp_0" NumberOfComponents="9" format="ascii">
1.000000000000000e+00 1.000000000000000e+00 1.000000000000000e+00 0.000000000000000e+00 0.000000000000000e+00 0.000000000000000e+00 0.000000000000000e+00 0.000000000000000e+00 0.000000000000000e+00
1.000000000000000e+00 1.000000000000000e+00 1.000000000000000e+00 0.000000000000000e+00 0.000000000000000e+00 0.000000000000000e+00 0.000000000000000e+00 0.000000000000000e+00 0.000000000000000e+00
0.000000000000000e+00 0.000000000000000e+00 0.000000000000000e+00 0.000000000000000e+00 0.000000000000000e+00 0.000000000000000e+00 0.000000000000000e+00 0.000000000000000e+00 0.000000000000000e+00
1.000000000000000e+00 1.000000000000000e+00 1.000000000000000e+00 0.000000000000000e+00 0.000000000000000e+00 0.000000000000000e+00 0.000000000000000e+00 0.000000000000000e+00 0.000000000000000e+00
1.000000000000000e+00 1.000000000000000e+00 1.000000000000000e+00 0.000000000000000e+00 0.000000000000000e+00 0.000000000000000e+00 0.000000000000000e+00 0.000000000000000e+00 0.000000000000000e+00
1.000000000000000e+00 1.000000000000000e+00 1.000000000000000e+00 0.000000000000000e+00 0.000000000000000e+00 0.000000000000000e+00 0.000000000000000e+00 0.000000000000000e+00 0.000000000000000e+00
1.000000000000000e+00 1.000000000000000e+00 1.000000000000000e+00 0.000000000000000e+00 0.000000000000000e+00 0.000000000000000e+00 0.000000000000000e+00 0.000000000000000e+00 0.000000000000000e+00
1.000000000000000e+00 1.000000000000000e+00 1.000000000000000e+00 0.000000000000000e+00 0.000000000000000e+00 0.000000000000000e+00 0.000000000000000e+00 0.000000000000000e+00 0.000000000000000e+00
1.000000000000000e+00 1.000000000000000e+00 1.000000000000000e+00 0.000000000000000e+00 0.000000000000000e+00 0.000000000000000e+00 0.000000000000000e+00 0.000000000000000e+00 0.000000000000000e+00
1.000000000000000e+00 1.000000000000000e+00 1.000000000000000e+00 0.000000000000000e+00 0.000000000000000e+00 0.000000000000000e+00 0.000000000000000e+00 0.000000000000000e+00 0.000000000000000e+00
1.000000000000000e+00 1.000000000000000e+00 1.000000000000000e+00 0.000000000000000e+00 0.000000000000000e+00 0.000000000000000e+00 0.000000000000000e+00 0.000000000000000e+00 0.000000000000000e+00
0.000000000000000e+00 0.000000000000000e+00 0.000000000000000e+00 0.000000000000000e+00 0.000000000000000e+00 0.000000000000000e+00 0.000000000000000e+00 0.000000000000000e+00 0.000000000000000e+00
0.000000000000000e+00 0.000000000000000e+00 0.000000000000000e+00 0.000000000000000e+00 0.000000000000000e+00 0.000000000000000e+00 0.000000000000000e+00 0.000000000000000e+00 0.000000000000000e+00
0.000000000000000e+00 0.000000000000000e+00 0.000000000000000e+00 0.000000000000000e+00 0.000000000000000e+00 0.000000000000000e+00 0.000000000000000e+00 0.000000000000000e+00 0.000000000000000e+00
0.000000000000000e+00 0.000000000000000e+00 0.000000000000000e+00 0.000000000000000e+00 0.000000000000000e+00 0.000000000000000e+00 0.000000000000000e+00 0.000000000000000e+00 0.000000000000000e+00
1.000000000000000e+00 1.000000000000000e+00 1.000000000000000e+00 0.000000000000000e+00 0.000000000000000e+00 0.000000000000000e+00 0.000000000000000e+00 0.000000000000000e+00 0.000000000000000e+00
1.000000000000000e+00 1.000000000000000e+00 1.000000000000000e+00 0.000000000000000e+00 0.000000000000000e+00 0.000000000000000e+00 0.000000000000000e+00 0.000000000000000e+00 0.000000000000000e+00
1.000000000000000e+00 1.000000000000000e+00 1.000000000000000e+00 0.000000000000000e+00 0.000000000000000e+00 0.000000000000000e+00 0.000000000000000e+00 0.000000000000000e+00 0.000000000000000e+00
1.000000000000000e+00 1.000000000000000e+00 1.000000000000000e+00 0.000000000000000e+00 0.000000000000000e+00 0.000000000000000e+00 0.000000000000000e+00 0.000000000000000e+00 0.000000000000000e+00
0.000000000000000e+00 0.000000000000000e+00 0.000000000000000e+00 0.000000000000000e+00 0.000000000000000e+00 0.000000000000000e+00 0.000000000000000e+00 0.000000000000000e+00 0.000000000000000e+00
0.000000000000000e+00 0.000000000000000e+00 0.000000000000000e+00 0.000000000000000e+00 0.000000000000000e+00 0.000000000000000e+00 0.000000000000000e+00 0.000000000000000e+00 0.000000000000000e+00
0.000000000000000e+00 0.000000000000000e+00 0.000000000000000e+00 0.000000000000000e+00 0.000000000000000e+00 0.000000000000000e+00 0.000000000000000e+00 0.000000000000000e+00 0.000000000000000e+00
0.000000000000000e+00 0.000000000000000e+00 0.000000000000000e+00 0.000000000000000e+00 0.000000000000000e+00 0.000000000000000e+00 0.000000000000000e+00 0.000000000000000e+00 0.000000000000000e+00
1.000000000000000e+00 1.000000000000000e+00 1.000000000000000e+00 0.000000000000000e+00 0.000000000000000e+00 0.000000000000000e+00 0.000000000000000e+00 0.000000000000000e+00 0.000000000000000e+00
1.000000000000000e+00 1.000000000000000e+00 1.000000000000000e+00 0.000000000000000e+00 0.000000000000000e+00 0.000000000000000e+00 0.000000000000000e+00 0.000000000000000e+00 0.000000000000000e+00
1.000000000000000e+00 1.000000000000000e+00 1.000000000000000e+00 0.000000000000000e+00 0.000000000000000e+00 0.000000000000000e+00 0.000000000000000e+00 0.000000000000000e+00 0.000000000000000e+00
1.000000000000000e+00 1.000000000000000e+00 1.000000000000000e+00 0.000000000000000e+00 0.000000000000000e+00 0.000000000000000e+00 0.000000000000000e+00 0.000000000000000e+00 0.000000000000000e+00
0.000000000000000e+00 0.000000000000000e+00 0.000000000000000e+00 0.000000000000000e+00 0.000000000000000e+00 0.000000000000000e+00 0.000000000000000e+00 0.000000000000000e+00 0.000000000000000e+00
0.000000000000000e+00 0.000000000000000e+00 0.000000000000000e+00 0.000000000000000e+00 0.000000000000000e+00 0.000000000000000e+00 0.000000000000000e+00 0.000000000000000e+00 0.000000000000000e+00
0.000000000000000e+00 0.000000000000000e+00 0.000000000000000e+00 0.000000000000000e+00 0.000000000000000e+00 0.000000000000000e+00 0.000000000000000e+00 0.000000000000000e+00 0.000000000000000e+00
0.000000000000000e+00 0.000000000000000e+00 0.000000000000000e+00 0.000000000000000e+00 0.000000000000000e+00 0.000000000000000e+00 0.000000000000000e+00 0.000000000000000e+00 0.000000000000000e+00
        </DataArray>
        <DataArray type="Float64" Name="mixture_constituent_1_elasthyper_prestretch_gp_1" NumberOfComponents="9" format="ascii">
1.000000000000000e+00 1.000000000000000e+00 1.000000000000000e+00 0.000000000000000e+00 0.000000000000000e+00 0.000000000000000e+00 0.000000000000000e+00 0.000000000000000e+00 0.000000000000000e+00
1.000000000000000e+00 1.000000000000000e+00 1.000000000000000e+00 0.000000000000000e+00 0.000000000000000e+00 0.000000000000000e+00 0.000000000000000e+00 0.000000000000000e+00 0.000000000000000e+00
0.000000000000000e+00 0.000000000000000e+00 0.000000000000000e+00 0.000000000000000e+00 0.000000000000000e+00 0.000000000000000e+00 0.000000000000000e+00 0.000000000000000e+00 0.000000000000000e+00
1.000000000000000e+00 1.000000000000000e+00 1.000000000000000e+00 0.000000000000000e+00 0.000000000000000e+00 0.000000000000000e+00 0.000000000000000e+00 0.000000000000000e+00 0.000000000000000e+00
1.000000000000000e+00 1.000000000000000e+00 1.000000000000000e+00 0.000000000000000e+00 0.000000000000000e+00 0.000000000000000e+00 0.000000000000000e+00 0.000000000000000e+00 0.000000000000000e+00
1.000000000000000e+00 1.000000000000000e+00 1.000000000000000e+00 0.000000000000000e+00 0.000000000000000e+00 0.000000000000000e+00 0.000000000000000e+00 0.000000000000000e+00 0.000000000000000e+00
1.000000000000000e+00 1.000000000000000e+00 1.000000000000000e+00 0.000000000000000e+00 0.000000000000000e+00 0.000000000000000e+00 0.000000000000000e+00 0.000000000000000e+00 0.000000000000000e+00
1.000000000000000e+00 1.000000000000000e+00 1.000000000000000e+00 0.000000000000000e+00 0.000000000000000e+00 0.000000000000000e+00 0.000000000000000e+00 0.000000000000000e+00 0.000000000000000e+00
1.000000000000000e+00 1.000000000000000e+00 1.000000000000000e+00 0.000000000000000e+00 0.000000000000000e+00 0.000000000000000e+00 0.000000000000000e+00 0.000000000000000e+00 0.000000000000000e+00
1.000000000000000e+00 1.000000000000000e+00 1.000000000000000e+00 0.000000000000000e+00 0.000000000000000e+00 0.000000000000000e+00 0.000000000000000e+00 0.000000000000000e+00 0.000000000000000e+00
1.000000000000000e+00 1.000000000000000e+00 1.000000000000000e+00 0.000000000000000e+00 0.000000000000000e+00 0.000000000000000e+00 0.000000000000000e+00 0.000000000000000e+00 0.000000000000000e+00
0.000000000000000e+00 0.000000000000000e+00 0.000000000000000e+00 0.000000000000000e+00 0.000000000000000e+00 0.000000000000000e+00 0.000000000000000e+00 0.000000000000000e+00 0.000000000000000e+00
0.000000000000000e+00 0.000000000000000e+00 0.000000000000000e+00 0.000000000000000e+00 0.000000000000000e+00 0.000000000000000e+00 0.000000000000000e+00 0.000000000000000e+00 0.000000000000000e+00
0.000000000000000e+00 0.000000000000000e+00 0.000000000000000e+00 0.000000000000000e+00 0.000000000000000e+00 0.000000000000000e+00 0.000000000000000e+00 0.000000000000000e+00 0.000000000000000e+00
0.000000000000000e+00 0.000000000000000e+00 0.000000000000000e+00 0.000000000000000e+00 0.000000000000000e+00 0.000000000000000e+00 0.000000000000000e+00 0.000000000000000e+00 0.000000000000000e+00
1.000000000000000e+00 1.000000000000000e+00 1.000000000000000e+00 0.000000000000000e+00 0.000000000000000e+00 0.000000000000000e+00 0.000000000000000e+00 0.000000000000000e+00 0.000000000000000e+00
1.000000000000000e+00 1.000000000000000e+00 1.000000000000000e+00 0.000000000000000e+00 0.000000000000000e+00 0.000000000000000e+00 0.000000000000000e+00 0.000000000000000e+00 0.000000000000000e+00
1.000000000000000e+00 1.000000000000000e+00 1.000000000000000e+00 0.000000000000000e+00 0.000000000000000e+00 0.000000000000000e+00 0.000000000000000e+00 0.000000000000000e+00 0.000000000000000e+00
1.000000000000000e+00 1.000000000000000e+00 1.000000000000000e+00 0.000000000000000e+00 0.000000000000000e+00 0.000000000000000e+00 0.000000000000000e+00 0.000000000000000e+00 0.000000000000000e+00
0.000000000000000e+00 0.000000000000000e+00 0.000000000000000e+00 0.000000000000000e+00 0.000000000000000e+00 0.000000000000000e+00 0.000000000000000e+00 0.000000000000000e+00 0.000000000000000e+00
0.000000000000000e+00 0.000000000000000e+00 0.000000000000000e+00 0.000000000000000e+00 0.000000000000000e+00 0.000000000000000e+00 0.000000000000000e+00 0.000000000000000e+00 0.000000000000000e+00
0.000000000000000e+00 0.000000000000000e+00 0.000000000000000e+00 0.000000000000000e+00 0.000000000000000e+00 0.000000000000000e+00 0.000000000000000e+00 0.000000000000000e+00 0.000000000000000e+00
0.000000000000000e+00 0.000000000000000e+00 0.000000000000000e+00 0.000000000000000e+00 0.000000000000000e+00 0.000000000000000e+00 0.000000000000000e+00 0.000000000000000e+00 0.000000000000000e+00
1.000000000000000e+00 1.000000000000000e+00 1.000000000000000e+00 0.000000000000000e+00 0.000000000000000e+00 0.000000000000000e+00 0.000000000000000e+00 0.000000000000000e+00 0.000000000000000e+00
1.000000000000000e+00 1.000000000000000e+00 1.000000000000000e+00 0.000000000000000e+00 0.000000000000000e+00 0.000000000000000e+00 0.000000000000000e+00 0.000000000000000e+00 0.000000000000000e+00
1.000000000000000e+00 1.000000000000000e+00 1.000000000000000e+00 0.000000000000000e+00 0.000000000000000e+00 0.000000000000000e+00 0.000000000000000e+00 0.000000000000000e+00 0.000000000000000e+00
1.000000000000000e+00 1.000000000000000e+00 1.000000000000000e+00 0.000000000000000e+00 0.000000000000000e+00 0.000000000000000e+00 0.000000000000000e+00 0.000000000000000e+00 0.000000000000000e+00
0.000000000000000e+00 0.000000000000000e+00 0.000000000000000e+00 0.000000000000000e+00 0.000000000000000e+00 0.000000000000000e+00 0.000000000000000e+00 0.000000000000000e+00 0.000000000000000e+00
0.000000000000000e+00 0.000000000000000e+00 0.000000000000000e+00 0.000000000000000e+00 0.000000000000000e+00 0.000000000000000e+00 0.000000000000000e+00 0.000000000000000e+00 0.000000000000000e+00
0.000000000000000e+00 0.000000000000000e+00 0.000000000000000e+00 0.000000000000000e+00 0.000000000000000e+00 0.000000000000000e+00 0.000000000000000e+00 0.000000000000000e+00 0.000000000000000e+00
0.000000000000000e+00 0.000000000000000e+00 0.000000000000000e+00 0.000000000000000e+00 0.000000000000000e+00 0.000000000000000e+00 0.000000000000000e+00 0.000000000000000e+00 0.000000000000000e+00
        </DataArray>
        <DataArray type="Float64" Name="mixture_constituent_1_elasthyper_prestretch_gp_2" NumberOfComponents="9" format="ascii">
1.000000000000000e+00 1.000000000000000e+00 1.000000000000000e+00 0.000000000000000e+00 0.000000000000000e+00 0.000000000000000e+00 0.000000000000000e+00 0.000000000000000e+00 0.000000000000000e+00
1.000000000000000e+00 1.000000000000000e+00 1.000000000000000e+00 0.000000000000000e+00 0.000000000000000e+00 0.000000000000000e+00 0.000000000000000e+00 0.000000000000000e+00 0.000000000000000e+00
0.000000000000000e+00 0.000000000000000e+00 0.000000000000000e+00 0.000000000000000e+00 0.000000000000000e+00 0.000000000000000e+00 0.000000000000000e+00 0.000000000000000e+00 0.000000000000000e+00
1.000000000000000e+00 1.000000000000000e+00 1.000000000000000e+00 0.000000000000000e+00 0.000000000000000e+00 0.000000000000000e+00 0.000000000000000e+00 0.000000000000000e+00 0.000000000000000e+00
1.000000000000000e+00 1.000000000000000e+00 1.000000000000000e+00 0.000000000000000e+00 0.000000000000000e+00 0.000000000000000e+00 0.000000000000000e+00 0.000000000000000e+00 0.000000000000000e+00
1.000000000000000e+00 1.000000000000000e+00 1.000000000000000e+00 0.000000000000000e+00 0.000000000000000e+00 0.000000000000000e+00 0.000000000000000e+00 0.000000000000000e+00 0.000000000000000e+00
1.000000000000000e+00 1.000000000000000e+00 1.000000000000000e+00 0.000000000000000e+00 0.000000000000000e+00 0.000000000000000e+00 0.000000000000000e+00 0.000000000000000e+00 0.000000000000000e+00
1.000000000000000e+00 1.000000000000000e+00 1.000000000000000e+00 0.000000000000000e+00 0.000000000000000e+00 0.000000000000000e+00 0.000000000000000e+00 0.000000000000000e+00 0.000000000000000e+00
1.000000000000000e+00 1.000000000000000e+00 1.000000000000000e+00 0.000000000000000e+00 0.000000000000000e+00 0.000000000000000e+00 0.000000000000000e+00 0.000000000000000e+00 0.000000000000000e+00
1.000000000000000e+00 1.000000000000000e+00 1.000000000000000e+00 0.000000000000000e+00 0.000000000000000e+00 0.000000000000000e+00 0.000000000000000e+00 0.000000000000000e+00 0.000000000000000e+00
1.000000000000000e+00 1.000000000000000e+00 1.000000000000000e+00 0.000000000000000e+00 0.000000000000000e+00 0.000000000000000e+00 0.000000000000000e+00 0.000000000000000e+00 0.000000000000000e+00
0.000000000000000e+00 0.000000000000000e+00 0.000000000000000e+00 0.000000000000000e+00 0.000000000000000e+00 0.000000000000000e+00 0.000000000000000e+00 0.000000000000000e+00 0.000000000000000e+00
0.000000000000000e+00 0.000000000000000e+00 0.000000000000000e+00 0.000000000000000e+00 0.000000000000000e+00 0.000000000000000e+00 0.000000000000000e+00 0.000000000000000e+00 0.000000000000000e+00
0.000000000000000e+00 0.000000000000000e+00 0.000000000000000e+00 0.000000000000000e+00 0.000000000000000e+00 0.000000000000000e+00 0.000000000000000e+00 0.000000000000000e+00 0.000000000000000e+00
0.000000000000000e+00 0.000000000000000e+00 0.000000000000000e+00 0.000000000000000e+00 0.000000000000000e+00 0.000000000000000e+00 0.000000000000000e+00 0.000000000000000e+00 0.000000000000000e+00
1.000000000000000e+00 1.000000000000000e+00 1.000000000000000e+00 0.000000000000000e+00 0.000000000000000e+00 0.000000000000000e+00 0.000000000000000e+00 0.000000000000000e+00 0.000000000000000e+00
1.000000000000000e+00 1.000000000000000e+00 1.000000000000000e+00 0.000000000000000e+00 0.000000000000000e+00 0.000000000000000e+00 0.000000000000000e+00 0.000000000000000e+00 0.000000000000000e+00
1.000000000000000e+00 1.000000000000000e+00 1.000000000000000e+00 0.000000000000000e+00 0.000000000000000e+00 0.000000000000000e+00 0.000000000000000e+00 0.000000000000000e+00 0.000000000000000e+00
1.000000000000000e+00 1.000000000000000e+00 1.000000000000000e+00 0.000000000000000e+00 0.000000000000000e+00 0.000000000000000e+00 0.000000000000000e+00 0.000000000000000e+00 0.000000000000000e+00
0.000000000000000e+00 0.000000000000000e+00 0.000000000000000e+00 0.000000000000000e+00 0.000000000000000e+00 0.000000000000000e+00 0.000000000000000e+00 0.000000000000000e+00 0.000000000000000e+00
0.000000000000000e+00 0.000000000000000e+00 0.000000000000000e+00 0.000000000000000e+00 0.000000000000000e+00 0.000000000000000e+00 0.000000000000000e+00 0.000000000000000e+00 0.000000000000000e+00
0.000000000000000e+00 0.000000000000000e+00 0.000000000000000e+00 0.000000000000000e+00 0.000000000000000e+00 0.000000000000000e+00 0.000000000000000e+00 0.000000000000000e+00 0.000000000000000e+00
0.000000000000000e+00 0.000000000000000e+00 0.000000000000000e+00 0.000000000000000e+00 0.000000000000000e+00 0.000000000000000e+00 0.000000000000000e+00 0.000000000000000e+00 0.000000000000000e+00
1.000000000000000e+00 1.000000000000000e+00 1.000000000000000e+00 0.000000000000000e+00 0.000000000000000e+00 0.000000000000000e+00 0.000000000000000e+00 0.000000000000000e+00 0.000000000000000e+00
1.000000000000000e+00 1.000000000000000e+00 1.000000000000000e+00 0.000000000000000e+00 0.000000000000000e+00 0.000000000000000e+00 0.000000000000000e+00 0.000000000000000e+00 0.000000000000000e+00
1.000000000000000e+00 1.000000000000000e+00 1.000000000000000e+00 0.000000000000000e+00 0.000000000000000e+00 0.000000000000000e+00 0.000000000000000e+00 0.000000000000000e+00 0.000000000000000e+00
1.000000000000000e+00 1.000000000000000e+00 1.000000000000000e+00 0.000000000000000e+00 0.000000000000000e+00 0.000000000000000e+00 0.000000000000000e+00 0.000000000000000e+00 0.000000000000000e+00
0.000000000000000e+00 0.000000000000000e+00 0.000000000000000e+00 0.000000000000000e+00 0.000000000000000e+00 0.000000000000000e+00 0.000000000000000e+00 0.000000000000000e+00 0.000000000000000e+00
0.000000000000000e+00 0.000000000000000e+00 0.000000000000000e+00 0.000000000000000e+00 0.000000000000000e+00 0.000000000000000e+00 0.000000000000000e+00 0.000000000000000e+00 0.000000000000000e+00
0.000000000000000e+00 0.000000000000000e+00 0.000000000000000e+00 0.000000000000000e+00 0.000000000000000e+00 0.000000000000000e+00 0.000000000000000e+00 0.000000000000000e+00 0.000000000000000e+00
0.000000000000000e+00 0.000000000000000e+00 0.000000000000000e+00 0.000000000000000e+00 0.000000000000000e+00 0.000000000000000e+00 0.000000000000000e+00 0.000000000000000e+00 0.000000000000000e+00
        </DataArray>
        <DataArray type="Float64" Name="mixture_constituent_1_elasthyper_prestretch_gp_3" NumberOfComponents="9" format="ascii">
1.000000000000000e+00 1.000000000000000e+00 1.000000000000000e+00 0.000000000000000e+00 0.000000000000000e+00 0.000000000000000e+00 0.000000000000000e+00 0.000000000000000e+00 0.000000000000000e+00
1.000000000000000e+00 1.000000000000000e+00 1.000000000000000e+00 0.000000000000000e+00 0.000000000000000e+00 0.000000000000000e+00 0.000000000000000e+00 0.000000000000000e+00 0.000000000000000e+00
0.000000000000000e+00 0.000000000000000e+00 0.000000000000000e+00 0.000000000000000e+00 0.000000000000000e+00 0.000000000000000e+00 0.000000000000000e+00 0.000000000000000e+00 0.000000000000000e+00
1.000000000000000e+00 1.000000000000000e+00 1.000000000000000e+00 0.000000000000000e+00 0.000000000000000e+00 0.000000000000000e+00 0.000000000000000e+00 0.000000000000000e+00 0.000000000000000e+00
1.000000000000000e+00 1.000000000000000e+00 1.000000000000000e+00 0.000000000000000e+00 0.000000000000000e+00 0.000000000000000e+00 0.000000000000000e+00 0.000000000000000e+00 0.000000000000000e+00
1.000000000000000e+00 1.000000000000000e+00 1.000000000000000e+00 0.000000000000000e+00 0.000000000000000e+00 0.000000000000000e+00 0.000000000000000e+00 0.000000000000000e+00 0.000000000000000e+00
1.000000000000000e+00 1.000000000000000e+00 1.000000000000000e+00 0.000000000000000e+00 0.000000000000000e+00 0.000000000000000e+00 0.000000000000000e+00 0.000000000000000e+00 0.000000000000000e+00
1.000000000000000e+00 1.000000000000000e+00 1.000000000000000e+00 0.000000000000000e+00 0.000000000000000e+00 0.000000000000000e+00 0.000000000000000e+00 0.000000000000000e+00 0.000000000000000e+00
1.000000000000000e+00 1.000000000000000e+00 1.000000000000000e+00 0.000000000000000e+00 0.000000000000000e+00 0.000000000000000e+00 0.000000000000000e+00 0.000000000000000e+00 0.000000000000000e+00
1.000000000000000e+00 1.000000000000000e+00 1.000000000000000e+00 0.000000000000000e+00 0.000000000000000e+00 0.000000000000000e+00 0.000000000000000e+00 0.000000000000000e+00 0.000000000000000e+00
1.000000000000000e+00 1.000000000000000e+00 1.000000000000000e+00 0.000000000000000e+00 0.000000000000000e+00 0.000000000000000e+00 0.000000000000000e+00 0.000000000000000e+00 0.000000000000000e+00
0.000000000000000e+00 0.000000000000000e+00 0.000000000000000e+00 0.000000000000000e+00 0.000000000000000e+00 0.000000000000000e+00 0.000000000000000e+00 0.000000000000000e+00 0.000000000000000e+00
0.000000000000000e+00 0.000000000000000e+00 0.000000000000000e+00 0.000000000000000e+00 0.000000000000000e+00 0.000000000000000e+00 0.000000000000000e+00 0.000000000000000e+00 0.000000000000000e+00
0.000000000000000e+00 0.000000000000000e+00 0.000000000000000e+00 0.000000000000000e+00 0.000000000000000e+00 0.000000000000000e+00 0.000000000000000e+00 0.000000000000000e+00 0.000000000000000e+00
0.000000000000000e+00 0.000000000000000e+00 0.000000000000000e+00 0.000000000000000e+00 0.000000000000000e+00 0.000000000000000e+00 0.000000000000000e+00 0.000000000000000e+00 0.000000000000000e+00
1.000000000000000e+00 1.000000000000000e+00 1.000000000000000e+00 0.000000000000000e+00 0.000000000000000e+00 0.000000000000000e+00 0.000000000000000e+00 0.000000000000000e+00 0.000000000000000e+00
1.000000000000000e+00 1.000000000000000e+00 1.000000000000000e+00 0.000000000000000e+00 0.000000000000000e+00 0.000000000000000e+00 0.000000000000000e+00 0.000000000000000e+00 0.000000000000000e+00
1.000000000000000e+00 1.000000000000000e+00 1.000000000000000e+00 0.000000000000000e+00 0.000000000000000e+00 0.000000000000000e+00 0.000000000000000e+00 0.000000000000000e+00 0.000000000000000e+00
1.000000000000000e+00 1.000000000000000e+00 1.000000000000000e+00 0.000000000000000e+00 0.000000000000000e+00 0.000000000000000e+00 0.000000000000000e+00 0.000000000000000e+00 0.000000000000000e+00
0.000000000000000e+00 0.000000000000000e+00 0.000000000000000e+00 0.000000000000000e+00 0.000000000000000e+00 0.000000000000000e+00 0.000000000000000e+00 0.000000000000000e+00 0.000000000000000e+00
0.000000000000000e+00 0.000000000000000e+00 0.000000000000000e+00 0.000000000000000e+00 0.000000000000000e+00 0.000000000000000e+00 0.000000000000000e+00 0.000000000000000e+00 0.000000000000000e+00
0.000000000000000e+00 0.000000000000000e+00 0.000000000000000e+00 0.000000000000000e+00 0.000000000000000e+00 0.000000000000000e+00 0.000000000000000e+00 0.000000000000000e+00 0.000000000000000e+00
0.000000000000000e+00 0.000000000000000e+00 0.000000000000000e+00 0.000000000000000e+00 0.000000000000000e+00 0.000000000000000e+00 0.000000000000000e+00 0.000000000000000e+00 0.000000000000000e+00
1.000000000000000e+00 1.000000000000000e+00 1.000000000000000e+00 0.000000000000000e+00 0.000000000000000e+00 0.000000000000000e+00 0.000000000000000e+00 0.000000000000000e+00 0.000000000000000e+00
1.000000000000000e+00 1.000000000000000e+00 1.000000000000000e+00 0.000000000000000e+00 0.000000000000000e+00 0.000000000000000e+00 0.000000000000000e+00 0.000000000000000e+00 0.000000000000000e+00
1.000000000000000e+00 1.000000000000000e+00 1.000000000000000e+00 0.000000000000000e+00 0.000000000000000e+00 0.000000000000000e+00 0.000000000000000e+00 0.000000000000000e+00 0.000000000000000e+00
1.000000000000000e+00 1.000000000000000e+00 1.000000000000000e+00 0.000000000000000e+00 0.000000000000000e+00 0.000000000000000e+00 0.000000000000000e+00 0.000000000000000e+00 0.000000000000000e+00
0.000000000000000e+00 0.000000000000000e+00 0.000000000000000e+00 0.000000000000000e+00 0.000000000000000e+00 0.000000000000000e+00 0.000000000000000e+00 0.000000000000000e+00 0.000000000000000e+00
0.000000000000000e+00 0.000000000000000e+00 0.000000000000000e+00 0.000000000000000e+00 0.000000000000000e+00 0.000000000000000e+00 0.000000000000000e+00 0.000000000000000e+00 0.000000000000000e+00
0.000000000000000e+00 0.000000000000000e+00 0.000000000000000e+00 0.000000000000000e+00 0.000000000000000e+00 0.000000000000000e+00 0.000000000000000e+00 0.000000000000000e+00 0.000000000000000e+00
0.000000000000000e+00 0.000000000000000e+00 0.000000000000000e+00 0.000000000000000e+00 0.000000000000000e+00 0.000000000000000e+00 0.000000000000000e+00 0.000000000000000e+00 0.000000000000000e+00
        </DataArray>
        <DataArray type="Float64" Name="mixture_constituent_1_elasthyper_prestretch_gp_4" NumberOfComponents="9" format="ascii">
1.000000000000000e+00 1.000000000000000e+00 1.000000000000000e+00 0.000000000000000e+00 0.000000000000000e+00 0.000000000000000e+00 0.000000000000000e+00 0.000000000000000e+00 0.000000000000000e+00
1.000000000000000e+00 1.000000000000000e+00 1.000000000000000e+00 0.000000000000000e+00 0.000000000000000e+00 0.000000000000000e+00 0.000000000000000e+00 0.000000000000000e+00 0.000000000000000e+00
0.000000000000000e+00 0.000000000000000e+00 0.000000000000000e+00 0.000000000000000e+00 0.000000000000000e+00 0.000000000000000e+00 0.000000000000000e+00 0.000000000000000e+00 0.000000000000000e+00
0.000000000000000e+00 0.000000000000000e+00 0.000000000000000e+00 0.000000000000000e+00 0.000000000000000e+00 0.000000000000000e+00 0.000000000000000e+00 0.000000000000000e+00 0.000000000000000e+00
0.000000000000000e+00 0.000000000000000e+00 0.000000000000000e+00 0.000000000000000e+00 0.000000000000000e+00 0.000000000000000e+00 0.000000000000000e+00 0.000000000000000e+00 0.000000000000000e+00
0.000000000000000e+00 0.000000000000000e+00 0.000000000000000e+00 0.000000000000000e+00 0.000000000000000e+00 0.000000000000000e+00 0.000000000000000e+00 0.000000000000000e+00 0.000000000000000e+00
0.000000000000000e+00 0.000000000000000e+00 0.000000000000000e+00 0.000000000000000e+00 0.000000000000000e+00 0.000000000000000e+00 0.000000000000000e+00 0.000000000000000e+00 0.000000000000000e+00
0.000000000000000e+00 0.000000000000000e+00 0.000000000000000e+00 0.000000000000000e+00 0.000000000000000e+00 0.000000000000000e+00 0.000000000000000e+00 0.000000000000000e+00 0.000000000000000e+00
0.000000000000000e+00 0.000000000000000e+00 0.000000000000000e+00 0.000000000000000e+00 0.000000000000000e+00 0.000000000000000e+00 0.000000000000000e+00 0.000000000000000e+00 0.000000000000000e+00
0.000000000000000e+00 0.000000000000000e+00 0.000000000000000e+00 0.000000000000000e+00 0.000000000000000e+00 0.000000000000000e+00 0.000000000000000e+00 0.000000000000000e+00 0.000000000000000e+00
0.000000000000000e+00 0.000000000000000e+00 0.000000000000000e+00 0.000000000000000e+00 0.000000000000000e+00 0.000000000000000e+00 0.000000000000000e+00 0.000000000000000e+00 0.000000000000000e+00
0.000000000000000e+00 0.000000000000000e+00 0.000000000000000e+00 0.000000000000000e+00 0.000000000000000e+00 0.000000000000000e+00 0.000000000000000e+00 0.000000000000000e+00 0.000000000000000e+00
0.000000000000000e+00 0.000000000000000e+00 0.000000000000000e+00 0.000000000000000e+00 0.000000000000000e+00 0.000000000000000e+00 0.000000000000000e+00 0.000000000000000e+00 0.000000000000000e+00
0.000000000000000e+00 0.000000000000000e+00 0.000000000000000e+00 0.000000000000000e+00 0.000000000000000e+00 0.000000000000000e+00 0.000000000000000e+00 0.000000000000000e+00 0.000000000000000e+00
0.000000000000000e+00 0.000000000000000e+00 0.000000000000000e+00 0.000000000000000e+00 0.000000000000000e+00 0.000000000000000e+00 0.000000000000000e+00 0.000000000000000e+00 0.000000000000000e+00
0.000000000000000e+00 0.000000000000000e+00 0.000000000000000e+00 0.000000000000000e+00 0.000000000000000e+00 0.000000000000000e+00 0.000000000000000e+00 0.000000000000000e+00 0.000000000000000e+00
0.000000000000000e+00 0.000000000000000e+00 0.000000000000000e+00 0.000000000000000e+00 0.000000000000000e+00 0.000000000000000e+00 0.000000000000000e+00 0.000000000000000e+00 0.000000000000000e+00
0.000000000000000e+00 0.000000000000000e+00 0.000000000000000e+00 0.000000000000000e+00 0.000000000000000e+00 0.000000000000000e+00 0.000000000000000e+00 0.000000000000000e+00 0.000000000000000e+00
0.000000000000000e+00 0.000000000000000e+00 0.000000000000000e+00 0.000000000000000e+00 0.000000000000000e+00 0.000000000000000e+00 0.000000000000000e+00 0.000000000000000e+00 0.000000000000000e+00
0.000000000000000e+00 0.000000000000000e+00 0.000000000000000e+00 0.000000000000000e+00 0.000000000000000e+00 0.000000000000000e+00 0.000000000000000e+00 0.000000000000000e+00 0.000000000000000e+00
0.000000000000000e+00 0.000000000000000e+00 0.000000000000000e+00 0.000000000000000e+00 0.000000000000000e+00 0.000000000000000e+00 0.000000000000000e+00 0.000000000000000e+00 0.000000000000000e+00
0.000000000000000e+00 0.000000000000000e+00 0.000000000000000e+00 0.000000000000000e+00 0.000000000000000e+00 0.000000000000000e+00 0.000000000000000e+00 0.000000000000000e+00 0.000000000000000e+00
0.000000000000000e+00 0.000000000000000e+00 0.000000000000000e+00 0.000000000000000e+00 0.000000000000000e+00 0.000000000000000e+00 0.000000000000000e+00 0.000000000000000e+00 0.000000000000000e+00
0.000000000000000e+00 0.000000000000000e+00 0.000000000000000e+00 0.000000000000000e+00 0.000000000000000e+00 0.000000000000000e+00 0.000000000000000e+00 0.000000000000000e+00 0.000000000000000e+00
0.000000000000000e+00 0.000000000000000e+00 0.000000000000000e+00 0.000000000000000e+00 0.000000000000000e+00 0.000000000000000e+00 0.000000000000000e+00 0.000000000000000e+00 0.000000000000000e+00
0.000000000000000e+00 0.000000000000000e+00 0.000000000000000e+00 0.000000000000000e+00 0.000000000000000e+00 0.000000000000000e+00 0.000000000000000e+00 0.000000000000000e+00 0.000000000000000e+00
0.000000000000000e+00 0.000000000000000e+00 0.000000000000000e+00 0.000000000000000e+00 0.000000000000000e+00 0.000000000000000e+00 0.000000000000000e+00 0.000000000000000e+00 0.000000000000000e+00
0.000000000000000e+00 0.000000000000000e+00 0.000000000000000e+00 0.000000000000000e+00 0.000000000000000e+00 0.000000000000000e+00 0.000000000000000e+00 0.000000000000000e+00 0.000000000000000e+00
0.000000000000000e+00 0.000000000000000e+00 0.000000000000000e+00 0.000000000000000e+00 0.000000000000000e+00 0.000000000000000e+00 0.000000000000000e+00 0.000000000000000e+00 0.000000000000000e+00
0.000000000000000e+00 0.000000000000000e+00 0.000000000000000e+00 0.000000000000000e+00 0.000000000000000e+00 0.000000000000000e+00 0.000000000000000e+00 0.000000000000000e+00 0.000000000000000e+00
0.000000000000000e+00 0.000000000000000e+00 0.000000000000000e+00 0.000000000000000e+00 0.000000000000000e+00 0.000000000000000e+00 0.000000000000000e+00 0.000000000000000e+00 0.000000000000000e+00
        </DataArray>
        <DataArray type="Float64" Name="mixture_constituent_1_elasthyper_prestretch_gp_5" NumberOfComponents="9" format="ascii">
1.000000000000000e+00 1.000000000000000e+00 1.000000000000000e+00 0.000000000000000e+00 0.000000000000000e+00 0.000000000000000e+00 0.000000000000000e+00 0.000000000000000e+00 0.000000000000000e+00
1.000000000000000e+00 1.000000000000000e+00 1.000000000000000e+00 0.000000000000000e+00 0.000000000000000e+00 0.000000000000000e+00 0.000000000000000e+00 0.000000000000000e+00 0.000000000000000e+00
0.000000000000000e+00 0.000000000000000e+00 0.000000000000000e+00 0.000000000000000e+00 0.000000000000000e+00 0.000000000000000e+00 0.000000000000000e+00 0.000000000000000e+00 0.000000000000000e+00
0.000000000000000e+00 0.000000000000000e+00 0.000000000000000e+00 0.000000000000000e+00 0.000000000000000e+00 0.000000000000000e+00 0.000000000000000e+00 0.000000000000000e+00 0.000000000000000e+00
0.000000000000000e+00 0.000000000000000e+00 0.000000000000000e+00 0.000000000000000e+00 0.000000000000000e+00 0.000000000000000e+00 0.000000000000000e+00 0.000000000000000e+00 0.000000000000000e+00
0.000000000000000e+00 0.000000000000000e+00 0.000000000000000e+00 0.000000000000000e+00 0.000000000000000e+00 0.000000000000000e+00 0.000000000000000e+00 0.000000000000000e+00 0.000000000000000e+00
0.000000000000000e+00 0.000000000000000e+00 0.000000000000000e+00 0.000000000000000e+00 0.000000000000000e+00 0.000000000000000e+00 0.000000000000000e+00 0.000000000000000e+00 0.000000000000000e+00
0.000000000000000e+00 0.000000000000000e+00 0.000000000000000e+00 0.000000000000000e+00 0.000000000000000e+00 0.000000000000000e+00 0.000000000000000e+00 0.000000000000000e+00 0.000000000000000e+00
0.000000000000000e+00 0.000000000000000e+00 0.000000000000000e+00 0.000000000000000e+00 0.000000000000000e+00 0.000000000000000e+00 0.000000000000000e+00 0.000000000000000e+00 0.000000000000000e+00
0.000000000000000e+00 0.000000000000000e+00 0.000000000000000e+00 0.000000000000000e+00 0.000000000000000e+00 0.000000000000000e+00 0.000000000000000e+00 0.000000000000000e+00 0.000000000000000e+00
0.000000000000000e+00 0.000000000000000e+00 0.000000000000000e+00 0.000000000000000e+00 0.000000000000000e+00 0.000000000000000e+00 0.000000000000000e+00 0.000000000000000e+00 0.000000000000000e+00
0.000000000000000e+00 0.000000000000000e+00 0.000000000000000e+00 0.000000000000000e+00 0.000000000000000e+00 0.000000000000000e+00 0.000000000000000e+00 0.000000000000000e+00 0.000000000000000e+00
0.000000000000000e+00 0.000000000000000e+00 0.000000000000000e+00 0.000000000000000e+00 0.000000000000000e+00 0.000000000000000e+00 0.000000000000000e+00 0.000000000000000e+00 0.000000000000000e+00
0.000000000000000e+00 0.000000000000000e+00 0.000000000000000e+00 0.000000000000000e+00 0.000000000000000e+00 0.000000000000000e+00 0.000000000000000e+00 0.000000000000000e+00 0.000000000000000e+00
0.000000000000000e+00 0.000000000000000e+00 0.000000000000000e+00 0.000000000000000e+00 0.000000000000000e+00 0.000000000000000e+00 0.000000000000000e+00 0.000000000000000e+00 0.000000000000000e+00
0.000000000000000e+00 0.000000000000000e+00 0.000000000000000e+00 0.000000000000000e+00 0.000000000000000e+00 0.000000000000000e+00 0.000000000000000e+00 0.000000000000000e+00 0.000000000000000e+00
0.000000000000000e+00 0.000000000000000e+00 0.000000000000000e+00 0.000000000000000e+00 0.000000000000000e+00 0.000000000000000e+00 0.000000000000000e+00 0.000000000000000e+00 0.000000000000000e+00
0.000000000000000e+00 0.000000000000000e+00 0.000000000000000e+00 0.000000000000000e+00 0.000000000000000e+00 0.000000000000000e+00 0.000000000000000e+00 0.000000000000000e+00 0.000000000000000e+00
0.000000000000000e+00 0.000000000000000e+00 0.000000000000000e+00 0.000000000000000e+00 0.000000000000000e+00 0.000000000000000e+00 0.000000000000000e+00 0.000000000000000e+00 0.000000000000000e+00
0.000000000000000e+00 0.000000000000000e+00 0.000000000000000e+00 0.000000000000000e+00 0.000000000000000e+00 0.000000000000000e+00 0.000000000000000e+00 0.000000000000000e+00 0.000000000000000e+00
0.000000000000000e+00 0.000000000000000e+00 0.000000000000000e+00 0.000000000000000e+00 0.000000000000000e+00 0.000000000000000e+00 0.000000000000000e+00 0.000000000000000e+00 0.000000000000000e+00
0.000000000000000e+00 0.000000000000000e+00 0.000000000000000e+00 0.000000000000000e+00 0.000000000000000e+00 0.000000000000000e+00 0.000000000000000e+00 0.000000000000000e+00 0.000000000000000e+00
0.000000000000000e+00 0.000000000000000e+00 0.000000000000000e+00 0.000000000000000e+00 0.000000000000000e+00 0.000000000000000e+00 0.000000000000000e+00 0.000000000000000e+00 0.000000000000000e+00
0.000000000000000e+00 0.000000000000000e+00 0.000000000000000e+00 0.000000000000000e+00 0.000000000000000e+00 0.000000000000000e+00 0.000000000000000e+00 0.000000000000000e+00 0.000000000000000e+00
0.000000000000000e+00 0.000000000000000e+00 0.000000000000000e+00 0.000000000000000e+00 0.000000000000000e+00 0.000000000000000e+00 0.000000000000000e+00 0.000000000000000e+00 0.000000000000000e+00
0.000000000000000e+00 0.000000000000000e+00 0.000000000000000e+00 0.000000000000000e+00 0.000000000000000e+00 0.000000000000000e+00 0.000000000000000e+00 0.000000000000000e+00 0.000000000000000e+00
0.000000000000000e+00 0.000000000000000e+00 0.000000000000000e+00 0.000000000000000e+00 0.000000000000000e+00 0.000000000000000e+00 0.000000000000000e+00 0.000000000000000e+00 0.000000000000000e+00
0.000000000000000e+00 0.000000000000000e+00 0.000000000000000e+00 0.000000000000000e+00 0.000000000000000e+00 0.000000000000000e+00 0.000000000000000e+00 0.000000000000000e+00 0.000000000000000e+00
0.000000000000000e+00 0.000000000000000e+00 0.000000000000000e+00 0.000000000000000e+00 0.000000000000000e+00 0.000000000000000e+00 0.000000000000000e+00 0.000000000000000e+00 0.000000000000000e+00
0.000000000000000e+00 0.000000000000000e+00 0.000000000000000e+00 0.000000000000000e+00 0.000000000000000e+00 0.000000000000000e+00 0.000000000000000e+00 0.000000000000000e+00 0.000000000000000e+00
0.000000000000000e+00 0.000000000000000e+00 0.000000000000000e+00 0.000000000000000e+00 0.000000000000000e+00 0.000000000000000e+00 0.000000000000000e+00 0.000000000000000e+00 0.000000000000000e+00
        </DataArray>
        <DataArray type="Float64" Name="mixture_constituent_1_elasthyper_prestretch_gp_6" NumberOfComponents="9" format="ascii">
1.000000000000000e+00 1.000000000000000e+00 1.000000000000000e+00 0.000000000000000e+00 0.000000000000000e+00 0.000000000000000e+00 0.000000000000000e+00 0.000000000000000e+00 0.000000000000000e+00
1.000000000000000e+00 1.000000000000000e+00 1.000000000000000e+00 0.000000000000000e+00 0.000000000000000e+00 0.000000000000000e+00 0.000000000000000e+00 0.000000000000000e+00 0.000000000000000e+00
0.000000000000000e+00 0.000000000000000e+00 0.000000000000000e+00 0.000000000000000e+00 0.000000000000000e+00 0.000000000000000e+00 0.000000000000000e+00 0.000000000000000e+00 0.000000000000000e+00
0.000000000000000e+00 0.000000000000000e+00 0.000000000000000e+00 0.000000000000000e+00 0.000000000000000e+00 0.000000000000000e+00 0.000000000000000e+00 0.000000000000000e+00 0.000000000000000e+00
0.000000000000000e+00 0.000000000000000e+00 0.000000000000000e+00 0.000000000000000e+00 0.000000000000000e+00 0.000000000000000e+00 0.000000000000000e+00 0.000000000000000e+00 0.000000000000000e+00
0.000000000000000e+00 0.000000000000000e+00 0.000000000000000e+00 0.000000000000000e+00 0.000000000000000e+00 0.000000000000000e+00 0.000000000000000e+00 0.000000000000000e+00 0.000000000000000e+00
0.000000000000000e+00 0.000000000000000e+00 0.000000000000000e+00 0.000000000000000e+00 0.000000000000000e+00 0.000000000000000e+00 0.000000000000000e+00 0.000000000000000e+00 0.000000000000000e+00
0.000000000000000e+00 0.000000000000000e+00 0.000000000000000e+00 0.000000000000000e+00 0.000000000000000e+00 0.000000000000000e+00 0.000000000000000e+00 0.000000000000000e+00 0.000000000000000e+00
0.000000000000000e+00 0.000000000000000e+00 0.000000000000000e+00 0.000000000000000e+00 0.000000000000000e+00 0.000000000000000e+00 0.000000000000000e+00 0.000000000000000e+00 0.000000000000000e+00
0.000000000000000e+00 0.000000000000000e+00 0.000000000000000e+00 0.000000000000000e+00 0.000000000000000e+00 0.000000000000000e+00 0.000000000000000e+00 0.000000000000000e+00 0.000000000000000e+00
0.000000000000000e+00 0.000000000000000e+00 0.000000000000000e+00 0.000000000000000e+00 0.000000000000000e+00 0.000000000000000e+00 0.000000000000000e+00 0.000000000000000e+00 0.000000000000000e+00
0.000000000000000e+00 0.000000000000000e+00 0.000000000000000e+00 0.000000000000000e+00 0.000000000000000e+00 0.000000000000000e+00 0.000000000000000e+00 0.000000000000000e+00 0.000000000000000e+00
0.000000000000000e+00 0.000000000000000e+00 0.000000000000000e+00 0.000000000000000e+00 0.000000000000000e+00 0.000000000000000e+00 0.000000000000000e+00 0.000000000000000e+00 0.000000000000000e+00
0.000000000000000e+00 0.000000000000000e+00 0.000000000000000e+00 0.000000000000000e+00 0.000000000000000e+00 0.000000000000000e+00 0.000000000000000e+00 0.000000000000000e+00 0.000000000000000e+00
0.000000000000000e+00 0.000000000000000e+00 0.000000000000000e+00 0.000000000000000e+00 0.000000000000000e+00 0.000000000000000e+00 0.000000000000000e+00 0.000000000000000e+00 0.000000000000000e+00
0.000000000000000e+00 0.000000000000000e+00 0.000000000000000e+00 0.000000000000000e+00 0.000000000000000e+00 0.000000000000000e+00 0.000000000000000e+00 0.000000000000000e+00 0.000000000000000e+00
0.000000000000000e+00 0.000000000000000e+00 0.000000000000000e+00 0.000000000000000e+00 0.000000000000000e+00 0.000000000000000e+00 0.000000000000000e+00 0.000000000000000e+00 0.000000000000000e+00
0.000000000000000e+00 0.000000000000000e+00 0.000000000000000e+00 0.000000000000000e+00 0.000000000000000e+00 0.000000000000000e+00 0.000000000000000e+00 0.000000000000000e+00 0.000000000000000e+00
0.000000000000000e+00 0.000000000000000e+00 0.000000000000000e+00 0.000000000000000e+00 0.000000000000000e+00 0.000000000000000e+00 0.000000000000000e+00 0.000000000000000e+00 0.000000000000000e+00
0.000000000000000e+00 0.000000000000000e+00 0.000000000000000e+00 0.000000000000000e+00 0.000000000000000e+00 0.000000000000000e+00 0.000000000000000e+00 0.000000000000000e+00 0.000000000000000e+00
0.000000000000000e+00 0.000000000000000e+00 0.000000000000000e+00 0.000000000000000e+00 0.000000000000000e+00 0.000000000000000e+00 0.000000000000000e+00 0.000000000000000e+00 0.000000000000000e+00
0.000000000000000e+00 0.000000000000000e+00 0.000000000000000e+00 0.000000000000000e+00 0.000000000000000e+00 0.000000000000000e+00 0.000000000000000e+00 0.000000000000000e+00 0.000000000000000e+00
0.000000000000000e+00 0.000000000000000e+00 0.000000000000000e+00 0.000000000000000e+00 0.000000000000000e+00 0.000000000000000e+00 0.000000000000000e+00 0.000000000000000e+00 0.000000000000000e+00
0.000000000000000e+00 0.000000000000000e+00 0.000000000000000e+00 0.000000000000000e+00 0.000000000000000e+00 0.000000000000000e+00 0.000000000000000e+00 0.000000000000000e+00 0.000000000000000e+00
0.000000000000000e+00 0.000000000000000e+00 0.000000000000000e+00 0.000000000000000e+00 0.000000000000000e+00 0.000000000000000e+00 0.000000000000000e+00 0.000000000000000e+00 0.000000000000000e+00
0.000000000000000e+00 0.000000000000000e+00 0.000000000000000e+00 0.000000000000000e+00 0.000000000000000e+00 0.000000000000000e+00 0.000000000000000e+00 0.000000000000000e+00 0.000000000000000e+00
0.000000000000000e+00 0.000000000000000e+00 0.000000000000000e+00 0.000000000000000e+00 0.000000000000000e+00 0.000000000000000e+00 0.000000000000000e+00 0.000000000000000e+00 0.000000000000000e+00
0.000000000000000e+00 0.000000000000000e+00 0.000000000000000e+00 0.000000000000000e+00 0.000000000000000e+00 0.000000000000000e+00 0.000000000000000e+00 0.000000000000000e+00 0.000000000000000e+00
0.000000000000000e+00 0.000000000000000e+00 0.000000000000000e+00 0.000000000000000e+00 0.000000000000000e+00 0.000000000000000e+00 0.000000000000000e+00 0.000000000000000e+00 0.000000000000000e+00
0.000000000000000e+00 0.000000000000000e+00 0.000000000000000e+00 0.000000000000000e+00 0.000000000000000e+00 0.000000000000000e+00 0.000000000000000e+00 0.000000000000000e+00 0.000000000000000e+00
0.000000000000000e+00 0.000000000000000e+00 0.000000000000000e+00 0.000000000000000e+00 0.000000000000000e+00 0.000000000000000e+00 0.000000000000000e+00 0.000000000000000e+00 0.000000000000000e+00
        </DataArray>
        <DataArray type="Float64" Name="mixture_constituent_1_elasthyper_prestretch_gp_7" NumberOfComponents="9" format="ascii">
1.000000000000000e+00 1.000000000000000e+00 1.000000000000000e+00 0.000000000000000e+00 0.000000000000000e+00 0.000000000000000e+00 0.000000000000000e+00 0.000000000000000e+00 0.000000000000000e+00
1.000000000000000e+00 1.000000000000000e+00 1.000000000000000e+00 0.000000000000000e+00 0.000000000000000e+00 0.000000000000000e+00 0.000000000000000e+00 0.000000000000000e+00 0.000000000000000e+00
0.000000000000000e+00 0.000000000000000e+00 0.000000000000000e+00 0.000000000000000e+00 0.000000000000000e+00 0.000000000000000e+00 0.000000000000000e+00 0.000000000000000e+00 0.000000000000000e+00
0.000000000000000e+00 0.000000000000000e+00 0.000000000000000e+00 0.000000000000000e+00 0.000000000000000e+00 0.000000000000000e+00 0.000000000000000e+00 0.000000000000000e+00 0.000000000000000e+00
0.000000000000000e+00 0.000000000000000e+00 0.000000000000000e+00 0.000000000000000e+00 0.000000000000000e+00 0.000000000000000e+00 0.000000000000000e+00 0.000000000000000e+00 0.000000000000000e+00
0.000000000000000e+00 0.000000000000000e+00 0.000000000000000e+00 0.000000000000000e+00 0.000000000000000e+00 0.000000000000000e+00 0.000000000000000e+00 0.000000000000000e+00 0.000000000000000e+00
0.000000000000000e+00 0.000000000000000e+00 0.000000000000000e+00 0.000000000000000e+00 0.000000000000000e+00 0.000000000000000e+00 0.000000000000000e+00 0.000000000000000e+00 0.000000000000000e+00
0.000000000000000e+00 0.000000000000000e+00 0.000000000000000e+00 0.000000000000000e+00 0.000000000000000e+00 0.000000000000000e+00 0.000000000000000e+00 0.000000000000000e+00 0.000000000000000e+00
0.000000000000000e+00 0.000000000000000e+00 0.000000000000000e+00 0.000000000000000e+00 0.000000000000000e+00 0.000000000000000e+00 0.000000000000000e+00 0.000000000000000e+00 0.000000000000000e+00
0.000000000000000e+00 0.000000000000000e+00 0.000000000000000e+00 0.000000000000000e+00 0.000000000000000e+00 0.000000000000000e+00 0.000000000000000e+00 0.000000000000000e+00 0.000000000000000e+00
0.000000000000000e+00 0.000000000000000e+00 0.000000000000000e+00 0.000000000000000e+00 0.000000000000000e+00 0.000000000000000e+00 0.000000000000000e+00 0.000000000000000e+00 0.000000000000000e+00
0.000000000000000e+00 0.000000000000000e+00 0.000000000000000e+00 0.000000000000000e+00 0.000000000000000e+00 0.000000000000000e+00 0.000000000000000e+00 0.000000000000000e+00 0.000000000000000e+00
0.000000000000000e+00 0.000000000000000e+00 0.000000000000000e+00 0.000000000000000e+00 0.000000000000000e+00 0.000000000000000e+00 0.000000000000000e+00 0.000000000000000e+00 0.000000000000000e+00
0.000000000000000e+00 0.000000000000000e+00 0.000000000000000e+00 0.000000000000000e+00 0.000000000000000e+00 0.000000000000000e+00 0.000000000000000e+00 0.000000000000000e+00 0.000000000000000e+00
0.000000000000000e+00 0.000000000000000e+00 0.000000000000000e+00 0.000000000000000e+00 0.000000000000000e+00 0.000000000000000e+00 0.000000000000000e+00 0.000000000000000e+00 0.000000000000000e+00
0.000000000000000e+00 0.000000000000000e+00 0.000000000000000e+00 0.000000000000000e+00 0.000000000000000e+00 0.000000000000000e+00 0.000000000000000e+00 0.000000000000000e+00 0.000000000000000e+00
0.000000000000000e+00 0.000000000000000e+00 0.000000000000000e+00 0.000000000000000e+00 0.000000000000000e+00 0.000000000000000e+00 0.000000000000000e+00 0.000000000000000e+00 0.000000000000000e+00
0.000000000000000e+00 0.000000000000000e+00 0.000000000000000e+00 0.000000000000000e+00 0.000000000000000e+00 0.000000000000000e+00 0.000000000000000e+00 0.000000000000000e+00 0.000000000000000e+00
0.000000000000000e+00 0.000000000000000e+00 0.000000000000000e+00 0.000000000000000e+00 0.000000000000000e+00 0.000000000000000e+00 0.000000000000000e+00 0.000000000000000e+00 0.000000000000000e+00
0.000000000000000e+00 0.000000000000000e+00 0.000000000000000e+00 0.000000000000000e+00 0.000000000000000e+00 0.000000000000000e+00 0.000000000000000e+00 0.000000000000000e+00 0.000000000000000e+00
0.000000000000000e+00 0.000000000000000e+00 0.000000000000000e+00 0.000000000000000e+00 0.000000000000000e+00 0.000000000000000e+00 0.000000000000000e+00 0.000000000000000e+00 0.000000000000000e+00
0.000000000000000e+00 0.000000000000000e+00 0.000000000000000e+00 0.000000000000000e+00 0.000000000000000e+00 0.000000000000000e+00 0.000000000000000e+00 0.000000000000000e+00 0.000000000000000e+00
0.000000000000000e+00 0.000000000000000e+00 0.000000000000000e+00 0.000000000000000e+00 0.000000000000000e+00 0.000000000000000e+00 0.000000000000000e+00 0.000000000000000e+00 0.000000000000000e+00
0.000000000000000e+00 0.000000000000000e+00 0.000000000000000e+00 0.000000000000000e+00 0.000000000000000e+00 0.000000000000000e+00 0.000000000000000e+00 0.000000000000000e+00 0.000000000000000e+00
0.000000000000000e+00 0.000000000000000e+00 0.000000000000000e+00 0.000000000000000e+00 0.000000000000000e+00 0.000000000000000e+00 0.000000000000000e+00 0.000000000000000e+00 0.000000000000000e+00
0.000000000000000e+00 0.000000000000000e+00 0.000000000000000e+00 0.000000000000000e+00 0.000000000000000e+00 0.000000000000000e+00 0.000000000000000e+00 0.000000000000000e+00 0.000000000000000e+00
0.000000000000000e+00 0.000000000000000e+00 0.000000000000000e+00 0.000000000000000e+00 0.000000000000000e+00 0.000000000000000e+00 0.000000000000000e+00 0.000000000000000e+00 0.000000000000000e+00
0.000000000000000e+00 0.000000000000000e+00 0.000000000000000e+00 0.000000000000000e+00 0.000000000000000e+00 0.000000000000000e+00 0.000000000000000e+00 0.000000000000000e+00 0.000000000000000e+00
0.000000000000000e+00 0.000000000000000e+00 0.000000000000000e+00 0.000000000000000e+00 0.000000000000000e+00 0.000000000000000e+00 0.000000000000000e+00 0.000000000000000e+00 0.000000000000000e+00
0.000000000000000e+00 0.000000000000000e+00 0.000000000000000e+00 0.000000000000000e+00 0.000000000000000e+00 0.000000000000000e+00 0.000000000000000e+00 0.000000000000000e+00 0.000000000000000e+00
0.000000000000000e+00 0.000000000000000e+00 0.000000000000000e+00 0.000000000000000e+00 0.000000000000000e+00 0.000000000000000e+00 0.000000000000000e+00 0.000000000000000e+00 0.000000000000000e+00
        </DataArray>
      </CellData>

    </Piece>
  </UnstructuredGrid>
</VTKFile>
