<?xml version="1.0" ?> 
<!-- 
# vtk DataFile Version 3.0
-->
<VTKFile type="UnstructuredGrid" version="0.1" compressor="vtkZLibDataCompressor" byte_order="LittleEndian">
  <UnstructuredGrid>
    <FieldData>
      <DataArray type="Float64" Name="TIME" NumberOfTuples="1" format="ascii">
7.500000000000000e+01 
      </DataArray>
    </FieldData>

    <Piece NumberOfPoints="24" NumberOfCells="3" >
      <Points>
        <DataArray type="Float64" NumberOfComponents="3" format="ascii">
0.000000000000000e+00 0.000000000000000e+00 0.000000000000000e+00
1.000000000000000e+00 0.000000000000000e+00 0.000000000000000e+00
1.000000000000000e+00 1.000000000000000e+00 0.000000000000000e+00
0.000000000000000e+00 1.000000000000000e+00 0.000000000000000e+00
0.000000000000000e+00 0.000000000000000e+00 1.000000000000000e+00
1.000000000000000e+00 0.000000000000000e+00 1.000000000000000e+00
1.000000000000000e+00 1.000000000000000e+00 1.000000000000000e+00
0.000000000000000e+00 1.000000000000000e+00 1.000000000000000e+00
1.000000000000000e+00 0.000000000000000e+00 0.000000000000000e+00
2.000000000000000e+00 0.000000000000000e+00 0.000000000000000e+00
2.000000000000000e+00 1.000000000000000e+00 0.000000000000000e+00
1.000000000000000e+00 1.000000000000000e+00 0.000000000000000e+00
1.000000000000000e+00 0.000000000000000e+00 1.000000000000000e+00
2.000000000000000e+00 0.000000000000000e+00 1.000000000000000e+00
2.000000000000000e+00 1.000000000000000e+00 1.000000000000000e+00
1.000000000000000e+00 1.000000000000000e+00 1.000000000000000e+00
2.000000000000000e+00 0.000000000000000e+00 0.000000000000000e+00
3.000000000000000e+00 0.000000000000000e+00 0.000000000000000e+00
3.000000000000000e+00 1.000000000000000e+00 0.000000000000000e+00
2.000000000000000e+00 1.000000000000000e+00 0.000000000000000e+00
2.000000000000000e+00 0.000000000000000e+00 1.000000000000000e+00
3.000000000000000e+00 0.000000000000000e+00 1.000000000000000e+00
3.000000000000000e+00 1.000000000000000e+00 1.000000000000000e+00
2.000000000000000e+00 1.000000000000000e+00 1.000000000000000e+00
        </DataArray>
      </Points>

      <Cells>
        <DataArray type="Int32" Name="connectivity" format="ascii">
0 1 2 3 4 5 6 7 8 9 10 11 12 13 14 15 16 17 18 19 20 21 22 23 
        </DataArray>
        <DataArray type="Int32" Name="offsets" format="ascii">
8 16 24 
        </DataArray>
        <DataArray type="UInt8" Name="types" format="ascii">
12 12 12 
        </DataArray>
      </Cells>

  <PointData>
        <DataArray type="Float64" Name="displacement" NumberOfComponents="3" format="ascii">
9.372712644918121e-01 -1.221055089518947e-02 -1.235515609688285e-02
9.794426008984373e-01 -1.706032005736484e-02 -1.755655082685662e-02
9.885326326654791e-01 1.638214860363586e-02 -1.794628080510561e-02
9.457968404466865e-01 1.224572881480161e-02 -1.271584582995057e-02
9.542627855899584e-01 -1.289705568430151e-02 1.239033401649503e-02
9.975566312218804e-01 -1.777346130010026e-02 1.613293046673045e-02
1.006514669858305e+00 1.696077499286341e-02 1.638818996851463e-02
9.626691094715430e-01 1.286187776468940e-02 1.268066791033837e-02
9.794426008984373e-01 -1.706032005736484e-02 -1.755655082685662e-02
1.022407567564361e+00 1.080350757863584e-02 1.015753630932565e-02
1.032440636483694e+00 -1.250477975527680e-02 1.036295861419178e-02
9.885326326654791e-01 1.638214860363586e-02 -1.794628080510561e-02
9.975566312218804e-01 -1.777346130010026e-02 1.613293046673045e-02
1.042379294817279e+00 1.138987317955600e-02 -1.373055936709057e-02
1.052223391404157e+00 -1.343216456367368e-02 -1.427688178509930e-02
1.006514669858305e+00 1.696077499286341e-02 1.638818996851463e-02
1.022407567564361e+00 1.080350757863584e-02 1.015753630932565e-02
1.143678829894110e+00 2.477308971038260e-03 -9.316411722813686e-03
1.160013694979092e+00 -2.655177488310400e-02 -9.021239988982197e-03
1.032440636483694e+00 -1.250477975527680e-02 1.036295861419178e-02
1.042379294817279e+00 1.138987317955600e-02 -1.373055936709057e-02
1.176084681821789e+00 3.144523942219001e-03 -3.890469101147077e-02
1.191904131735124e+00 -2.737040402301074e-02 -3.935083613162422e-02
1.052223391404157e+00 -1.343216456367368e-02 -1.427688178509930e-02
        </DataArray>
        <DataArray type="Float64" Name="nodal_GL_strains_xyz" NumberOfComponents="6" format="ascii">
4.307230737220322e-02 2.478480846048546e-02 2.518930207443094e-02 1.958834068939394e-03 -4.640346171647078e-04 6.189681617990826e-03
4.359372617789711e-02 3.390532790326969e-02 3.427944605622639e-02 1.068347657742906e-02 -4.831745141101693e-04 1.525879976117028e-02
4.439446674801471e-02 3.390532790327020e-02 3.493711100299862e-02 -1.653446906141246e-03 1.769909283359757e-04 1.534731094815209e-02
4.365768397459668e-02 2.478480846048469e-02 2.585459383149282e-02 6.564225694893075e-03 2.026042661269331e-04 6.115330528815635e-03
4.423640756815306e-02 2.611915368042179e-02 2.518930207443024e-02 1.884196792064272e-03 -1.319224653103847e-04 1.078188602585972e-02
4.518125802433076e-02 3.522630044670281e-02 3.427944605622641e-02 1.095857427370572e-02 -1.546628699945439e-04 2.704251100614909e-03
4.595405201579614e-02 3.522630044670232e-02 3.493711100299858e-02 -2.122535956438145e-03 5.061442309922304e-04 2.421779217113891e-03
4.480855183398305e-02 2.611915368042218e-02 2.585459383149301e-02 6.489760565672707e-03 5.357838713352457e-04 1.070715749606763e-02
4.359372617789711e-02 3.390532790326969e-02 3.427944605622639e-02 1.068347657742906e-02 -4.831745141101693e-04 1.525879976117028e-02
8.647120946639318e-02 -2.312373308455202e-02 -2.354948294258967e-02 1.019768364182242e-02 4.879989954517421e-04 1.281571066926508e-02
9.055366615371785e-02 -2.312373308455192e-02 -2.429294540883564e-02 -5.038192745370204e-03 -2.587647090850605e-04 1.292184402694784e-02
4.439446674801471e-02 3.390532790327020e-02 3.493711100299862e-02 -1.653446906141246e-03 1.769909283359757e-04 1.534731094815209e-02
4.518125802433076e-02 3.522630044670281e-02 3.427944605622641e-02 1.095857427370572e-02 -1.546628699945439e-04 2.704251100614909e-03
9.454982720722654e-02 -2.461622821217968e-02 -2.354948294258922e-02 1.046683432885153e-02 1.157516216059063e-04 -2.554494371425186e-03
9.846327270055449e-02 -2.461622821217957e-02 -2.429294540883560e-02 -5.423792168094780e-03 -6.299798014852284e-04 -2.776955700640631e-03
4.595405201579614e-02 3.522630044670232e-02 3.493711100299858e-02 -2.122535956438145e-03 5.061442309922304e-04 2.421779217113891e-03
8.647120946639318e-02 -2.312373308455202e-02 -2.354948294258967e-02 1.019768364182242e-02 4.879989954517421e-04 1.281571066926508e-02
1.288272739491951e-01 -2.848057029676841e-02 -2.864109653834663e-02 5.112976907716647e-03 7.253662299029669e-04 8.715791720797086e-03
1.359760827860030e-01 -2.848057029676867e-02 -2.937598439773387e-02 2.387086207808755e-03 -1.238483139287181e-07 8.586574314176584e-03
9.055366615371785e-02 -2.312373308455192e-02 -2.429294540883564e-02 -5.038192745370204e-03 -2.587647090850605e-04 1.292184402694784e-02
9.454982720722654e-02 -2.461622821217968e-02 -2.354948294258922e-02 1.046683432885153e-02 1.157516216059063e-04 -2.554494371425186e-03
1.429735459339454e-01 -2.993004793947102e-02 -2.864109653834771e-02 4.976233886760308e-03 3.571710433445172e-04 6.151515478951501e-03
1.498269932034996e-01 -2.993004793947130e-02 -2.937598439773359e-02 2.263878976234734e-03 -3.668165211416482e-04 6.020985633495070e-03
9.846327270055449e-02 -2.461622821217957e-02 -2.429294540883560e-02 -5.423792168094780e-03 -6.299798014852284e-04 -2.776955700640631e-03
        </DataArray>
        <DataArray type="Float64" Name="nodal_cauchy_stresses_xyz" NumberOfComponents="6" format="ascii">
1.832327424728272e+02 -5.835447430173097e-01 -5.782858769584438e-01 -8.269763503502945e-01 -3.861671262009272e-03 -8.255794784321365e-01
1.822581996685224e+02 7.967710818285602e-01 7.990376729656856e-01 2.184797215822710e+00 6.311753158622720e-02 2.216896314690677e+00
1.837437451562309e+02 7.702146530572532e-01 7.788976226381932e-01 -2.208378978297576e+00 -7.345322594684124e-02 2.286352904681836e+00
1.843515265506965e+02 -6.085391283790731e-01 -5.916987982004109e-01 8.326807906333156e-01 -1.790954022967232e-03 -8.369972357045317e-01
1.854560022995357e+02 -6.095524802797503e-01 -6.274427546551826e-01 -8.423699640895020e-01 -6.390764703293932e-03 8.293688474284857e-01
1.851977160204814e+02 7.592535140611898e-01 7.487443500111882e-01 2.339496539208866e+00 -8.205057522720155e-02 -2.279516893482433e+00
1.866202755003964e+02 7.381073310781918e-01 7.340167554540803e-01 -2.394022730047929e+00 8.898240283293325e-02 -2.379914705747931e+00
1.865463395145600e+02 -6.329469705580735e-01 -6.392543425021935e-01 8.328193046036557e-01 9.953097349375006e-03 8.255318931836921e-01
1.822581996685224e+02 7.967710818285602e-01 7.990376729656856e-01 2.184797215822710e+00 6.311753158622720e-02 2.216896314690677e+00
1.921255296801169e+02 1.127789227760210e+00 8.771955095891464e-01 3.062246131570497e+00 3.559481691096508e-01 2.281892988459560e+00
1.997528923881424e+02 2.008449878382557e+00 1.269614071904799e+00 -4.743316672568870e+00 -2.117734492301464e-01 2.294719680279642e+00
1.837437451562309e+02 7.702146530572532e-01 7.788976226381932e-01 -2.208378978297576e+00 -7.345322594684124e-02 2.286352904681836e+00
1.851977160204814e+02 7.592535140611898e-01 7.487443500111882e-01 2.339496539208866e+00 -8.205057522720155e-02 -2.279516893482433e+00
2.073599373825510e+02 1.779828405994349e+00 2.509552448588365e+00 3.194542336308817e+00 -1.077050458458226e-02 -5.752307336596439e+00
2.149550401303367e+02 2.407748856952640e+00 2.649337073394878e+00 -5.096558473368960e+00 -2.455045977078126e-01 -5.985841317461604e+00
1.866202755003964e+02 7.381073310781918e-01 7.340167554540803e-01 -2.394022730047929e+00 8.898240283293325e-02 -2.379914705747931e+00
1.921255296801169e+02 1.127789227760210e+00 8.771955095891464e-01 3.062246131570497e+00 3.559481691096508e-01 2.281892988459560e+00
1.852455650425973e+02 -6.507054444201356e+00 -6.986774748790806e+00 3.972971730250995e+00 6.702548386752170e-01 5.831734971501422e+00
1.986101637564389e+02 -4.892695568078956e+00 -6.350683306664667e+00 -1.042541121663987e-02 -1.415610544725813e-01 5.590632731957988e+00
1.997528923881424e+02 2.008449878382557e+00 1.269614071904799e+00 -4.743316672568870e+00 -2.117734492301464e-01 2.294719680279642e+00
2.073599373825510e+02 1.779828405994349e+00 2.509552448588365e+00 3.194542336308817e+00 -1.077050458458226e-02 -5.752307336596439e+00
2.120495794849473e+02 -5.505551051480731e+00 -4.028161042438683e+00 3.770150662154948e+00 2.692617002565310e-01 1.804839850392565e+00
2.254882855652374e+02 -4.424890584544590e+00 -3.925766443193178e+00 -3.735898051993360e-01 -5.567980885665794e-01 1.479902424485667e+00
2.149550401303367e+02 2.407748856952640e+00 2.649337073394878e+00 -5.096558473368960e+00 -2.455045977078126e-01 -5.985841317461604e+00
        </DataArray>
  </PointData>
  <CellData>
        <DataArray type="Float64" Name="current_reference_density_gp_0" format="ascii">
1.101689647592065e+00
1.104965192755398e+00
0.000000000000000e+00
        </DataArray>
        <DataArray type="Float64" Name="current_reference_density_gp_1" format="ascii">
1.101689647592065e+00
1.104965192755398e+00
0.000000000000000e+00
        </DataArray>
        <DataArray type="Float64" Name="current_reference_density_gp_2" format="ascii">
1.102530331946306e+00
1.106423046632388e+00
0.000000000000000e+00
        </DataArray>
        <DataArray type="Float64" Name="current_reference_density_gp_3" format="ascii">
1.102530331946304e+00
1.106423046632388e+00
0.000000000000000e+00
        </DataArray>
        <DataArray type="Float64" Name="current_reference_density_gp_4" format="ascii">
1.103366068865908e+00
1.107864997578382e+00
0.000000000000000e+00
        </DataArray>
        <DataArray type="Float64" Name="current_reference_density_gp_5" format="ascii">
1.103366068865908e+00
1.107864997578383e+00
0.000000000000000e+00
        </DataArray>
        <DataArray type="Float64" Name="current_reference_density_gp_6" format="ascii">
1.104196949639869e+00
1.109290718909890e+00
0.000000000000000e+00
        </DataArray>
        <DataArray type="Float64" Name="current_reference_density_gp_7" format="ascii">
1.104196949639869e+00
1.109290718909890e+00
0.000000000000000e+00
        </DataArray>
        <DataArray type="Float64" Name="element_GL_strains_xyz" NumberOfComponents="6" format="ascii">
4.394373768723400e-02 3.007770034777682e-02 3.013426060029747e-02 4.368944388920361e-03 2.375035661103248e-05 8.737884924100655e-03
4.561801379578531e-02 5.210088434517611e-03 5.207359080785970e-03 4.668093028697152e-03 -2.898477376375422e-05 9.336222854144463e-03
1.394009739681608e-01 -2.646861927950712e-02 -2.639785158472283e-02 1.934761981334813e-03 5.256388242780906e-05 3.869068986573705e-03
        </DataArray>
        <DataArray type="Float64" Name="element_cauchy_stresses_xyz" NumberOfComponents="6" format="ascii">
1.839611786554533e+02 1.280842605496654e-01 1.272557107338479e-01 1.059127685426771e-03 -7.664602437866273e-04 2.122813695678502e-03
1.931714740488430e+02 -4.010865548962454e+00 -4.012846302176365e+00 -3.811585741040291e-02 -1.733101966036920e-03 -7.622263839670851e-02
2.059932068632534e+02 3.509225154374047e+00 3.511181053403655e+00 4.116569148025734e-02 3.506887824591826e-03 8.209948400850126e-02
        </DataArray>
        <DataArray type="Float64" Name="mixture_constituent_elasthyper_prestretch_gp_0" NumberOfComponents="9" format="ascii">
1.000000000000000e+00 1.000000000000000e+00 1.000000000000000e+00 0.000000000000000e+00 0.000000000000000e+00 0.000000000000000e+00 0.000000000000000e+00 0.000000000000000e+00 0.000000000000000e+00
1.000000000000000e+00 1.000000000000000e+00 1.000000000000000e+00 0.000000000000000e+00 0.000000000000000e+00 0.000000000000000e+00 0.000000000000000e+00 0.000000000000000e+00 0.000000000000000e+00
0.000000000000000e+00 0.000000000000000e+00 0.000000000000000e+00 0.000000000000000e+00 0.000000000000000e+00 0.000000000000000e+00 0.000000000000000e+00 0.000000000000000e+00 0.000000000000000e+00
        </DataArray>
        <DataArray type="Float64" Name="mixture_constituent_elasthyper_prestretch_gp_1" NumberOfComponents="9" format="ascii">
1.000000000000000e+00 1.000000000000000e+00 1.000000000000000e+00 0.000000000000000e+00 0.000000000000000e+00 0.000000000000000e+00 0.000000000000000e+00 0.000000000000000e+00 0.000000000000000e+00
1.000000000000000e+00 1.000000000000000e+00 1.000000000000000e+00 0.000000000000000e+00 0.000000000000000e+00 0.000000000000000e+00 0.000000000000000e+00 0.000000000000000e+00 0.000000000000000e+00
0.000000000000000e+00 0.000000000000000e+00 0.000000000000000e+00 0.000000000000000e+00 0.000000000000000e+00 0.000000000000000e+00 0.000000000000000e+00 0.000000000000000e+00 0.000000000000000e+00
        </DataArray>
        <DataArray type="Float64" Name="mixture_constituent_elasthyper_prestretch_gp_2" NumberOfComponents="9" format="ascii">
1.000000000000000e+00 1.000000000000000e+00 1.000000000000000e+00 0.000000000000000e+00 0.000000000000000e+00 0.000000000000000e+00 0.000000000000000e+00 0.000000000000000e+00 0.000000000000000e+00
1.000000000000000e+00 1.000000000000000e+00 1.000000000000000e+00 0.000000000000000e+00 0.000000000000000e+00 0.000000000000000e+00 0.000000000000000e+00 0.000000000000000e+00 0.000000000000000e+00
0.000000000000000e+00 0.000000000000000e+00 0.000000000000000e+00 0.000000000000000e+00 0.000000000000000e+00 0.000000000000000e+00 0.000000000000000e+00 0.000000000000000e+00 0.000000000000000e+00
        </DataArray>
        <DataArray type="Float64" Name="mixture_constituent_elasthyper_prestretch_gp_3" NumberOfComponents="9" format="ascii">
1.000000000000000e+00 1.000000000000000e+00 1.000000000000000e+00 0.000000000000000e+00 0.000000000000000e+00 0.000000000000000e+00 0.000000000000000e+00 0.000000000000000e+00 0.000000000000000e+00
1.000000000000000e+00 1.000000000000000e+00 1.000000000000000e+00 0.000000000000000e+00 0.000000000000000e+00 0.000000000000000e+00 0.000000000000000e+00 0.000000000000000e+00 0.000000000000000e+00
0.000000000000000e+00 0.000000000000000e+00 0.000000000000000e+00 0.000000000000000e+00 0.000000000000000e+00 0.000000000000000e+00 0.000000000000000e+00 0.000000000000000e+00 0.000000000000000e+00
        </DataArray>
        <DataArray type="Float64" Name="mixture_constituent_elasthyper_prestretch_gp_4" NumberOfComponents="9" format="ascii">
1.000000000000000e+00 1.000000000000000e+00 1.000000000000000e+00 0.000000000000000e+00 0.000000000000000e+00 0.000000000000000e+00 0.000000000000000e+00 0.000000000000000e+00 0.000000000000000e+00
1.000000000000000e+00 1.000000000000000e+00 1.000000000000000e+00 0.000000000000000e+00 0.000000000000000e+00 0.000000000000000e+00 0.000000000000000e+00 0.000000000000000e+00 0.000000000000000e+00
0.000000000000000e+00 0.000000000000000e+00 0.000000000000000e+00 0.000000000000000e+00 0.000000000000000e+00 0.000000000000000e+00 0.000000000000000e+00 0.000000000000000e+00 0.000000000000000e+00
        </DataArray>
        <DataArray type="Float64" Name="mixture_constituent_elasthyper_prestretch_gp_5" NumberOfComponents="9" format="ascii">
1.000000000000000e+00 1.000000000000000e+00 1.000000000000000e+00 0.000000000000000e+00 0.000000000000000e+00 0.000000000000000e+00 0.000000000000000e+00 0.000000000000000e+00 0.000000000000000e+00
1.000000000000000e+00 1.000000000000000e+00 1.000000000000000e+00 0.000000000000000e+00 0.000000000000000e+00 0.000000000000000e+00 0.000000000000000e+00 0.000000000000000e+00 0.000000000000000e+00
0.000000000000000e+00 0.000000000000000e+00 0.000000000000000e+00 0.000000000000000e+00 0.000000000000000e+00 0.000000000000000e+00 0.000000000000000e+00 0.000000000000000e+00 0.000000000000000e+00
        </DataArray>
        <DataArray type="Float64" Name="mixture_constituent_elasthyper_prestretch_gp_6" NumberOfComponents="9" format="ascii">
1.000000000000000e+00 1.000000000000000e+00 1.000000000000000e+00 0.000000000000000e+00 0.000000000000000e+00 0.000000000000000e+00 0.000000000000000e+00 0.000000000000000e+00 0.000000000000000e+00
1.000000000000000e+00 1.000000000000000e+00 1.000000000000000e+00 0.000000000000000e+00 0.000000000000000e+00 0.000000000000000e+00 0.000000000000000e+00 0.000000000000000e+00 0.000000000000000e+00
0.000000000000000e+00 0.000000000000000e+00 0.000000000000000e+00 0.000000000000000e+00 0.000000000000000e+00 0.000000000000000e+00 0.000000000000000e+00 0.000000000000000e+00 0.000000000000000e+00
        </DataArray>
        <DataArray type="Float64" Name="mixture_constituent_elasthyper_prestretch_gp_7" NumberOfComponents="9" format="ascii">
1.000000000000000e+00 1.000000000000000e+00 1.000000000000000e+00 0.000000000000000e+00 0.000000000000000e+00 0.000000000000000e+00 0.000000000000000e+00 0.000000000000000e+00 0.000000000000000e+00
1.000000000000000e+00 1.000000000000000e+00 1.000000000000000e+00 0.000000000000000e+00 0.000000000000000e+00 0.000000000000000e+00 0.000000000000000e+00 0.000000000000000e+00 0.000000000000000e+00
0.000000000000000e+00 0.000000000000000e+00 0.000000000000000e+00 0.000000000000000e+00 0.000000000000000e+00 0.000000000000000e+00 0.000000000000000e+00 0.000000000000000e+00 0.000000000000000e+00
        </DataArray>
      </CellData>

    </Piece>
  </UnstructuredGrid>
</VTKFile>
