<?xml version="1.0" ?> 
<!-- 
# vtk DataFile Version 3.0
-->
<VTKFile type="UnstructuredGrid" version="0.1" compressor="vtkZLibDataCompressor" byte_order="LittleEndian">
  <UnstructuredGrid>
    <FieldData>
      <DataArray type="Float64" Name="TIME" NumberOfTuples="1" format="ascii">
5.000000000000000e-01 
      </DataArray>
    </FieldData>

    <Piece NumberOfPoints="224" NumberOfCells="56" >
      <Points>
        <DataArray type="Float64" NumberOfComponents="3" format="ascii">
0.000000000000000e+00 0.000000000000000e+00 1.000000000000000e+00
0.000000000000000e+00 0.000000000000000e+00 0.000000000000000e+00
0.000000000000000e+00 5.000000000000000e-01 5.000000000000000e-01
5.000000000000000e-01 0.000000000000000e+00 5.000000000000000e-01
0.000000000000000e+00 0.000000000000000e+00 0.000000000000000e+00
0.000000000000000e+00 1.000000000000000e+00 0.000000000000000e+00
0.000000000000000e+00 5.000000000000000e-01 5.000000000000000e-01
5.000000000000000e-01 5.000000000000000e-01 0.000000000000000e+00
0.000000000000000e+00 1.000000000000000e+00 0.000000000000000e+00
0.000000000000000e+00 1.000000000000000e+00 1.000000000000000e+00
0.000000000000000e+00 5.000000000000000e-01 5.000000000000000e-01
5.000000000000000e-01 1.000000000000000e+00 5.000000000000000e-01
0.000000000000000e+00 1.000000000000000e+00 1.000000000000000e+00
0.000000000000000e+00 0.000000000000000e+00 1.000000000000000e+00
0.000000000000000e+00 5.000000000000000e-01 5.000000000000000e-01
5.000000000000000e-01 5.000000000000000e-01 1.000000000000000e+00
0.000000000000000e+00 0.000000000000000e+00 1.000000000000000e+00
1.000000000000000e+00 0.000000000000000e+00 1.000000000000000e+00
5.000000000000000e-01 0.000000000000000e+00 5.000000000000000e-01
5.000000000000000e-01 5.000000000000000e-01 1.000000000000000e+00
0.000000000000000e+00 0.000000000000000e+00 0.000000000000000e+00
1.000000000000000e+00 0.000000000000000e+00 0.000000000000000e+00
5.000000000000000e-01 5.000000000000000e-01 0.000000000000000e+00
5.000000000000000e-01 0.000000000000000e+00 5.000000000000000e-01
0.000000000000000e+00 1.000000000000000e+00 0.000000000000000e+00
1.000000000000000e+00 1.000000000000000e+00 0.000000000000000e+00
5.000000000000000e-01 1.000000000000000e+00 5.000000000000000e-01
5.000000000000000e-01 5.000000000000000e-01 0.000000000000000e+00
0.000000000000000e+00 1.000000000000000e+00 1.000000000000000e+00
1.000000000000000e+00 1.000000000000000e+00 1.000000000000000e+00
5.000000000000000e-01 5.000000000000000e-01 1.000000000000000e+00
5.000000000000000e-01 1.000000000000000e+00 5.000000000000000e-01
1.000000000000000e+00 0.000000000000000e+00 1.000000000000000e+00
1.000000000000000e+00 0.000000000000000e+00 0.000000000000000e+00
5.000000000000000e-01 0.000000000000000e+00 5.000000000000000e-01
1.000000000000000e+00 5.000000000000000e-01 5.000000000000000e-01
1.000000000000000e+00 0.000000000000000e+00 0.000000000000000e+00
1.000000000000000e+00 1.000000000000000e+00 0.000000000000000e+00
5.000000000000000e-01 5.000000000000000e-01 0.000000000000000e+00
1.000000000000000e+00 5.000000000000000e-01 5.000000000000000e-01
1.000000000000000e+00 1.000000000000000e+00 0.000000000000000e+00
1.000000000000000e+00 1.000000000000000e+00 1.000000000000000e+00
5.000000000000000e-01 1.000000000000000e+00 5.000000000000000e-01
1.000000000000000e+00 5.000000000000000e-01 5.000000000000000e-01
1.000000000000000e+00 1.000000000000000e+00 1.000000000000000e+00
1.000000000000000e+00 0.000000000000000e+00 1.000000000000000e+00
5.000000000000000e-01 5.000000000000000e-01 1.000000000000000e+00
1.000000000000000e+00 5.000000000000000e-01 5.000000000000000e-01
0.000000000000000e+00 5.000000000000000e-01 5.000000000000000e-01
5.000000000000000e-01 0.000000000000000e+00 5.000000000000000e-01
5.000000000000000e-01 5.000000000000000e-01 1.000000000000000e+00
0.000000000000000e+00 0.000000000000000e+00 1.000000000000000e+00
0.000000000000000e+00 5.000000000000000e-01 5.000000000000000e-01
5.000000000000000e-01 5.000000000000000e-01 0.000000000000000e+00
5.000000000000000e-01 0.000000000000000e+00 5.000000000000000e-01
0.000000000000000e+00 0.000000000000000e+00 0.000000000000000e+00
0.000000000000000e+00 5.000000000000000e-01 5.000000000000000e-01
5.000000000000000e-01 1.000000000000000e+00 5.000000000000000e-01
5.000000000000000e-01 5.000000000000000e-01 0.000000000000000e+00
0.000000000000000e+00 1.000000000000000e+00 0.000000000000000e+00
0.000000000000000e+00 5.000000000000000e-01 5.000000000000000e-01
5.000000000000000e-01 5.000000000000000e-01 1.000000000000000e+00
5.000000000000000e-01 1.000000000000000e+00 5.000000000000000e-01
0.000000000000000e+00 1.000000000000000e+00 1.000000000000000e+00
1.000000000000000e+00 5.000000000000000e-01 5.000000000000000e-01
5.000000000000000e-01 5.000000000000000e-01 1.000000000000000e+00
5.000000000000000e-01 0.000000000000000e+00 5.000000000000000e-01
1.000000000000000e+00 0.000000000000000e+00 1.000000000000000e+00
1.000000000000000e+00 5.000000000000000e-01 5.000000000000000e-01
5.000000000000000e-01 0.000000000000000e+00 5.000000000000000e-01
5.000000000000000e-01 5.000000000000000e-01 0.000000000000000e+00
1.000000000000000e+00 0.000000000000000e+00 0.000000000000000e+00
1.000000000000000e+00 5.000000000000000e-01 5.000000000000000e-01
5.000000000000000e-01 5.000000000000000e-01 0.000000000000000e+00
5.000000000000000e-01 1.000000000000000e+00 5.000000000000000e-01
1.000000000000000e+00 1.000000000000000e+00 0.000000000000000e+00
1.000000000000000e+00 5.000000000000000e-01 5.000000000000000e-01
5.000000000000000e-01 1.000000000000000e+00 5.000000000000000e-01
5.000000000000000e-01 5.000000000000000e-01 1.000000000000000e+00
1.000000000000000e+00 1.000000000000000e+00 1.000000000000000e+00
0.000000000000000e+00 5.000000000000000e-01 5.000000000000000e-01
5.000000000000000e-01 5.000000000000000e-01 1.000000000000000e+00
5.000000000000000e-01 0.000000000000000e+00 5.000000000000000e-01
5.000000000000000e-01 5.000000000000000e-01 5.000000000000000e-01
0.000000000000000e+00 5.000000000000000e-01 5.000000000000000e-01
5.000000000000000e-01 0.000000000000000e+00 5.000000000000000e-01
5.000000000000000e-01 5.000000000000000e-01 0.000000000000000e+00
5.000000000000000e-01 5.000000000000000e-01 5.000000000000000e-01
0.000000000000000e+00 5.000000000000000e-01 5.000000000000000e-01
5.000000000000000e-01 5.000000000000000e-01 0.000000000000000e+00
5.000000000000000e-01 1.000000000000000e+00 5.000000000000000e-01
5.000000000000000e-01 5.000000000000000e-01 5.000000000000000e-01
0.000000000000000e+00 5.000000000000000e-01 5.000000000000000e-01
5.000000000000000e-01 1.000000000000000e+00 5.000000000000000e-01
5.000000000000000e-01 5.000000000000000e-01 1.000000000000000e+00
5.000000000000000e-01 5.000000000000000e-01 5.000000000000000e-01
1.000000000000000e+00 5.000000000000000e-01 5.000000000000000e-01
5.000000000000000e-01 0.000000000000000e+00 5.000000000000000e-01
5.000000000000000e-01 5.000000000000000e-01 1.000000000000000e+00
5.000000000000000e-01 5.000000000000000e-01 5.000000000000000e-01
1.000000000000000e+00 5.000000000000000e-01 5.000000000000000e-01
5.000000000000000e-01 5.000000000000000e-01 0.000000000000000e+00
5.000000000000000e-01 0.000000000000000e+00 5.000000000000000e-01
5.000000000000000e-01 5.000000000000000e-01 5.000000000000000e-01
1.000000000000000e+00 5.000000000000000e-01 5.000000000000000e-01
5.000000000000000e-01 1.000000000000000e+00 5.000000000000000e-01
5.000000000000000e-01 5.000000000000000e-01 0.000000000000000e+00
5.000000000000000e-01 5.000000000000000e-01 5.000000000000000e-01
1.000000000000000e+00 5.000000000000000e-01 5.000000000000000e-01
5.000000000000000e-01 5.000000000000000e-01 1.000000000000000e+00
5.000000000000000e-01 1.000000000000000e+00 5.000000000000000e-01
5.000000000000000e-01 5.000000000000000e-01 5.000000000000000e-01
1.000000000000000e+00 0.000000000000000e+00 1.000000000000000e+00
1.000000000000000e+00 0.000000000000000e+00 0.000000000000000e+00
1.000000000000000e+00 5.000000000000000e-01 5.000000000000000e-01
1.500000000000000e+00 0.000000000000000e+00 5.000000000000000e-01
1.000000000000000e+00 0.000000000000000e+00 0.000000000000000e+00
1.000000000000000e+00 1.000000000000000e+00 0.000000000000000e+00
1.000000000000000e+00 5.000000000000000e-01 5.000000000000000e-01
1.500000000000000e+00 5.000000000000000e-01 0.000000000000000e+00
1.000000000000000e+00 1.000000000000000e+00 0.000000000000000e+00
1.000000000000000e+00 1.000000000000000e+00 1.000000000000000e+00
1.000000000000000e+00 5.000000000000000e-01 5.000000000000000e-01
1.500000000000000e+00 1.000000000000000e+00 5.000000000000000e-01
1.000000000000000e+00 1.000000000000000e+00 1.000000000000000e+00
1.000000000000000e+00 0.000000000000000e+00 1.000000000000000e+00
1.000000000000000e+00 5.000000000000000e-01 5.000000000000000e-01
1.500000000000000e+00 5.000000000000000e-01 1.000000000000000e+00
1.000000000000000e+00 0.000000000000000e+00 1.000000000000000e+00
2.000000000000000e+00 0.000000000000000e+00 1.000000000000000e+00
1.500000000000000e+00 0.000000000000000e+00 5.000000000000000e-01
1.500000000000000e+00 5.000000000000000e-01 1.000000000000000e+00
1.000000000000000e+00 0.000000000000000e+00 0.000000000000000e+00
2.000000000000000e+00 0.000000000000000e+00 0.000000000000000e+00
1.500000000000000e+00 5.000000000000000e-01 0.000000000000000e+00
1.500000000000000e+00 0.000000000000000e+00 5.000000000000000e-01
1.000000000000000e+00 1.000000000000000e+00 0.000000000000000e+00
2.000000000000000e+00 1.000000000000000e+00 0.000000000000000e+00
1.500000000000000e+00 1.000000000000000e+00 5.000000000000000e-01
1.500000000000000e+00 5.000000000000000e-01 0.000000000000000e+00
1.000000000000000e+00 1.000000000000000e+00 1.000000000000000e+00
2.000000000000000e+00 1.000000000000000e+00 1.000000000000000e+00
1.500000000000000e+00 5.000000000000000e-01 1.000000000000000e+00
1.500000000000000e+00 1.000000000000000e+00 5.000000000000000e-01
2.000000000000000e+00 0.000000000000000e+00 1.000000000000000e+00
2.000000000000000e+00 0.000000000000000e+00 0.000000000000000e+00
1.500000000000000e+00 0.000000000000000e+00 5.000000000000000e-01
2.000000000000000e+00 5.000000000000000e-01 5.000000000000000e-01
2.000000000000000e+00 0.000000000000000e+00 0.000000000000000e+00
2.000000000000000e+00 1.000000000000000e+00 0.000000000000000e+00
1.500000000000000e+00 5.000000000000000e-01 0.000000000000000e+00
2.000000000000000e+00 5.000000000000000e-01 5.000000000000000e-01
2.000000000000000e+00 1.000000000000000e+00 0.000000000000000e+00
2.000000000000000e+00 1.000000000000000e+00 1.000000000000000e+00
1.500000000000000e+00 1.000000000000000e+00 5.000000000000000e-01
2.000000000000000e+00 5.000000000000000e-01 5.000000000000000e-01
2.000000000000000e+00 1.000000000000000e+00 1.000000000000000e+00
2.000000000000000e+00 0.000000000000000e+00 1.000000000000000e+00
1.500000000000000e+00 5.000000000000000e-01 1.000000000000000e+00
2.000000000000000e+00 5.000000000000000e-01 5.000000000000000e-01
1.000000000000000e+00 5.000000000000000e-01 5.000000000000000e-01
1.500000000000000e+00 0.000000000000000e+00 5.000000000000000e-01
1.500000000000000e+00 5.000000000000000e-01 1.000000000000000e+00
1.000000000000000e+00 0.000000000000000e+00 1.000000000000000e+00
1.000000000000000e+00 5.000000000000000e-01 5.000000000000000e-01
1.500000000000000e+00 5.000000000000000e-01 0.000000000000000e+00
1.500000000000000e+00 0.000000000000000e+00 5.000000000000000e-01
1.000000000000000e+00 0.000000000000000e+00 0.000000000000000e+00
1.000000000000000e+00 5.000000000000000e-01 5.000000000000000e-01
1.500000000000000e+00 1.000000000000000e+00 5.000000000000000e-01
1.500000000000000e+00 5.000000000000000e-01 0.000000000000000e+00
1.000000000000000e+00 1.000000000000000e+00 0.000000000000000e+00
1.000000000000000e+00 5.000000000000000e-01 5.000000000000000e-01
1.500000000000000e+00 5.000000000000000e-01 1.000000000000000e+00
1.500000000000000e+00 1.000000000000000e+00 5.000000000000000e-01
1.000000000000000e+00 1.000000000000000e+00 1.000000000000000e+00
2.000000000000000e+00 5.000000000000000e-01 5.000000000000000e-01
1.500000000000000e+00 5.000000000000000e-01 1.000000000000000e+00
1.500000000000000e+00 0.000000000000000e+00 5.000000000000000e-01
2.000000000000000e+00 0.000000000000000e+00 1.000000000000000e+00
2.000000000000000e+00 5.000000000000000e-01 5.000000000000000e-01
1.500000000000000e+00 0.000000000000000e+00 5.000000000000000e-01
1.500000000000000e+00 5.000000000000000e-01 0.000000000000000e+00
2.000000000000000e+00 0.000000000000000e+00 0.000000000000000e+00
2.000000000000000e+00 5.000000000000000e-01 5.000000000000000e-01
1.500000000000000e+00 5.000000000000000e-01 0.000000000000000e+00
1.500000000000000e+00 1.000000000000000e+00 5.000000000000000e-01
2.000000000000000e+00 1.000000000000000e+00 0.000000000000000e+00
2.000000000000000e+00 5.000000000000000e-01 5.000000000000000e-01
1.500000000000000e+00 1.000000000000000e+00 5.000000000000000e-01
1.500000000000000e+00 5.000000000000000e-01 1.000000000000000e+00
2.000000000000000e+00 1.000000000000000e+00 1.000000000000000e+00
1.000000000000000e+00 5.000000000000000e-01 5.000000000000000e-01
1.500000000000000e+00 5.000000000000000e-01 1.000000000000000e+00
1.500000000000000e+00 0.000000000000000e+00 5.000000000000000e-01
1.500000000000000e+00 5.000000000000000e-01 5.000000000000000e-01
1.000000000000000e+00 5.000000000000000e-01 5.000000000000000e-01
1.500000000000000e+00 0.000000000000000e+00 5.000000000000000e-01
1.500000000000000e+00 5.000000000000000e-01 0.000000000000000e+00
1.500000000000000e+00 5.000000000000000e-01 5.000000000000000e-01
1.000000000000000e+00 5.000000000000000e-01 5.000000000000000e-01
1.500000000000000e+00 5.000000000000000e-01 0.000000000000000e+00
1.500000000000000e+00 1.000000000000000e+00 5.000000000000000e-01
1.500000000000000e+00 5.000000000000000e-01 5.000000000000000e-01
1.000000000000000e+00 5.000000000000000e-01 5.000000000000000e-01
1.500000000000000e+00 1.000000000000000e+00 5.000000000000000e-01
1.500000000000000e+00 5.000000000000000e-01 1.000000000000000e+00
1.500000000000000e+00 5.000000000000000e-01 5.000000000000000e-01
2.000000000000000e+00 5.000000000000000e-01 5.000000000000000e-01
1.500000000000000e+00 0.000000000000000e+00 5.000000000000000e-01
1.500000000000000e+00 5.000000000000000e-01 1.000000000000000e+00
1.500000000000000e+00 5.000000000000000e-01 5.000000000000000e-01
2.000000000000000e+00 5.000000000000000e-01 5.000000000000000e-01
1.500000000000000e+00 5.000000000000000e-01 0.000000000000000e+00
1.500000000000000e+00 0.000000000000000e+00 5.000000000000000e-01
1.500000000000000e+00 5.000000000000000e-01 5.000000000000000e-01
2.000000000000000e+00 5.000000000000000e-01 5.000000000000000e-01
1.500000000000000e+00 1.000000000000000e+00 5.000000000000000e-01
1.500000000000000e+00 5.000000000000000e-01 0.000000000000000e+00
1.500000000000000e+00 5.000000000000000e-01 5.000000000000000e-01
2.000000000000000e+00 5.000000000000000e-01 5.000000000000000e-01
1.500000000000000e+00 5.000000000000000e-01 1.000000000000000e+00
1.500000000000000e+00 1.000000000000000e+00 5.000000000000000e-01
1.500000000000000e+00 5.000000000000000e-01 5.000000000000000e-01
        </DataArray>
      </Points>

      <Cells>
        <DataArray type="Int32" Name="connectivity" format="ascii">
0 1 2 3 4 5 6 7 8 9 10 11 12 13 14 15 16 17 18 19 20 21 22 23 24 25 26 27 28 29 30 31 32 33 34 35 36 37 38 39 40 41 42 43 44 45 46 47 48 49 50 51 52 53 54 55 56 57 58 59 60 61 62 63 64 65 66 67 68 69 70 71 72 73 74 75 76 77 78 79 80 81 82 83 84 85 86 87 88 89 90 91 92 93 94 95 96 97 98 99 100 101 102 103 104 105 106 107 108 109 110 111 112 113 114 115 116 117 118 119 120 121 122 123 124 125 126 127 128 129 130 131 132 133 134 135 136 137 138 139 140 141 142 143 144 145 146 147 148 149 150 151 152 153 154 155 156 157 158 159 160 161 162 163 164 165 166 167 168 169 170 171 172 173 174 175 176 177 178 179 180 181 182 183 184 185 186 187 188 189 190 191 192 193 194 195 196 197 198 199 200 201 202 203 204 205 206 207 208 209 210 211 212 213 214 215 216 217 218 219 220 221 222 223 
        </DataArray>
        <DataArray type="Int32" Name="offsets" format="ascii">
4 8 12 16 20 24 28 32 36 40 44 48 52 56 60 64 68 72 76 80 84 88 92 96 100 104 108 112 116 120 124 128 132 136 140 144 148 152 156 160 164 168 172 176 180 184 188 192 196 200 204 208 212 216 220 224 
        </DataArray>
        <DataArray type="UInt8" Name="types" format="ascii">
10 10 10 10 10 10 10 10 10 10 10 10 10 10 10 10 10 10 10 10 10 10 10 10 10 10 10 10 10 10 10 10 10 10 10 10 10 10 10 10 10 10 10 10 10 10 10 10 10 10 10 10 10 10 10 10 
        </DataArray>
      </Cells>

  <PointData>
        <DataArray type="Float64" Name="displacement" NumberOfComponents="3" format="ascii">
0.000000000000000e+00 0.000000000000000e+00 0.000000000000000e+00
0.000000000000000e+00 0.000000000000000e+00 0.000000000000000e+00
0.000000000000000e+00 0.000000000000000e+00 0.000000000000000e+00
2.908230217706230e-02 -3.810243847421803e-04 -8.302391241836226e-04
0.000000000000000e+00 0.000000000000000e+00 0.000000000000000e+00
0.000000000000000e+00 0.000000000000000e+00 0.000000000000000e+00
0.000000000000000e+00 0.000000000000000e+00 0.000000000000000e+00
2.838451986511625e-02 -4.140404794006336e-04 -7.613489221063144e-04
0.000000000000000e+00 0.000000000000000e+00 0.000000000000000e+00
0.000000000000000e+00 0.000000000000000e+00 0.000000000000000e+00
0.000000000000000e+00 0.000000000000000e+00 0.000000000000000e+00
3.047934852461997e-02 -3.840683231611233e-04 -8.345614667341037e-04
0.000000000000000e+00 0.000000000000000e+00 0.000000000000000e+00
0.000000000000000e+00 0.000000000000000e+00 0.000000000000000e+00
0.000000000000000e+00 0.000000000000000e+00 0.000000000000000e+00
3.117861851234427e-02 -4.183628154860933e-04 -7.688626729427023e-04
0.000000000000000e+00 0.000000000000000e+00 0.000000000000000e+00
6.101631922982234e-02 -1.383483684419901e-03 -2.749100507900952e-03
2.908230217706230e-02 -3.810243847421803e-04 -8.302391241836226e-04
3.117861851234427e-02 -4.183628154860933e-04 -7.688626729427023e-04
0.000000000000000e+00 0.000000000000000e+00 0.000000000000000e+00
5.518462877122783e-02 -1.345435471273815e-03 -2.710216268262278e-03
2.838451986511625e-02 -4.140404794006336e-04 -7.613489221063144e-04
2.908230217706230e-02 -3.810243847421803e-04 -8.302391241836226e-04
0.000000000000000e+00 0.000000000000000e+00 0.000000000000000e+00
5.810091191396170e-02 -1.377103622045598e-03 -2.736375188542896e-03
3.047934852461997e-02 -3.840683231611233e-04 -8.345614667341037e-04
2.838451986511625e-02 -4.140404794006336e-04 -7.613489221063144e-04
0.000000000000000e+00 0.000000000000000e+00 0.000000000000000e+00
6.393083963535601e-02 -1.367515193707681e-03 -2.751401521590147e-03
3.117861851234427e-02 -4.183628154860933e-04 -7.688626729427023e-04
3.047934852461997e-02 -3.840683231611233e-04 -8.345614667341037e-04
6.101631922982234e-02 -1.383483684419901e-03 -2.749100507900952e-03
5.518462877122783e-02 -1.345435471273815e-03 -2.710216268262278e-03
2.908230217706230e-02 -3.810243847421803e-04 -8.302391241836226e-04
5.955942524440705e-02 -1.333189656093519e-03 -2.666386367668937e-03
5.518462877122783e-02 -1.345435471273815e-03 -2.710216268262278e-03
5.810091191396170e-02 -1.377103622045598e-03 -2.736375188542896e-03
2.838451986511625e-02 -4.140404794006336e-04 -7.613489221063144e-04
5.955942524440705e-02 -1.333189656093519e-03 -2.666386367668937e-03
5.810091191396170e-02 -1.377103622045598e-03 -2.736375188542896e-03
6.393083963535601e-02 -1.367515193707681e-03 -2.751401521590147e-03
3.047934852461997e-02 -3.840683231611233e-04 -8.345614667341037e-04
5.955942524440705e-02 -1.333189656093519e-03 -2.666386367668937e-03
6.393083963535601e-02 -1.367515193707681e-03 -2.751401521590147e-03
6.101631922982234e-02 -1.383483684419901e-03 -2.749100507900952e-03
3.117861851234427e-02 -4.183628154860933e-04 -7.688626729427023e-04
5.955942524440705e-02 -1.333189656093519e-03 -2.666386367668937e-03
0.000000000000000e+00 0.000000000000000e+00 0.000000000000000e+00
2.908230217706230e-02 -3.810243847421803e-04 -8.302391241836226e-04
3.117861851234427e-02 -4.183628154860933e-04 -7.688626729427023e-04
0.000000000000000e+00 0.000000000000000e+00 0.000000000000000e+00
0.000000000000000e+00 0.000000000000000e+00 0.000000000000000e+00
2.838451986511625e-02 -4.140404794006336e-04 -7.613489221063144e-04
2.908230217706230e-02 -3.810243847421803e-04 -8.302391241836226e-04
0.000000000000000e+00 0.000000000000000e+00 0.000000000000000e+00
0.000000000000000e+00 0.000000000000000e+00 0.000000000000000e+00
3.047934852461997e-02 -3.840683231611233e-04 -8.345614667341037e-04
2.838451986511625e-02 -4.140404794006336e-04 -7.613489221063144e-04
0.000000000000000e+00 0.000000000000000e+00 0.000000000000000e+00
0.000000000000000e+00 0.000000000000000e+00 0.000000000000000e+00
3.117861851234427e-02 -4.183628154860933e-04 -7.688626729427023e-04
3.047934852461997e-02 -3.840683231611233e-04 -8.345614667341037e-04
0.000000000000000e+00 0.000000000000000e+00 0.000000000000000e+00
5.955942524440705e-02 -1.333189656093519e-03 -2.666386367668937e-03
3.117861851234427e-02 -4.183628154860933e-04 -7.688626729427023e-04
2.908230217706230e-02 -3.810243847421803e-04 -8.302391241836226e-04
6.101631922982234e-02 -1.383483684419901e-03 -2.749100507900952e-03
5.955942524440705e-02 -1.333189656093519e-03 -2.666386367668937e-03
2.908230217706230e-02 -3.810243847421803e-04 -8.302391241836226e-04
2.838451986511625e-02 -4.140404794006336e-04 -7.613489221063144e-04
5.518462877122783e-02 -1.345435471273815e-03 -2.710216268262278e-03
5.955942524440705e-02 -1.333189656093519e-03 -2.666386367668937e-03
2.838451986511625e-02 -4.140404794006336e-04 -7.613489221063144e-04
3.047934852461997e-02 -3.840683231611233e-04 -8.345614667341037e-04
5.810091191396170e-02 -1.377103622045598e-03 -2.736375188542896e-03
5.955942524440705e-02 -1.333189656093519e-03 -2.666386367668937e-03
3.047934852461997e-02 -3.840683231611233e-04 -8.345614667341037e-04
3.117861851234427e-02 -4.183628154860933e-04 -7.688626729427023e-04
6.393083963535601e-02 -1.367515193707681e-03 -2.751401521590147e-03
0.000000000000000e+00 0.000000000000000e+00 0.000000000000000e+00
3.117861851234427e-02 -4.183628154860933e-04 -7.688626729427023e-04
2.908230217706230e-02 -3.810243847421803e-04 -8.302391241836226e-04
2.978086966483557e-02 -4.680615158557592e-04 -9.361292197596872e-04
0.000000000000000e+00 0.000000000000000e+00 0.000000000000000e+00
2.908230217706230e-02 -3.810243847421803e-04 -8.302391241836226e-04
2.838451986511625e-02 -4.140404794006336e-04 -7.613489221063144e-04
2.978086966483557e-02 -4.680615158557592e-04 -9.361292197596872e-04
0.000000000000000e+00 0.000000000000000e+00 0.000000000000000e+00
2.838451986511625e-02 -4.140404794006336e-04 -7.613489221063144e-04
3.047934852461997e-02 -3.840683231611233e-04 -8.345614667341037e-04
2.978086966483557e-02 -4.680615158557592e-04 -9.361292197596872e-04
0.000000000000000e+00 0.000000000000000e+00 0.000000000000000e+00
3.047934852461997e-02 -3.840683231611233e-04 -8.345614667341037e-04
3.117861851234427e-02 -4.183628154860933e-04 -7.688626729427023e-04
2.978086966483557e-02 -4.680615158557592e-04 -9.361292197596872e-04
5.955942524440705e-02 -1.333189656093519e-03 -2.666386367668937e-03
2.908230217706230e-02 -3.810243847421803e-04 -8.302391241836226e-04
3.117861851234427e-02 -4.183628154860933e-04 -7.688626729427023e-04
2.978086966483557e-02 -4.680615158557592e-04 -9.361292197596872e-04
5.955942524440705e-02 -1.333189656093519e-03 -2.666386367668937e-03
2.838451986511625e-02 -4.140404794006336e-04 -7.613489221063144e-04
2.908230217706230e-02 -3.810243847421803e-04 -8.302391241836226e-04
2.978086966483557e-02 -4.680615158557592e-04 -9.361292197596872e-04
5.955942524440705e-02 -1.333189656093519e-03 -2.666386367668937e-03
3.047934852461997e-02 -3.840683231611233e-04 -8.345614667341037e-04
2.838451986511625e-02 -4.140404794006336e-04 -7.613489221063144e-04
2.978086966483557e-02 -4.680615158557592e-04 -9.361292197596872e-04
5.955942524440705e-02 -1.333189656093519e-03 -2.666386367668937e-03
3.117861851234427e-02 -4.183628154860933e-04 -7.688626729427023e-04
3.047934852461997e-02 -3.840683231611233e-04 -8.345614667341037e-04
2.978086966483557e-02 -4.680615158557592e-04 -9.361292197596872e-04
6.101631922982234e-02 -1.383483684419901e-03 -2.749100507900952e-03
5.518462877122783e-02 -1.345435471273815e-03 -2.710216268262278e-03
5.955942524440705e-02 -1.333189656093519e-03 -2.666386367668937e-03
8.694874155570084e-02 -3.245863361046042e-03 -6.586393691551429e-03
5.518462877122783e-02 -1.345435471273815e-03 -2.710216268262278e-03
5.810091191396170e-02 -1.377103622045598e-03 -2.736375188542896e-03
5.955942524440705e-02 -1.333189656093519e-03 -2.666386367668937e-03
8.457281197480691e-02 -3.287553029472755e-03 -6.480700644216610e-03
5.810091191396170e-02 -1.377103622045598e-03 -2.736375188542896e-03
6.393083963535601e-02 -1.367515193707681e-03 -2.751401521590147e-03
5.955942524440705e-02 -1.333189656093519e-03 -2.666386367668937e-03
9.169580411381065e-02 -3.257319903493091e-03 -6.608957585503351e-03
6.393083963535601e-02 -1.367515193707681e-03 -2.751401521590147e-03
6.101631922982234e-02 -1.383483684419901e-03 -2.749100507900952e-03
5.955942524440705e-02 -1.333189656093519e-03 -2.666386367668937e-03
9.406686784060962e-02 -3.310116638082889e-03 -6.525555845236441e-03
6.101631922982234e-02 -1.383483684419901e-03 -2.749100507900952e-03
1.225660887554977e-01 -5.939872680260422e-03 -1.195601677984976e-02
8.694874155570084e-02 -3.245863361046042e-03 -6.586393691551429e-03
9.406686784060962e-02 -3.310116638082889e-03 -6.525555845236441e-03
5.518462877122783e-02 -1.345435471273815e-03 -2.710216268262278e-03
1.085512145623130e-01 -6.017664134971051e-03 -1.196003351356889e-02
8.457281197480691e-02 -3.287553029472755e-03 -6.480700644216610e-03
8.694874155570084e-02 -3.245863361046042e-03 -6.586393691551429e-03
5.810091191396170e-02 -1.377103622045598e-03 -2.736375188542896e-03
1.155774313585337e-01 -5.929984555015796e-03 -1.193186824999906e-02
9.169580411381065e-02 -3.257319903493091e-03 -6.608957585503351e-03
8.457281197480691e-02 -3.287553029472755e-03 -6.480700644216610e-03
6.393083963535601e-02 -1.367515193707681e-03 -2.751401521590147e-03
1.295179391157185e-01 -6.049605321327034e-03 -1.202601465406227e-02
9.406686784060962e-02 -3.310116638082889e-03 -6.525555845236441e-03
9.169580411381065e-02 -3.257319903493091e-03 -6.608957585503351e-03
1.225660887554977e-01 -5.939872680260422e-03 -1.195601677984976e-02
1.085512145623130e-01 -6.017664134971051e-03 -1.196003351356889e-02
8.694874155570084e-02 -3.245863361046042e-03 -6.586393691551429e-03
1.190760011721002e-01 -5.928870324750059e-03 -1.185762502097197e-02
1.085512145623130e-01 -6.017664134971051e-03 -1.196003351356889e-02
1.155774313585337e-01 -5.929984555015796e-03 -1.193186824999906e-02
8.457281197480691e-02 -3.287553029472755e-03 -6.480700644216610e-03
1.190760011721002e-01 -5.928870324750059e-03 -1.185762502097197e-02
1.155774313585337e-01 -5.929984555015796e-03 -1.193186824999906e-02
1.295179391157185e-01 -6.049605321327034e-03 -1.202601465406227e-02
9.169580411381065e-02 -3.257319903493091e-03 -6.608957585503351e-03
1.190760011721002e-01 -5.928870324750059e-03 -1.185762502097197e-02
1.295179391157185e-01 -6.049605321327034e-03 -1.202601465406227e-02
1.225660887554977e-01 -5.939872680260422e-03 -1.195601677984976e-02
9.406686784060962e-02 -3.310116638082889e-03 -6.525555845236441e-03
1.190760011721002e-01 -5.928870324750059e-03 -1.185762502097197e-02
5.955942524440705e-02 -1.333189656093519e-03 -2.666386367668937e-03
8.694874155570084e-02 -3.245863361046042e-03 -6.586393691551429e-03
9.406686784060962e-02 -3.310116638082889e-03 -6.525555845236441e-03
6.101631922982234e-02 -1.383483684419901e-03 -2.749100507900952e-03
5.955942524440705e-02 -1.333189656093519e-03 -2.666386367668937e-03
8.457281197480691e-02 -3.287553029472755e-03 -6.480700644216610e-03
8.694874155570084e-02 -3.245863361046042e-03 -6.586393691551429e-03
5.518462877122783e-02 -1.345435471273815e-03 -2.710216268262278e-03
5.955942524440705e-02 -1.333189656093519e-03 -2.666386367668937e-03
9.169580411381065e-02 -3.257319903493091e-03 -6.608957585503351e-03
8.457281197480691e-02 -3.287553029472755e-03 -6.480700644216610e-03
5.810091191396170e-02 -1.377103622045598e-03 -2.736375188542896e-03
5.955942524440705e-02 -1.333189656093519e-03 -2.666386367668937e-03
9.406686784060962e-02 -3.310116638082889e-03 -6.525555845236441e-03
9.169580411381065e-02 -3.257319903493091e-03 -6.608957585503351e-03
6.393083963535601e-02 -1.367515193707681e-03 -2.751401521590147e-03
1.190760011721002e-01 -5.928870324750059e-03 -1.185762502097197e-02
9.406686784060962e-02 -3.310116638082889e-03 -6.525555845236441e-03
8.694874155570084e-02 -3.245863361046042e-03 -6.586393691551429e-03
1.225660887554977e-01 -5.939872680260422e-03 -1.195601677984976e-02
1.190760011721002e-01 -5.928870324750059e-03 -1.185762502097197e-02
8.694874155570084e-02 -3.245863361046042e-03 -6.586393691551429e-03
8.457281197480691e-02 -3.287553029472755e-03 -6.480700644216610e-03
1.085512145623130e-01 -6.017664134971051e-03 -1.196003351356889e-02
1.190760011721002e-01 -5.928870324750059e-03 -1.185762502097197e-02
8.457281197480691e-02 -3.287553029472755e-03 -6.480700644216610e-03
9.169580411381065e-02 -3.257319903493091e-03 -6.608957585503351e-03
1.155774313585337e-01 -5.929984555015796e-03 -1.193186824999906e-02
1.190760011721002e-01 -5.928870324750059e-03 -1.185762502097197e-02
9.169580411381065e-02 -3.257319903493091e-03 -6.608957585503351e-03
9.406686784060962e-02 -3.310116638082889e-03 -6.525555845236441e-03
1.295179391157185e-01 -6.049605321327034e-03 -1.202601465406227e-02
5.955942524440705e-02 -1.333189656093519e-03 -2.666386367668937e-03
9.406686784060962e-02 -3.310116638082889e-03 -6.525555845236441e-03
8.694874155570084e-02 -3.245863361046042e-03 -6.586393691551429e-03
8.932133844835388e-02 -3.366382751571494e-03 -6.732731824535571e-03
5.955942524440705e-02 -1.333189656093519e-03 -2.666386367668937e-03
8.694874155570084e-02 -3.245863361046042e-03 -6.586393691551429e-03
8.457281197480691e-02 -3.287553029472755e-03 -6.480700644216610e-03
8.932133844835388e-02 -3.366382751571494e-03 -6.732731824535571e-03
5.955942524440705e-02 -1.333189656093519e-03 -2.666386367668937e-03
8.457281197480691e-02 -3.287553029472755e-03 -6.480700644216610e-03
9.169580411381065e-02 -3.257319903493091e-03 -6.608957585503351e-03
8.932133844835388e-02 -3.366382751571494e-03 -6.732731824535571e-03
5.955942524440705e-02 -1.333189656093519e-03 -2.666386367668937e-03
9.169580411381065e-02 -3.257319903493091e-03 -6.608957585503351e-03
9.406686784060962e-02 -3.310116638082889e-03 -6.525555845236441e-03
8.932133844835388e-02 -3.366382751571494e-03 -6.732731824535571e-03
1.190760011721002e-01 -5.928870324750059e-03 -1.185762502097197e-02
8.694874155570084e-02 -3.245863361046042e-03 -6.586393691551429e-03
9.406686784060962e-02 -3.310116638082889e-03 -6.525555845236441e-03
8.932133844835388e-02 -3.366382751571494e-03 -6.732731824535571e-03
1.190760011721002e-01 -5.928870324750059e-03 -1.185762502097197e-02
8.457281197480691e-02 -3.287553029472755e-03 -6.480700644216610e-03
8.694874155570084e-02 -3.245863361046042e-03 -6.586393691551429e-03
8.932133844835388e-02 -3.366382751571494e-03 -6.732731824535571e-03
1.190760011721002e-01 -5.928870324750059e-03 -1.185762502097197e-02
9.169580411381065e-02 -3.257319903493091e-03 -6.608957585503351e-03
8.457281197480691e-02 -3.287553029472755e-03 -6.480700644216610e-03
8.932133844835388e-02 -3.366382751571494e-03 -6.732731824535571e-03
1.190760011721002e-01 -5.928870324750059e-03 -1.185762502097197e-02
9.406686784060962e-02 -3.310116638082889e-03 -6.525555845236441e-03
9.169580411381065e-02 -3.257319903493091e-03 -6.608957585503351e-03
8.932133844835388e-02 -3.366382751571494e-03 -6.732731824535571e-03
        </DataArray>
        <DataArray type="Float64" Name="nodal_GL_strains_xyz" NumberOfComponents="6" format="ascii">
6.228039361529017e-02 1.283504229371707e-04 -2.550485444588746e-04 -1.755278206912688e-05 7.756792271175233e-05 -2.867829266161745e-04
5.851780959224401e-02 1.216697231864461e-04 2.465638645177126e-04 -3.500829389680043e-04 2.348235741812997e-04 -4.507776081738354e-04
6.133901696762582e-02 -7.770649471337335e-07 -2.026844224072472e-06 -5.220301751446014e-05 -1.185286923046320e-06 -1.044104959124075e-04
6.056673250499027e-02 3.115097460650030e-05 -8.101412082341560e-06 8.171519094171285e-05 8.296696335731211e-05 1.624190246276942e-04
5.851780959224401e-02 1.216697231864461e-04 2.465638645177126e-04 -3.500829389680043e-04 2.348235741812997e-04 -4.507776081738354e-04
6.039791751930929e-02 -1.287697657994386e-04 2.502688488058152e-04 -1.748330278368248e-05 -8.017245293755408e-05 -2.857261266195173e-04
6.133901696762582e-02 -7.770649471337335e-07 -2.026844224072472e-06 -5.220301751446014e-05 -1.185286923046320e-06 -1.044104959124075e-04
5.979501021937126e-02 -7.639605781035543e-06 6.055781402200069e-05 8.161048894195444e-05 3.999782934450352e-05 1.627957128496781e-04
6.039791751930929e-02 -1.287697657994386e-04 2.502688488058152e-04 -1.748330278368248e-05 -8.017245293755408e-05 -2.857261266195173e-04
6.416522778631772e-02 -1.235330871582202e-04 -2.527876130704737e-04 -3.548558523843998e-04 -2.384042286522804e-04 -4.566768264649572e-04
6.133901696762582e-02 -7.770649471337335e-07 -2.026844224072472e-06 -5.220301751446014e-05 -1.185286923046320e-06 -1.044104959124075e-04
6.211127791323361e-02 -3.451768594618192e-05 -2.138194844167333e-06 7.990548220120853e-05 -8.891476422709171e-05 1.608183632460908e-04
6.416522778631772e-02 -1.235330871582202e-04 -2.527876130704737e-04 -3.548558523843998e-04 -2.384042286522804e-04 -4.566768264649572e-04
6.228039361529017e-02 1.283504229371707e-04 -2.550485444588746e-04 -1.755278206912688e-05 7.756792271175233e-05 -2.867829266161745e-04
6.133901696762582e-02 -7.770649471337335e-07 -2.026844224072472e-06 -5.220301751446014e-05 -1.185286923046320e-06 -1.044104959124075e-04
6.288410285253021e-02 4.270888783695454e-06 -7.079541529085112e-05 8.000984830420962e-05 -4.594563021428311e-05 1.604409589328609e-04
6.228039361529017e-02 1.283504229371707e-04 -2.550485444588746e-04 -1.755278206912688e-05 7.756792271175233e-05 -2.867829266161745e-04
6.246626265467546e-02 1.816159459849392e-04 -3.641272098661025e-04 1.293141536772067e-04 1.039284953784325e-04 2.766671524333999e-04
6.056673250499027e-02 3.115097460650030e-05 -8.101412082341560e-06 8.171519094171285e-05 8.296696335731211e-05 1.624190246276942e-04
6.288410285253021e-02 4.270888783695454e-06 -7.079541529085112e-05 8.000984830420962e-05 -4.594563021428311e-05 1.604409589328609e-04
5.851780959224401e-02 1.216697231864461e-04 2.465638645177126e-04 -3.500829389680043e-04 2.348235741812997e-04 -4.507776081738354e-04
5.795192305288906e-02 1.701489295986985e-04 3.465186350419674e-04 1.528262687921690e-04 3.196381782633794e-04 2.873220973746880e-04
5.979501021937126e-02 -7.639605781035543e-06 6.055781402200069e-05 8.161048894195444e-05 3.999782934450352e-05 1.627957128496781e-04
6.056673250499027e-02 3.115097460650030e-05 -8.101412082341560e-06 8.171519094171285e-05 8.296696335731211e-05 1.624190246276942e-04
6.039791751930929e-02 -1.287697657994386e-04 2.502688488058152e-04 -1.748330278368248e-05 -8.017245293755408e-05 -2.857261266195173e-04
6.020958451367908e-02 -1.851717517798862e-04 3.522780918020565e-04 1.295696550898235e-04 -1.113335820716198e-04 2.751614990584154e-04
6.211127791323361e-02 -3.451768594618192e-05 -2.138194844167333e-06 7.990548220120853e-05 -8.891476422709171e-05 1.608183632460908e-04
5.979501021937126e-02 -7.639605781035543e-06 6.055781402200069e-05 8.161048894195444e-05 3.999782934450352e-05 1.627957128496781e-04
6.416522778631772e-02 -1.235330871582202e-04 -2.527876130704737e-04 -3.548558523843998e-04 -2.384042286522804e-04 -4.566768264649572e-04
6.472205284868160e-02 -1.737440257813944e-04 -3.584070384308330e-04 1.514489449579032e-04 -3.261351972812095e-04 2.871948801312685e-04
6.288410285253021e-02 4.270888783695454e-06 -7.079541529085112e-05 8.000984830420962e-05 -4.594563021428311e-05 1.604409589328609e-04
6.211127791323361e-02 -3.451768594618192e-05 -2.138194844167333e-06 7.990548220120853e-05 -8.891476422709171e-05 1.608183632460908e-04
6.246626265467546e-02 1.816159459849392e-04 -3.641272098661025e-04 1.293141536772067e-04 1.039284953784325e-04 2.766671524333999e-04
5.795192305288906e-02 1.701489295986985e-04 3.465186350419674e-04 1.528262687921690e-04 3.196381782633794e-04 2.873220973746880e-04
6.056673250499027e-02 3.115097460650030e-05 -8.101412082341560e-06 8.171519094171285e-05 8.296696335731211e-05 1.624190246276942e-04
6.133778520152424e-02 -1.987914863652015e-06 -6.147600342137446e-06 1.443702988277049e-04 -3.465704463680786e-06 2.887457373851340e-04
5.795192305288906e-02 1.701489295986985e-04 3.465186350419674e-04 1.528262687921690e-04 3.196381782633794e-04 2.873220973746880e-04
6.020958451367908e-02 -1.851717517798862e-04 3.522780918020565e-04 1.295696550898235e-04 -1.113335820716198e-04 2.751614990584154e-04
5.979501021937126e-02 -7.639605781035543e-06 6.055781402200069e-05 8.161048894195444e-05 3.999782934450352e-05 1.627957128496781e-04
6.133778520152424e-02 -1.987914863652015e-06 -6.147600342137446e-06 1.443702988277049e-04 -3.465704463680786e-06 2.887457373851340e-04
6.020958451367908e-02 -1.851717517798862e-04 3.522780918020565e-04 1.295696550898235e-04 -1.113335820716198e-04 2.751614990584154e-04
6.472205284868160e-02 -1.737440257813944e-04 -3.584070384308330e-04 1.514489449579032e-04 -3.261351972812095e-04 2.871948801312685e-04
6.211127791323361e-02 -3.451768594618192e-05 -2.138194844167333e-06 7.990548220120853e-05 -8.891476422709171e-05 1.608183632460908e-04
6.133778520152424e-02 -1.987914863652015e-06 -6.147600342137446e-06 1.443702988277049e-04 -3.465704463680786e-06 2.887457373851340e-04
6.472205284868160e-02 -1.737440257813944e-04 -3.584070384308330e-04 1.514489449579032e-04 -3.261351972812095e-04 2.871948801312685e-04
6.246626265467546e-02 1.816159459849392e-04 -3.641272098661025e-04 1.293141536772067e-04 1.039284953784325e-04 2.766671524333999e-04
6.288410285253021e-02 4.270888783695454e-06 -7.079541529085112e-05 8.000984830420962e-05 -4.594563021428311e-05 1.604409589328609e-04
6.133778520152424e-02 -1.987914863652015e-06 -6.147600342137446e-06 1.443702988277049e-04 -3.465704463680786e-06 2.887457373851340e-04
6.133901696762582e-02 -7.770649471337335e-07 -2.026844224072472e-06 -5.220301751446014e-05 -1.185286923046320e-06 -1.044104959124075e-04
6.056673250499027e-02 3.115097460650030e-05 -8.101412082341560e-06 8.171519094171285e-05 8.296696335731211e-05 1.624190246276942e-04
6.288410285253021e-02 4.270888783695454e-06 -7.079541529085112e-05 8.000984830420962e-05 -4.594563021428311e-05 1.604409589328609e-04
6.228039361529017e-02 1.283504229371707e-04 -2.550485444588746e-04 -1.755278206912688e-05 7.756792271175233e-05 -2.867829266161745e-04
6.133901696762582e-02 -7.770649471337335e-07 -2.026844224072472e-06 -5.220301751446014e-05 -1.185286923046320e-06 -1.044104959124075e-04
5.979501021937126e-02 -7.639605781035543e-06 6.055781402200069e-05 8.161048894195444e-05 3.999782934450352e-05 1.627957128496781e-04
6.056673250499027e-02 3.115097460650030e-05 -8.101412082341560e-06 8.171519094171285e-05 8.296696335731211e-05 1.624190246276942e-04
5.851780959224401e-02 1.216697231864461e-04 2.465638645177126e-04 -3.500829389680043e-04 2.348235741812997e-04 -4.507776081738354e-04
6.133901696762582e-02 -7.770649471337335e-07 -2.026844224072472e-06 -5.220301751446014e-05 -1.185286923046320e-06 -1.044104959124075e-04
6.211127791323361e-02 -3.451768594618192e-05 -2.138194844167333e-06 7.990548220120853e-05 -8.891476422709171e-05 1.608183632460908e-04
5.979501021937126e-02 -7.639605781035543e-06 6.055781402200069e-05 8.161048894195444e-05 3.999782934450352e-05 1.627957128496781e-04
6.039791751930929e-02 -1.287697657994386e-04 2.502688488058152e-04 -1.748330278368248e-05 -8.017245293755408e-05 -2.857261266195173e-04
6.133901696762582e-02 -7.770649471337335e-07 -2.026844224072472e-06 -5.220301751446014e-05 -1.185286923046320e-06 -1.044104959124075e-04
6.288410285253021e-02 4.270888783695454e-06 -7.079541529085112e-05 8.000984830420962e-05 -4.594563021428311e-05 1.604409589328609e-04
6.211127791323361e-02 -3.451768594618192e-05 -2.138194844167333e-06 7.990548220120853e-05 -8.891476422709171e-05 1.608183632460908e-04
6.416522778631772e-02 -1.235330871582202e-04 -2.527876130704737e-04 -3.548558523843998e-04 -2.384042286522804e-04 -4.566768264649572e-04
6.133778520152424e-02 -1.987914863652015e-06 -6.147600342137446e-06 1.443702988277049e-04 -3.465704463680786e-06 2.887457373851340e-04
6.288410285253021e-02 4.270888783695454e-06 -7.079541529085112e-05 8.000984830420962e-05 -4.594563021428311e-05 1.604409589328609e-04
6.056673250499027e-02 3.115097460650030e-05 -8.101412082341560e-06 8.171519094171285e-05 8.296696335731211e-05 1.624190246276942e-04
6.246626265467546e-02 1.816159459849392e-04 -3.641272098661025e-04 1.293141536772067e-04 1.039284953784325e-04 2.766671524333999e-04
6.133778520152424e-02 -1.987914863652015e-06 -6.147600342137446e-06 1.443702988277049e-04 -3.465704463680786e-06 2.887457373851340e-04
6.056673250499027e-02 3.115097460650030e-05 -8.101412082341560e-06 8.171519094171285e-05 8.296696335731211e-05 1.624190246276942e-04
5.979501021937126e-02 -7.639605781035543e-06 6.055781402200069e-05 8.161048894195444e-05 3.999782934450352e-05 1.627957128496781e-04
5.795192305288906e-02 1.701489295986985e-04 3.465186350419674e-04 1.528262687921690e-04 3.196381782633794e-04 2.873220973746880e-04
6.133778520152424e-02 -1.987914863652015e-06 -6.147600342137446e-06 1.443702988277049e-04 -3.465704463680786e-06 2.887457373851340e-04
5.979501021937126e-02 -7.639605781035543e-06 6.055781402200069e-05 8.161048894195444e-05 3.999782934450352e-05 1.627957128496781e-04
6.211127791323361e-02 -3.451768594618192e-05 -2.138194844167333e-06 7.990548220120853e-05 -8.891476422709171e-05 1.608183632460908e-04
6.020958451367908e-02 -1.851717517798862e-04 3.522780918020565e-04 1.295696550898235e-04 -1.113335820716198e-04 2.751614990584154e-04
6.133778520152424e-02 -1.987914863652015e-06 -6.147600342137446e-06 1.443702988277049e-04 -3.465704463680786e-06 2.887457373851340e-04
6.211127791323361e-02 -3.451768594618192e-05 -2.138194844167333e-06 7.990548220120853e-05 -8.891476422709171e-05 1.608183632460908e-04
6.288410285253021e-02 4.270888783695454e-06 -7.079541529085112e-05 8.000984830420962e-05 -4.594563021428311e-05 1.604409589328609e-04
6.472205284868160e-02 -1.737440257813944e-04 -3.584070384308330e-04 1.514489449579032e-04 -3.261351972812095e-04 2.871948801312685e-04
6.133901696762582e-02 -7.770649471337335e-07 -2.026844224072472e-06 -5.220301751446014e-05 -1.185286923046320e-06 -1.044104959124075e-04
6.288410285253021e-02 4.270888783695454e-06 -7.079541529085112e-05 8.000984830420962e-05 -4.594563021428311e-05 1.604409589328609e-04
6.056673250499027e-02 3.115097460650030e-05 -8.101412082341560e-06 8.171519094171285e-05 8.296696335731211e-05 1.624190246276942e-04
6.133792547080219e-02 -2.031910127042735e-06 -3.546341749177673e-06 7.353977607347500e-05 -2.370573846092632e-06 1.470764930603589e-04
6.133901696762582e-02 -7.770649471337335e-07 -2.026844224072472e-06 -5.220301751446014e-05 -1.185286923046320e-06 -1.044104959124075e-04
6.056673250499027e-02 3.115097460650030e-05 -8.101412082341560e-06 8.171519094171285e-05 8.296696335731211e-05 1.624190246276942e-04
5.979501021937126e-02 -7.639605781035543e-06 6.055781402200069e-05 8.161048894195444e-05 3.999782934450352e-05 1.627957128496781e-04
6.133792547080219e-02 -2.031910127042735e-06 -3.546341749177673e-06 7.353977607347500e-05 -2.370573846092632e-06 1.470764930603589e-04
6.133901696762582e-02 -7.770649471337335e-07 -2.026844224072472e-06 -5.220301751446014e-05 -1.185286923046320e-06 -1.044104959124075e-04
5.979501021937126e-02 -7.639605781035543e-06 6.055781402200069e-05 8.161048894195444e-05 3.999782934450352e-05 1.627957128496781e-04
6.211127791323361e-02 -3.451768594618192e-05 -2.138194844167333e-06 7.990548220120853e-05 -8.891476422709171e-05 1.608183632460908e-04
6.133792547080219e-02 -2.031910127042735e-06 -3.546341749177673e-06 7.353977607347500e-05 -2.370573846092632e-06 1.470764930603589e-04
6.133901696762582e-02 -7.770649471337335e-07 -2.026844224072472e-06 -5.220301751446014e-05 -1.185286923046320e-06 -1.044104959124075e-04
6.211127791323361e-02 -3.451768594618192e-05 -2.138194844167333e-06 7.990548220120853e-05 -8.891476422709171e-05 1.608183632460908e-04
6.288410285253021e-02 4.270888783695454e-06 -7.079541529085112e-05 8.000984830420962e-05 -4.594563021428311e-05 1.604409589328609e-04
6.133792547080219e-02 -2.031910127042735e-06 -3.546341749177673e-06 7.353977607347500e-05 -2.370573846092632e-06 1.470764930603589e-04
6.133778520152424e-02 -1.987914863652015e-06 -6.147600342137446e-06 1.443702988277049e-04 -3.465704463680786e-06 2.887457373851340e-04
6.056673250499027e-02 3.115097460650030e-05 -8.101412082341560e-06 8.171519094171285e-05 8.296696335731211e-05 1.624190246276942e-04
6.288410285253021e-02 4.270888783695454e-06 -7.079541529085112e-05 8.000984830420962e-05 -4.594563021428311e-05 1.604409589328609e-04
6.133792547080219e-02 -2.031910127042735e-06 -3.546341749177673e-06 7.353977607347500e-05 -2.370573846092632e-06 1.470764930603589e-04
6.133778520152424e-02 -1.987914863652015e-06 -6.147600342137446e-06 1.443702988277049e-04 -3.465704463680786e-06 2.887457373851340e-04
5.979501021937126e-02 -7.639605781035543e-06 6.055781402200069e-05 8.161048894195444e-05 3.999782934450352e-05 1.627957128496781e-04
6.056673250499027e-02 3.115097460650030e-05 -8.101412082341560e-06 8.171519094171285e-05 8.296696335731211e-05 1.624190246276942e-04
6.133792547080219e-02 -2.031910127042735e-06 -3.546341749177673e-06 7.353977607347500e-05 -2.370573846092632e-06 1.470764930603589e-04
6.133778520152424e-02 -1.987914863652015e-06 -6.147600342137446e-06 1.443702988277049e-04 -3.465704463680786e-06 2.887457373851340e-04
6.211127791323361e-02 -3.451768594618192e-05 -2.138194844167333e-06 7.990548220120853e-05 -8.891476422709171e-05 1.608183632460908e-04
5.979501021937126e-02 -7.639605781035543e-06 6.055781402200069e-05 8.161048894195444e-05 3.999782934450352e-05 1.627957128496781e-04
6.133792547080219e-02 -2.031910127042735e-06 -3.546341749177673e-06 7.353977607347500e-05 -2.370573846092632e-06 1.470764930603589e-04
6.133778520152424e-02 -1.987914863652015e-06 -6.147600342137446e-06 1.443702988277049e-04 -3.465704463680786e-06 2.887457373851340e-04
6.288410285253021e-02 4.270888783695454e-06 -7.079541529085112e-05 8.000984830420962e-05 -4.594563021428311e-05 1.604409589328609e-04
6.211127791323361e-02 -3.451768594618192e-05 -2.138194844167333e-06 7.990548220120853e-05 -8.891476422709171e-05 1.608183632460908e-04
6.133792547080219e-02 -2.031910127042735e-06 -3.546341749177673e-06 7.353977607347500e-05 -2.370573846092632e-06 1.470764930603589e-04
6.246626265467546e-02 1.816159459849392e-04 -3.641272098661025e-04 1.293141536772067e-04 1.039284953784325e-04 2.766671524333999e-04
5.795192305288906e-02 1.701489295986985e-04 3.465186350419674e-04 1.528262687921690e-04 3.196381782633794e-04 2.873220973746880e-04
6.133778520152424e-02 -1.987914863652015e-06 -6.147600342137446e-06 1.443702988277049e-04 -3.465704463680786e-06 2.887457373851340e-04
6.025420202362627e-02 6.669541421475598e-05 1.856876284932657e-05 2.683786790486221e-04 1.568523055408616e-04 5.331220702951269e-04
5.795192305288906e-02 1.701489295986985e-04 3.465186350419674e-04 1.528262687921690e-04 3.196381782633794e-04 2.873220973746880e-04
6.020958451367908e-02 -1.851717517798862e-04 3.522780918020565e-04 1.295696550898235e-04 -1.113335820716198e-04 2.751614990584154e-04
6.133778520152424e-02 -1.987914863652015e-06 -6.147600342137446e-06 1.443702988277049e-04 -3.465704463680786e-06 2.887457373851340e-04
5.917635128189882e-02 2.165374960147922e-05 1.368179251154816e-04 2.668122666202212e-04 8.086124203816311e-05 5.317815543080999e-04
6.020958451367908e-02 -1.851717517798862e-04 3.522780918020565e-04 1.295696550898235e-04 -1.113335820716198e-04 2.751614990584154e-04
6.472205284868160e-02 -1.737440257813944e-04 -3.584070384308330e-04 1.514489449579032e-04 -3.261351972812095e-04 2.871948801312685e-04
6.133778520152424e-02 -1.987914863652015e-06 -6.147600342137446e-06 1.443702988277049e-04 -3.465704463680786e-06 2.887457373851340e-04
6.241219601829279e-02 -6.096349367971005e-05 -2.437849541727307e-07 2.642215682336313e-04 -1.471261207781743e-04 5.320941508543278e-04
6.472205284868160e-02 -1.737440257813944e-04 -3.584070384308330e-04 1.514489449579032e-04 -3.261351972812095e-04 2.871948801312685e-04
6.246626265467546e-02 1.816159459849392e-04 -3.641272098661025e-04 1.293141536772067e-04 1.039284953784325e-04 2.766671524333999e-04
6.133778520152424e-02 -1.987914863652015e-06 -6.147600342137446e-06 1.443702988277049e-04 -3.465704463680786e-06 2.887457373851340e-04
6.349221767881148e-02 -1.592800061964161e-05 -1.184867756671426e-04 2.657843326366221e-04 -7.113505727547587e-05 5.334277321153905e-04
6.246626265467546e-02 1.816159459849392e-04 -3.641272098661025e-04 1.293141536772067e-04 1.039284953784325e-04 2.766671524333999e-04
6.275778788774208e-02 1.768611716294333e-04 -3.831632043127947e-04 3.484616153950142e-04 1.572671212979501e-04 1.201403829984274e-03
6.025420202362627e-02 6.669541421475598e-05 1.856876284932657e-05 2.683786790486221e-04 1.568523055408616e-04 5.331220702951269e-04
6.349221767881148e-02 -1.592800061964161e-05 -1.184867756671426e-04 2.657843326366221e-04 -7.113505727547587e-05 5.334277321153905e-04
5.795192305288906e-02 1.701489295986985e-04 3.465186350419674e-04 1.528262687921690e-04 3.196381782633794e-04 2.873220973746880e-04
5.702364460445233e-02 2.804145703341476e-04 5.019394127372956e-04 1.025642168325373e-03 4.594954710147393e-04 1.530504538250492e-03
5.917635128189882e-02 2.165374960147922e-05 1.368179251154816e-04 2.668122666202212e-04 8.086124203816311e-05 5.317815543080999e-04
6.025420202362627e-02 6.669541421475598e-05 1.856876284932657e-05 2.683786790486221e-04 1.568523055408616e-04 5.331220702951269e-04
6.020958451367908e-02 -1.851717517798862e-04 3.522780918020565e-04 1.295696550898235e-04 -1.113335820716198e-04 2.751614990584154e-04
5.989757845005159e-02 -1.674040640452651e-04 4.448243638223159e-04 3.415993044651470e-04 -1.318588225437941e-04 1.190657943899042e-03
6.241219601829279e-02 -6.096349367971005e-05 -2.437849541727307e-07 2.642215682336313e-04 -1.471261207781743e-04 5.320941508543278e-04
5.917635128189882e-02 2.165374960147922e-05 1.368179251154816e-04 2.668122666202212e-04 8.086124203816311e-05 5.317815543080999e-04
6.472205284868160e-02 -1.737440257813944e-04 -3.584070384308330e-04 1.514489449579032e-04 -3.261351972812095e-04 2.871948801312685e-04
6.560469555042944e-02 -2.498892037258865e-04 -4.192098817142331e-04 1.013745027484393e-03 -4.080085266101053e-04 1.536215679754980e-03
6.349221767881148e-02 -1.592800061964161e-05 -1.184867756671426e-04 2.657843326366221e-04 -7.113505727547587e-05 5.334277321153905e-04
6.241219601829279e-02 -6.096349367971005e-05 -2.437849541727307e-07 2.642215682336313e-04 -1.471261207781743e-04 5.320941508543278e-04
6.275778788774208e-02 1.768611716294333e-04 -3.831632043127947e-04 3.484616153950142e-04 1.572671212979501e-04 1.201403829984274e-03
5.702364460445233e-02 2.804145703341476e-04 5.019394127372956e-04 1.025642168325373e-03 4.594954710147393e-04 1.530504538250492e-03
6.025420202362627e-02 6.669541421475598e-05 1.856876284932657e-05 2.683786790486221e-04 1.568523055408616e-04 5.331220702951269e-04
6.132967189874745e-02 7.267294591000360e-06 2.583835627787781e-05 4.576833402842252e-04 1.395673197249330e-05 9.153649793481690e-04
5.702364460445233e-02 2.804145703341476e-04 5.019394127372956e-04 1.025642168325373e-03 4.594954710147393e-04 1.530504538250492e-03
5.989757845005159e-02 -1.674040640452651e-04 4.448243638223159e-04 3.415993044651470e-04 -1.318588225437941e-04 1.190657943899042e-03
5.917635128189882e-02 2.165374960147922e-05 1.368179251154816e-04 2.668122666202212e-04 8.086124203816311e-05 5.317815543080999e-04
6.132967189874745e-02 7.267294591000360e-06 2.583835627787781e-05 4.576833402842252e-04 1.395673197249330e-05 9.153649793481690e-04
5.989757845005159e-02 -1.674040640452651e-04 4.448243638223159e-04 3.415993044651470e-04 -1.318588225437941e-04 1.190657943899042e-03
6.560469555042944e-02 -2.498892037258865e-04 -4.192098817142331e-04 1.013745027484393e-03 -4.080085266101053e-04 1.536215679754980e-03
6.241219601829279e-02 -6.096349367971005e-05 -2.437849541727307e-07 2.642215682336313e-04 -1.471261207781743e-04 5.320941508543278e-04
6.132967189874745e-02 7.267294591000360e-06 2.583835627787781e-05 4.576833402842252e-04 1.395673197249330e-05 9.153649793481690e-04
6.560469555042944e-02 -2.498892037258865e-04 -4.192098817142331e-04 1.013745027484393e-03 -4.080085266101053e-04 1.536215679754980e-03
6.275778788774208e-02 1.768611716294333e-04 -3.831632043127947e-04 3.484616153950142e-04 1.572671212979501e-04 1.201403829984274e-03
6.349221767881148e-02 -1.592800061964161e-05 -1.184867756671426e-04 2.657843326366221e-04 -7.113505727547587e-05 5.334277321153905e-04
6.132967189874745e-02 7.267294591000360e-06 2.583835627787781e-05 4.576833402842252e-04 1.395673197249330e-05 9.153649793481690e-04
6.133778520152424e-02 -1.987914863652015e-06 -6.147600342137446e-06 1.443702988277049e-04 -3.465704463680786e-06 2.887457373851340e-04
6.025420202362627e-02 6.669541421475598e-05 1.856876284932657e-05 2.683786790486221e-04 1.568523055408616e-04 5.331220702951269e-04
6.349221767881148e-02 -1.592800061964161e-05 -1.184867756671426e-04 2.657843326366221e-04 -7.113505727547587e-05 5.334277321153905e-04
6.246626265467546e-02 1.816159459849392e-04 -3.641272098661025e-04 1.293141536772067e-04 1.039284953784325e-04 2.766671524333999e-04
6.133778520152424e-02 -1.987914863652015e-06 -6.147600342137446e-06 1.443702988277049e-04 -3.465704463680786e-06 2.887457373851340e-04
5.917635128189882e-02 2.165374960147922e-05 1.368179251154816e-04 2.668122666202212e-04 8.086124203816311e-05 5.317815543080999e-04
6.025420202362627e-02 6.669541421475598e-05 1.856876284932657e-05 2.683786790486221e-04 1.568523055408616e-04 5.331220702951269e-04
5.795192305288906e-02 1.701489295986985e-04 3.465186350419674e-04 1.528262687921690e-04 3.196381782633794e-04 2.873220973746880e-04
6.133778520152424e-02 -1.987914863652015e-06 -6.147600342137446e-06 1.443702988277049e-04 -3.465704463680786e-06 2.887457373851340e-04
6.241219601829279e-02 -6.096349367971005e-05 -2.437849541727307e-07 2.642215682336313e-04 -1.471261207781743e-04 5.320941508543278e-04
5.917635128189882e-02 2.165374960147922e-05 1.368179251154816e-04 2.668122666202212e-04 8.086124203816311e-05 5.317815543080999e-04
6.020958451367908e-02 -1.851717517798862e-04 3.522780918020565e-04 1.295696550898235e-04 -1.113335820716198e-04 2.751614990584154e-04
6.133778520152424e-02 -1.987914863652015e-06 -6.147600342137446e-06 1.443702988277049e-04 -3.465704463680786e-06 2.887457373851340e-04
6.349221767881148e-02 -1.592800061964161e-05 -1.184867756671426e-04 2.657843326366221e-04 -7.113505727547587e-05 5.334277321153905e-04
6.241219601829279e-02 -6.096349367971005e-05 -2.437849541727307e-07 2.642215682336313e-04 -1.471261207781743e-04 5.320941508543278e-04
6.472205284868160e-02 -1.737440257813944e-04 -3.584070384308330e-04 1.514489449579032e-04 -3.261351972812095e-04 2.871948801312685e-04
6.132967189874745e-02 7.267294591000360e-06 2.583835627787781e-05 4.576833402842252e-04 1.395673197249330e-05 9.153649793481690e-04
6.349221767881148e-02 -1.592800061964161e-05 -1.184867756671426e-04 2.657843326366221e-04 -7.113505727547587e-05 5.334277321153905e-04
6.025420202362627e-02 6.669541421475598e-05 1.856876284932657e-05 2.683786790486221e-04 1.568523055408616e-04 5.331220702951269e-04
6.275778788774208e-02 1.768611716294333e-04 -3.831632043127947e-04 3.484616153950142e-04 1.572671212979501e-04 1.201403829984274e-03
6.132967189874745e-02 7.267294591000360e-06 2.583835627787781e-05 4.576833402842252e-04 1.395673197249330e-05 9.153649793481690e-04
6.025420202362627e-02 6.669541421475598e-05 1.856876284932657e-05 2.683786790486221e-04 1.568523055408616e-04 5.331220702951269e-04
5.917635128189882e-02 2.165374960147922e-05 1.368179251154816e-04 2.668122666202212e-04 8.086124203816311e-05 5.317815543080999e-04
5.702364460445233e-02 2.804145703341476e-04 5.019394127372956e-04 1.025642168325373e-03 4.594954710147393e-04 1.530504538250492e-03
6.132967189874745e-02 7.267294591000360e-06 2.583835627787781e-05 4.576833402842252e-04 1.395673197249330e-05 9.153649793481690e-04
5.917635128189882e-02 2.165374960147922e-05 1.368179251154816e-04 2.668122666202212e-04 8.086124203816311e-05 5.317815543080999e-04
6.241219601829279e-02 -6.096349367971005e-05 -2.437849541727307e-07 2.642215682336313e-04 -1.471261207781743e-04 5.320941508543278e-04
5.989757845005159e-02 -1.674040640452651e-04 4.448243638223159e-04 3.415993044651470e-04 -1.318588225437941e-04 1.190657943899042e-03
6.132967189874745e-02 7.267294591000360e-06 2.583835627787781e-05 4.576833402842252e-04 1.395673197249330e-05 9.153649793481690e-04
6.241219601829279e-02 -6.096349367971005e-05 -2.437849541727307e-07 2.642215682336313e-04 -1.471261207781743e-04 5.320941508543278e-04
6.349221767881148e-02 -1.592800061964161e-05 -1.184867756671426e-04 2.657843326366221e-04 -7.113505727547587e-05 5.334277321153905e-04
6.560469555042944e-02 -2.498892037258865e-04 -4.192098817142331e-04 1.013745027484393e-03 -4.080085266101053e-04 1.536215679754980e-03
6.133778520152424e-02 -1.987914863652015e-06 -6.147600342137446e-06 1.443702988277049e-04 -3.465704463680786e-06 2.887457373851340e-04
6.349221767881148e-02 -1.592800061964161e-05 -1.184867756671426e-04 2.657843326366221e-04 -7.113505727547587e-05 5.334277321153905e-04
6.025420202362627e-02 6.669541421475598e-05 1.856876284932657e-05 2.683786790486221e-04 1.568523055408616e-04 5.331220702951269e-04
6.134118727143190e-02 -1.260846957673589e-07 3.291734656796219e-07 2.170854196857151e-04 -2.867741398100937e-08 4.341934396479023e-04
6.133778520152424e-02 -1.987914863652015e-06 -6.147600342137446e-06 1.443702988277049e-04 -3.465704463680786e-06 2.887457373851340e-04
6.025420202362627e-02 6.669541421475598e-05 1.856876284932657e-05 2.683786790486221e-04 1.568523055408616e-04 5.331220702951269e-04
5.917635128189882e-02 2.165374960147922e-05 1.368179251154816e-04 2.668122666202212e-04 8.086124203816311e-05 5.317815543080999e-04
6.134118727143190e-02 -1.260846957673589e-07 3.291734656796219e-07 2.170854196857151e-04 -2.867741398100937e-08 4.341934396479023e-04
6.133778520152424e-02 -1.987914863652015e-06 -6.147600342137446e-06 1.443702988277049e-04 -3.465704463680786e-06 2.887457373851340e-04
5.917635128189882e-02 2.165374960147922e-05 1.368179251154816e-04 2.668122666202212e-04 8.086124203816311e-05 5.317815543080999e-04
6.241219601829279e-02 -6.096349367971005e-05 -2.437849541727307e-07 2.642215682336313e-04 -1.471261207781743e-04 5.320941508543278e-04
6.134118727143190e-02 -1.260846957673589e-07 3.291734656796219e-07 2.170854196857151e-04 -2.867741398100937e-08 4.341934396479023e-04
6.133778520152424e-02 -1.987914863652015e-06 -6.147600342137446e-06 1.443702988277049e-04 -3.465704463680786e-06 2.887457373851340e-04
6.241219601829279e-02 -6.096349367971005e-05 -2.437849541727307e-07 2.642215682336313e-04 -1.471261207781743e-04 5.320941508543278e-04
6.349221767881148e-02 -1.592800061964161e-05 -1.184867756671426e-04 2.657843326366221e-04 -7.113505727547587e-05 5.334277321153905e-04
6.134118727143190e-02 -1.260846957673589e-07 3.291734656796219e-07 2.170854196857151e-04 -2.867741398100937e-08 4.341934396479023e-04
6.132967189874745e-02 7.267294591000360e-06 2.583835627787781e-05 4.576833402842252e-04 1.395673197249330e-05 9.153649793481690e-04
6.025420202362627e-02 6.669541421475598e-05 1.856876284932657e-05 2.683786790486221e-04 1.568523055408616e-04 5.331220702951269e-04
6.349221767881148e-02 -1.592800061964161e-05 -1.184867756671426e-04 2.657843326366221e-04 -7.113505727547587e-05 5.334277321153905e-04
6.134118727143190e-02 -1.260846957673589e-07 3.291734656796219e-07 2.170854196857151e-04 -2.867741398100937e-08 4.341934396479023e-04
6.132967189874745e-02 7.267294591000360e-06 2.583835627787781e-05 4.576833402842252e-04 1.395673197249330e-05 9.153649793481690e-04
5.917635128189882e-02 2.165374960147922e-05 1.368179251154816e-04 2.668122666202212e-04 8.086124203816311e-05 5.317815543080999e-04
6.025420202362627e-02 6.669541421475598e-05 1.856876284932657e-05 2.683786790486221e-04 1.568523055408616e-04 5.331220702951269e-04
6.134118727143190e-02 -1.260846957673589e-07 3.291734656796219e-07 2.170854196857151e-04 -2.867741398100937e-08 4.341934396479023e-04
6.132967189874745e-02 7.267294591000360e-06 2.583835627787781e-05 4.576833402842252e-04 1.395673197249330e-05 9.153649793481690e-04
6.241219601829279e-02 -6.096349367971005e-05 -2.437849541727307e-07 2.642215682336313e-04 -1.471261207781743e-04 5.320941508543278e-04
5.917635128189882e-02 2.165374960147922e-05 1.368179251154816e-04 2.668122666202212e-04 8.086124203816311e-05 5.317815543080999e-04
6.134118727143190e-02 -1.260846957673589e-07 3.291734656796219e-07 2.170854196857151e-04 -2.867741398100937e-08 4.341934396479023e-04
6.132967189874745e-02 7.267294591000360e-06 2.583835627787781e-05 4.576833402842252e-04 1.395673197249330e-05 9.153649793481690e-04
6.349221767881148e-02 -1.592800061964161e-05 -1.184867756671426e-04 2.657843326366221e-04 -7.113505727547587e-05 5.334277321153905e-04
6.241219601829279e-02 -6.096349367971005e-05 -2.437849541727307e-07 2.642215682336313e-04 -1.471261207781743e-04 5.320941508543278e-04
6.134118727143190e-02 -1.260846957673589e-07 3.291734656796219e-07 2.170854196857151e-04 -2.867741398100937e-08 4.341934396479023e-04
        </DataArray>
        <DataArray type="Float64" Name="nodal_cauchy_stresses_xyz" NumberOfComponents="6" format="ascii">
6.605736997086887e+00 1.211662944758441e-02 -2.387644841212672e-02 -7.624359805886875e-03 7.375318858260880e-03 -4.050056594641054e-02
6.182714859982466e+00 1.160383872175792e-02 2.357864944726018e-02 -4.035628570871502e-02 2.237013030192046e-02 -5.586798242316142e-02
6.499725696065863e+00 -6.299429933820247e-05 -1.499153379640782e-04 -1.040165996325692e-02 -8.910744234443230e-05 -2.080345939889409e-02
6.413512903121993e+00 2.946002784563367e-03 -7.399020684185210e-04 3.152379303724469e-05 7.847863364712358e-03 -8.413564608920985e-05
6.182714859982466e+00 1.160383872175792e-02 2.357864944726018e-02 -4.035628570871502e-02 2.237013030192046e-02 -5.586798242316142e-02
6.393765513686921e+00 -1.215045274968234e-02 2.381233292368259e-02 -7.463669292183426e-03 -7.513190239528952e-03 -3.986424310915950e-02
6.499725696065863e+00 -6.299429933820247e-05 -1.499153379640782e-04 -1.040165996325692e-02 -8.910744234443230e-05 -2.080345939889409e-02
6.327189634057945e+00 -7.162245854652133e-04 5.740652825602138e-03 1.225270792174545e-04 3.791835037132801e-03 2.057075835337789e-04
6.393765513686921e+00 -1.215045274968234e-02 2.381233292368259e-02 -7.463669292183426e-03 -7.513190239528952e-03 -3.986424310915950e-02
6.818631143084396e+00 -1.153511926043949e-02 -2.354021503242376e-02 -4.165264454106621e-02 -2.228736471089088e-02 -5.796135605010763e-02
6.499725696065863e+00 -6.299429933820247e-05 -1.499153379640782e-04 -1.040165996325692e-02 -8.910744234443230e-05 -2.080345939889409e-02
6.586497348184868e+00 -3.250576434225261e-03 -1.737920101297771e-04 -4.459950701352754e-04 -8.372283710662192e-03 -7.443555097491027e-04
6.818631143084396e+00 -1.153511926043949e-02 -2.354021503242376e-02 -4.165264454106621e-02 -2.228736471089088e-02 -5.796135605010763e-02
6.605736997086887e+00 1.211662944758441e-02 -2.387644841212672e-02 -7.624359805886875e-03 7.375318858260880e-03 -4.050056594641054e-02
6.499725696065863e+00 -6.299429933820247e-05 -1.499153379640782e-04 -1.040165996325692e-02 -8.910744234443230e-05 -2.080345939889409e-02
6.673157850460138e+00 4.095917241263580e-04 -6.650297454198290e-03 -5.376944888114640e-04 -4.316252781182217e-03 -1.035547378827120e-03
6.605736997086887e+00 1.211662944758441e-02 -2.387644841212672e-02 -7.624359805886875e-03 7.375318858260880e-03 -4.050056594641054e-02
6.627260442052739e+00 1.711838353626292e-02 -3.418748782518332e-02 -5.103099858009752e-03 9.835002124253955e-03 -8.884595962356360e-03
6.413512903121993e+00 2.946002784563367e-03 -7.399020684185210e-04 3.152379303724469e-05 7.847863364712358e-03 -8.413564608920985e-05
6.673157850460138e+00 4.095917241263580e-04 -6.650297454198290e-03 -5.376944888114640e-04 -4.316252781182217e-03 -1.035547378827120e-03
6.182714859982466e+00 1.160383872175792e-02 2.357864944726018e-02 -4.035628570871502e-02 2.237013030192046e-02 -5.586798242316142e-02
6.119290080811080e+00 1.620778173803105e-02 3.303994129619506e-02 -1.198097725653654e-03 3.041421335117456e-02 -4.375201270830104e-03
6.327189634057945e+00 -7.162245854652133e-04 5.740652825602138e-03 1.225270792174545e-04 3.791835037132801e-03 2.057075835337789e-04
6.413512903121993e+00 2.946002784563367e-03 -7.399020684185210e-04 3.152379303724469e-05 7.847863364712358e-03 -8.413564608920985e-05
6.393765513686921e+00 -1.215045274968234e-02 2.381233292368259e-02 -7.463669292183426e-03 -7.513190239528952e-03 -3.986424310915950e-02
6.372824705632901e+00 -1.750055784104548e-02 3.341672360121749e-02 -4.579027506313253e-03 -1.048556030824172e-02 -7.182134009772616e-03
6.586497348184868e+00 -3.250576434225261e-03 -1.737920101297771e-04 -4.459950701352754e-04 -8.372283710662192e-03 -7.443555097491027e-04
6.327189634057945e+00 -7.162245854652133e-04 5.740652825602138e-03 1.225270792174545e-04 3.791835037132801e-03 2.057075835337789e-04
6.818631143084396e+00 -1.153511926043949e-02 -2.354021503242376e-02 -4.165264454106621e-02 -2.228736471089088e-02 -5.796135605010763e-02
6.882589460945059e+00 -1.624052585166498e-02 -3.346130780223629e-02 -4.089026169319698e-03 -3.051825709780966e-02 -9.492643276955688e-03
6.673157850460138e+00 4.095917241263580e-04 -6.650297454198290e-03 -5.376944888114640e-04 -4.316252781182217e-03 -1.035547378827120e-03
6.586497348184868e+00 -3.250576434225261e-03 -1.737920101297771e-04 -4.459950701352754e-04 -8.372283710662192e-03 -7.443555097491027e-04
6.627260442052739e+00 1.711838353626292e-02 -3.418748782518332e-02 -5.103099858009752e-03 9.835002124253955e-03 -8.884595962356360e-03
6.119290080811080e+00 1.620778173803105e-02 3.303994129619506e-02 -1.198097725653654e-03 3.041421335117456e-02 -4.375201270830104e-03
6.413512903121993e+00 2.946002784563367e-03 -7.399020684185210e-04 3.152379303724469e-05 7.847863364712358e-03 -8.413564608920985e-05
6.500013054984520e+00 -2.013550028286252e-04 -6.308902677705723e-04 -3.253490010943248e-03 -3.497813488671287e-04 -6.505947097567217e-03
6.119290080811080e+00 1.620778173803105e-02 3.303994129619506e-02 -1.198097725653654e-03 3.041421335117456e-02 -4.375201270830104e-03
6.372824705632901e+00 -1.750055784104548e-02 3.341672360121749e-02 -4.579027506313253e-03 -1.048556030824172e-02 -7.182134009772616e-03
6.327189634057945e+00 -7.162245854652133e-04 5.740652825602138e-03 1.225270792174545e-04 3.791835037132801e-03 2.057075835337789e-04
6.500013054984520e+00 -2.013550028286252e-04 -6.308902677705723e-04 -3.253490010943248e-03 -3.497813488671287e-04 -6.505947097567217e-03
6.372824705632901e+00 -1.750055784104548e-02 3.341672360121749e-02 -4.579027506313253e-03 -1.048556030824172e-02 -7.182134009772616e-03
6.882589460945059e+00 -1.624052585166498e-02 -3.346130780223629e-02 -4.089026169319698e-03 -3.051825709780966e-02 -9.492643276955688e-03
6.586497348184868e+00 -3.250576434225261e-03 -1.737920101297771e-04 -4.459950701352754e-04 -8.372283710662192e-03 -7.443555097491027e-04
6.500013054984520e+00 -2.013550028286252e-04 -6.308902677705723e-04 -3.253490010943248e-03 -3.497813488671287e-04 -6.505947097567217e-03
6.882589460945059e+00 -1.624052585166498e-02 -3.346130780223629e-02 -4.089026169319698e-03 -3.051825709780966e-02 -9.492643276955688e-03
6.627260442052739e+00 1.711838353626292e-02 -3.418748782518332e-02 -5.103099858009752e-03 9.835002124253955e-03 -8.884595962356360e-03
6.673157850460138e+00 4.095917241263580e-04 -6.650297454198290e-03 -5.376944888114640e-04 -4.316252781182217e-03 -1.035547378827120e-03
6.500013054984520e+00 -2.013550028286252e-04 -6.308902677705723e-04 -3.253490010943248e-03 -3.497813488671287e-04 -6.505947097567217e-03
6.499725696065863e+00 -6.299429933820247e-05 -1.499153379640782e-04 -1.040165996325692e-02 -8.910744234443230e-05 -2.080345939889409e-02
6.413512903121993e+00 2.946002784563367e-03 -7.399020684185210e-04 3.152379303724469e-05 7.847863364712358e-03 -8.413564608920985e-05
6.673157850460138e+00 4.095917241263580e-04 -6.650297454198290e-03 -5.376944888114640e-04 -4.316252781182217e-03 -1.035547378827120e-03
6.605736997086887e+00 1.211662944758441e-02 -2.387644841212672e-02 -7.624359805886875e-03 7.375318858260880e-03 -4.050056594641054e-02
6.499725696065863e+00 -6.299429933820247e-05 -1.499153379640782e-04 -1.040165996325692e-02 -8.910744234443230e-05 -2.080345939889409e-02
6.327189634057945e+00 -7.162245854652133e-04 5.740652825602138e-03 1.225270792174545e-04 3.791835037132801e-03 2.057075835337789e-04
6.413512903121993e+00 2.946002784563367e-03 -7.399020684185210e-04 3.152379303724469e-05 7.847863364712358e-03 -8.413564608920985e-05
6.182714859982466e+00 1.160383872175792e-02 2.357864944726018e-02 -4.035628570871502e-02 2.237013030192046e-02 -5.586798242316142e-02
6.499725696065863e+00 -6.299429933820247e-05 -1.499153379640782e-04 -1.040165996325692e-02 -8.910744234443230e-05 -2.080345939889409e-02
6.586497348184868e+00 -3.250576434225261e-03 -1.737920101297771e-04 -4.459950701352754e-04 -8.372283710662192e-03 -7.443555097491027e-04
6.327189634057945e+00 -7.162245854652133e-04 5.740652825602138e-03 1.225270792174545e-04 3.791835037132801e-03 2.057075835337789e-04
6.393765513686921e+00 -1.215045274968234e-02 2.381233292368259e-02 -7.463669292183426e-03 -7.513190239528952e-03 -3.986424310915950e-02
6.499725696065863e+00 -6.299429933820247e-05 -1.499153379640782e-04 -1.040165996325692e-02 -8.910744234443230e-05 -2.080345939889409e-02
6.673157850460138e+00 4.095917241263580e-04 -6.650297454198290e-03 -5.376944888114640e-04 -4.316252781182217e-03 -1.035547378827120e-03
6.586497348184868e+00 -3.250576434225261e-03 -1.737920101297771e-04 -4.459950701352754e-04 -8.372283710662192e-03 -7.443555097491027e-04
6.818631143084396e+00 -1.153511926043949e-02 -2.354021503242376e-02 -4.165264454106621e-02 -2.228736471089088e-02 -5.796135605010763e-02
6.500013054984520e+00 -2.013550028286252e-04 -6.308902677705723e-04 -3.253490010943248e-03 -3.497813488671287e-04 -6.505947097567217e-03
6.673157850460138e+00 4.095917241263580e-04 -6.650297454198290e-03 -5.376944888114640e-04 -4.316252781182217e-03 -1.035547378827120e-03
6.413512903121993e+00 2.946002784563367e-03 -7.399020684185210e-04 3.152379303724469e-05 7.847863364712358e-03 -8.413564608920985e-05
6.627260442052739e+00 1.711838353626292e-02 -3.418748782518332e-02 -5.103099858009752e-03 9.835002124253955e-03 -8.884595962356360e-03
6.500013054984520e+00 -2.013550028286252e-04 -6.308902677705723e-04 -3.253490010943248e-03 -3.497813488671287e-04 -6.505947097567217e-03
6.413512903121993e+00 2.946002784563367e-03 -7.399020684185210e-04 3.152379303724469e-05 7.847863364712358e-03 -8.413564608920985e-05
6.327189634057945e+00 -7.162245854652133e-04 5.740652825602138e-03 1.225270792174545e-04 3.791835037132801e-03 2.057075835337789e-04
6.119290080811080e+00 1.620778173803105e-02 3.303994129619506e-02 -1.198097725653654e-03 3.041421335117456e-02 -4.375201270830104e-03
6.500013054984520e+00 -2.013550028286252e-04 -6.308902677705723e-04 -3.253490010943248e-03 -3.497813488671287e-04 -6.505947097567217e-03
6.327189634057945e+00 -7.162245854652133e-04 5.740652825602138e-03 1.225270792174545e-04 3.791835037132801e-03 2.057075835337789e-04
6.586497348184868e+00 -3.250576434225261e-03 -1.737920101297771e-04 -4.459950701352754e-04 -8.372283710662192e-03 -7.443555097491027e-04
6.372824705632901e+00 -1.750055784104548e-02 3.341672360121749e-02 -4.579027506313253e-03 -1.048556030824172e-02 -7.182134009772616e-03
6.500013054984520e+00 -2.013550028286252e-04 -6.308902677705723e-04 -3.253490010943248e-03 -3.497813488671287e-04 -6.505947097567217e-03
6.586497348184868e+00 -3.250576434225261e-03 -1.737920101297771e-04 -4.459950701352754e-04 -8.372283710662192e-03 -7.443555097491027e-04
6.673157850460138e+00 4.095917241263580e-04 -6.650297454198290e-03 -5.376944888114640e-04 -4.316252781182217e-03 -1.035547378827120e-03
6.882589460945059e+00 -1.624052585166498e-02 -3.346130780223629e-02 -4.089026169319698e-03 -3.051825709780966e-02 -9.492643276955688e-03
6.499725696065863e+00 -6.299429933820247e-05 -1.499153379640782e-04 -1.040165996325692e-02 -8.910744234443230e-05 -2.080345939889409e-02
6.673157850460138e+00 4.095917241263580e-04 -6.650297454198290e-03 -5.376944888114640e-04 -4.316252781182217e-03 -1.035547378827120e-03
6.413512903121993e+00 2.946002784563367e-03 -7.399020684185210e-04 3.152379303724469e-05 7.847863364712358e-03 -8.413564608920985e-05
6.499232883178957e+00 -1.804148852818455e-04 -2.892857776000835e-04 -8.244614870981169e-04 -2.018791938690819e-04 -1.648687578940672e-03
6.499725696065863e+00 -6.299429933820247e-05 -1.499153379640782e-04 -1.040165996325692e-02 -8.910744234443230e-05 -2.080345939889409e-02
6.413512903121993e+00 2.946002784563367e-03 -7.399020684185210e-04 3.152379303724469e-05 7.847863364712358e-03 -8.413564608920985e-05
6.327189634057945e+00 -7.162245854652133e-04 5.740652825602138e-03 1.225270792174545e-04 3.791835037132801e-03 2.057075835337789e-04
6.499232883178957e+00 -1.804148852818455e-04 -2.892857776000835e-04 -8.244614870981169e-04 -2.018791938690819e-04 -1.648687578940672e-03
6.499725696065863e+00 -6.299429933820247e-05 -1.499153379640782e-04 -1.040165996325692e-02 -8.910744234443230e-05 -2.080345939889409e-02
6.327189634057945e+00 -7.162245854652133e-04 5.740652825602138e-03 1.225270792174545e-04 3.791835037132801e-03 2.057075835337789e-04
6.586497348184868e+00 -3.250576434225261e-03 -1.737920101297771e-04 -4.459950701352754e-04 -8.372283710662192e-03 -7.443555097491027e-04
6.499232883178957e+00 -1.804148852818455e-04 -2.892857776000835e-04 -8.244614870981169e-04 -2.018791938690819e-04 -1.648687578940672e-03
6.499725696065863e+00 -6.299429933820247e-05 -1.499153379640782e-04 -1.040165996325692e-02 -8.910744234443230e-05 -2.080345939889409e-02
6.586497348184868e+00 -3.250576434225261e-03 -1.737920101297771e-04 -4.459950701352754e-04 -8.372283710662192e-03 -7.443555097491027e-04
6.673157850460138e+00 4.095917241263580e-04 -6.650297454198290e-03 -5.376944888114640e-04 -4.316252781182217e-03 -1.035547378827120e-03
6.499232883178957e+00 -1.804148852818455e-04 -2.892857776000835e-04 -8.244614870981169e-04 -2.018791938690819e-04 -1.648687578940672e-03
6.500013054984520e+00 -2.013550028286252e-04 -6.308902677705723e-04 -3.253490010943248e-03 -3.497813488671287e-04 -6.505947097567217e-03
6.413512903121993e+00 2.946002784563367e-03 -7.399020684185210e-04 3.152379303724469e-05 7.847863364712358e-03 -8.413564608920985e-05
6.673157850460138e+00 4.095917241263580e-04 -6.650297454198290e-03 -5.376944888114640e-04 -4.316252781182217e-03 -1.035547378827120e-03
6.499232883178957e+00 -1.804148852818455e-04 -2.892857776000835e-04 -8.244614870981169e-04 -2.018791938690819e-04 -1.648687578940672e-03
6.500013054984520e+00 -2.013550028286252e-04 -6.308902677705723e-04 -3.253490010943248e-03 -3.497813488671287e-04 -6.505947097567217e-03
6.327189634057945e+00 -7.162245854652133e-04 5.740652825602138e-03 1.225270792174545e-04 3.791835037132801e-03 2.057075835337789e-04
6.413512903121993e+00 2.946002784563367e-03 -7.399020684185210e-04 3.152379303724469e-05 7.847863364712358e-03 -8.413564608920985e-05
6.499232883178957e+00 -1.804148852818455e-04 -2.892857776000835e-04 -8.244614870981169e-04 -2.018791938690819e-04 -1.648687578940672e-03
6.500013054984520e+00 -2.013550028286252e-04 -6.308902677705723e-04 -3.253490010943248e-03 -3.497813488671287e-04 -6.505947097567217e-03
6.586497348184868e+00 -3.250576434225261e-03 -1.737920101297771e-04 -4.459950701352754e-04 -8.372283710662192e-03 -7.443555097491027e-04
6.327189634057945e+00 -7.162245854652133e-04 5.740652825602138e-03 1.225270792174545e-04 3.791835037132801e-03 2.057075835337789e-04
6.499232883178957e+00 -1.804148852818455e-04 -2.892857776000835e-04 -8.244614870981169e-04 -2.018791938690819e-04 -1.648687578940672e-03
6.500013054984520e+00 -2.013550028286252e-04 -6.308902677705723e-04 -3.253490010943248e-03 -3.497813488671287e-04 -6.505947097567217e-03
6.673157850460138e+00 4.095917241263580e-04 -6.650297454198290e-03 -5.376944888114640e-04 -4.316252781182217e-03 -1.035547378827120e-03
6.586497348184868e+00 -3.250576434225261e-03 -1.737920101297771e-04 -4.459950701352754e-04 -8.372283710662192e-03 -7.443555097491027e-04
6.499232883178957e+00 -1.804148852818455e-04 -2.892857776000835e-04 -8.244614870981169e-04 -2.018791938690819e-04 -1.648687578940672e-03
6.627260442052739e+00 1.711838353626292e-02 -3.418748782518332e-02 -5.103099858009752e-03 9.835002124253955e-03 -8.884595962356360e-03
6.119290080811080e+00 1.620778173803105e-02 3.303994129619506e-02 -1.198097725653654e-03 3.041421335117456e-02 -4.375201270830104e-03
6.500013054984520e+00 -2.013550028286252e-04 -6.308902677705723e-04 -3.253490010943248e-03 -3.497813488671287e-04 -6.505947097567217e-03
6.379461960444308e+00 6.218970793083334e-03 1.440238583694158e-03 -7.074702391419497e-04 1.465852840567423e-02 -2.057595692307197e-03
6.119290080811080e+00 1.620778173803105e-02 3.303994129619506e-02 -1.198097725653654e-03 3.041421335117456e-02 -4.375201270830104e-03
6.372824705632901e+00 -1.750055784104548e-02 3.341672360121749e-02 -4.579027506313253e-03 -1.048556030824172e-02 -7.182134009772616e-03
6.500013054984520e+00 -2.013550028286252e-04 -6.308902677705723e-04 -3.253490010943248e-03 -3.497813488671287e-04 -6.505947097567217e-03
6.258768737588976e+00 1.968038600432062e-03 1.260228708555373e-02 -4.419938755745620e-04 7.484925511611984e-03 -1.086783442379445e-03
6.372824705632901e+00 -1.750055784104548e-02 3.341672360121749e-02 -4.579027506313253e-03 -1.048556030824172e-02 -7.182134009772616e-03
6.882589460945059e+00 -1.624052585166498e-02 -3.346130780223629e-02 -4.089026169319698e-03 -3.051825709780966e-02 -9.492643276955688e-03
6.500013054984520e+00 -2.013550028286252e-04 -6.308902677705723e-04 -3.253490010943248e-03 -3.497813488671287e-04 -6.505947097567217e-03
6.621497349746014e+00 -5.821651482052337e-03 -3.184643565440465e-04 -2.524067525530001e-03 -1.401864499989078e-02 -4.407218302421178e-03
6.882589460945059e+00 -1.624052585166498e-02 -3.346130780223629e-02 -4.089026169319698e-03 -3.051825709780966e-02 -9.492643276955688e-03
6.627260442052739e+00 1.711838353626292e-02 -3.418748782518332e-02 -5.103099858009752e-03 9.835002124253955e-03 -8.884595962356360e-03
6.500013054984520e+00 -2.013550028286252e-04 -6.308902677705723e-04 -3.253490010943248e-03 -3.497813488671287e-04 -6.505947097567217e-03
6.742871721572607e+00 -1.570702571159162e-03 -1.146462579425724e-02 -2.791656543857953e-03 -6.845025750649426e-03 -5.381873596426987e-03
6.627260442052739e+00 1.711838353626292e-02 -3.418748782518332e-02 -5.103099858009752e-03 9.835002124253955e-03 -8.884595962356360e-03
6.663056660184923e+00 1.650082858602211e-02 -3.772554754329781e-02 2.600946374981983e-03 1.425764733754916e-02 5.457954725740930e-02
6.379461960444308e+00 6.218970793083334e-03 1.440238583694158e-03 -7.074702391419497e-04 1.465852840567423e-02 -2.057595692307197e-03
6.742871721572607e+00 -1.570702571159162e-03 -1.146462579425724e-02 -2.791656543857953e-03 -6.845025750649426e-03 -5.381873596426987e-03
6.119290080811080e+00 1.620778173803105e-02 3.303994129619506e-02 -1.198097725653654e-03 3.041421335117456e-02 -4.375201270830104e-03
6.019279994470097e+00 2.575544911978579e-02 4.526743108700639e-02 7.333119818511373e-02 4.214174295012869e-02 9.434740441447853e-02
6.258768737588976e+00 1.968038600432062e-03 1.260228708555373e-02 -4.419938755745620e-04 7.484925511611984e-03 -1.086783442379445e-03
6.379461960444308e+00 6.218970793083334e-03 1.440238583694158e-03 -7.074702391419497e-04 1.465852840567423e-02 -2.057595692307197e-03
6.372824705632901e+00 -1.750055784104548e-02 3.341672360121749e-02 -4.579027506313253e-03 -1.048556030824172e-02 -7.182134009772616e-03
6.340312037146440e+00 -1.598782927151278e-02 4.040967584406718e-02 2.932068510165635e-03 -1.302914314030573e-02 5.717813667954590e-02
6.621497349746014e+00 -5.821651482052337e-03 -3.184643565440465e-04 -2.524067525530001e-03 -1.401864499989078e-02 -4.407218302421178e-03
6.258768737588976e+00 1.968038600432062e-03 1.260228708555373e-02 -4.419938755745620e-04 7.484925511611984e-03 -1.086783442379445e-03
6.882589460945059e+00 -1.624052585166498e-02 -3.346130780223629e-02 -4.089026169319698e-03 -3.051825709780966e-02 -9.492643276955688e-03
6.987353190754611e+00 -2.426473089376098e-02 -4.160583359177165e-02 6.649351305548373e-02 -3.968717720016116e-02 8.458022932665832e-02
6.742871721572607e+00 -1.570702571159162e-03 -1.146462579425724e-02 -2.791656543857953e-03 -6.845025750649426e-03 -5.381873596426987e-03
6.621497349746014e+00 -5.821651482052337e-03 -3.184643565440465e-04 -2.524067525530001e-03 -1.401864499989078e-02 -4.407218302421178e-03
6.663056660184923e+00 1.650082858602211e-02 -3.772554754329781e-02 2.600946374981983e-03 1.425764733754916e-02 5.457954725740930e-02
6.019279994470097e+00 2.575544911978579e-02 4.526743108700639e-02 7.333119818511373e-02 4.214174295012869e-02 9.434740441447853e-02
6.379461960444308e+00 6.218970793083334e-03 1.440238583694158e-03 -7.074702391419497e-04 1.465852840567423e-02 -2.057595692307197e-03
6.501207249989106e+00 3.952387267831014e-04 1.249769134153684e-03 1.326206651893260e-02 7.299998012917799e-04 2.652069424695126e-02
6.019279994470097e+00 2.575544911978579e-02 4.526743108700639e-02 7.333119818511373e-02 4.214174295012869e-02 9.434740441447853e-02
6.340312037146440e+00 -1.598782927151278e-02 4.040967584406718e-02 2.932068510165635e-03 -1.302914314030573e-02 5.717813667954590e-02
6.258768737588976e+00 1.968038600432062e-03 1.260228708555373e-02 -4.419938755745620e-04 7.484925511611984e-03 -1.086783442379445e-03
6.501207249989106e+00 3.952387267831014e-04 1.249769134153684e-03 1.326206651893260e-02 7.299998012917799e-04 2.652069424695126e-02
6.340312037146440e+00 -1.598782927151278e-02 4.040967584406718e-02 2.932068510165635e-03 -1.302914314030573e-02 5.717813667954590e-02
6.987353190754611e+00 -2.426473089376098e-02 -4.160583359177165e-02 6.649351305548373e-02 -3.968717720016116e-02 8.458022932665832e-02
6.621497349746014e+00 -5.821651482052337e-03 -3.184643565440465e-04 -2.524067525530001e-03 -1.401864499989078e-02 -4.407218302421178e-03
6.501207249989106e+00 3.952387267831014e-04 1.249769134153684e-03 1.326206651893260e-02 7.299998012917799e-04 2.652069424695126e-02
6.987353190754611e+00 -2.426473089376098e-02 -4.160583359177165e-02 6.649351305548373e-02 -3.968717720016116e-02 8.458022932665832e-02
6.663056660184923e+00 1.650082858602211e-02 -3.772554754329781e-02 2.600946374981983e-03 1.425764733754916e-02 5.457954725740930e-02
6.742871721572607e+00 -1.570702571159162e-03 -1.146462579425724e-02 -2.791656543857953e-03 -6.845025750649426e-03 -5.381873596426987e-03
6.501207249989106e+00 3.952387267831014e-04 1.249769134153684e-03 1.326206651893260e-02 7.299998012917799e-04 2.652069424695126e-02
6.500013054984520e+00 -2.013550028286252e-04 -6.308902677705723e-04 -3.253490010943248e-03 -3.497813488671287e-04 -6.505947097567217e-03
6.379461960444308e+00 6.218970793083334e-03 1.440238583694158e-03 -7.074702391419497e-04 1.465852840567423e-02 -2.057595692307197e-03
6.742871721572607e+00 -1.570702571159162e-03 -1.146462579425724e-02 -2.791656543857953e-03 -6.845025750649426e-03 -5.381873596426987e-03
6.627260442052739e+00 1.711838353626292e-02 -3.418748782518332e-02 -5.103099858009752e-03 9.835002124253955e-03 -8.884595962356360e-03
6.500013054984520e+00 -2.013550028286252e-04 -6.308902677705723e-04 -3.253490010943248e-03 -3.497813488671287e-04 -6.505947097567217e-03
6.258768737588976e+00 1.968038600432062e-03 1.260228708555373e-02 -4.419938755745620e-04 7.484925511611984e-03 -1.086783442379445e-03
6.379461960444308e+00 6.218970793083334e-03 1.440238583694158e-03 -7.074702391419497e-04 1.465852840567423e-02 -2.057595692307197e-03
6.119290080811080e+00 1.620778173803105e-02 3.303994129619506e-02 -1.198097725653654e-03 3.041421335117456e-02 -4.375201270830104e-03
6.500013054984520e+00 -2.013550028286252e-04 -6.308902677705723e-04 -3.253490010943248e-03 -3.497813488671287e-04 -6.505947097567217e-03
6.621497349746014e+00 -5.821651482052337e-03 -3.184643565440465e-04 -2.524067525530001e-03 -1.401864499989078e-02 -4.407218302421178e-03
6.258768737588976e+00 1.968038600432062e-03 1.260228708555373e-02 -4.419938755745620e-04 7.484925511611984e-03 -1.086783442379445e-03
6.372824705632901e+00 -1.750055784104548e-02 3.341672360121749e-02 -4.579027506313253e-03 -1.048556030824172e-02 -7.182134009772616e-03
6.500013054984520e+00 -2.013550028286252e-04 -6.308902677705723e-04 -3.253490010943248e-03 -3.497813488671287e-04 -6.505947097567217e-03
6.742871721572607e+00 -1.570702571159162e-03 -1.146462579425724e-02 -2.791656543857953e-03 -6.845025750649426e-03 -5.381873596426987e-03
6.621497349746014e+00 -5.821651482052337e-03 -3.184643565440465e-04 -2.524067525530001e-03 -1.401864499989078e-02 -4.407218302421178e-03
6.882589460945059e+00 -1.624052585166498e-02 -3.346130780223629e-02 -4.089026169319698e-03 -3.051825709780966e-02 -9.492643276955688e-03
6.501207249989106e+00 3.952387267831014e-04 1.249769134153684e-03 1.326206651893260e-02 7.299998012917799e-04 2.652069424695126e-02
6.742871721572607e+00 -1.570702571159162e-03 -1.146462579425724e-02 -2.791656543857953e-03 -6.845025750649426e-03 -5.381873596426987e-03
6.379461960444308e+00 6.218970793083334e-03 1.440238583694158e-03 -7.074702391419497e-04 1.465852840567423e-02 -2.057595692307197e-03
6.663056660184923e+00 1.650082858602211e-02 -3.772554754329781e-02 2.600946374981983e-03 1.425764733754916e-02 5.457954725740930e-02
6.501207249989106e+00 3.952387267831014e-04 1.249769134153684e-03 1.326206651893260e-02 7.299998012917799e-04 2.652069424695126e-02
6.379461960444308e+00 6.218970793083334e-03 1.440238583694158e-03 -7.074702391419497e-04 1.465852840567423e-02 -2.057595692307197e-03
6.258768737588976e+00 1.968038600432062e-03 1.260228708555373e-02 -4.419938755745620e-04 7.484925511611984e-03 -1.086783442379445e-03
6.019279994470097e+00 2.575544911978579e-02 4.526743108700639e-02 7.333119818511373e-02 4.214174295012869e-02 9.434740441447853e-02
6.501207249989106e+00 3.952387267831014e-04 1.249769134153684e-03 1.326206651893260e-02 7.299998012917799e-04 2.652069424695126e-02
6.258768737588976e+00 1.968038600432062e-03 1.260228708555373e-02 -4.419938755745620e-04 7.484925511611984e-03 -1.086783442379445e-03
6.621497349746014e+00 -5.821651482052337e-03 -3.184643565440465e-04 -2.524067525530001e-03 -1.401864499989078e-02 -4.407218302421178e-03
6.340312037146440e+00 -1.598782927151278e-02 4.040967584406718e-02 2.932068510165635e-03 -1.302914314030573e-02 5.717813667954590e-02
6.501207249989106e+00 3.952387267831014e-04 1.249769134153684e-03 1.326206651893260e-02 7.299998012917799e-04 2.652069424695126e-02
6.621497349746014e+00 -5.821651482052337e-03 -3.184643565440465e-04 -2.524067525530001e-03 -1.401864499989078e-02 -4.407218302421178e-03
6.742871721572607e+00 -1.570702571159162e-03 -1.146462579425724e-02 -2.791656543857953e-03 -6.845025750649426e-03 -5.381873596426987e-03
6.987353190754611e+00 -2.426473089376098e-02 -4.160583359177165e-02 6.649351305548373e-02 -3.968717720016116e-02 8.458022932665832e-02
6.500013054984520e+00 -2.013550028286252e-04 -6.308902677705723e-04 -3.253490010943248e-03 -3.497813488671287e-04 -6.505947097567217e-03
6.742871721572607e+00 -1.570702571159162e-03 -1.146462579425724e-02 -2.791656543857953e-03 -6.845025750649426e-03 -5.381873596426987e-03
6.379461960444308e+00 6.218970793083334e-03 1.440238583694158e-03 -7.074702391419497e-04 1.465852840567423e-02 -2.057595692307197e-03
6.499929598205927e+00 -4.317267393984768e-05 -9.408120110216116e-05 -6.484729542221589e-03 -6.695276549437352e-05 -1.296606233166662e-02
6.500013054984520e+00 -2.013550028286252e-04 -6.308902677705723e-04 -3.253490010943248e-03 -3.497813488671287e-04 -6.505947097567217e-03
6.379461960444308e+00 6.218970793083334e-03 1.440238583694158e-03 -7.074702391419497e-04 1.465852840567423e-02 -2.057595692307197e-03
6.258768737588976e+00 1.968038600432062e-03 1.260228708555373e-02 -4.419938755745620e-04 7.484925511611984e-03 -1.086783442379445e-03
6.499929598205927e+00 -4.317267393984768e-05 -9.408120110216116e-05 -6.484729542221589e-03 -6.695276549437352e-05 -1.296606233166662e-02
6.500013054984520e+00 -2.013550028286252e-04 -6.308902677705723e-04 -3.253490010943248e-03 -3.497813488671287e-04 -6.505947097567217e-03
6.258768737588976e+00 1.968038600432062e-03 1.260228708555373e-02 -4.419938755745620e-04 7.484925511611984e-03 -1.086783442379445e-03
6.621497349746014e+00 -5.821651482052337e-03 -3.184643565440465e-04 -2.524067525530001e-03 -1.401864499989078e-02 -4.407218302421178e-03
6.499929598205927e+00 -4.317267393984768e-05 -9.408120110216116e-05 -6.484729542221589e-03 -6.695276549437352e-05 -1.296606233166662e-02
6.500013054984520e+00 -2.013550028286252e-04 -6.308902677705723e-04 -3.253490010943248e-03 -3.497813488671287e-04 -6.505947097567217e-03
6.621497349746014e+00 -5.821651482052337e-03 -3.184643565440465e-04 -2.524067525530001e-03 -1.401864499989078e-02 -4.407218302421178e-03
6.742871721572607e+00 -1.570702571159162e-03 -1.146462579425724e-02 -2.791656543857953e-03 -6.845025750649426e-03 -5.381873596426987e-03
6.499929598205927e+00 -4.317267393984768e-05 -9.408120110216116e-05 -6.484729542221589e-03 -6.695276549437352e-05 -1.296606233166662e-02
6.501207249989106e+00 3.952387267831014e-04 1.249769134153684e-03 1.326206651893260e-02 7.299998012917799e-04 2.652069424695126e-02
6.379461960444308e+00 6.218970793083334e-03 1.440238583694158e-03 -7.074702391419497e-04 1.465852840567423e-02 -2.057595692307197e-03
6.742871721572607e+00 -1.570702571159162e-03 -1.146462579425724e-02 -2.791656543857953e-03 -6.845025750649426e-03 -5.381873596426987e-03
6.499929598205927e+00 -4.317267393984768e-05 -9.408120110216116e-05 -6.484729542221589e-03 -6.695276549437352e-05 -1.296606233166662e-02
6.501207249989106e+00 3.952387267831014e-04 1.249769134153684e-03 1.326206651893260e-02 7.299998012917799e-04 2.652069424695126e-02
6.258768737588976e+00 1.968038600432062e-03 1.260228708555373e-02 -4.419938755745620e-04 7.484925511611984e-03 -1.086783442379445e-03
6.379461960444308e+00 6.218970793083334e-03 1.440238583694158e-03 -7.074702391419497e-04 1.465852840567423e-02 -2.057595692307197e-03
6.499929598205927e+00 -4.317267393984768e-05 -9.408120110216116e-05 -6.484729542221589e-03 -6.695276549437352e-05 -1.296606233166662e-02
6.501207249989106e+00 3.952387267831014e-04 1.249769134153684e-03 1.326206651893260e-02 7.299998012917799e-04 2.652069424695126e-02
6.621497349746014e+00 -5.821651482052337e-03 -3.184643565440465e-04 -2.524067525530001e-03 -1.401864499989078e-02 -4.407218302421178e-03
6.258768737588976e+00 1.968038600432062e-03 1.260228708555373e-02 -4.419938755745620e-04 7.484925511611984e-03 -1.086783442379445e-03
6.499929598205927e+00 -4.317267393984768e-05 -9.408120110216116e-05 -6.484729542221589e-03 -6.695276549437352e-05 -1.296606233166662e-02
6.501207249989106e+00 3.952387267831014e-04 1.249769134153684e-03 1.326206651893260e-02 7.299998012917799e-04 2.652069424695126e-02
6.742871721572607e+00 -1.570702571159162e-03 -1.146462579425724e-02 -2.791656543857953e-03 -6.845025750649426e-03 -5.381873596426987e-03
6.621497349746014e+00 -5.821651482052337e-03 -3.184643565440465e-04 -2.524067525530001e-03 -1.401864499989078e-02 -4.407218302421178e-03
6.499929598205927e+00 -4.317267393984768e-05 -9.408120110216116e-05 -6.484729542221589e-03 -6.695276549437352e-05 -1.296606233166662e-02
        </DataArray>
  </PointData>
  <CellData>
        <DataArray type="Float64" Name="element_GL_strains_xyz" NumberOfComponents="6" format="ascii">
5.985783390713062e-02 0.000000000000000e+00 0.000000000000000e+00 -3.810243847421803e-04 0.000000000000000e+00 -8.302391241836226e-04
5.838190382957842e-02 0.000000000000000e+00 0.000000000000000e+00 -4.140404794006336e-04 0.000000000000000e+00 -7.613489221063144e-04
6.281836642484773e-02 0.000000000000000e+00 0.000000000000000e+00 -3.840683231611233e-04 0.000000000000000e+00 -8.345614667341037e-04
6.430298188387551e-02 0.000000000000000e+00 0.000000000000000e+00 -4.183628154860933e-04 0.000000000000000e+00 -7.688626729427023e-04
6.288255062635384e-02 5.485402707902098e-04 -1.083770480778790e-03 1.758267787968448e-05 2.960528288961320e-04 1.402339950385711e-04
5.671187813195100e-02 5.194486193655923e-04 1.054899292109557e-03 1.612480597302796e-04 8.885875163959747e-04 2.152891173514875e-04
5.979346197835778e-02 -5.472485021969509e-04 1.072090657091240e-03 1.811434389058972e-05 -3.012669003158362e-04 1.418454279652418e-04
6.597913591766580e-02 -5.286740764375852e-04 -1.077096481553130e-03 1.553771631902040e-04 -9.033730360712151e-04 2.072750388984017e-04
5.972960211551581e-02 6.680688328375428e-05 -2.187845301099278e-05 5.598863824593774e-04 5.275241583908386e-05 1.185762236573681e-03
5.812305135140616e-02 -2.741495350710998e-05 1.308405274109692e-04 5.934028830215028e-04 2.350384402356709e-05 1.119270722605385e-03
6.294725779227850e-02 -7.398193344598791e-05 1.967854435402927e-06 5.575326008957717e-04 -6.421598243373310e-05 1.183681933597747e-03
6.455835501904350e-02 2.021583545297467e-05 -1.507270580946574e-04 5.913226565559819e-04 -3.496741061821654e-05 1.115575858602379e-03
6.207820804380071e-02 -3.513857904152706e-05 6.357630294329120e-05 7.115933940720816e-04 1.421886195087731e-05 3.117360956230559e-04
5.911962250031599e-02 -3.276972661980793e-05 -6.864383403870633e-05 -7.665149514594830e-04 5.070678032922401e-05 -4.268115037568924e-04
6.059793784445322e-02 3.216943899919666e-05 -7.101526186797935e-05 7.100612475364373e-04 -1.942291143438014e-05 3.111604543971069e-04
6.356042691888186e-02 3.454172780470444e-05 6.594602927123550e-05 -7.723694340805867e-04 -5.024387853790645e-05 -4.305582050814247e-04
6.214288315952521e-02 1.317049302629325e-05 -1.502096982702872e-05 -6.199359444165540e-04 2.936296230218434e-05 -2.430702702297251e-05
5.892650969208135e-02 -1.400349429414582e-05 -1.219343538871875e-05 1.001837782965607e-03 8.831509581700082e-05 7.890585336675872e-04
6.053405542110235e-02 -1.372901061102993e-05 3.092130670623305e-06 -6.189421232747465e-04 -3.352738289858985e-05 -2.235711387265759e-05
6.375299077800733e-02 6.722634317446463e-06 -6.457899180689619e-06 1.000751377641898e-03 -1.003553895074302e-04 7.850283175413423e-04
6.133773056465641e-02 -1.730606928080913e-04 3.385013934323888e-04 2.723935976166067e-04 -5.428262641037320e-05 5.445122899506768e-04
6.133773056465641e-02 -1.730606928080913e-04 -3.455940769307442e-04 2.723935976166067e-04 -1.579138242109926e-04 5.437674069673268e-04
6.133773056465641e-02 1.689968725540059e-04 -3.455940769307442e-04 2.717511706574231e-04 4.945277931953347e-05 5.437674069673268e-04
6.133773056465641e-02 1.689968725540059e-04 3.385013934323888e-04 2.717511706574231e-04 1.532613759174618e-04 5.445122899506768e-04
6.133812037694797e-02 -1.730606928080913e-04 3.385013934323888e-04 -1.244389602107360e-04 -5.428262641037320e-05 -2.499272366818372e-04
6.133812037694797e-02 -1.730606928080913e-04 -3.455940769307442e-04 -1.244389602107360e-04 -1.579138242109926e-04 -2.500464879947306e-04
6.133812037694797e-02 1.689968725540059e-04 -3.455940769307442e-04 -1.255467037693938e-04 4.945277931953347e-05 -2.500464879947306e-04
6.133812037694797e-02 1.689968725540059e-04 3.385013934323888e-04 -1.255467037693938e-04 1.532613759174618e-04 -2.499272366818372e-04
5.939780836701458e-02 6.680688328375428e-05 -2.187845301099278e-05 -3.388818172181621e-04 5.275241583908386e-05 -7.724343572521387e-04
5.745591503509351e-02 -2.741495350710998e-05 1.308405274109692e-04 -3.865307103668189e-04 2.350384402356709e-05 -6.783612710152629e-04
6.327935673354379e-02 -7.398193344598791e-05 1.967854435402927e-06 -3.384457861903853e-04 -6.421598243373310e-05 -7.712036014954115e-04
6.521883990144539e-02 2.021583545297467e-05 -1.507270580946574e-04 -3.852999183978575e-04 -3.496741061821654e-05 -6.762182791613357e-04
6.349672058396738e-02 7.150954387089570e-04 -1.483911198341625e-03 1.283199387131801e-04 4.316680006295000e-04 5.460053785589702e-04
5.484427645046264e-02 8.043969589585087e-04 1.550592702385223e-03 5.033826257159987e-04 1.319219596011253e-03 7.180960233257351e-04
5.918093749701958e-02 -7.199847919125424e-04 1.498867738831011e-03 1.296956013934529e-04 -4.367109078690536e-04 5.295560745689470e-04
6.779190349784603e-02 -7.809548192281857e-04 -1.507304407770915e-03 5.006465524618812e-04 -1.285959774898252e-03 7.304336495525558e-04
5.892952050760325e-02 1.245648009352562e-04 1.022281168668870e-04 9.843552149812406e-04 1.885953489385795e-04 2.036535759136845e-03
5.656875835125708e-02 1.123676816843222e-04 2.749986289554140e-04 1.019608937476271e-03 1.083086525196181e-04 1.930744268023562e-03
6.368004567740893e-02 -9.770718737800443e-05 3.034060537365768e-06 9.550608830167426e-04 -1.327110662206449e-04 2.031193325616917e-03
6.606926902326948e-02 -8.556005887366824e-05 -1.696864608048410e-04 1.014266409572918e-03 -5.242436980168373e-05 1.947843191447677e-03
6.230334146453798e-02 2.075927880595962e-06 1.489599222992410e-05 1.081519253842003e-03 3.877416075790904e-05 6.987194141300445e-04
5.842634327958740e-02 -2.743450679365544e-05 -3.907362757027411e-05 -8.717350559704322e-04 1.084706981575050e-04 -2.781042262589703e-04
6.036264030063099e-02 2.382064387629335e-06 -2.144255586916666e-05 1.081730431349221e-03 -3.773918866914649e-05 6.988598201133336e-04
6.424858314962245e-02 2.048625108319602e-05 2.112088837658010e-05 -8.702930864942679e-04 -1.210265916688797e-04 -2.770138764855309e-04
6.253564143612822e-02 -4.665549425281190e-05 1.871672502840038e-05 -7.330951016872825e-04 6.122950542540481e-05 2.752309907936021e-04
5.775202310848637e-02 8.032883975850336e-05 7.993820274165842e-05 1.595221895127980e-03 2.218582865895064e-04 1.436642102515827e-03
6.016057227452076e-02 3.570804142516426e-05 2.397026965472726e-06 -7.379682040258780e-04 -6.632196860509609e-05 2.711381073867425e-04
6.487756400319333e-02 -3.533474942368775e-05 -2.882718818542074e-06 1.585006264886031e-03 -1.609388955198406e-04 1.435392552402773e-03
6.133670744208830e-02 -2.297084694755092e-04 4.594842325474913e-04 4.823100439390805e-04 -6.762776072284640e-05 9.597423051959965e-04
6.133670744208830e-02 -2.297084694755092e-04 -4.588258856161320e-04 4.823100439390805e-04 -2.025424122063549e-04 9.672017259685700e-04
6.133670744208830e-02 2.294563000839744e-04 -4.588258856161320e-04 4.811597427724390e-04 6.741535835625688e-05 9.672017259685700e-04
6.133670744208830e-02 2.294563000839744e-04 4.594842325474913e-04 4.811597427724390e-04 2.026401049170205e-04 9.597423051959965e-04
6.134566710077549e-02 -2.297084694755092e-04 4.594842325474913e-04 -4.658144639960965e-05 -6.762776072284640e-05 -9.937242312303089e-05
6.134566710077549e-02 -2.297084694755092e-04 -4.588258856161320e-04 -4.658144639960965e-05 -2.025424122063549e-04 -9.079784944992630e-05
6.134566710077549e-02 2.294563000839744e-04 -4.588258856161320e-04 -4.854666156904928e-05 6.741535835625688e-05 -9.079784944992630e-05
6.134566710077549e-02 2.294563000839744e-04 4.594842325474913e-04 -4.854666156904928e-05 2.026401049170205e-04 -9.937242312303089e-05
        </DataArray>
        <DataArray type="Float64" Name="element_cauchy_stresses_xyz" NumberOfComponents="6" format="ascii">
6.333944113383376e+00 5.816475675984645e-05 2.761599947141770e-04 -4.266389734151084e-02 1.267390189300461e-04 -9.296317553807923e-02
6.169618844760637e+00 6.867646323024238e-05 2.322147436287647e-04 -4.623854223004743e-02 1.262841530135156e-04 -8.502469212086425e-02
6.664769219286817e+00 5.910681305190136e-05 2.790854672710493e-04 -4.323214124741478e-02 1.284361808039014e-04 -9.394130427768263e-02
6.831273816660258e+00 7.013920573561880e-05 2.368930086530088e-04 -4.721667685762721e-02 1.289010762997855e-04 -8.677429980015476e-02
6.675580624588989e+00 5.175566704326375e-02 -1.019367854480009e-01 -6.803727769840249e-03 2.802833506510099e-02 -3.532187930475638e-03
5.974911279542870e+00 4.926838945329656e-02 1.001540105172304e-01 8.830821420313011e-03 8.427826228393373e-02 6.622029815007617e-03
6.323502390192463e+00 -5.166448882804126e-02 1.015229808372780e-01 -6.561712653034358e-03 -2.834956271904971e-02 -1.911268410495421e-03
7.031168606542136e+00 -4.964410869866786e-02 -1.010346853887893e-01 6.173968684035217e-03 -8.483066680218314e-02 2.102218364218863e-03
6.321002692299174e+00 6.128016576502939e-03 -2.836306839776071e-03 4.428328861701949e-02 4.607368387348211e-03 9.588301627980816e-02
6.141778963071649e+00 -2.787205377260848e-03 1.163880693611313e-02 4.833218892767967e-02 1.845170931447558e-03 8.919733560844771e-02
6.681315302901137e+00 -7.156391506738510e-03 -5.781083834376219e-04 4.325433530610041e-02 -6.427096924482012e-03 9.430709267759500e-02
6.862406501912601e+00 1.712575807747583e-03 -1.491849105019768e-02 4.675626190423750e-02 -3.664878275355740e-03 8.587110178075222e-02
6.582149433714926e+00 -3.417453215421586e-03 5.917938796126883e-03 6.618686274543080e-02 1.217300272712695e-03 2.126739948306745e-02
6.252385202242983e+00 -2.979875786254969e-03 -6.347787466532639e-03 -8.135352468361481e-02 4.949235751804532e-03 -5.210609184870983e-02
6.417171600507762e+00 2.934894553029743e-03 -6.784949353447454e-03 6.617771896176286e-02 -1.957918572883512e-03 2.142029237240428e-02
6.747312929848372e+00 3.374385638122383e-03 6.357846783170140e-03 -8.233572874325806e-02 -4.576129298484090e-03 -5.323203848681201e-02
6.588968728974827e+00 1.487411826229456e-03 -1.312863197068698e-03 -7.389761972429949e-02 3.039961894314654e-03 -2.615864246498909e-02
6.231834896330205e+00 -1.660901135963348e-03 -1.636560454201242e-03 8.912412105084187e-02 7.893137407296885e-03 5.663471145963855e-02
6.409250441198535e+00 -1.052633096156526e-03 3.918163547027788e-04 -7.348097136221322e-02 -2.898128732211658e-03 -2.527214171286005e-02
6.770992488696127e+00 2.982508932995513e-04 -1.081834941018406e-03 8.792024331129075e-02 -9.907283813396827e-03 5.412769697982960e-02
6.498409370888705e+00 -1.636889867823194e-02 3.179337061947381e-02 2.145719461762208e-02 -5.202546601841317e-03 4.305434499245656e-02
6.502855437074833e+00 -1.637584157536428e-02 -3.277633975904921e-02 2.143328132174806e-02 -1.498264834051468e-02 4.277789616561165e-02
6.500631185225926e+00 1.591389454069888e-02 -3.276958290241282e-02 2.147077052442396e-02 4.588106324949316e-03 4.280188651063141e-02
6.496187199195760e+00 1.590687569258573e-02 3.178616601283536e-02 2.149476337340227e-02 1.438495072707662e-02 4.307826976140228e-02
6.497833293120371e+00 -1.626786758889032e-02 3.219807229089292e-02 -2.309029764929724e-02 -5.000342889566301e-03 -4.613419446574825e-02
6.502279765302664e+00 -1.627477826116567e-02 -3.237173387483164e-02 -2.312821708796573e-02 -1.478044187297113e-02 -4.635473370065846e-02
6.500055603244816e+00 1.601517402436891e-02 -3.236504167125247e-02 -2.313560923928443e-02 4.790523830778770e-03 -4.631673313574788e-02
6.495611211378574e+00 1.600812276374393e-02 3.219080306354339e-02 -2.309757775743392e-02 1.458736527113606e-02 -4.609623675947266e-02
6.280906163752791e+00 6.636788288828896e-03 -6.062592111398845e-04 -5.618383963807570e-02 5.672969142023329e-03 -1.230451218799038e-01
6.064709809413345e+00 -2.232887142795313e-03 1.366572129912776e-02 -6.077549760567068e-02 2.906799188587322e-03 -1.109225623230370e-01
6.715391935266414e+00 -6.644616957819479e-03 1.666890628352874e-03 -5.775508299314563e-02 -5.354769401602419e-03 -1.260474152507401e-01
6.933657834058113e+00 2.274524231782315e-03 -1.286338202473694e-02 -6.377772210393744e-02 -2.588623896251889e-03 -1.169548663541839e-01
6.746553016676883e+00 6.745359644666409e-02 -1.397650539561932e-01 -1.544780859181756e-02 4.079314653770086e-02 -5.097398064725797e-03
5.765320750332515e+00 7.618680313986365e-02 1.469022029583840e-01 2.643711582395373e-02 1.249470796400541e-01 2.338778691785894e-02
6.254254944740230e+00 -6.799087823665649e-02 1.417271767108896e-01 -1.464105054508274e-02 -4.117153721417365e-02 -2.218125236026491e-04
7.242054136748419e+00 -7.341884188342353e-02 -1.416351658377504e-01 1.665095641564216e-02 -1.208930921350608e-01 7.919681290119052e-03
6.235482986292100e+00 1.093277553928588e-02 6.178964051752376e-03 6.654723685971113e-02 1.611299275527142e-02 1.405499456851480e-01
5.972103388177378e+00 9.766524362488666e-03 2.270536201297968e-02 7.176484814989167e-02 8.542725847507048e-03 1.316225770430829e-01
6.768186684314871e+00 -1.000173002732930e-02 -3.125066139311388e-03 6.041559557527368e-02 -1.415450277037082e-02 1.345720616060295e-01
7.037670525632459e+00 -8.884743989606864e-03 -1.920252718795989e-02 6.578692950635315e-02 -6.584015152371649e-03 1.222382052657350e-01
6.609007974158536e+00 -5.015119309156707e-04 7.392391256468131e-04 8.424636844263543e-02 2.791738139151225e-03 2.195733093486696e-02
6.173856091746095e+00 -1.876749898224107e-03 -2.962084836177580e-03 -1.096329804012906e-01 1.116291982870541e-02 -7.275880604446100e-02
6.392393858279443e+00 -4.753615828954105e-04 -2.701495573286578e-03 8.499557087486052e-02 -4.435357594449190e-03 2.341369985651162e-02
6.823728881435526e+00 2.654401300500114e-03 2.754314579687184e-03 -1.119351698787805e-01 -1.047964553414439e-02 -7.726665570323618e-02
6.632520112138251e+00 -3.498313652254655e-03 1.886426919209482e-03 -1.064825722743188e-01 6.708465209596007e-03 -3.937256385652002e-02
6.104212853078394e+00 6.135693437504994e-03 5.283195324909491e-03 1.285755919068984e-01 1.896417355768222e-02 8.182930801182428e-02
6.366703131353279e+00 4.274766815446006e-03 3.312307917108567e-04 -1.058111191394201e-01 -5.333258424185513e-03 -3.726027940732609e-02
6.901501416322694e+00 -4.753607674684214e-03 -2.460575202064890e-03 1.231205707246659e-01 -1.711709874284134e-02 7.359096914474977e-02
6.499334852135759e+00 -2.194001947909906e-02 4.230469321604063e-02 2.311444630190803e-02 -6.918093481695319e-03 4.647711769011488e-02
6.505313023207500e+00 -2.195251287069310e-02 -4.438005774814739e-02 2.298860625842035e-02 -1.965132559190255e-02 4.629387699717948e-02
6.502328743075240e+00 2.139458926093227e-02 -4.436811484845488e-02 2.333286052047382e-02 5.825391115446066e-03 4.641950391219344e-02
6.496354264669073e+00 2.138106178679440e-02 4.229061073312585e-02 2.345853366328886e-02 1.858789049898284e-02 4.660289527648753e-02
6.497529274484701e+00 -2.146830769313432e-02 4.419520567574023e-02 -3.625001578840346e-02 -5.973798067054765e-03 -7.241448993255138e-02
6.503506427328175e+00 -2.148059181082655e-02 -4.249360851569504e-02 -3.640179176932430e-02 -1.870792680144115e-02 -7.249813476651693e-02
6.500521830336105e+00 2.186706773104013e-02 -4.248208254959502e-02 -3.613608058060482e-02 6.769422587513754e-03 -7.234655898226028e-02
6.494548370410867e+00 2.185333168346745e-02 4.418070442816832e-02 -3.598439494353118e-02 1.953281761619614e-02 -7.226270884797970e-02
        </DataArray>
      </CellData>

    </Piece>
  </UnstructuredGrid>
</VTKFile>
