<?xml version="1.0" ?> 
<!-- 
# vtk DataFile Version 3.0
-->
<VTKFile type="UnstructuredGrid" version="0.1" compressor="vtkZLibDataCompressor" byte_order="LittleEndian">
  <UnstructuredGrid>
    <FieldData>
      <DataArray type="Float64" Name="TIME" NumberOfTuples="1" format="ascii">
1.000000000000000e+00 
      </DataArray>
    </FieldData>

    <Piece NumberOfPoints="560" NumberOfCells="56" >
      <Points>
        <DataArray type="Float64" NumberOfComponents="3" format="ascii">
0.000000000000000e+00 0.000000000000000e+00 1.000000000000000e+00
0.000000000000000e+00 0.000000000000000e+00 0.000000000000000e+00
0.000000000000000e+00 5.000000000000000e-01 5.000000000000000e-01
5.000000000000000e-01 0.000000000000000e+00 5.000000000000000e-01
0.000000000000000e+00 0.000000000000000e+00 5.000000000000000e-01
0.000000000000000e+00 2.500000000000000e-01 2.500000000000000e-01
0.000000000000000e+00 2.500000000000000e-01 7.500000000000000e-01
2.500000000000000e-01 0.000000000000000e+00 7.500000000000000e-01
2.500000000000000e-01 0.000000000000000e+00 2.500000000000000e-01
2.500000000000000e-01 2.500000000000000e-01 5.000000000000000e-01
0.000000000000000e+00 0.000000000000000e+00 0.000000000000000e+00
0.000000000000000e+00 1.000000000000000e+00 0.000000000000000e+00
0.000000000000000e+00 5.000000000000000e-01 5.000000000000000e-01
5.000000000000000e-01 5.000000000000000e-01 0.000000000000000e+00
0.000000000000000e+00 5.000000000000000e-01 0.000000000000000e+00
0.000000000000000e+00 7.500000000000000e-01 2.500000000000000e-01
0.000000000000000e+00 2.500000000000000e-01 2.500000000000000e-01
2.500000000000000e-01 2.500000000000000e-01 0.000000000000000e+00
2.500000000000000e-01 7.500000000000000e-01 0.000000000000000e+00
2.500000000000000e-01 5.000000000000000e-01 2.500000000000000e-01
0.000000000000000e+00 1.000000000000000e+00 0.000000000000000e+00
0.000000000000000e+00 1.000000000000000e+00 1.000000000000000e+00
0.000000000000000e+00 5.000000000000000e-01 5.000000000000000e-01
5.000000000000000e-01 1.000000000000000e+00 5.000000000000000e-01
0.000000000000000e+00 1.000000000000000e+00 5.000000000000000e-01
0.000000000000000e+00 7.500000000000000e-01 7.500000000000000e-01
0.000000000000000e+00 7.500000000000000e-01 2.500000000000000e-01
2.500000000000000e-01 1.000000000000000e+00 2.500000000000000e-01
2.500000000000000e-01 1.000000000000000e+00 7.500000000000000e-01
2.500000000000000e-01 7.500000000000000e-01 5.000000000000000e-01
0.000000000000000e+00 1.000000000000000e+00 1.000000000000000e+00
0.000000000000000e+00 0.000000000000000e+00 1.000000000000000e+00
0.000000000000000e+00 5.000000000000000e-01 5.000000000000000e-01
5.000000000000000e-01 5.000000000000000e-01 1.000000000000000e+00
0.000000000000000e+00 5.000000000000000e-01 1.000000000000000e+00
0.000000000000000e+00 2.500000000000000e-01 7.500000000000000e-01
0.000000000000000e+00 7.500000000000000e-01 7.500000000000000e-01
2.500000000000000e-01 7.500000000000000e-01 1.000000000000000e+00
2.500000000000000e-01 2.500000000000000e-01 1.000000000000000e+00
2.500000000000000e-01 5.000000000000000e-01 7.500000000000000e-01
0.000000000000000e+00 0.000000000000000e+00 1.000000000000000e+00
1.000000000000000e+00 0.000000000000000e+00 1.000000000000000e+00
5.000000000000000e-01 0.000000000000000e+00 5.000000000000000e-01
5.000000000000000e-01 5.000000000000000e-01 1.000000000000000e+00
5.000000000000000e-01 0.000000000000000e+00 1.000000000000000e+00
7.500000000000000e-01 0.000000000000000e+00 7.500000000000000e-01
2.500000000000000e-01 0.000000000000000e+00 7.500000000000000e-01
2.500000000000000e-01 2.500000000000000e-01 1.000000000000000e+00
7.500000000000000e-01 2.500000000000000e-01 1.000000000000000e+00
5.000000000000000e-01 2.500000000000000e-01 7.500000000000000e-01
0.000000000000000e+00 0.000000000000000e+00 0.000000000000000e+00
1.000000000000000e+00 0.000000000000000e+00 0.000000000000000e+00
5.000000000000000e-01 5.000000000000000e-01 0.000000000000000e+00
5.000000000000000e-01 0.000000000000000e+00 5.000000000000000e-01
5.000000000000000e-01 0.000000000000000e+00 0.000000000000000e+00
7.500000000000000e-01 2.500000000000000e-01 0.000000000000000e+00
2.500000000000000e-01 2.500000000000000e-01 0.000000000000000e+00
2.500000000000000e-01 0.000000000000000e+00 2.500000000000000e-01
7.500000000000000e-01 0.000000000000000e+00 2.500000000000000e-01
5.000000000000000e-01 2.500000000000000e-01 2.500000000000000e-01
0.000000000000000e+00 1.000000000000000e+00 0.000000000000000e+00
1.000000000000000e+00 1.000000000000000e+00 0.000000000000000e+00
5.000000000000000e-01 1.000000000000000e+00 5.000000000000000e-01
5.000000000000000e-01 5.000000000000000e-01 0.000000000000000e+00
5.000000000000000e-01 1.000000000000000e+00 0.000000000000000e+00
7.500000000000000e-01 1.000000000000000e+00 2.500000000000000e-01
2.500000000000000e-01 1.000000000000000e+00 2.500000000000000e-01
2.500000000000000e-01 7.500000000000000e-01 0.000000000000000e+00
7.500000000000000e-01 7.500000000000000e-01 0.000000000000000e+00
5.000000000000000e-01 7.500000000000000e-01 2.500000000000000e-01
0.000000000000000e+00 1.000000000000000e+00 1.000000000000000e+00
1.000000000000000e+00 1.000000000000000e+00 1.000000000000000e+00
5.000000000000000e-01 5.000000000000000e-01 1.000000000000000e+00
5.000000000000000e-01 1.000000000000000e+00 5.000000000000000e-01
5.000000000000000e-01 1.000000000000000e+00 1.000000000000000e+00
7.500000000000000e-01 7.500000000000000e-01 1.000000000000000e+00
2.500000000000000e-01 7.500000000000000e-01 1.000000000000000e+00
2.500000000000000e-01 1.000000000000000e+00 7.500000000000000e-01
7.500000000000000e-01 1.000000000000000e+00 7.500000000000000e-01
5.000000000000000e-01 7.500000000000000e-01 7.500000000000000e-01
1.000000000000000e+00 0.000000000000000e+00 1.000000000000000e+00
1.000000000000000e+00 0.000000000000000e+00 0.000000000000000e+00
5.000000000000000e-01 0.000000000000000e+00 5.000000000000000e-01
1.000000000000000e+00 5.000000000000000e-01 5.000000000000000e-01
1.000000000000000e+00 0.000000000000000e+00 5.000000000000000e-01
7.500000000000000e-01 0.000000000000000e+00 2.500000000000000e-01
7.500000000000000e-01 0.000000000000000e+00 7.500000000000000e-01
1.000000000000000e+00 2.500000000000000e-01 7.500000000000000e-01
1.000000000000000e+00 2.500000000000000e-01 2.500000000000000e-01
7.500000000000000e-01 2.500000000000000e-01 5.000000000000000e-01
1.000000000000000e+00 0.000000000000000e+00 0.000000000000000e+00
1.000000000000000e+00 1.000000000000000e+00 0.000000000000000e+00
5.000000000000000e-01 5.000000000000000e-01 0.000000000000000e+00
1.000000000000000e+00 5.000000000000000e-01 5.000000000000000e-01
1.000000000000000e+00 5.000000000000000e-01 0.000000000000000e+00
7.500000000000000e-01 7.500000000000000e-01 0.000000000000000e+00
7.500000000000000e-01 2.500000000000000e-01 0.000000000000000e+00
1.000000000000000e+00 2.500000000000000e-01 2.500000000000000e-01
1.000000000000000e+00 7.500000000000000e-01 2.500000000000000e-01
7.500000000000000e-01 5.000000000000000e-01 2.500000000000000e-01
1.000000000000000e+00 1.000000000000000e+00 0.000000000000000e+00
1.000000000000000e+00 1.000000000000000e+00 1.000000000000000e+00
5.000000000000000e-01 1.000000000000000e+00 5.000000000000000e-01
1.000000000000000e+00 5.000000000000000e-01 5.000000000000000e-01
1.000000000000000e+00 1.000000000000000e+00 5.000000000000000e-01
7.500000000000000e-01 1.000000000000000e+00 7.500000000000000e-01
7.500000000000000e-01 1.000000000000000e+00 2.500000000000000e-01
1.000000000000000e+00 7.500000000000000e-01 2.500000000000000e-01
1.000000000000000e+00 7.500000000000000e-01 7.500000000000000e-01
7.500000000000000e-01 7.500000000000000e-01 5.000000000000000e-01
1.000000000000000e+00 1.000000000000000e+00 1.000000000000000e+00
1.000000000000000e+00 0.000000000000000e+00 1.000000000000000e+00
5.000000000000000e-01 5.000000000000000e-01 1.000000000000000e+00
1.000000000000000e+00 5.000000000000000e-01 5.000000000000000e-01
1.000000000000000e+00 5.000000000000000e-01 1.000000000000000e+00
7.500000000000000e-01 2.500000000000000e-01 1.000000000000000e+00
7.500000000000000e-01 7.500000000000000e-01 1.000000000000000e+00
1.000000000000000e+00 7.500000000000000e-01 7.500000000000000e-01
1.000000000000000e+00 2.500000000000000e-01 7.500000000000000e-01
7.500000000000000e-01 5.000000000000000e-01 7.500000000000000e-01
0.000000000000000e+00 5.000000000000000e-01 5.000000000000000e-01
5.000000000000000e-01 0.000000000000000e+00 5.000000000000000e-01
5.000000000000000e-01 5.000000000000000e-01 1.000000000000000e+00
0.000000000000000e+00 0.000000000000000e+00 1.000000000000000e+00
2.500000000000000e-01 2.500000000000000e-01 5.000000000000000e-01
5.000000000000000e-01 2.500000000000000e-01 7.500000000000000e-01
2.500000000000000e-01 5.000000000000000e-01 7.500000000000000e-01
0.000000000000000e+00 2.500000000000000e-01 7.500000000000000e-01
2.500000000000000e-01 0.000000000000000e+00 7.500000000000000e-01
2.500000000000000e-01 2.500000000000000e-01 1.000000000000000e+00
0.000000000000000e+00 5.000000000000000e-01 5.000000000000000e-01
5.000000000000000e-01 5.000000000000000e-01 0.000000000000000e+00
5.000000000000000e-01 0.000000000000000e+00 5.000000000000000e-01
0.000000000000000e+00 0.000000000000000e+00 0.000000000000000e+00
2.500000000000000e-01 5.000000000000000e-01 2.500000000000000e-01
5.000000000000000e-01 2.500000000000000e-01 2.500000000000000e-01
2.500000000000000e-01 2.500000000000000e-01 5.000000000000000e-01
0.000000000000000e+00 2.500000000000000e-01 2.500000000000000e-01
2.500000000000000e-01 2.500000000000000e-01 0.000000000000000e+00
2.500000000000000e-01 0.000000000000000e+00 2.500000000000000e-01
0.000000000000000e+00 5.000000000000000e-01 5.000000000000000e-01
5.000000000000000e-01 1.000000000000000e+00 5.000000000000000e-01
5.000000000000000e-01 5.000000000000000e-01 0.000000000000000e+00
0.000000000000000e+00 1.000000000000000e+00 0.000000000000000e+00
2.500000000000000e-01 7.500000000000000e-01 5.000000000000000e-01
5.000000000000000e-01 7.500000000000000e-01 2.500000000000000e-01
2.500000000000000e-01 5.000000000000000e-01 2.500000000000000e-01
0.000000000000000e+00 7.500000000000000e-01 2.500000000000000e-01
2.500000000000000e-01 1.000000000000000e+00 2.500000000000000e-01
2.500000000000000e-01 7.500000000000000e-01 0.000000000000000e+00
0.000000000000000e+00 5.000000000000000e-01 5.000000000000000e-01
5.000000000000000e-01 5.000000000000000e-01 1.000000000000000e+00
5.000000000000000e-01 1.000000000000000e+00 5.000000000000000e-01
0.000000000000000e+00 1.000000000000000e+00 1.000000000000000e+00
2.500000000000000e-01 5.000000000000000e-01 7.500000000000000e-01
5.000000000000000e-01 7.500000000000000e-01 7.500000000000000e-01
2.500000000000000e-01 7.500000000000000e-01 5.000000000000000e-01
0.000000000000000e+00 7.500000000000000e-01 7.500000000000000e-01
2.500000000000000e-01 7.500000000000000e-01 1.000000000000000e+00
2.500000000000000e-01 1.000000000000000e+00 7.500000000000000e-01
1.000000000000000e+00 5.000000000000000e-01 5.000000000000000e-01
5.000000000000000e-01 5.000000000000000e-01 1.000000000000000e+00
5.000000000000000e-01 0.000000000000000e+00 5.000000000000000e-01
1.000000000000000e+00 0.000000000000000e+00 1.000000000000000e+00
7.500000000000000e-01 5.000000000000000e-01 7.500000000000000e-01
5.000000000000000e-01 2.500000000000000e-01 7.500000000000000e-01
7.500000000000000e-01 2.500000000000000e-01 5.000000000000000e-01
1.000000000000000e+00 2.500000000000000e-01 7.500000000000000e-01
7.500000000000000e-01 2.500000000000000e-01 1.000000000000000e+00
7.500000000000000e-01 0.000000000000000e+00 7.500000000000000e-01
1.000000000000000e+00 5.000000000000000e-01 5.000000000000000e-01
5.000000000000000e-01 0.000000000000000e+00 5.000000000000000e-01
5.000000000000000e-01 5.000000000000000e-01 0.000000000000000e+00
1.000000000000000e+00 0.000000000000000e+00 0.000000000000000e+00
7.500000000000000e-01 2.500000000000000e-01 5.000000000000000e-01
5.000000000000000e-01 2.500000000000000e-01 2.500000000000000e-01
7.500000000000000e-01 5.000000000000000e-01 2.500000000000000e-01
1.000000000000000e+00 2.500000000000000e-01 2.500000000000000e-01
7.500000000000000e-01 0.000000000000000e+00 2.500000000000000e-01
7.500000000000000e-01 2.500000000000000e-01 0.000000000000000e+00
1.000000000000000e+00 5.000000000000000e-01 5.000000000000000e-01
5.000000000000000e-01 5.000000000000000e-01 0.000000000000000e+00
5.000000000000000e-01 1.000000000000000e+00 5.000000000000000e-01
1.000000000000000e+00 1.000000000000000e+00 0.000000000000000e+00
7.500000000000000e-01 5.000000000000000e-01 2.500000000000000e-01
5.000000000000000e-01 7.500000000000000e-01 2.500000000000000e-01
7.500000000000000e-01 7.500000000000000e-01 5.000000000000000e-01
1.000000000000000e+00 7.500000000000000e-01 2.500000000000000e-01
7.500000000000000e-01 7.500000000000000e-01 0.000000000000000e+00
7.500000000000000e-01 1.000000000000000e+00 2.500000000000000e-01
1.000000000000000e+00 5.000000000000000e-01 5.000000000000000e-01
5.000000000000000e-01 1.000000000000000e+00 5.000000000000000e-01
5.000000000000000e-01 5.000000000000000e-01 1.000000000000000e+00
1.000000000000000e+00 1.000000000000000e+00 1.000000000000000e+00
7.500000000000000e-01 7.500000000000000e-01 5.000000000000000e-01
5.000000000000000e-01 7.500000000000000e-01 7.500000000000000e-01
7.500000000000000e-01 5.000000000000000e-01 7.500000000000000e-01
1.000000000000000e+00 7.500000000000000e-01 7.500000000000000e-01
7.500000000000000e-01 1.000000000000000e+00 7.500000000000000e-01
7.500000000000000e-01 7.500000000000000e-01 1.000000000000000e+00
0.000000000000000e+00 5.000000000000000e-01 5.000000000000000e-01
5.000000000000000e-01 5.000000000000000e-01 1.000000000000000e+00
5.000000000000000e-01 0.000000000000000e+00 5.000000000000000e-01
5.000000000000000e-01 5.000000000000000e-01 5.000000000000000e-01
2.500000000000000e-01 5.000000000000000e-01 7.500000000000000e-01
5.000000000000000e-01 2.500000000000000e-01 7.500000000000000e-01
2.500000000000000e-01 2.500000000000000e-01 5.000000000000000e-01
2.500000000000000e-01 5.000000000000000e-01 5.000000000000000e-01
5.000000000000000e-01 5.000000000000000e-01 7.500000000000000e-01
5.000000000000000e-01 2.500000000000000e-01 5.000000000000000e-01
0.000000000000000e+00 5.000000000000000e-01 5.000000000000000e-01
5.000000000000000e-01 0.000000000000000e+00 5.000000000000000e-01
5.000000000000000e-01 5.000000000000000e-01 0.000000000000000e+00
5.000000000000000e-01 5.000000000000000e-01 5.000000000000000e-01
2.500000000000000e-01 2.500000000000000e-01 5.000000000000000e-01
5.000000000000000e-01 2.500000000000000e-01 2.500000000000000e-01
2.500000000000000e-01 5.000000000000000e-01 2.500000000000000e-01
2.500000000000000e-01 5.000000000000000e-01 5.000000000000000e-01
5.000000000000000e-01 2.500000000000000e-01 5.000000000000000e-01
5.000000000000000e-01 5.000000000000000e-01 2.500000000000000e-01
0.000000000000000e+00 5.000000000000000e-01 5.000000000000000e-01
5.000000000000000e-01 5.000000000000000e-01 0.000000000000000e+00
5.000000000000000e-01 1.000000000000000e+00 5.000000000000000e-01
5.000000000000000e-01 5.000000000000000e-01 5.000000000000000e-01
2.500000000000000e-01 5.000000000000000e-01 2.500000000000000e-01
5.000000000000000e-01 7.500000000000000e-01 2.500000000000000e-01
2.500000000000000e-01 7.500000000000000e-01 5.000000000000000e-01
2.500000000000000e-01 5.000000000000000e-01 5.000000000000000e-01
5.000000000000000e-01 5.000000000000000e-01 2.500000000000000e-01
5.000000000000000e-01 7.500000000000000e-01 5.000000000000000e-01
0.000000000000000e+00 5.000000000000000e-01 5.000000000000000e-01
5.000000000000000e-01 1.000000000000000e+00 5.000000000000000e-01
5.000000000000000e-01 5.000000000000000e-01 1.000000000000000e+00
5.000000000000000e-01 5.000000000000000e-01 5.000000000000000e-01
2.500000000000000e-01 7.500000000000000e-01 5.000000000000000e-01
5.000000000000000e-01 7.500000000000000e-01 7.500000000000000e-01
2.500000000000000e-01 5.000000000000000e-01 7.500000000000000e-01
2.500000000000000e-01 5.000000000000000e-01 5.000000000000000e-01
5.000000000000000e-01 7.500000000000000e-01 5.000000000000000e-01
5.000000000000000e-01 5.000000000000000e-01 7.500000000000000e-01
1.000000000000000e+00 5.000000000000000e-01 5.000000000000000e-01
5.000000000000000e-01 0.000000000000000e+00 5.000000000000000e-01
5.000000000000000e-01 5.000000000000000e-01 1.000000000000000e+00
5.000000000000000e-01 5.000000000000000e-01 5.000000000000000e-01
7.500000000000000e-01 2.500000000000000e-01 5.000000000000000e-01
5.000000000000000e-01 2.500000000000000e-01 7.500000000000000e-01
7.500000000000000e-01 5.000000000000000e-01 7.500000000000000e-01
7.500000000000000e-01 5.000000000000000e-01 5.000000000000000e-01
5.000000000000000e-01 2.500000000000000e-01 5.000000000000000e-01
5.000000000000000e-01 5.000000000000000e-01 7.500000000000000e-01
1.000000000000000e+00 5.000000000000000e-01 5.000000000000000e-01
5.000000000000000e-01 5.000000000000000e-01 0.000000000000000e+00
5.000000000000000e-01 0.000000000000000e+00 5.000000000000000e-01
5.000000000000000e-01 5.000000000000000e-01 5.000000000000000e-01
7.500000000000000e-01 5.000000000000000e-01 2.500000000000000e-01
5.000000000000000e-01 2.500000000000000e-01 2.500000000000000e-01
7.500000000000000e-01 2.500000000000000e-01 5.000000000000000e-01
7.500000000000000e-01 5.000000000000000e-01 5.000000000000000e-01
5.000000000000000e-01 5.000000000000000e-01 2.500000000000000e-01
5.000000000000000e-01 2.500000000000000e-01 5.000000000000000e-01
1.000000000000000e+00 5.000000000000000e-01 5.000000000000000e-01
5.000000000000000e-01 1.000000000000000e+00 5.000000000000000e-01
5.000000000000000e-01 5.000000000000000e-01 0.000000000000000e+00
5.000000000000000e-01 5.000000000000000e-01 5.000000000000000e-01
7.500000000000000e-01 7.500000000000000e-01 5.000000000000000e-01
5.000000000000000e-01 7.500000000000000e-01 2.500000000000000e-01
7.500000000000000e-01 5.000000000000000e-01 2.500000000000000e-01
7.500000000000000e-01 5.000000000000000e-01 5.000000000000000e-01
5.000000000000000e-01 7.500000000000000e-01 5.000000000000000e-01
5.000000000000000e-01 5.000000000000000e-01 2.500000000000000e-01
1.000000000000000e+00 5.000000000000000e-01 5.000000000000000e-01
5.000000000000000e-01 5.000000000000000e-01 1.000000000000000e+00
5.000000000000000e-01 1.000000000000000e+00 5.000000000000000e-01
5.000000000000000e-01 5.000000000000000e-01 5.000000000000000e-01
7.500000000000000e-01 5.000000000000000e-01 7.500000000000000e-01
5.000000000000000e-01 7.500000000000000e-01 7.500000000000000e-01
7.500000000000000e-01 7.500000000000000e-01 5.000000000000000e-01
7.500000000000000e-01 5.000000000000000e-01 5.000000000000000e-01
5.000000000000000e-01 5.000000000000000e-01 7.500000000000000e-01
5.000000000000000e-01 7.500000000000000e-01 5.000000000000000e-01
1.000000000000000e+00 0.000000000000000e+00 1.000000000000000e+00
1.000000000000000e+00 0.000000000000000e+00 0.000000000000000e+00
1.000000000000000e+00 5.000000000000000e-01 5.000000000000000e-01
1.500000000000000e+00 0.000000000000000e+00 5.000000000000000e-01
1.000000000000000e+00 0.000000000000000e+00 5.000000000000000e-01
1.000000000000000e+00 2.500000000000000e-01 2.500000000000000e-01
1.000000000000000e+00 2.500000000000000e-01 7.500000000000000e-01
1.250000000000000e+00 0.000000000000000e+00 7.500000000000000e-01
1.250000000000000e+00 0.000000000000000e+00 2.500000000000000e-01
1.250000000000000e+00 2.500000000000000e-01 5.000000000000000e-01
1.000000000000000e+00 0.000000000000000e+00 0.000000000000000e+00
1.000000000000000e+00 1.000000000000000e+00 0.000000000000000e+00
1.000000000000000e+00 5.000000000000000e-01 5.000000000000000e-01
1.500000000000000e+00 5.000000000000000e-01 0.000000000000000e+00
1.000000000000000e+00 5.000000000000000e-01 0.000000000000000e+00
1.000000000000000e+00 7.500000000000000e-01 2.500000000000000e-01
1.000000000000000e+00 2.500000000000000e-01 2.500000000000000e-01
1.250000000000000e+00 2.500000000000000e-01 0.000000000000000e+00
1.250000000000000e+00 7.500000000000000e-01 0.000000000000000e+00
1.250000000000000e+00 5.000000000000000e-01 2.500000000000000e-01
1.000000000000000e+00 1.000000000000000e+00 0.000000000000000e+00
1.000000000000000e+00 1.000000000000000e+00 1.000000000000000e+00
1.000000000000000e+00 5.000000000000000e-01 5.000000000000000e-01
1.500000000000000e+00 1.000000000000000e+00 5.000000000000000e-01
1.000000000000000e+00 1.000000000000000e+00 5.000000000000000e-01
1.000000000000000e+00 7.500000000000000e-01 7.500000000000000e-01
1.000000000000000e+00 7.500000000000000e-01 2.500000000000000e-01
1.250000000000000e+00 1.000000000000000e+00 2.500000000000000e-01
1.250000000000000e+00 1.000000000000000e+00 7.500000000000000e-01
1.250000000000000e+00 7.500000000000000e-01 5.000000000000000e-01
1.000000000000000e+00 1.000000000000000e+00 1.000000000000000e+00
1.000000000000000e+00 0.000000000000000e+00 1.000000000000000e+00
1.000000000000000e+00 5.000000000000000e-01 5.000000000000000e-01
1.500000000000000e+00 5.000000000000000e-01 1.000000000000000e+00
1.000000000000000e+00 5.000000000000000e-01 1.000000000000000e+00
1.000000000000000e+00 2.500000000000000e-01 7.500000000000000e-01
1.000000000000000e+00 7.500000000000000e-01 7.500000000000000e-01
1.250000000000000e+00 7.500000000000000e-01 1.000000000000000e+00
1.250000000000000e+00 2.500000000000000e-01 1.000000000000000e+00
1.250000000000000e+00 5.000000000000000e-01 7.500000000000000e-01
1.000000000000000e+00 0.000000000000000e+00 1.000000000000000e+00
2.000000000000000e+00 0.000000000000000e+00 1.000000000000000e+00
1.500000000000000e+00 0.000000000000000e+00 5.000000000000000e-01
1.500000000000000e+00 5.000000000000000e-01 1.000000000000000e+00
1.500000000000000e+00 0.000000000000000e+00 1.000000000000000e+00
1.750000000000000e+00 0.000000000000000e+00 7.500000000000000e-01
1.250000000000000e+00 0.000000000000000e+00 7.500000000000000e-01
1.250000000000000e+00 2.500000000000000e-01 1.000000000000000e+00
1.750000000000000e+00 2.500000000000000e-01 1.000000000000000e+00
1.500000000000000e+00 2.500000000000000e-01 7.500000000000000e-01
1.000000000000000e+00 0.000000000000000e+00 0.000000000000000e+00
2.000000000000000e+00 0.000000000000000e+00 0.000000000000000e+00
1.500000000000000e+00 5.000000000000000e-01 0.000000000000000e+00
1.500000000000000e+00 0.000000000000000e+00 5.000000000000000e-01
1.500000000000000e+00 0.000000000000000e+00 0.000000000000000e+00
1.750000000000000e+00 2.500000000000000e-01 0.000000000000000e+00
1.250000000000000e+00 2.500000000000000e-01 0.000000000000000e+00
1.250000000000000e+00 0.000000000000000e+00 2.500000000000000e-01
1.750000000000000e+00 0.000000000000000e+00 2.500000000000000e-01
1.500000000000000e+00 2.500000000000000e-01 2.500000000000000e-01
1.000000000000000e+00 1.000000000000000e+00 0.000000000000000e+00
2.000000000000000e+00 1.000000000000000e+00 0.000000000000000e+00
1.500000000000000e+00 1.000000000000000e+00 5.000000000000000e-01
1.500000000000000e+00 5.000000000000000e-01 0.000000000000000e+00
1.500000000000000e+00 1.000000000000000e+00 0.000000000000000e+00
1.750000000000000e+00 1.000000000000000e+00 2.500000000000000e-01
1.250000000000000e+00 1.000000000000000e+00 2.500000000000000e-01
1.250000000000000e+00 7.500000000000000e-01 0.000000000000000e+00
1.750000000000000e+00 7.500000000000000e-01 0.000000000000000e+00
1.500000000000000e+00 7.500000000000000e-01 2.500000000000000e-01
1.000000000000000e+00 1.000000000000000e+00 1.000000000000000e+00
2.000000000000000e+00 1.000000000000000e+00 1.000000000000000e+00
1.500000000000000e+00 5.000000000000000e-01 1.000000000000000e+00
1.500000000000000e+00 1.000000000000000e+00 5.000000000000000e-01
1.500000000000000e+00 1.000000000000000e+00 1.000000000000000e+00
1.750000000000000e+00 7.500000000000000e-01 1.000000000000000e+00
1.250000000000000e+00 7.500000000000000e-01 1.000000000000000e+00
1.250000000000000e+00 1.000000000000000e+00 7.500000000000000e-01
1.750000000000000e+00 1.000000000000000e+00 7.500000000000000e-01
1.500000000000000e+00 7.500000000000000e-01 7.500000000000000e-01
2.000000000000000e+00 0.000000000000000e+00 1.000000000000000e+00
2.000000000000000e+00 0.000000000000000e+00 0.000000000000000e+00
1.500000000000000e+00 0.000000000000000e+00 5.000000000000000e-01
2.000000000000000e+00 5.000000000000000e-01 5.000000000000000e-01
2.000000000000000e+00 0.000000000000000e+00 5.000000000000000e-01
1.750000000000000e+00 0.000000000000000e+00 2.500000000000000e-01
1.750000000000000e+00 0.000000000000000e+00 7.500000000000000e-01
2.000000000000000e+00 2.500000000000000e-01 7.500000000000000e-01
2.000000000000000e+00 2.500000000000000e-01 2.500000000000000e-01
1.750000000000000e+00 2.500000000000000e-01 5.000000000000000e-01
2.000000000000000e+00 0.000000000000000e+00 0.000000000000000e+00
2.000000000000000e+00 1.000000000000000e+00 0.000000000000000e+00
1.500000000000000e+00 5.000000000000000e-01 0.000000000000000e+00
2.000000000000000e+00 5.000000000000000e-01 5.000000000000000e-01
2.000000000000000e+00 5.000000000000000e-01 0.000000000000000e+00
1.750000000000000e+00 7.500000000000000e-01 0.000000000000000e+00
1.750000000000000e+00 2.500000000000000e-01 0.000000000000000e+00
2.000000000000000e+00 2.500000000000000e-01 2.500000000000000e-01
2.000000000000000e+00 7.500000000000000e-01 2.500000000000000e-01
1.750000000000000e+00 5.000000000000000e-01 2.500000000000000e-01
2.000000000000000e+00 1.000000000000000e+00 0.000000000000000e+00
2.000000000000000e+00 1.000000000000000e+00 1.000000000000000e+00
1.500000000000000e+00 1.000000000000000e+00 5.000000000000000e-01
2.000000000000000e+00 5.000000000000000e-01 5.000000000000000e-01
2.000000000000000e+00 1.000000000000000e+00 5.000000000000000e-01
1.750000000000000e+00 1.000000000000000e+00 7.500000000000000e-01
1.750000000000000e+00 1.000000000000000e+00 2.500000000000000e-01
2.000000000000000e+00 7.500000000000000e-01 2.500000000000000e-01
2.000000000000000e+00 7.500000000000000e-01 7.500000000000000e-01
1.750000000000000e+00 7.500000000000000e-01 5.000000000000000e-01
2.000000000000000e+00 1.000000000000000e+00 1.000000000000000e+00
2.000000000000000e+00 0.000000000000000e+00 1.000000000000000e+00
1.500000000000000e+00 5.000000000000000e-01 1.000000000000000e+00
2.000000000000000e+00 5.000000000000000e-01 5.000000000000000e-01
2.000000000000000e+00 5.000000000000000e-01 1.000000000000000e+00
1.750000000000000e+00 2.500000000000000e-01 1.000000000000000e+00
1.750000000000000e+00 7.500000000000000e-01 1.000000000000000e+00
2.000000000000000e+00 7.500000000000000e-01 7.500000000000000e-01
2.000000000000000e+00 2.500000000000000e-01 7.500000000000000e-01
1.750000000000000e+00 5.000000000000000e-01 7.500000000000000e-01
1.000000000000000e+00 5.000000000000000e-01 5.000000000000000e-01
1.500000000000000e+00 0.000000000000000e+00 5.000000000000000e-01
1.500000000000000e+00 5.000000000000000e-01 1.000000000000000e+00
1.000000000000000e+00 0.000000000000000e+00 1.000000000000000e+00
1.250000000000000e+00 2.500000000000000e-01 5.000000000000000e-01
1.500000000000000e+00 2.500000000000000e-01 7.500000000000000e-01
1.250000000000000e+00 5.000000000000000e-01 7.500000000000000e-01
1.000000000000000e+00 2.500000000000000e-01 7.500000000000000e-01
1.250000000000000e+00 0.000000000000000e+00 7.500000000000000e-01
1.250000000000000e+00 2.500000000000000e-01 1.000000000000000e+00
1.000000000000000e+00 5.000000000000000e-01 5.000000000000000e-01
1.500000000000000e+00 5.000000000000000e-01 0.000000000000000e+00
1.500000000000000e+00 0.000000000000000e+00 5.000000000000000e-01
1.000000000000000e+00 0.000000000000000e+00 0.000000000000000e+00
1.250000000000000e+00 5.000000000000000e-01 2.500000000000000e-01
1.500000000000000e+00 2.500000000000000e-01 2.500000000000000e-01
1.250000000000000e+00 2.500000000000000e-01 5.000000000000000e-01
1.000000000000000e+00 2.500000000000000e-01 2.500000000000000e-01
1.250000000000000e+00 2.500000000000000e-01 0.000000000000000e+00
1.250000000000000e+00 0.000000000000000e+00 2.500000000000000e-01
1.000000000000000e+00 5.000000000000000e-01 5.000000000000000e-01
1.500000000000000e+00 1.000000000000000e+00 5.000000000000000e-01
1.500000000000000e+00 5.000000000000000e-01 0.000000000000000e+00
1.000000000000000e+00 1.000000000000000e+00 0.000000000000000e+00
1.250000000000000e+00 7.500000000000000e-01 5.000000000000000e-01
1.500000000000000e+00 7.500000000000000e-01 2.500000000000000e-01
1.250000000000000e+00 5.000000000000000e-01 2.500000000000000e-01
1.000000000000000e+00 7.500000000000000e-01 2.500000000000000e-01
1.250000000000000e+00 1.000000000000000e+00 2.500000000000000e-01
1.250000000000000e+00 7.500000000000000e-01 0.000000000000000e+00
1.000000000000000e+00 5.000000000000000e-01 5.000000000000000e-01
1.500000000000000e+00 5.000000000000000e-01 1.000000000000000e+00
1.500000000000000e+00 1.000000000000000e+00 5.000000000000000e-01
1.000000000000000e+00 1.000000000000000e+00 1.000000000000000e+00
1.250000000000000e+00 5.000000000000000e-01 7.500000000000000e-01
1.500000000000000e+00 7.500000000000000e-01 7.500000000000000e-01
1.250000000000000e+00 7.500000000000000e-01 5.000000000000000e-01
1.000000000000000e+00 7.500000000000000e-01 7.500000000000000e-01
1.250000000000000e+00 7.500000000000000e-01 1.000000000000000e+00
1.250000000000000e+00 1.000000000000000e+00 7.500000000000000e-01
2.000000000000000e+00 5.000000000000000e-01 5.000000000000000e-01
1.500000000000000e+00 5.000000000000000e-01 1.000000000000000e+00
1.500000000000000e+00 0.000000000000000e+00 5.000000000000000e-01
2.000000000000000e+00 0.000000000000000e+00 1.000000000000000e+00
1.750000000000000e+00 5.000000000000000e-01 7.500000000000000e-01
1.500000000000000e+00 2.500000000000000e-01 7.500000000000000e-01
1.750000000000000e+00 2.500000000000000e-01 5.000000000000000e-01
2.000000000000000e+00 2.500000000000000e-01 7.500000000000000e-01
1.750000000000000e+00 2.500000000000000e-01 1.000000000000000e+00
1.750000000000000e+00 0.000000000000000e+00 7.500000000000000e-01
2.000000000000000e+00 5.000000000000000e-01 5.000000000000000e-01
1.500000000000000e+00 0.000000000000000e+00 5.000000000000000e-01
1.500000000000000e+00 5.000000000000000e-01 0.000000000000000e+00
2.000000000000000e+00 0.000000000000000e+00 0.000000000000000e+00
1.750000000000000e+00 2.500000000000000e-01 5.000000000000000e-01
1.500000000000000e+00 2.500000000000000e-01 2.500000000000000e-01
1.750000000000000e+00 5.000000000000000e-01 2.500000000000000e-01
2.000000000000000e+00 2.500000000000000e-01 2.500000000000000e-01
1.750000000000000e+00 0.000000000000000e+00 2.500000000000000e-01
1.750000000000000e+00 2.500000000000000e-01 0.000000000000000e+00
2.000000000000000e+00 5.000000000000000e-01 5.000000000000000e-01
1.500000000000000e+00 5.000000000000000e-01 0.000000000000000e+00
1.500000000000000e+00 1.000000000000000e+00 5.000000000000000e-01
2.000000000000000e+00 1.000000000000000e+00 0.000000000000000e+00
1.750000000000000e+00 5.000000000000000e-01 2.500000000000000e-01
1.500000000000000e+00 7.500000000000000e-01 2.500000000000000e-01
1.750000000000000e+00 7.500000000000000e-01 5.000000000000000e-01
2.000000000000000e+00 7.500000000000000e-01 2.500000000000000e-01
1.750000000000000e+00 7.500000000000000e-01 0.000000000000000e+00
1.750000000000000e+00 1.000000000000000e+00 2.500000000000000e-01
2.000000000000000e+00 5.000000000000000e-01 5.000000000000000e-01
1.500000000000000e+00 1.000000000000000e+00 5.000000000000000e-01
1.500000000000000e+00 5.000000000000000e-01 1.000000000000000e+00
2.000000000000000e+00 1.000000000000000e+00 1.000000000000000e+00
1.750000000000000e+00 7.500000000000000e-01 5.000000000000000e-01
1.500000000000000e+00 7.500000000000000e-01 7.500000000000000e-01
1.750000000000000e+00 5.000000000000000e-01 7.500000000000000e-01
2.000000000000000e+00 7.500000000000000e-01 7.500000000000000e-01
1.750000000000000e+00 1.000000000000000e+00 7.500000000000000e-01
1.750000000000000e+00 7.500000000000000e-01 1.000000000000000e+00
1.000000000000000e+00 5.000000000000000e-01 5.000000000000000e-01
1.500000000000000e+00 5.000000000000000e-01 1.000000000000000e+00
1.500000000000000e+00 0.000000000000000e+00 5.000000000000000e-01
1.500000000000000e+00 5.000000000000000e-01 5.000000000000000e-01
1.250000000000000e+00 5.000000000000000e-01 7.500000000000000e-01
1.500000000000000e+00 2.500000000000000e-01 7.500000000000000e-01
1.250000000000000e+00 2.500000000000000e-01 5.000000000000000e-01
1.250000000000000e+00 5.000000000000000e-01 5.000000000000000e-01
1.500000000000000e+00 5.000000000000000e-01 7.500000000000000e-01
1.500000000000000e+00 2.500000000000000e-01 5.000000000000000e-01
1.000000000000000e+00 5.000000000000000e-01 5.000000000000000e-01
1.500000000000000e+00 0.000000000000000e+00 5.000000000000000e-01
1.500000000000000e+00 5.000000000000000e-01 0.000000000000000e+00
1.500000000000000e+00 5.000000000000000e-01 5.000000000000000e-01
1.250000000000000e+00 2.500000000000000e-01 5.000000000000000e-01
1.500000000000000e+00 2.500000000000000e-01 2.500000000000000e-01
1.250000000000000e+00 5.000000000000000e-01 2.500000000000000e-01
1.250000000000000e+00 5.000000000000000e-01 5.000000000000000e-01
1.500000000000000e+00 2.500000000000000e-01 5.000000000000000e-01
1.500000000000000e+00 5.000000000000000e-01 2.500000000000000e-01
1.000000000000000e+00 5.000000000000000e-01 5.000000000000000e-01
1.500000000000000e+00 5.000000000000000e-01 0.000000000000000e+00
1.500000000000000e+00 1.000000000000000e+00 5.000000000000000e-01
1.500000000000000e+00 5.000000000000000e-01 5.000000000000000e-01
1.250000000000000e+00 5.000000000000000e-01 2.500000000000000e-01
1.500000000000000e+00 7.500000000000000e-01 2.500000000000000e-01
1.250000000000000e+00 7.500000000000000e-01 5.000000000000000e-01
1.250000000000000e+00 5.000000000000000e-01 5.000000000000000e-01
1.500000000000000e+00 5.000000000000000e-01 2.500000000000000e-01
1.500000000000000e+00 7.500000000000000e-01 5.000000000000000e-01
1.000000000000000e+00 5.000000000000000e-01 5.000000000000000e-01
1.500000000000000e+00 1.000000000000000e+00 5.000000000000000e-01
1.500000000000000e+00 5.000000000000000e-01 1.000000000000000e+00
1.500000000000000e+00 5.000000000000000e-01 5.000000000000000e-01
1.250000000000000e+00 7.500000000000000e-01 5.000000000000000e-01
1.500000000000000e+00 7.500000000000000e-01 7.500000000000000e-01
1.250000000000000e+00 5.000000000000000e-01 7.500000000000000e-01
1.250000000000000e+00 5.000000000000000e-01 5.000000000000000e-01
1.500000000000000e+00 7.500000000000000e-01 5.000000000000000e-01
1.500000000000000e+00 5.000000000000000e-01 7.500000000000000e-01
2.000000000000000e+00 5.000000000000000e-01 5.000000000000000e-01
1.500000000000000e+00 0.000000000000000e+00 5.000000000000000e-01
1.500000000000000e+00 5.000000000000000e-01 1.000000000000000e+00
1.500000000000000e+00 5.000000000000000e-01 5.000000000000000e-01
1.750000000000000e+00 2.500000000000000e-01 5.000000000000000e-01
1.500000000000000e+00 2.500000000000000e-01 7.500000000000000e-01
1.750000000000000e+00 5.000000000000000e-01 7.500000000000000e-01
1.750000000000000e+00 5.000000000000000e-01 5.000000000000000e-01
1.500000000000000e+00 2.500000000000000e-01 5.000000000000000e-01
1.500000000000000e+00 5.000000000000000e-01 7.500000000000000e-01
2.000000000000000e+00 5.000000000000000e-01 5.000000000000000e-01
1.500000000000000e+00 5.000000000000000e-01 0.000000000000000e+00
1.500000000000000e+00 0.000000000000000e+00 5.000000000000000e-01
1.500000000000000e+00 5.000000000000000e-01 5.000000000000000e-01
1.750000000000000e+00 5.000000000000000e-01 2.500000000000000e-01
1.500000000000000e+00 2.500000000000000e-01 2.500000000000000e-01
1.750000000000000e+00 2.500000000000000e-01 5.000000000000000e-01
1.750000000000000e+00 5.000000000000000e-01 5.000000000000000e-01
1.500000000000000e+00 5.000000000000000e-01 2.500000000000000e-01
1.500000000000000e+00 2.500000000000000e-01 5.000000000000000e-01
2.000000000000000e+00 5.000000000000000e-01 5.000000000000000e-01
1.500000000000000e+00 1.000000000000000e+00 5.000000000000000e-01
1.500000000000000e+00 5.000000000000000e-01 0.000000000000000e+00
1.500000000000000e+00 5.000000000000000e-01 5.000000000000000e-01
1.750000000000000e+00 7.500000000000000e-01 5.000000000000000e-01
1.500000000000000e+00 7.500000000000000e-01 2.500000000000000e-01
1.750000000000000e+00 5.000000000000000e-01 2.500000000000000e-01
1.750000000000000e+00 5.000000000000000e-01 5.000000000000000e-01
1.500000000000000e+00 7.500000000000000e-01 5.000000000000000e-01
1.500000000000000e+00 5.000000000000000e-01 2.500000000000000e-01
2.000000000000000e+00 5.000000000000000e-01 5.000000000000000e-01
1.500000000000000e+00 5.000000000000000e-01 1.000000000000000e+00
1.500000000000000e+00 1.000000000000000e+00 5.000000000000000e-01
1.500000000000000e+00 5.000000000000000e-01 5.000000000000000e-01
1.750000000000000e+00 5.000000000000000e-01 7.500000000000000e-01
1.500000000000000e+00 7.500000000000000e-01 7.500000000000000e-01
1.750000000000000e+00 7.500000000000000e-01 5.000000000000000e-01
1.750000000000000e+00 5.000000000000000e-01 5.000000000000000e-01
1.500000000000000e+00 5.000000000000000e-01 7.500000000000000e-01
1.500000000000000e+00 7.500000000000000e-01 5.000000000000000e-01
        </DataArray>
      </Points>

      <Cells>
        <DataArray type="Int32" Name="connectivity" format="ascii">
0 1 2 3 4 5 6 7 8 9 10 11 12 13 14 15 16 17 18 19 20 21 22 23 24 25 26 27 28 29 30 31 32 33 34 35 36 37 38 39 40 41 42 43 44 45 46 47 48 49 50 51 52 53 54 55 56 57 58 59 60 61 62 63 64 65 66 67 68 69 70 71 72 73 74 75 76 77 78 79 80 81 82 83 84 85 86 87 88 89 90 91 92 93 94 95 96 97 98 99 100 101 102 103 104 105 106 107 108 109 110 111 112 113 114 115 116 117 118 119 120 121 122 123 124 125 126 127 128 129 130 131 132 133 134 135 136 137 138 139 140 141 142 143 144 145 146 147 148 149 150 151 152 153 154 155 156 157 158 159 160 161 162 163 164 165 166 167 168 169 170 171 172 173 174 175 176 177 178 179 180 181 182 183 184 185 186 187 188 189 190 191 192 193 194 195 196 197 198 199 200 201 202 203 204 205 206 207 208 209 210 211 212 213 214 215 216 217 218 219 220 221 222 223 224 225 226 227 228 229 230 231 232 233 234 235 236 237 238 239 240 241 242 243 244 245 246 247 248 249 250 251 252 253 254 255 256 257 258 259 260 261 262 263 264 265 266 267 268 269 270 271 272 273 274 275 276 277 278 279 280 281 282 283 284 285 286 287 288 289 290 291 292 293 294 295 296 297 298 299 300 301 302 303 304 305 306 307 308 309 310 311 312 313 314 315 316 317 318 319 320 321 322 323 324 325 326 327 328 329 330 331 332 333 334 335 336 337 338 339 340 341 342 343 344 345 346 347 348 349 350 351 352 353 354 355 356 357 358 359 360 361 362 363 364 365 366 367 368 369 370 371 372 373 374 375 376 377 378 379 380 381 382 383 384 385 386 387 388 389 390 391 392 393 394 395 396 397 398 399 400 401 402 403 404 405 406 407 408 409 410 411 412 413 414 415 416 417 418 419 420 421 422 423 424 425 426 427 428 429 430 431 432 433 434 435 436 437 438 439 440 441 442 443 444 445 446 447 448 449 450 451 452 453 454 455 456 457 458 459 460 461 462 463 464 465 466 467 468 469 470 471 472 473 474 475 476 477 478 479 480 481 482 483 484 485 486 487 488 489 490 491 492 493 494 495 496 497 498 499 500 501 502 503 504 505 506 507 508 509 510 511 512 513 514 515 516 517 518 519 520 521 522 523 524 525 526 527 528 529 530 531 532 533 534 535 536 537 538 539 540 541 542 543 544 545 546 547 548 549 550 551 552 553 554 555 556 557 558 559 
        </DataArray>
        <DataArray type="Int32" Name="offsets" format="ascii">
10 20 30 40 50 60 70 80 90 100 110 120 130 140 150 160 170 180 190 200 210 220 230 240 250 260 270 280 290 300 310 320 330 340 350 360 370 380 390 400 410 420 430 440 450 460 470 480 490 500 510 520 530 540 550 560 
        </DataArray>
        <DataArray type="UInt8" Name="types" format="ascii">
24 24 24 24 24 24 24 24 24 24 24 24 24 24 24 24 24 24 24 24 24 24 24 24 24 24 24 24 24 24 24 24 24 24 24 24 24 24 24 24 24 24 24 24 24 24 24 24 24 24 24 24 24 24 24 24 
        </DataArray>
      </Cells>

  <PointData>
        <DataArray type="Float64" Name="displacement" NumberOfComponents="3" format="ascii">
0.000000000000000e+00 0.000000000000000e+00 0.000000000000000e+00
0.000000000000000e+00 0.000000000000000e+00 0.000000000000000e+00
0.000000000000000e+00 0.000000000000000e+00 0.000000000000000e+00
5.444934509089666e-02 -4.411236439589097e-04 -8.476597794134826e-04
0.000000000000000e+00 0.000000000000000e+00 0.000000000000000e+00
0.000000000000000e+00 0.000000000000000e+00 0.000000000000000e+00
0.000000000000000e+00 0.000000000000000e+00 0.000000000000000e+00
2.775718299722207e-02 -1.098140750968604e-04 -2.020229659003791e-04
2.672537890671709e-02 -1.075613012414849e-04 -2.037171599628336e-04
2.746208463071379e-02 -1.055268038399810e-04 -1.963386649957042e-04
0.000000000000000e+00 0.000000000000000e+00 0.000000000000000e+00
0.000000000000000e+00 0.000000000000000e+00 0.000000000000000e+00
0.000000000000000e+00 0.000000000000000e+00 0.000000000000000e+00
5.346787914535447e-02 -4.220923324065351e-04 -8.780055420758937e-04
0.000000000000000e+00 0.000000000000000e+00 0.000000000000000e+00
0.000000000000000e+00 0.000000000000000e+00 0.000000000000000e+00
0.000000000000000e+00 0.000000000000000e+00 0.000000000000000e+00
2.650874342051475e-02 -1.057002666100187e-04 -2.146353081298650e-04
2.702400556166037e-02 -9.582519449701417e-05 -2.170501784699205e-04
2.720775369124067e-02 -9.757193635421689e-05 -2.100423495922216e-04
0.000000000000000e+00 0.000000000000000e+00 0.000000000000000e+00
0.000000000000000e+00 0.000000000000000e+00 0.000000000000000e+00
0.000000000000000e+00 0.000000000000000e+00 0.000000000000000e+00
5.641638293920472e-02 -4.442418966816619e-04 -8.546062153520796e-04
0.000000000000000e+00 0.000000000000000e+00 0.000000000000000e+00
0.000000000000000e+00 0.000000000000000e+00 0.000000000000000e+00
0.000000000000000e+00 0.000000000000000e+00 0.000000000000000e+00
2.767607340811280e-02 -1.084249008750427e-04 -2.009433826358759e-04
2.871040304752730e-02 -1.113877533819969e-04 -2.101519291777333e-04
2.797128032106623e-02 -1.063202419883737e-04 -1.987264559635039e-04
0.000000000000000e+00 0.000000000000000e+00 0.000000000000000e+00
0.000000000000000e+00 0.000000000000000e+00 0.000000000000000e+00
0.000000000000000e+00 0.000000000000000e+00 0.000000000000000e+00
5.740194554708792e-02 -4.290388193451346e-04 -8.927892578323902e-04
0.000000000000000e+00 0.000000000000000e+00 0.000000000000000e+00
0.000000000000000e+00 0.000000000000000e+00 0.000000000000000e+00
0.000000000000000e+00 0.000000000000000e+00 0.000000000000000e+00
2.892920491351992e-02 -1.093730450860815e-04 -2.227602922041381e-04
2.841141727446428e-02 -9.750787135492029e-05 -2.199596561509061e-04
2.822614952228805e-02 -9.995976007531287e-05 -2.136669546578663e-04
0.000000000000000e+00 0.000000000000000e+00 0.000000000000000e+00
1.131193480480289e-01 -1.879443722459286e-03 -3.773103469901641e-03
5.444934509089666e-02 -4.411236439589097e-04 -8.476597794134826e-04
5.740194554708792e-02 -4.290388193451346e-04 -8.927892578323902e-04
5.642788375843900e-02 -4.389252115988020e-04 -8.706903865048720e-04
8.323343570702939e-02 -1.003394100269263e-03 -2.018681685265467e-03
2.775718299722207e-02 -1.098140750968604e-04 -2.020229659003791e-04
2.841141727446428e-02 -9.750787135492029e-05 -2.199596561509061e-04
8.545669771662399e-02 -1.018668743684736e-03 -2.036712636669115e-03
5.595882393475376e-02 -4.337535078355034e-04 -8.677812934957426e-04
0.000000000000000e+00 0.000000000000000e+00 0.000000000000000e+00
1.040769842400960e-01 -1.875543187835763e-03 -3.729656424919913e-03
5.346787914535447e-02 -4.220923324065351e-04 -8.780055420758937e-04
5.444934509089666e-02 -4.411236439589097e-04 -8.476597794134826e-04
5.245312309528971e-02 -4.227353329323761e-04 -8.520390672440370e-04
7.918643888853703e-02 -9.926724943014819e-04 -2.021468656052827e-03
2.650874342051475e-02 -1.057002666100187e-04 -2.146353081298650e-04
2.672537890671709e-02 -1.075613012414849e-04 -2.037171599628336e-04
7.992482482900728e-02 -1.024142975916651e-03 -1.995717206888233e-03
5.385505682099320e-02 -4.309458410469181e-04 -8.600195983920869e-04
0.000000000000000e+00 0.000000000000000e+00 0.000000000000000e+00
1.086000748750427e-01 -1.860794612837231e-03 -3.746761867814251e-03
5.641638293920472e-02 -4.442418966816619e-04 -8.546062153520796e-04
5.346787914535447e-02 -4.220923324065351e-04 -8.780055420758937e-04
5.443829459810975e-02 -4.339450186288026e-04 -8.647761947059904e-04
8.305941892642692e-02 -9.991636161915550e-04 -2.017146282495133e-03
2.767607340811280e-02 -1.084249008750427e-04 -2.009433826358759e-04
2.702400556166037e-02 -9.582519449701417e-05 -2.170501784699205e-04
8.084016843146620e-02 -1.006100993921146e-03 -2.016822533033167e-03
5.490666116655530e-02 -4.298851759794649e-04 -8.644611528671180e-04
0.000000000000000e+00 0.000000000000000e+00 0.000000000000000e+00
1.176339439242685e-01 -1.917456988083260e-03 -3.816555797005106e-03
5.740194554708792e-02 -4.290388193451346e-04 -8.927892578323902e-04
5.641638293920472e-02 -4.442418966816619e-04 -8.546062153520796e-04
5.842171068280141e-02 -4.364918416709681e-04 -8.766890862579996e-04
8.711238720240010e-02 -1.013927056128669e-03 -2.064409085497394e-03
2.892920491351992e-02 -1.093730450860815e-04 -2.227602922041381e-04
2.871040304752730e-02 -1.113877533819969e-04 -2.101519291777333e-04
8.636999007529185e-02 -1.042964179062714e-03 -2.031073716942382e-03
5.701149688633867e-02 -4.393073324857856e-04 -8.755694186499837e-04
1.131193480480289e-01 -1.879443722459286e-03 -3.773103469901641e-03
1.040769842400960e-01 -1.875543187835763e-03 -3.729656424919913e-03
5.444934509089666e-02 -4.411236439589097e-04 -8.476597794134826e-04
1.108535911879648e-01 -1.841281000683541e-03 -3.682691674102117e-03
1.086456844196553e-01 -1.852786235829384e-03 -3.668356295585493e-03
7.992482482900728e-02 -1.024142975916651e-03 -1.995717206888233e-03
8.323343570702939e-02 -1.003394100269263e-03 -2.018681685265467e-03
1.120471959761810e-01 -1.862393280753481e-03 -3.724851594526598e-03
1.072775886401960e-01 -1.845691237237992e-03 -3.690024309300348e-03
8.231781561915331e-02 -1.003054051278392e-03 -1.987112363054029e-03
1.040769842400960e-01 -1.875543187835763e-03 -3.729656424919913e-03
1.086000748750427e-01 -1.860794612837231e-03 -3.746761867814251e-03
5.346787914535447e-02 -4.220923324065351e-04 -8.780055420758937e-04
1.108535911879648e-01 -1.841281000683541e-03 -3.682691674102117e-03
1.064392629397236e-01 -1.826609474879633e-03 -3.691585428879315e-03
8.084016843146620e-02 -1.006100993921146e-03 -2.016822533033167e-03
7.918643888853703e-02 -9.926724943014819e-04 -2.021468656052827e-03
1.072775886401960e-01 -1.845691237237992e-03 -3.690024309300348e-03
1.096649175100688e-01 -1.851214718527973e-03 -3.708882675484334e-03
8.149141572541842e-02 -9.905013638067802e-04 -2.001450489141316e-03
1.086000748750427e-01 -1.860794612837231e-03 -3.746761867814251e-03
1.176339439242685e-01 -1.917456988083260e-03 -3.816555797005106e-03
5.641638293920472e-02 -4.442418966816619e-04 -8.546062153520796e-04
1.108535911879648e-01 -1.841281000683541e-03 -3.682691674102117e-03
1.130644199759638e-01 -1.869506892883337e-03 -3.698800450393291e-03
8.636999007529185e-02 -1.042964179062714e-03 -2.031073716942382e-03
8.305941892642692e-02 -9.991636161915550e-04 -2.017146282495133e-03
1.096649175100688e-01 -1.851214718527973e-03 -3.708882675484334e-03
1.144244886975035e-01 -1.876390141361407e-03 -3.747871506158425e-03
8.397204889050369e-02 -1.008100198856953e-03 -1.999290604967757e-03
1.176339439242685e-01 -1.917456988083260e-03 -3.816555797005106e-03
1.131193480480289e-01 -1.879443722459286e-03 -3.773103469901641e-03
5.740194554708792e-02 -4.290388193451346e-04 -8.927892578323902e-04
1.108535911879648e-01 -1.841281000683541e-03 -3.682691674102117e-03
1.152766083861453e-01 -1.857051895138189e-03 -3.753243152034559e-03
8.545669771662399e-02 -1.018668743684736e-03 -2.036712636669115e-03
8.711238720240010e-02 -1.013927056128669e-03 -2.064409085497394e-03
1.144244886975035e-01 -1.876390141361407e-03 -3.747871506158425e-03
1.120471959761810e-01 -1.862393280753481e-03 -3.724851594526598e-03
8.479986396548629e-02 -1.002679318415573e-03 -2.020989060711281e-03
0.000000000000000e+00 0.000000000000000e+00 0.000000000000000e+00
5.444934509089666e-02 -4.411236439589097e-04 -8.476597794134826e-04
5.740194554708792e-02 -4.290388193451346e-04 -8.927892578323902e-04
0.000000000000000e+00 0.000000000000000e+00 0.000000000000000e+00
2.746208463071379e-02 -1.055268038399810e-04 -1.963386649957042e-04
5.595882393475376e-02 -4.337535078355034e-04 -8.677812934957426e-04
2.822614952228805e-02 -9.995976007531287e-05 -2.136669546578663e-04
0.000000000000000e+00 0.000000000000000e+00 0.000000000000000e+00
2.775718299722207e-02 -1.098140750968604e-04 -2.020229659003791e-04
2.841141727446428e-02 -9.750787135492029e-05 -2.199596561509061e-04
0.000000000000000e+00 0.000000000000000e+00 0.000000000000000e+00
5.346787914535447e-02 -4.220923324065351e-04 -8.780055420758937e-04
5.444934509089666e-02 -4.411236439589097e-04 -8.476597794134826e-04
0.000000000000000e+00 0.000000000000000e+00 0.000000000000000e+00
2.720775369124067e-02 -9.757193635421689e-05 -2.100423495922216e-04
5.385505682099320e-02 -4.309458410469181e-04 -8.600195983920869e-04
2.746208463071379e-02 -1.055268038399810e-04 -1.963386649957042e-04
0.000000000000000e+00 0.000000000000000e+00 0.000000000000000e+00
2.650874342051475e-02 -1.057002666100187e-04 -2.146353081298650e-04
2.672537890671709e-02 -1.075613012414849e-04 -2.037171599628336e-04
0.000000000000000e+00 0.000000000000000e+00 0.000000000000000e+00
5.641638293920472e-02 -4.442418966816619e-04 -8.546062153520796e-04
5.346787914535447e-02 -4.220923324065351e-04 -8.780055420758937e-04
0.000000000000000e+00 0.000000000000000e+00 0.000000000000000e+00
2.797128032106623e-02 -1.063202419883737e-04 -1.987264559635039e-04
5.490666116655530e-02 -4.298851759794649e-04 -8.644611528671180e-04
2.720775369124067e-02 -9.757193635421689e-05 -2.100423495922216e-04
0.000000000000000e+00 0.000000000000000e+00 0.000000000000000e+00
2.767607340811280e-02 -1.084249008750427e-04 -2.009433826358759e-04
2.702400556166037e-02 -9.582519449701417e-05 -2.170501784699205e-04
0.000000000000000e+00 0.000000000000000e+00 0.000000000000000e+00
5.740194554708792e-02 -4.290388193451346e-04 -8.927892578323902e-04
5.641638293920472e-02 -4.442418966816619e-04 -8.546062153520796e-04
0.000000000000000e+00 0.000000000000000e+00 0.000000000000000e+00
2.822614952228805e-02 -9.995976007531287e-05 -2.136669546578663e-04
5.701149688633867e-02 -4.393073324857856e-04 -8.755694186499837e-04
2.797128032106623e-02 -1.063202419883737e-04 -1.987264559635039e-04
0.000000000000000e+00 0.000000000000000e+00 0.000000000000000e+00
2.892920491351992e-02 -1.093730450860815e-04 -2.227602922041381e-04
2.871040304752730e-02 -1.113877533819969e-04 -2.101519291777333e-04
1.108535911879648e-01 -1.841281000683541e-03 -3.682691674102117e-03
5.740194554708792e-02 -4.290388193451346e-04 -8.927892578323902e-04
5.444934509089666e-02 -4.411236439589097e-04 -8.476597794134826e-04
1.131193480480289e-01 -1.879443722459286e-03 -3.773103469901641e-03
8.479986396548629e-02 -1.002679318415573e-03 -2.020989060711281e-03
5.595882393475376e-02 -4.337535078355034e-04 -8.677812934957426e-04
8.231781561915331e-02 -1.003054051278392e-03 -1.987112363054029e-03
1.120471959761810e-01 -1.862393280753481e-03 -3.724851594526598e-03
8.545669771662399e-02 -1.018668743684736e-03 -2.036712636669115e-03
8.323343570702939e-02 -1.003394100269263e-03 -2.018681685265467e-03
1.108535911879648e-01 -1.841281000683541e-03 -3.682691674102117e-03
5.444934509089666e-02 -4.411236439589097e-04 -8.476597794134826e-04
5.346787914535447e-02 -4.220923324065351e-04 -8.780055420758937e-04
1.040769842400960e-01 -1.875543187835763e-03 -3.729656424919913e-03
8.231781561915331e-02 -1.003054051278392e-03 -1.987112363054029e-03
5.385505682099320e-02 -4.309458410469181e-04 -8.600195983920869e-04
8.149141572541842e-02 -9.905013638067802e-04 -2.001450489141316e-03
1.072775886401960e-01 -1.845691237237992e-03 -3.690024309300348e-03
7.992482482900728e-02 -1.024142975916651e-03 -1.995717206888233e-03
7.918643888853703e-02 -9.926724943014819e-04 -2.021468656052827e-03
1.108535911879648e-01 -1.841281000683541e-03 -3.682691674102117e-03
5.346787914535447e-02 -4.220923324065351e-04 -8.780055420758937e-04
5.641638293920472e-02 -4.442418966816619e-04 -8.546062153520796e-04
1.086000748750427e-01 -1.860794612837231e-03 -3.746761867814251e-03
8.149141572541842e-02 -9.905013638067802e-04 -2.001450489141316e-03
5.490666116655530e-02 -4.298851759794649e-04 -8.644611528671180e-04
8.397204889050369e-02 -1.008100198856953e-03 -1.999290604967757e-03
1.096649175100688e-01 -1.851214718527973e-03 -3.708882675484334e-03
8.084016843146620e-02 -1.006100993921146e-03 -2.016822533033167e-03
8.305941892642692e-02 -9.991636161915550e-04 -2.017146282495133e-03
1.108535911879648e-01 -1.841281000683541e-03 -3.682691674102117e-03
5.641638293920472e-02 -4.442418966816619e-04 -8.546062153520796e-04
5.740194554708792e-02 -4.290388193451346e-04 -8.927892578323902e-04
1.176339439242685e-01 -1.917456988083260e-03 -3.816555797005106e-03
8.397204889050369e-02 -1.008100198856953e-03 -1.999290604967757e-03
5.701149688633867e-02 -4.393073324857856e-04 -8.755694186499837e-04
8.479986396548629e-02 -1.002679318415573e-03 -2.020989060711281e-03
1.144244886975035e-01 -1.876390141361407e-03 -3.747871506158425e-03
8.636999007529185e-02 -1.042964179062714e-03 -2.031073716942382e-03
8.711238720240010e-02 -1.013927056128669e-03 -2.064409085497394e-03
0.000000000000000e+00 0.000000000000000e+00 0.000000000000000e+00
5.740194554708792e-02 -4.290388193451346e-04 -8.927892578323902e-04
5.444934509089666e-02 -4.411236439589097e-04 -8.476597794134826e-04
5.543200821302239e-02 -4.284914567590996e-04 -8.569985199432548e-04
2.822614952228805e-02 -9.995976007531287e-05 -2.136669546578663e-04
5.595882393475376e-02 -4.337535078355034e-04 -8.677812934957426e-04
2.746208463071379e-02 -1.055268038399810e-04 -1.963386649957042e-04
2.771663954297495e-02 -1.010742195221683e-04 -2.021513877016973e-04
5.648410871497127e-02 -4.310066947322930e-04 -8.682565111072390e-04
5.490649035891131e-02 -4.306630773695197e-04 -8.530809914958519e-04
0.000000000000000e+00 0.000000000000000e+00 0.000000000000000e+00
5.444934509089666e-02 -4.411236439589097e-04 -8.476597794134826e-04
5.346787914535447e-02 -4.220923324065351e-04 -8.780055420758937e-04
5.543200821302239e-02 -4.284914567590996e-04 -8.569985199432548e-04
2.746208463071379e-02 -1.055268038399810e-04 -1.963386649957042e-04
5.385505682099320e-02 -4.309458410469181e-04 -8.600195983920869e-04
2.720775369124067e-02 -9.757193635421689e-05 -2.100423495922216e-04
2.771663954297495e-02 -1.010742195221683e-04 -2.021513877016973e-04
5.490649035891131e-02 -4.306630773695197e-04 -8.530809914958519e-04
5.438130193510034e-02 -4.250452430575395e-04 -8.588527720305623e-04
0.000000000000000e+00 0.000000000000000e+00 0.000000000000000e+00
5.346787914535447e-02 -4.220923324065351e-04 -8.780055420758937e-04
5.641638293920472e-02 -4.442418966816619e-04 -8.546062153520796e-04
5.543200821302239e-02 -4.284914567590996e-04 -8.569985199432548e-04
2.720775369124067e-02 -9.757193635421689e-05 -2.100423495922216e-04
5.490666116655530e-02 -4.298851759794649e-04 -8.644611528671180e-04
2.797128032106623e-02 -1.063202419883737e-04 -1.987264559635039e-04
2.771663954297495e-02 -1.010742195221683e-04 -2.021513877016973e-04
5.438130193510034e-02 -4.250452430575395e-04 -8.588527720305623e-04
5.595789247875724e-02 -4.328714022184536e-04 -8.590424431246503e-04
0.000000000000000e+00 0.000000000000000e+00 0.000000000000000e+00
5.641638293920472e-02 -4.442418966816619e-04 -8.546062153520796e-04
5.740194554708792e-02 -4.290388193451346e-04 -8.927892578323902e-04
5.543200821302239e-02 -4.284914567590996e-04 -8.569985199432548e-04
2.797128032106623e-02 -1.063202419883737e-04 -1.987264559635039e-04
5.701149688633867e-02 -4.393073324857856e-04 -8.755694186499837e-04
2.822614952228805e-02 -9.995976007531287e-05 -2.136669546578663e-04
2.771663954297495e-02 -1.010742195221683e-04 -2.021513877016973e-04
5.595789247875724e-02 -4.328714022184536e-04 -8.590424431246503e-04
5.648410871497127e-02 -4.310066947322930e-04 -8.682565111072390e-04
1.108535911879648e-01 -1.841281000683541e-03 -3.682691674102117e-03
5.444934509089666e-02 -4.411236439589097e-04 -8.476597794134826e-04
5.740194554708792e-02 -4.290388193451346e-04 -8.927892578323902e-04
5.543200821302239e-02 -4.284914567590996e-04 -8.569985199432548e-04
8.231781561915331e-02 -1.003054051278392e-03 -1.987112363054029e-03
5.595882393475376e-02 -4.337535078355034e-04 -8.677812934957426e-04
8.479986396548629e-02 -1.002679318415573e-03 -2.020989060711281e-03
8.314480873242261e-02 -1.002434959828190e-03 -2.004924671926639e-03
5.490649035891131e-02 -4.306630773695197e-04 -8.530809914958519e-04
5.648410871497127e-02 -4.310066947322930e-04 -8.682565111072390e-04
1.108535911879648e-01 -1.841281000683541e-03 -3.682691674102117e-03
5.346787914535447e-02 -4.220923324065351e-04 -8.780055420758937e-04
5.444934509089666e-02 -4.411236439589097e-04 -8.476597794134826e-04
5.543200821302239e-02 -4.284914567590996e-04 -8.569985199432548e-04
8.149141572541842e-02 -9.905013638067802e-04 -2.001450489141316e-03
5.385505682099320e-02 -4.309458410469181e-04 -8.600195983920869e-04
8.231781561915331e-02 -1.003054051278392e-03 -1.987112363054029e-03
8.314480873242261e-02 -1.002434959828190e-03 -2.004924671926639e-03
5.438130193510034e-02 -4.250452430575395e-04 -8.588527720305623e-04
5.490649035891131e-02 -4.306630773695197e-04 -8.530809914958519e-04
1.108535911879648e-01 -1.841281000683541e-03 -3.682691674102117e-03
5.641638293920472e-02 -4.442418966816619e-04 -8.546062153520796e-04
5.346787914535447e-02 -4.220923324065351e-04 -8.780055420758937e-04
5.543200821302239e-02 -4.284914567590996e-04 -8.569985199432548e-04
8.397204889050369e-02 -1.008100198856953e-03 -1.999290604967757e-03
5.490666116655530e-02 -4.298851759794649e-04 -8.644611528671180e-04
8.149141572541842e-02 -9.905013638067802e-04 -2.001450489141316e-03
8.314480873242261e-02 -1.002434959828190e-03 -2.004924671926639e-03
5.595789247875724e-02 -4.328714022184536e-04 -8.590424431246503e-04
5.438130193510034e-02 -4.250452430575395e-04 -8.588527720305623e-04
1.108535911879648e-01 -1.841281000683541e-03 -3.682691674102117e-03
5.740194554708792e-02 -4.290388193451346e-04 -8.927892578323902e-04
5.641638293920472e-02 -4.442418966816619e-04 -8.546062153520796e-04
5.543200821302239e-02 -4.284914567590996e-04 -8.569985199432548e-04
8.479986396548629e-02 -1.002679318415573e-03 -2.020989060711281e-03
5.701149688633867e-02 -4.393073324857856e-04 -8.755694186499837e-04
8.397204889050369e-02 -1.008100198856953e-03 -1.999290604967757e-03
8.314480873242261e-02 -1.002434959828190e-03 -2.004924671926639e-03
5.648410871497127e-02 -4.310066947322930e-04 -8.682565111072390e-04
5.595789247875724e-02 -4.328714022184536e-04 -8.590424431246503e-04
1.131193480480289e-01 -1.879443722459286e-03 -3.773103469901641e-03
1.040769842400960e-01 -1.875543187835763e-03 -3.729656424919913e-03
1.108535911879648e-01 -1.841281000683541e-03 -3.682691674102117e-03
1.622265872171011e-01 -4.616295686961628e-03 -9.173996446303507e-03
1.086456844196553e-01 -1.852786235829384e-03 -3.668356295585493e-03
1.072775886401960e-01 -1.845691237237992e-03 -3.690024309300348e-03
1.120471959761810e-01 -1.862393280753481e-03 -3.724851594526598e-03
1.387801959057518e-01 -3.047162304170934e-03 -6.063249777024313e-03
1.322420209714842e-01 -3.012788961611960e-03 -6.013665466455538e-03
1.369398437317084e-01 -3.022141726989122e-03 -6.012328368810177e-03
1.040769842400960e-01 -1.875543187835763e-03 -3.729656424919913e-03
1.086000748750427e-01 -1.860794612837231e-03 -3.746761867814251e-03
1.108535911879648e-01 -1.841281000683541e-03 -3.682691674102117e-03
1.581697783725522e-01 -4.566584524194043e-03 -9.193225619997423e-03
1.064392629397236e-01 -1.826609474879633e-03 -3.691585428879315e-03
1.096649175100688e-01 -1.851214718527973e-03 -3.708882675484334e-03
1.072775886401960e-01 -1.845691237237992e-03 -3.690024309300348e-03
1.308306387693458e-01 -3.020725330581411e-03 -6.015284888080489e-03
1.341098509494356e-01 -2.990070149255624e-03 -6.051297787287962e-03
1.353158807065522e-01 -2.997001500344930e-03 -6.027197948742214e-03
1.086000748750427e-01 -1.860794612837231e-03 -3.746761867814251e-03
1.176339439242685e-01 -1.917456988083260e-03 -3.816555797005106e-03
1.108535911879648e-01 -1.841281000683541e-03 -3.682691674102117e-03
1.702707011064775e-01 -4.658646571698455e-03 -9.254390292551568e-03
1.130644199759638e-01 -1.869506892883337e-03 -3.698800450393291e-03
1.144244886975035e-01 -1.876390141361407e-03 -3.747871506158425e-03
1.096649175100688e-01 -1.851214718527973e-03 -3.708882675484334e-03
1.383401177221094e-01 -3.040701478627055e-03 -6.047651834060121e-03
1.448372803980623e-01 -3.079417146358000e-03 -6.140549373206354e-03
1.401777803648850e-01 -3.039372753935036e-03 -6.048562177038677e-03
1.176339439242685e-01 -1.917456988083260e-03 -3.816555797005106e-03
1.131193480480289e-01 -1.879443722459286e-03 -3.773103469901641e-03
1.108535911879648e-01 -1.841281000683541e-03 -3.682691674102117e-03
1.742584339483325e-01 -4.646983606178337e-03 -9.355242838825559e-03
1.152766083861453e-01 -1.857051895138189e-03 -3.753243152034559e-03
1.120471959761810e-01 -1.862393280753481e-03 -3.724851594526598e-03
1.144244886975035e-01 -1.876390141361407e-03 -3.747871506158425e-03
1.462440985628343e-01 -3.090185314702819e-03 -6.165480037907178e-03
1.430058863633018e-01 -3.031873291131500e-03 -6.128409112459279e-03
1.417917687422003e-01 -3.033235034494345e-03 -6.095839588259081e-03
1.131193480480289e-01 -1.879443722459286e-03 -3.773103469901641e-03
2.285432967465061e-01 -9.396262450186961e-03 -1.872271926077063e-02
1.622265872171011e-01 -4.616295686961628e-03 -9.173996446303507e-03
1.742584339483325e-01 -4.646983606178337e-03 -9.355242838825559e-03
1.703058076857679e-01 -4.648240987553993e-03 -9.281298355600152e-03
1.942970712133191e-01 -6.704293106876905e-03 -1.341289764012428e-02
1.387801959057518e-01 -3.047162304170934e-03 -6.063249777024313e-03
1.430058863633018e-01 -3.031873291131500e-03 -6.128409112459279e-03
2.016985670837866e-01 -6.764029237149242e-03 -1.348107590968584e-02
1.684170783369832e-01 -4.629025606319481e-03 -9.264031667866865e-03
1.040769842400960e-01 -1.875543187835763e-03 -3.729656424919913e-03
2.002176291037568e-01 -9.310573610858401e-03 -1.869050002584790e-02
1.581697783725522e-01 -4.566584524194043e-03 -9.193225619997423e-03
1.622265872171011e-01 -4.616295686961628e-03 -9.173996446303507e-03
1.539875688208581e-01 -4.542870567682639e-03 -9.099212984633282e-03
1.802802338686830e-01 -6.609790052780753e-03 -1.332689201906415e-02
1.308306387693458e-01 -3.020725330581411e-03 -6.015284888080489e-03
1.322420209714842e-01 -3.012788961611960e-03 -6.013665466455538e-03
1.828232139243473e-01 -6.678456865464016e-03 -1.329472018421871e-02
1.597454624574887e-01 -4.584373498378221e-03 -9.168629676478392e-03
1.086000748750427e-01 -1.860794612837231e-03 -3.746761867814251e-03
2.145550193665590e-01 -9.411347828586537e-03 -1.871986604659693e-02
1.702707011064775e-01 -4.658646571698455e-03 -9.254390292551568e-03
1.581697783725522e-01 -4.566584524194043e-03 -9.193225619997423e-03
1.621987371733697e-01 -4.608498956914875e-03 -9.192947340442910e-03
1.935914452985209e-01 -6.715686618761933e-03 -1.340960915648249e-02
1.383401177221094e-01 -3.040701478627055e-03 -6.047651834060121e-03
1.341098509494356e-01 -2.990070149255624e-03 -6.051297787287962e-03
1.860780268386970e-01 -6.706728182669732e-03 -1.335308640454349e-02
1.640978931325601e-01 -4.609543576404632e-03 -9.214221827451219e-03
1.176339439242685e-01 -1.917456988083260e-03 -3.816555797005106e-03
2.422061614105255e-01 -9.265447160537760e-03 -1.863336611939212e-02
1.742584339483325e-01 -4.646983606178337e-03 -9.355242838825559e-03
1.702707011064775e-01 -4.658646571698455e-03 -9.254390292551568e-03
1.783124937593221e-01 -4.658329330079693e-03 -9.342843156688497e-03
2.072620447923666e-01 -6.696308783701379e-03 -1.350086464883686e-02
1.462440985628343e-01 -3.090185314702819e-03 -6.165480037907178e-03
1.448372803980623e-01 -3.079417146358000e-03 -6.140549373206354e-03
2.048310219988274e-01 -6.735706258026494e-03 -1.344182001376841e-02
1.727039329304881e-01 -4.654446453339866e-03 -9.308014964447154e-03
2.285432967465061e-01 -9.396262450186961e-03 -1.872271926077063e-02
2.002176291037568e-01 -9.310573610858401e-03 -1.869050002584790e-02
1.622265872171011e-01 -4.616295686961628e-03 -9.173996446303507e-03
2.216074090467862e-01 -9.563217819708623e-03 -1.912589573322982e-02
2.146764313239934e-01 -9.315161183477888e-03 -1.913587159006742e-02
1.828232139243473e-01 -6.678456865464016e-03 -1.329472018421871e-02
1.942970712133191e-01 -6.704293106876905e-03 -1.341289764012428e-02
2.252795573904749e-01 -9.450595927890512e-03 -1.891727028132082e-02
2.104156052568337e-01 -9.484487915697845e-03 -1.896578313334510e-02
1.911042487073855e-01 -6.698392367320443e-03 -1.343593648832059e-02
2.002176291037568e-01 -9.310573610858401e-03 -1.869050002584790e-02
2.145550193665590e-01 -9.411347828586537e-03 -1.871986604659693e-02
1.581697783725522e-01 -4.566584524194043e-03 -9.193225619997423e-03
2.216074090467862e-01 -9.563217819708623e-03 -1.912589573322982e-02
2.076776982694691e-01 -9.569817146976427e-03 -1.865632528271418e-02
1.860780268386970e-01 -6.706728182669732e-03 -1.335308640454349e-02
1.802802338686830e-01 -6.609790052780753e-03 -1.332689201906415e-02
2.104156052568337e-01 -9.484487915697845e-03 -1.896578313334510e-02
2.179016733275855e-01 -9.476231743070300e-03 -1.892992026888019e-02
1.882407657140664e-01 -6.709982470363011e-03 -1.337782808409485e-02
2.145550193665590e-01 -9.411347828586537e-03 -1.871986604659693e-02
2.422061614105255e-01 -9.265447160537760e-03 -1.863336611939212e-02
1.702707011064775e-01 -4.658646571698455e-03 -9.254390292551568e-03
2.216074090467862e-01 -9.563217819708623e-03 -1.912589573322982e-02
2.284142252512608e-01 -9.317368610430492e-03 -1.912460662698493e-02
2.048310219988274e-01 -6.735706258026494e-03 -1.344182001376841e-02
1.935914452985209e-01 -6.715686618761933e-03 -1.340960915648249e-02
2.179016733275855e-01 -9.476231743070300e-03 -1.892992026888019e-02
2.325548683121919e-01 -9.434881116224472e-03 -1.887791730344098e-02
1.967807382546074e-01 -6.719670816351361e-03 -1.346705643156582e-02
2.422061614105255e-01 -9.265447160537760e-03 -1.863336611939212e-02
2.285432967465061e-01 -9.396262450186961e-03 -1.872271926077063e-02
1.742584339483325e-01 -4.646983606178337e-03 -9.355242838825559e-03
2.216074090467862e-01 -9.563217819708623e-03 -1.912589573322982e-02
2.351583095315982e-01 -9.558664219556508e-03 -1.860551552069051e-02
2.016985670837866e-01 -6.764029237149242e-03 -1.348107590968584e-02
2.072620447923666e-01 -6.696308783701379e-03 -1.350086464883686e-02
2.325548683121919e-01 -9.434881116224472e-03 -1.887791730344098e-02
2.252795573904749e-01 -9.450595927890512e-03 -1.891727028132082e-02
1.995943018035893e-01 -6.741121040166191e-03 -1.345675673462405e-02
1.108535911879648e-01 -1.841281000683541e-03 -3.682691674102117e-03
1.622265872171011e-01 -4.616295686961628e-03 -9.173996446303507e-03
1.742584339483325e-01 -4.646983606178337e-03 -9.355242838825559e-03
1.131193480480289e-01 -1.879443722459286e-03 -3.773103469901641e-03
1.369398437317084e-01 -3.022141726989122e-03 -6.012328368810177e-03
1.684170783369832e-01 -4.629025606319481e-03 -9.264031667866865e-03
1.417917687422003e-01 -3.033235034494345e-03 -6.095839588259081e-03
1.120471959761810e-01 -1.862393280753481e-03 -3.724851594526598e-03
1.387801959057518e-01 -3.047162304170934e-03 -6.063249777024313e-03
1.430058863633018e-01 -3.031873291131500e-03 -6.128409112459279e-03
1.108535911879648e-01 -1.841281000683541e-03 -3.682691674102117e-03
1.581697783725522e-01 -4.566584524194043e-03 -9.193225619997423e-03
1.622265872171011e-01 -4.616295686961628e-03 -9.173996446303507e-03
1.040769842400960e-01 -1.875543187835763e-03 -3.729656424919913e-03
1.353158807065522e-01 -2.997001500344930e-03 -6.027197948742214e-03
1.597454624574887e-01 -4.584373498378221e-03 -9.168629676478392e-03
1.369398437317084e-01 -3.022141726989122e-03 -6.012328368810177e-03
1.072775886401960e-01 -1.845691237237992e-03 -3.690024309300348e-03
1.308306387693458e-01 -3.020725330581411e-03 -6.015284888080489e-03
1.322420209714842e-01 -3.012788961611960e-03 -6.013665466455538e-03
1.108535911879648e-01 -1.841281000683541e-03 -3.682691674102117e-03
1.702707011064775e-01 -4.658646571698455e-03 -9.254390292551568e-03
1.581697783725522e-01 -4.566584524194043e-03 -9.193225619997423e-03
1.086000748750427e-01 -1.860794612837231e-03 -3.746761867814251e-03
1.401777803648850e-01 -3.039372753935036e-03 -6.048562177038677e-03
1.640978931325601e-01 -4.609543576404632e-03 -9.214221827451219e-03
1.353158807065522e-01 -2.997001500344930e-03 -6.027197948742214e-03
1.096649175100688e-01 -1.851214718527973e-03 -3.708882675484334e-03
1.383401177221094e-01 -3.040701478627055e-03 -6.047651834060121e-03
1.341098509494356e-01 -2.990070149255624e-03 -6.051297787287962e-03
1.108535911879648e-01 -1.841281000683541e-03 -3.682691674102117e-03
1.742584339483325e-01 -4.646983606178337e-03 -9.355242838825559e-03
1.702707011064775e-01 -4.658646571698455e-03 -9.254390292551568e-03
1.176339439242685e-01 -1.917456988083260e-03 -3.816555797005106e-03
1.417917687422003e-01 -3.033235034494345e-03 -6.095839588259081e-03
1.727039329304881e-01 -4.654446453339866e-03 -9.308014964447154e-03
1.401777803648850e-01 -3.039372753935036e-03 -6.048562177038677e-03
1.144244886975035e-01 -1.876390141361407e-03 -3.747871506158425e-03
1.462440985628343e-01 -3.090185314702819e-03 -6.165480037907178e-03
1.448372803980623e-01 -3.079417146358000e-03 -6.140549373206354e-03
2.216074090467862e-01 -9.563217819708623e-03 -1.912589573322982e-02
1.742584339483325e-01 -4.646983606178337e-03 -9.355242838825559e-03
1.622265872171011e-01 -4.616295686961628e-03 -9.173996446303507e-03
2.285432967465061e-01 -9.396262450186961e-03 -1.872271926077063e-02
1.995943018035893e-01 -6.741121040166191e-03 -1.345675673462405e-02
1.684170783369832e-01 -4.629025606319481e-03 -9.264031667866865e-03
1.911042487073855e-01 -6.698392367320443e-03 -1.343593648832059e-02
2.252795573904749e-01 -9.450595927890512e-03 -1.891727028132082e-02
2.016985670837866e-01 -6.764029237149242e-03 -1.348107590968584e-02
1.942970712133191e-01 -6.704293106876905e-03 -1.341289764012428e-02
2.216074090467862e-01 -9.563217819708623e-03 -1.912589573322982e-02
1.622265872171011e-01 -4.616295686961628e-03 -9.173996446303507e-03
1.581697783725522e-01 -4.566584524194043e-03 -9.193225619997423e-03
2.002176291037568e-01 -9.310573610858401e-03 -1.869050002584790e-02
1.911042487073855e-01 -6.698392367320443e-03 -1.343593648832059e-02
1.597454624574887e-01 -4.584373498378221e-03 -9.168629676478392e-03
1.882407657140664e-01 -6.709982470363011e-03 -1.337782808409485e-02
2.104156052568337e-01 -9.484487915697845e-03 -1.896578313334510e-02
1.828232139243473e-01 -6.678456865464016e-03 -1.329472018421871e-02
1.802802338686830e-01 -6.609790052780753e-03 -1.332689201906415e-02
2.216074090467862e-01 -9.563217819708623e-03 -1.912589573322982e-02
1.581697783725522e-01 -4.566584524194043e-03 -9.193225619997423e-03
1.702707011064775e-01 -4.658646571698455e-03 -9.254390292551568e-03
2.145550193665590e-01 -9.411347828586537e-03 -1.871986604659693e-02
1.882407657140664e-01 -6.709982470363011e-03 -1.337782808409485e-02
1.640978931325601e-01 -4.609543576404632e-03 -9.214221827451219e-03
1.967807382546074e-01 -6.719670816351361e-03 -1.346705643156582e-02
2.179016733275855e-01 -9.476231743070300e-03 -1.892992026888019e-02
1.860780268386970e-01 -6.706728182669732e-03 -1.335308640454349e-02
1.935914452985209e-01 -6.715686618761933e-03 -1.340960915648249e-02
2.216074090467862e-01 -9.563217819708623e-03 -1.912589573322982e-02
1.702707011064775e-01 -4.658646571698455e-03 -9.254390292551568e-03
1.742584339483325e-01 -4.646983606178337e-03 -9.355242838825559e-03
2.422061614105255e-01 -9.265447160537760e-03 -1.863336611939212e-02
1.967807382546074e-01 -6.719670816351361e-03 -1.346705643156582e-02
1.727039329304881e-01 -4.654446453339866e-03 -9.308014964447154e-03
1.995943018035893e-01 -6.741121040166191e-03 -1.345675673462405e-02
2.325548683121919e-01 -9.434881116224472e-03 -1.887791730344098e-02
2.048310219988274e-01 -6.735706258026494e-03 -1.344182001376841e-02
2.072620447923666e-01 -6.696308783701379e-03 -1.350086464883686e-02
1.108535911879648e-01 -1.841281000683541e-03 -3.682691674102117e-03
1.742584339483325e-01 -4.646983606178337e-03 -9.355242838825559e-03
1.622265872171011e-01 -4.616295686961628e-03 -9.173996446303507e-03
1.662589396483836e-01 -4.600824383678611e-03 -9.201681943493890e-03
1.417917687422003e-01 -3.033235034494345e-03 -6.095839588259081e-03
1.684170783369832e-01 -4.629025606319481e-03 -9.264031667866865e-03
1.369398437317084e-01 -3.022141726989122e-03 -6.012328368810177e-03
1.385602916381401e-01 -3.013726684151492e-03 -6.027608442784778e-03
1.705716463651986e-01 -4.624205263278539e-03 -9.265414850642299e-03
1.640939113613210e-01 -4.598726319718982e-03 -9.185837905568131e-03
1.108535911879648e-01 -1.841281000683541e-03 -3.682691674102117e-03
1.622265872171011e-01 -4.616295686961628e-03 -9.173996446303507e-03
1.581697783725522e-01 -4.566584524194043e-03 -9.193225619997423e-03
1.662589396483836e-01 -4.600824383678611e-03 -9.201681943493890e-03
1.369398437317084e-01 -3.022141726989122e-03 -6.012328368810177e-03
1.597454624574887e-01 -4.584373498378221e-03 -9.168629676478392e-03
1.353158807065522e-01 -2.997001500344930e-03 -6.027197948742214e-03
1.385602916381401e-01 -3.013726684151492e-03 -6.027608442784778e-03
1.640939113613210e-01 -4.598726319718982e-03 -9.185837905568131e-03
1.619214504025510e-01 -4.582332309229415e-03 -9.175948373182049e-03
1.108535911879648e-01 -1.841281000683541e-03 -3.682691674102117e-03
1.581697783725522e-01 -4.566584524194043e-03 -9.193225619997423e-03
1.702707011064775e-01 -4.658646571698455e-03 -9.254390292551568e-03
1.662589396483836e-01 -4.600824383678611e-03 -9.201681943493890e-03
1.353158807065522e-01 -2.997001500344930e-03 -6.027197948742214e-03
1.640978931325601e-01 -4.609543576404632e-03 -9.214221827451219e-03
1.401777803648850e-01 -3.039372753935036e-03 -6.048562177038677e-03
1.385602916381401e-01 -3.013726684151492e-03 -6.027608442784778e-03
1.619214504025510e-01 -4.582332309229415e-03 -9.175948373182049e-03
1.684189902419231e-01 -4.622145675984579e-03 -9.227710121920422e-03
1.108535911879648e-01 -1.841281000683541e-03 -3.682691674102117e-03
1.702707011064775e-01 -4.658646571698455e-03 -9.254390292551568e-03
1.742584339483325e-01 -4.646983606178337e-03 -9.355242838825559e-03
1.662589396483836e-01 -4.600824383678611e-03 -9.201681943493890e-03
1.401777803648850e-01 -3.039372753935036e-03 -6.048562177038677e-03
1.727039329304881e-01 -4.654446453339866e-03 -9.308014964447154e-03
1.417917687422003e-01 -3.033235034494345e-03 -6.095839588259081e-03
1.385602916381401e-01 -3.013726684151492e-03 -6.027608442784778e-03
1.684189902419231e-01 -4.622145675984579e-03 -9.227710121920422e-03
1.705716463651986e-01 -4.624205263278539e-03 -9.265414850642299e-03
2.216074090467862e-01 -9.563217819708623e-03 -1.912589573322982e-02
1.622265872171011e-01 -4.616295686961628e-03 -9.173996446303507e-03
1.742584339483325e-01 -4.646983606178337e-03 -9.355242838825559e-03
1.662589396483836e-01 -4.600824383678611e-03 -9.201681943493890e-03
1.911042487073855e-01 -6.698392367320443e-03 -1.343593648832059e-02
1.684170783369832e-01 -4.629025606319481e-03 -9.264031667866865e-03
1.995943018035893e-01 -6.741121040166191e-03 -1.345675673462405e-02
1.939443757104810e-01 -6.735610620025035e-03 -1.347101995781021e-02
1.640939113613210e-01 -4.598726319718982e-03 -9.185837905568131e-03
1.705716463651986e-01 -4.624205263278539e-03 -9.265414850642299e-03
2.216074090467862e-01 -9.563217819708623e-03 -1.912589573322982e-02
1.581697783725522e-01 -4.566584524194043e-03 -9.193225619997423e-03
1.622265872171011e-01 -4.616295686961628e-03 -9.173996446303507e-03
1.662589396483836e-01 -4.600824383678611e-03 -9.201681943493890e-03
1.882407657140664e-01 -6.709982470363011e-03 -1.337782808409485e-02
1.597454624574887e-01 -4.584373498378221e-03 -9.168629676478392e-03
1.911042487073855e-01 -6.698392367320443e-03 -1.343593648832059e-02
1.939443757104810e-01 -6.735610620025035e-03 -1.347101995781021e-02
1.619214504025510e-01 -4.582332309229415e-03 -9.175948373182049e-03
1.640939113613210e-01 -4.598726319718982e-03 -9.185837905568131e-03
2.216074090467862e-01 -9.563217819708623e-03 -1.912589573322982e-02
1.702707011064775e-01 -4.658646571698455e-03 -9.254390292551568e-03
1.581697783725522e-01 -4.566584524194043e-03 -9.193225619997423e-03
1.662589396483836e-01 -4.600824383678611e-03 -9.201681943493890e-03
1.967807382546074e-01 -6.719670816351361e-03 -1.346705643156582e-02
1.640978931325601e-01 -4.609543576404632e-03 -9.214221827451219e-03
1.882407657140664e-01 -6.709982470363011e-03 -1.337782808409485e-02
1.939443757104810e-01 -6.735610620025035e-03 -1.347101995781021e-02
1.684189902419231e-01 -4.622145675984579e-03 -9.227710121920422e-03
1.619214504025510e-01 -4.582332309229415e-03 -9.175948373182049e-03
2.216074090467862e-01 -9.563217819708623e-03 -1.912589573322982e-02
1.742584339483325e-01 -4.646983606178337e-03 -9.355242838825559e-03
1.702707011064775e-01 -4.658646571698455e-03 -9.254390292551568e-03
1.662589396483836e-01 -4.600824383678611e-03 -9.201681943493890e-03
1.995943018035893e-01 -6.741121040166191e-03 -1.345675673462405e-02
1.727039329304881e-01 -4.654446453339866e-03 -9.308014964447154e-03
1.967807382546074e-01 -6.719670816351361e-03 -1.346705643156582e-02
1.939443757104810e-01 -6.735610620025035e-03 -1.347101995781021e-02
1.705716463651986e-01 -4.624205263278539e-03 -9.265414850642299e-03
1.684189902419231e-01 -4.622145675984579e-03 -9.227710121920422e-03
        </DataArray>
        <DataArray type="Float64" Name="nodal_GL_strains_xyz" NumberOfComponents="6" format="ascii">
1.191191661528874e-01 -2.697345480601284e-06 4.380999471479616e-05 -3.025306474143432e-05 -1.787834601369301e-05 -6.928012207933074e-05
1.107261910490458e-01 -5.001947844498134e-05 -6.304999907865672e-05 -4.054794939556411e-05 -5.710535825909977e-05 -7.161341660069450e-05
1.170098686970484e-01 -4.339523995434361e-07 -1.479435032050381e-06 4.392839652561804e-05 -2.102435679356349e-06 8.786373493552195e-05
1.145683591905070e-01 3.405522952753691e-05 -1.103498618275815e-05 4.545608035948029e-05 4.701044654533362e-06 6.584745852776014e-04
1.149775055123541e-01 -1.263539952981508e-07 -6.890414737197200e-07 6.371354124926598e-06 -2.949094548368475e-07 3.615458989999812e-05
1.137107865776601e-01 -1.518195863203030e-08 5.392082985784906e-06 2.254680506386296e-05 -3.683498309998183e-06 3.077940257015825e-05
1.181164237443134e-01 7.644017964629331e-06 -9.405573790625072e-06 7.448159585531469e-07 -7.647835947476809e-07 1.678419826717299e-05
1.169817511310190e-01 2.480131635438459e-06 2.009768717699800e-05 6.312372947697374e-05 -5.566630917412976e-06 2.372301042124487e-04
1.126689058815742e-01 -1.573909576802899e-05 -3.235090634779091e-05 -3.768253251922513e-05 -3.775419379411628e-05 2.499506711215203e-04
1.158072750594769e-01 2.539898776039347e-05 -5.500007964906080e-07 6.038582972304366e-05 -6.025787206213497e-06 3.738503223134282e-04
1.107261910490458e-01 -5.001947844498134e-05 -6.304999907865672e-05 -4.054794939556411e-05 -5.710535825909977e-05 -7.161341660069450e-05
1.149089174714964e-01 4.246775963034432e-06 -3.857644599432773e-05 -2.755680519542355e-05 2.097457779007723e-05 -6.874241614481646e-05
1.170098686970484e-01 -4.339523995434361e-07 -1.479435032050381e-06 4.392839652561804e-05 -2.102435679356349e-06 8.786373493552195e-05
1.121358037543034e-01 -1.690767353910005e-06 6.641181328022859e-05 3.297942494829997e-04 7.450927990959287e-07 9.113275083908349e-05
1.129402178868348e-01 -1.718989099547486e-07 -5.044626735189115e-07 1.901660010566001e-05 -2.944090427692212e-07 1.459813008316619e-05
1.159075622409946e-01 -7.091744328622790e-06 9.545824243225282e-06 3.350631899887515e-06 1.342485609144874e-06 1.779041414708662e-05
1.137107865776601e-01 -1.518195863203030e-08 5.392082985784906e-06 2.254680506386296e-05 -3.683498309998183e-06 3.077940257015825e-05
1.115642844479383e-01 -2.018157515852475e-05 -1.713400693442558e-05 1.331863134497293e-04 -4.433090477252010e-05 1.148839074995408e-06
1.137131740185996e-01 7.516326427760782e-06 -8.661095581325638e-06 1.107728689328217e-04 2.194665811673135e-05 5.033747928474139e-05
1.146077556078170e-01 1.081204072436367e-05 4.913693789021150e-05 1.873254810670414e-04 -4.495431811807078e-06 1.216299312781797e-04
1.149089174714964e-01 4.246775963034432e-06 -3.857644599432773e-05 -2.755680519542355e-05 2.097457779007723e-05 -6.874241614481646e-05
1.233568297895182e-01 4.826813002348036e-05 6.498212083520795e-05 -4.708995704051294e-05 5.947840787367289e-05 -8.138898300705011e-05
1.170098686970484e-01 -4.339523995434361e-07 -1.479435032050381e-06 4.392839652561804e-05 -2.102435679356349e-06 8.786373493552195e-05
1.194539365216010e-01 -3.321542725581836e-05 -1.296384986487680e-05 4.683461493300615e-05 -1.124906360542632e-05 6.561258881803058e-04
1.190672810986944e-01 -1.276944694004770e-07 -6.924741344046659e-07 4.619632410050022e-06 -2.972666025704101e-07 3.243957883570291e-05
1.203372015904067e-01 -7.334422392554177e-07 -6.552812704024935e-06 1.669548799406572e-05 2.638976480254267e-06 2.131641563519835e-05
1.159075622409946e-01 -7.091744328622790e-06 9.545824243225282e-06 3.350631899887515e-06 1.342485609144874e-06 1.779041414708662e-05
1.170408990230208e-01 -4.274013465724468e-06 -2.463378792430207e-05 6.614374660275688e-05 3.241088204933621e-06 2.384392843220538e-04
1.213838246394716e-01 1.645253098254781e-05 2.195867781845304e-05 -3.959856997506765e-05 3.709802182901602e-05 2.472769692718520e-04
1.182146559312204e-01 -2.562755390562231e-05 -1.327864719730184e-05 6.119865079221261e-05 4.194633921224532e-08 3.722178739897524e-04
1.233568297895182e-01 4.826813002348036e-05 6.498212083520795e-05 -4.708995704051294e-05 5.947840787367289e-05 -8.138898300705011e-05
1.191191661528874e-01 -2.697345480601284e-06 4.380999471479616e-05 -3.025306474143432e-05 -1.787834601369301e-05 -6.928012207933074e-05
1.170098686970484e-01 -4.339523995434361e-07 -1.479435032050381e-06 4.392839652561804e-05 -2.102435679356349e-06 8.786373493552195e-05
1.219067884919481e-01 -5.277681565683136e-06 -6.821893311899752e-05 3.274455419886232e-04 -7.293292278140124e-06 9.335653680056748e-05
1.211199944944529e-01 -1.736167716729714e-07 -5.109124834203479e-07 1.530113681525076e-05 -2.977754886167157e-07 7.388491832495769e-06
1.181164237443134e-01 7.644017964629331e-06 -9.405573790625072e-06 7.448159585531469e-07 -7.647835947476809e-07 1.678419826717299e-05
1.203372015904067e-01 -7.334422392554177e-07 -6.552812704024935e-06 1.669548799406572e-05 2.638976480254267e-06 2.131641563519835e-05
1.225022335935819e-01 1.430719789482467e-05 1.798083168872823e-05 1.316463637060715e-04 4.259798891577068e-05 -8.981479050064412e-07
1.203232640681891e-01 -7.534833716002247e-06 7.001039845960562e-06 1.108479699782547e-04 -2.319548351585660e-05 5.322667433264494e-05
1.194224955863704e-01 -1.451279494602609e-05 -5.294267655494248e-05 1.856930402607425e-04 -1.488409509733390e-06 1.215241519918208e-04
1.191191661528874e-01 -2.697345480601284e-06 4.380999471479616e-05 -3.025306474143432e-05 -1.787834601369301e-05 -6.928012207933074e-05
1.202771318039727e-01 3.464874273191477e-05 -1.172774710929778e-04 2.847774937533261e-04 -8.920629790503717e-06 5.154236038959583e-04
1.145683591905070e-01 3.405522952753691e-05 -1.103498618275815e-05 4.545608035948029e-05 4.701044654533362e-06 6.584745852776014e-04
1.219067884919481e-01 -5.277681565683136e-06 -6.821893311899752e-05 3.274455419886232e-04 -7.293292278140124e-06 9.335653680056748e-05
1.195288304589177e-01 3.082357140095307e-05 -5.821637737048203e-05 8.298742787823322e-05 -2.009594657829740e-05 2.109298156524124e-04
1.172362402619469e-01 -2.640114241029148e-07 -1.469324545061093e-04 2.132598941629532e-04 3.769859916539956e-06 6.538021628998301e-04
1.169817511310190e-01 2.480131635438459e-06 2.009768717699800e-05 6.312372947697374e-05 -5.566630917412976e-06 2.372301042124487e-04
1.203232640681891e-01 -7.534833716002247e-06 7.001039845960562e-06 1.108479699782547e-04 -2.319548351585660e-05 5.322667433264494e-05
1.210824369190694e-01 5.250980951394825e-05 -8.537774430477271e-05 2.853617868360649e-04 3.715751969004171e-06 2.803833488002135e-04
1.182495446001828e-01 1.444769496256010e-05 -5.462139345095224e-05 2.382802910805890e-04 -5.754930803236605e-06 4.143113740971682e-04
1.107261910490458e-01 -5.001947844498134e-05 -6.304999907865672e-05 -4.054794939556411e-05 -5.710535825909977e-05 -7.161341660069450e-05
1.072256950461992e-01 5.384166722530825e-05 7.734654488302145e-05 2.238604734660394e-04 -1.045953464754578e-05 5.101340811708041e-04
1.121358037543034e-01 -1.690767353910005e-06 6.641181328022859e-05 3.297942494829997e-04 7.450927990959287e-07 9.113275083908349e-05
1.145683591905070e-01 3.405522952753691e-05 -1.103498618275815e-05 4.545608035948029e-05 4.701044654533362e-06 6.584745852776014e-04
1.095041221451009e-01 2.015201087071909e-05 4.615566500707682e-05 1.410091812251468e-04 -5.866950058694651e-05 2.384508187272127e-04
1.099553431173602e-01 8.868580240310514e-05 1.309098760347464e-04 3.882168024898164e-04 3.073937327581933e-05 1.795601257922276e-04
1.115642844479383e-01 -2.018157515852475e-05 -1.713400693442558e-05 1.331863134497293e-04 -4.433090477252010e-05 1.148839074995408e-06
1.126689058815742e-01 -1.573909576802899e-05 -3.235090634779091e-05 -3.768253251922513e-05 -3.775419379411628e-05 2.499506711215203e-04
1.112275828902266e-01 1.065941902095071e-04 1.429834635388224e-04 1.480054520016000e-05 3.200532540790996e-05 7.010527715622711e-04
1.133121993595332e-01 3.482530333586480e-05 5.091370706204051e-05 1.514885950120318e-04 -7.358554492284945e-06 3.687015099848197e-04
1.149089174714964e-01 4.246775963034432e-06 -3.857644599432773e-05 -2.755680519542355e-05 2.097457779007723e-05 -6.874241614481646e-05
1.137778203660361e-01 -3.906660119625933e-05 7.245105747761204e-05 3.000563314177218e-04 -8.810367269066313e-06 5.288282372563607e-04
1.194539365216010e-01 -3.321542725581836e-05 -1.296384986487680e-05 4.683461493300615e-05 -1.124906360542632e-05 6.561258881803058e-04
1.121358037543034e-01 -1.690767353910005e-06 6.641181328022859e-05 3.297942494829997e-04 7.450927990959287e-07 9.113275083908349e-05
1.145083752110311e-01 -3.075888633412910e-05 5.281909489060196e-05 8.535551886888807e-05 1.894142129715450e-05 2.077563260577477e-04
1.167920452298307e-01 -5.793024626873866e-06 1.242859155015366e-04 2.149932918970115e-04 -1.628927992113124e-05 6.477223115607764e-04
1.170408990230208e-01 -4.274013465724468e-06 -2.463378792430207e-05 6.614374660275688e-05 3.241088204933621e-06 2.384392843220538e-04
1.137131740185996e-01 7.516326427760782e-06 -8.661095581325638e-06 1.107728689328217e-04 2.194665811673135e-05 5.033747928474139e-05
1.129604212728505e-01 -5.690857244626468e-05 7.325127743220876e-05 2.910719374587189e-04 -1.434572794820888e-05 2.790323559784038e-04
1.157790228597810e-01 -1.829707901211721e-05 4.026656266242992e-05 2.408119617096756e-04 -2.554726863852961e-06 4.113257563211652e-04
1.233568297895182e-01 4.826813002348036e-05 6.498212083520795e-05 -4.708995704051294e-05 5.947840787367289e-05 -8.138898300705011e-05
1.267231538050332e-01 -7.505380314984432e-05 -1.389598049865945e-04 1.936053949493220e-04 -1.051866251051549e-05 4.511749546716563e-04
1.219067884919481e-01 -5.277681565683136e-06 -6.821893311899752e-05 3.274455419886232e-04 -7.293292278140124e-06 9.335653680056748e-05
1.194539365216010e-01 -3.321542725581836e-05 -1.296384986487680e-05 4.683461493300615e-05 -1.124906360542632e-05 6.561258881803058e-04
1.245644396790434e-01 -2.533593561876276e-05 -5.680056301076966e-05 1.363641156697930e-04 5.831909653229367e-05 2.346113048795744e-04
1.240836411114074e-01 -9.094508388558937e-05 -1.262634972338291e-04 3.855781175111915e-04 -2.667384673911349e-05 1.811843034932712e-04
1.225022335935819e-01 1.430719789482467e-05 1.798083168872823e-05 1.316463637060715e-04 4.259798891577068e-05 -8.981479050064412e-07
1.213838246394716e-01 1.645253098254781e-05 2.195867781845304e-05 -3.959856997506765e-05 3.709802182901602e-05 2.472769692718520e-04
1.227968298035491e-01 -9.588203442180166e-05 -1.634856907133387e-04 1.680801156527155e-05 -2.605036405913963e-05 6.987832100463476e-04
1.207238720454631e-01 -3.714520849172316e-05 -6.373864619191555e-05 1.508293423311664e-04 2.086698315557418e-06 3.684958311598208e-04
1.202771318039727e-01 3.464874273191477e-05 -1.172774710929778e-04 2.847774937533261e-04 -8.920629790503717e-06 5.154236038959583e-04
1.072256950461992e-01 5.384166722530825e-05 7.734654488302145e-05 2.238604734660394e-04 -1.045953464754578e-05 5.101340811708041e-04
1.145683591905070e-01 3.405522952753691e-05 -1.103498618275815e-05 4.545608035948029e-05 4.701044654533362e-06 6.584745852776014e-04
1.170151098004410e-01 -1.369706863308062e-05 -4.577144867086543e-05 7.735501136444403e-04 -3.129314304314976e-05 1.546647884088727e-03
1.138206203387276e-01 2.340988947634926e-05 -4.402542722736377e-06 1.688695176631670e-04 -4.451638616030804e-05 1.109977308190670e-03
1.112275828902266e-01 1.065941902095071e-04 1.429834635388224e-04 1.480054520016000e-05 3.200532540790996e-05 7.010527715622711e-04
1.172362402619469e-01 -2.640114241029148e-07 -1.469324545061093e-04 2.132598941629532e-04 3.769859916539956e-06 6.538021628998301e-04
1.187411683788928e-01 3.786465602298607e-05 -1.471612157561778e-04 5.455880145071960e-04 -7.122827695405243e-06 1.101879454676091e-03
1.118412405888892e-01 7.177739277771931e-05 1.098749454532342e-04 5.647695342897896e-04 3.404397385061679e-05 1.120402598496877e-03
1.156496344866876e-01 2.760806578975218e-05 -2.793256664703995e-05 3.567375246402637e-04 -7.945021892055147e-06 1.053417269756049e-03
1.072256950461992e-01 5.384166722530825e-05 7.734654488302145e-05 2.238604734660394e-04 -1.045953464754578e-05 5.101340811708041e-04
1.137778203660361e-01 -3.906660119625933e-05 7.245105747761204e-05 3.000563314177218e-04 -8.810367269066313e-06 5.288282372563607e-04
1.121358037543034e-01 -1.690767353910005e-06 6.641181328022859e-05 3.297942494829997e-04 7.450927990959287e-07 9.113275083908349e-05
1.170151098004410e-01 -1.369706863308062e-05 -4.577144867086543e-05 7.735501136444403e-04 -3.129314304314976e-05 1.546647884088727e-03
1.106879574551795e-01 2.454075161258434e-05 4.016837471724179e-05 5.594796667928760e-04 -2.328492691623171e-05 3.449316946011063e-04
1.129604212728505e-01 -5.690857244626468e-05 7.325127743220876e-05 2.910719374587189e-04 -1.434572794820888e-05 2.790323559784038e-04
1.099553431173602e-01 8.868580240310514e-05 1.309098760347464e-04 3.882168024898164e-04 3.073937327581933e-05 1.795601257922276e-04
1.118412405888892e-01 7.177739277771931e-05 1.098749454532342e-04 5.647695342897896e-04 3.404397385061679e-05 1.120402598496877e-03
1.153074100005913e-01 -6.062730702418618e-05 8.898973867299686e-05 5.541311269604177e-04 -3.503582167757675e-05 1.103064060266513e-03
1.142996238870625e-01 -1.776270637670916e-05 4.917092149613251e-05 5.285264084860604e-04 -1.104173913659347e-05 7.118930359334238e-04
1.137778203660361e-01 -3.906660119625933e-05 7.245105747761204e-05 3.000563314177218e-04 -8.810367269066313e-06 5.288282372563607e-04
1.267231538050332e-01 -7.505380314984432e-05 -1.389598049865945e-04 1.936053949493220e-04 -1.051866251051549e-05 4.511749546716563e-04
1.194539365216010e-01 -3.321542725581836e-05 -1.296384986487680e-05 4.683461493300615e-05 -1.124906360542632e-05 6.561258881803058e-04
1.170151098004410e-01 -1.369706863308062e-05 -4.577144867086543e-05 7.735501136444403e-04 -3.129314304314976e-05 1.546647884088727e-03
1.201428029060896e-01 -2.124314961412899e-05 -3.076663543105655e-05 1.667359951016029e-04 3.976889213465909e-05 1.090590825562198e-03
1.227968298035491e-01 -9.588203442180166e-05 -1.634856907133387e-04 1.680801156527155e-05 -2.605036405913963e-05 6.987832100463476e-04
1.167920452298307e-01 -5.793024626873866e-06 1.242859155015366e-04 2.149932918970115e-04 -1.628927992113124e-05 6.477223115607764e-04
1.153074100005913e-01 -6.062730702418618e-05 8.898973867299686e-05 5.541311269604177e-04 -3.503582167757675e-05 1.103064060266513e-03
1.221431642385156e-01 -7.885234481214075e-05 -1.523471104457970e-04 5.429087737052242e-04 -5.064611264161888e-05 1.088806831429190e-03
1.183595494212900e-01 -3.718391140472389e-05 -1.753050114775171e-05 3.537566330546227e-04 -2.046400599444202e-05 1.046452389365234e-03
1.267231538050332e-01 -7.505380314984432e-05 -1.389598049865945e-04 1.936053949493220e-04 -1.051866251051549e-05 4.511749546716563e-04
1.202771318039727e-01 3.464874273191477e-05 -1.172774710929778e-04 2.847774937533261e-04 -8.920629790503717e-06 5.154236038959583e-04
1.219067884919481e-01 -5.277681565683136e-06 -6.821893311899752e-05 3.274455419886232e-04 -7.293292278140124e-06 9.335653680056748e-05
1.170151098004410e-01 -1.369706863308062e-05 -4.577144867086543e-05 7.735501136444403e-04 -3.129314304314976e-05 1.546647884088727e-03
1.233301233663517e-01 -2.823153790113513e-05 -4.902499080232138e-05 5.401128210641832e-04 1.853955627926084e-05 3.259726397362811e-04
1.210824369190694e-01 5.250980951394825e-05 -8.537774430477271e-05 2.853617868360649e-04 3.715751969004171e-06 2.803833488002135e-04
1.240836411114074e-01 -9.094508388558937e-05 -1.262634972338291e-04 3.855781175111915e-04 -2.667384673911349e-05 1.811843034932712e-04
1.221431642385156e-01 -7.885234481214075e-05 -1.523471104457970e-04 5.429087737052242e-04 -5.064611264161888e-05 1.088806831429190e-03
1.187411683788928e-01 3.786465602298607e-05 -1.471612157561778e-04 5.455880145071960e-04 -7.122827695405243e-06 1.101879454676091e-03
1.197190942667407e-01 3.151484900308612e-06 -8.049094286774967e-05 5.215618928204767e-04 -1.736752188663594e-05 7.086624129170408e-04
1.170098686970484e-01 -4.339523995434361e-07 -1.479435032050381e-06 4.392839652561804e-05 -2.102435679356349e-06 8.786373493552195e-05
1.145683591905070e-01 3.405522952753691e-05 -1.103498618275815e-05 4.545608035948029e-05 4.701044654533362e-06 6.584745852776014e-04
1.219067884919481e-01 -5.277681565683136e-06 -6.821893311899752e-05 3.274455419886232e-04 -7.293292278140124e-06 9.335653680056748e-05
1.191191661528874e-01 -2.697345480601284e-06 4.380999471479616e-05 -3.025306474143432e-05 -1.787834601369301e-05 -6.928012207933074e-05
1.158072750594769e-01 2.539898776039347e-05 -5.500007964906080e-07 6.038582972304366e-05 -6.025787206213497e-06 3.738503223134282e-04
1.182495446001828e-01 1.444769496256010e-05 -5.462139345095224e-05 2.382802910805890e-04 -5.754930803236605e-06 4.143113740971682e-04
1.194224955863704e-01 -1.451279494602609e-05 -5.294267655494248e-05 1.856930402607425e-04 -1.488409509733390e-06 1.215241519918208e-04
1.181164237443134e-01 7.644017964629331e-06 -9.405573790625072e-06 7.448159585531469e-07 -7.647835947476809e-07 1.678419826717299e-05
1.169817511310190e-01 2.480131635438459e-06 2.009768717699800e-05 6.312372947697374e-05 -5.566630917412976e-06 2.372301042124487e-04
1.203232640681891e-01 -7.534833716002247e-06 7.001039845960562e-06 1.108479699782547e-04 -2.319548351585660e-05 5.322667433264494e-05
1.170098686970484e-01 -4.339523995434361e-07 -1.479435032050381e-06 4.392839652561804e-05 -2.102435679356349e-06 8.786373493552195e-05
1.121358037543034e-01 -1.690767353910005e-06 6.641181328022859e-05 3.297942494829997e-04 7.450927990959287e-07 9.113275083908349e-05
1.145683591905070e-01 3.405522952753691e-05 -1.103498618275815e-05 4.545608035948029e-05 4.701044654533362e-06 6.584745852776014e-04
1.107261910490458e-01 -5.001947844498134e-05 -6.304999907865672e-05 -4.054794939556411e-05 -5.710535825909977e-05 -7.161341660069450e-05
1.146077556078170e-01 1.081204072436367e-05 4.913693789021150e-05 1.873254810670414e-04 -4.495431811807078e-06 1.216299312781797e-04
1.133121993595332e-01 3.482530333586480e-05 5.091370706204051e-05 1.514885950120318e-04 -7.358554492284945e-06 3.687015099848197e-04
1.158072750594769e-01 2.539898776039347e-05 -5.500007964906080e-07 6.038582972304366e-05 -6.025787206213497e-06 3.738503223134282e-04
1.137107865776601e-01 -1.518195863203030e-08 5.392082985784906e-06 2.254680506386296e-05 -3.683498309998183e-06 3.077940257015825e-05
1.115642844479383e-01 -2.018157515852475e-05 -1.713400693442558e-05 1.331863134497293e-04 -4.433090477252010e-05 1.148839074995408e-06
1.126689058815742e-01 -1.573909576802899e-05 -3.235090634779091e-05 -3.768253251922513e-05 -3.775419379411628e-05 2.499506711215203e-04
1.170098686970484e-01 -4.339523995434361e-07 -1.479435032050381e-06 4.392839652561804e-05 -2.102435679356349e-06 8.786373493552195e-05
1.194539365216010e-01 -3.321542725581836e-05 -1.296384986487680e-05 4.683461493300615e-05 -1.124906360542632e-05 6.561258881803058e-04
1.121358037543034e-01 -1.690767353910005e-06 6.641181328022859e-05 3.297942494829997e-04 7.450927990959287e-07 9.113275083908349e-05
1.149089174714964e-01 4.246775963034432e-06 -3.857644599432773e-05 -2.755680519542355e-05 2.097457779007723e-05 -6.874241614481646e-05
1.182146559312204e-01 -2.562755390562231e-05 -1.327864719730184e-05 6.119865079221261e-05 4.194633921224532e-08 3.722178739897524e-04
1.157790228597810e-01 -1.829707901211721e-05 4.026656266242992e-05 2.408119617096756e-04 -2.554726863852961e-06 4.113257563211652e-04
1.146077556078170e-01 1.081204072436367e-05 4.913693789021150e-05 1.873254810670414e-04 -4.495431811807078e-06 1.216299312781797e-04
1.159075622409946e-01 -7.091744328622790e-06 9.545824243225282e-06 3.350631899887515e-06 1.342485609144874e-06 1.779041414708662e-05
1.170408990230208e-01 -4.274013465724468e-06 -2.463378792430207e-05 6.614374660275688e-05 3.241088204933621e-06 2.384392843220538e-04
1.137131740185996e-01 7.516326427760782e-06 -8.661095581325638e-06 1.107728689328217e-04 2.194665811673135e-05 5.033747928474139e-05
1.170098686970484e-01 -4.339523995434361e-07 -1.479435032050381e-06 4.392839652561804e-05 -2.102435679356349e-06 8.786373493552195e-05
1.219067884919481e-01 -5.277681565683136e-06 -6.821893311899752e-05 3.274455419886232e-04 -7.293292278140124e-06 9.335653680056748e-05
1.194539365216010e-01 -3.321542725581836e-05 -1.296384986487680e-05 4.683461493300615e-05 -1.124906360542632e-05 6.561258881803058e-04
1.233568297895182e-01 4.826813002348036e-05 6.498212083520795e-05 -4.708995704051294e-05 5.947840787367289e-05 -8.138898300705011e-05
1.194224955863704e-01 -1.451279494602609e-05 -5.294267655494248e-05 1.856930402607425e-04 -1.488409509733390e-06 1.215241519918208e-04
1.207238720454631e-01 -3.714520849172316e-05 -6.373864619191555e-05 1.508293423311664e-04 2.086698315557418e-06 3.684958311598208e-04
1.182146559312204e-01 -2.562755390562231e-05 -1.327864719730184e-05 6.119865079221261e-05 4.194633921224532e-08 3.722178739897524e-04
1.203372015904067e-01 -7.334422392554177e-07 -6.552812704024935e-06 1.669548799406572e-05 2.638976480254267e-06 2.131641563519835e-05
1.225022335935819e-01 1.430719789482467e-05 1.798083168872823e-05 1.316463637060715e-04 4.259798891577068e-05 -8.981479050064412e-07
1.213838246394716e-01 1.645253098254781e-05 2.195867781845304e-05 -3.959856997506765e-05 3.709802182901602e-05 2.472769692718520e-04
1.170151098004410e-01 -1.369706863308062e-05 -4.577144867086543e-05 7.735501136444403e-04 -3.129314304314976e-05 1.546647884088727e-03
1.219067884919481e-01 -5.277681565683136e-06 -6.821893311899752e-05 3.274455419886232e-04 -7.293292278140124e-06 9.335653680056748e-05
1.145683591905070e-01 3.405522952753691e-05 -1.103498618275815e-05 4.545608035948029e-05 4.701044654533362e-06 6.584745852776014e-04
1.202771318039727e-01 3.464874273191477e-05 -1.172774710929778e-04 2.847774937533261e-04 -8.920629790503717e-06 5.154236038959583e-04
1.197190942667407e-01 3.151484900308612e-06 -8.049094286774967e-05 5.215618928204767e-04 -1.736752188663594e-05 7.086624129170408e-04
1.182495446001828e-01 1.444769496256010e-05 -5.462139345095224e-05 2.382802910805890e-04 -5.754930803236605e-06 4.143113740971682e-04
1.156496344866876e-01 2.760806578975218e-05 -2.793256664703995e-05 3.567375246402637e-04 -7.945021892055147e-06 1.053417269756049e-03
1.187411683788928e-01 3.786465602298607e-05 -1.471612157561778e-04 5.455880145071960e-04 -7.122827695405243e-06 1.101879454676091e-03
1.210824369190694e-01 5.250980951394825e-05 -8.537774430477271e-05 2.853617868360649e-04 3.715751969004171e-06 2.803833488002135e-04
1.172362402619469e-01 -2.640114241029148e-07 -1.469324545061093e-04 2.132598941629532e-04 3.769859916539956e-06 6.538021628998301e-04
1.170151098004410e-01 -1.369706863308062e-05 -4.577144867086543e-05 7.735501136444403e-04 -3.129314304314976e-05 1.546647884088727e-03
1.145683591905070e-01 3.405522952753691e-05 -1.103498618275815e-05 4.545608035948029e-05 4.701044654533362e-06 6.584745852776014e-04
1.121358037543034e-01 -1.690767353910005e-06 6.641181328022859e-05 3.297942494829997e-04 7.450927990959287e-07 9.113275083908349e-05
1.072256950461992e-01 5.384166722530825e-05 7.734654488302145e-05 2.238604734660394e-04 -1.045953464754578e-05 5.101340811708041e-04
1.156496344866876e-01 2.760806578975218e-05 -2.793256664703995e-05 3.567375246402637e-04 -7.945021892055147e-06 1.053417269756049e-03
1.133121993595332e-01 3.482530333586480e-05 5.091370706204051e-05 1.514885950120318e-04 -7.358554492284945e-06 3.687015099848197e-04
1.142996238870625e-01 -1.776270637670916e-05 4.917092149613251e-05 5.285264084860604e-04 -1.104173913659347e-05 7.118930359334238e-04
1.118412405888892e-01 7.177739277771931e-05 1.098749454532342e-04 5.647695342897896e-04 3.404397385061679e-05 1.120402598496877e-03
1.112275828902266e-01 1.065941902095071e-04 1.429834635388224e-04 1.480054520016000e-05 3.200532540790996e-05 7.010527715622711e-04
1.099553431173602e-01 8.868580240310514e-05 1.309098760347464e-04 3.882168024898164e-04 3.073937327581933e-05 1.795601257922276e-04
1.170151098004410e-01 -1.369706863308062e-05 -4.577144867086543e-05 7.735501136444403e-04 -3.129314304314976e-05 1.546647884088727e-03
1.121358037543034e-01 -1.690767353910005e-06 6.641181328022859e-05 3.297942494829997e-04 7.450927990959287e-07 9.113275083908349e-05
1.194539365216010e-01 -3.321542725581836e-05 -1.296384986487680e-05 4.683461493300615e-05 -1.124906360542632e-05 6.561258881803058e-04
1.137778203660361e-01 -3.906660119625933e-05 7.245105747761204e-05 3.000563314177218e-04 -8.810367269066313e-06 5.288282372563607e-04
1.142996238870625e-01 -1.776270637670916e-05 4.917092149613251e-05 5.285264084860604e-04 -1.104173913659347e-05 7.118930359334238e-04
1.157790228597810e-01 -1.829707901211721e-05 4.026656266242992e-05 2.408119617096756e-04 -2.554726863852961e-06 4.113257563211652e-04
1.183595494212900e-01 -3.718391140472389e-05 -1.753050114775171e-05 3.537566330546227e-04 -2.046400599444202e-05 1.046452389365234e-03
1.153074100005913e-01 -6.062730702418618e-05 8.898973867299686e-05 5.541311269604177e-04 -3.503582167757675e-05 1.103064060266513e-03
1.129604212728505e-01 -5.690857244626468e-05 7.325127743220876e-05 2.910719374587189e-04 -1.434572794820888e-05 2.790323559784038e-04
1.167920452298307e-01 -5.793024626873866e-06 1.242859155015366e-04 2.149932918970115e-04 -1.628927992113124e-05 6.477223115607764e-04
1.170151098004410e-01 -1.369706863308062e-05 -4.577144867086543e-05 7.735501136444403e-04 -3.129314304314976e-05 1.546647884088727e-03
1.194539365216010e-01 -3.321542725581836e-05 -1.296384986487680e-05 4.683461493300615e-05 -1.124906360542632e-05 6.561258881803058e-04
1.219067884919481e-01 -5.277681565683136e-06 -6.821893311899752e-05 3.274455419886232e-04 -7.293292278140124e-06 9.335653680056748e-05
1.267231538050332e-01 -7.505380314984432e-05 -1.389598049865945e-04 1.936053949493220e-04 -1.051866251051549e-05 4.511749546716563e-04
1.183595494212900e-01 -3.718391140472389e-05 -1.753050114775171e-05 3.537566330546227e-04 -2.046400599444202e-05 1.046452389365234e-03
1.207238720454631e-01 -3.714520849172316e-05 -6.373864619191555e-05 1.508293423311664e-04 2.086698315557418e-06 3.684958311598208e-04
1.197190942667407e-01 3.151484900308612e-06 -8.049094286774967e-05 5.215618928204767e-04 -1.736752188663594e-05 7.086624129170408e-04
1.221431642385156e-01 -7.885234481214075e-05 -1.523471104457970e-04 5.429087737052242e-04 -5.064611264161888e-05 1.088806831429190e-03
1.227968298035491e-01 -9.588203442180166e-05 -1.634856907133387e-04 1.680801156527155e-05 -2.605036405913963e-05 6.987832100463476e-04
1.240836411114074e-01 -9.094508388558937e-05 -1.262634972338291e-04 3.855781175111915e-04 -2.667384673911349e-05 1.811843034932712e-04
1.170098686970484e-01 -4.339523995434361e-07 -1.479435032050381e-06 4.392839652561804e-05 -2.102435679356349e-06 8.786373493552195e-05
1.219067884919481e-01 -5.277681565683136e-06 -6.821893311899752e-05 3.274455419886232e-04 -7.293292278140124e-06 9.335653680056748e-05
1.145683591905070e-01 3.405522952753691e-05 -1.103498618275815e-05 4.545608035948029e-05 4.701044654533362e-06 6.584745852776014e-04
1.170098898044064e-01 -3.433137825389527e-06 -1.370280946643266e-05 3.613195524121677e-04 -1.231631171666722e-05 7.225965771660656e-04
1.194224955863704e-01 -1.451279494602609e-05 -5.294267655494248e-05 1.856930402607425e-04 -1.488409509733390e-06 1.215241519918208e-04
1.182495446001828e-01 1.444769496256010e-05 -5.462139345095224e-05 2.382802910805890e-04 -5.754930803236605e-06 4.143113740971682e-04
1.158072750594769e-01 2.539898776039347e-05 -5.500007964906080e-07 6.038582972304366e-05 -6.025787206213497e-06 3.738503223134282e-04
1.170105684811220e-01 -2.099968984327240e-06 -8.131753572817622e-06 2.125757659870403e-04 -8.162806198680911e-06 4.251405342221561e-04
1.195588126552384e-01 -1.011823403812615e-05 -6.466447071602963e-05 3.639190014566226e-04 -6.821131626978463e-06 4.241952210657665e-04
1.157389312963265e-01 2.698452481846735e-05 -1.041003593448416e-05 2.122366396447113e-04 -1.064578302938996e-05 7.331214188335157e-04
1.170098686970484e-01 -4.339523995434361e-07 -1.479435032050381e-06 4.392839652561804e-05 -2.102435679356349e-06 8.786373493552195e-05
1.145683591905070e-01 3.405522952753691e-05 -1.103498618275815e-05 4.545608035948029e-05 4.701044654533362e-06 6.584745852776014e-04
1.121358037543034e-01 -1.690767353910005e-06 6.641181328022859e-05 3.297942494829997e-04 7.450927990959287e-07 9.113275083908349e-05
1.170098898044064e-01 -3.433137825389527e-06 -1.370280946643266e-05 3.613195524121677e-04 -1.231631171666722e-05 7.225965771660656e-04
1.158072750594769e-01 2.539898776039347e-05 -5.500007964906080e-07 6.038582972304366e-05 -6.025787206213497e-06 3.738503223134282e-04
1.133121993595332e-01 3.482530333586480e-05 5.091370706204051e-05 1.514885950120318e-04 -7.358554492284945e-06 3.687015099848197e-04
1.146077556078170e-01 1.081204072436367e-05 4.913693789021150e-05 1.873254810670414e-04 -4.495431811807078e-06 1.216299312781797e-04
1.170105684811220e-01 -2.099968984327240e-06 -8.131753572817622e-06 2.125757659870403e-04 -8.162806198680911e-06 4.251405342221561e-04
1.157389312963265e-01 2.698452481846735e-05 -1.041003593448416e-05 2.122366396447113e-04 -1.064578302938996e-05 7.331214188335157e-04
1.144708097281592e-01 3.105854191434183e-06 4.888571729069826e-05 3.674360709941090e-04 -9.343940325855472e-06 4.244915918062796e-04
1.170098686970484e-01 -4.339523995434361e-07 -1.479435032050381e-06 4.392839652561804e-05 -2.102435679356349e-06 8.786373493552195e-05
1.121358037543034e-01 -1.690767353910005e-06 6.641181328022859e-05 3.297942494829997e-04 7.450927990959287e-07 9.113275083908349e-05
1.194539365216010e-01 -3.321542725581836e-05 -1.296384986487680e-05 4.683461493300615e-05 -1.124906360542632e-05 6.561258881803058e-04
1.170098898044064e-01 -3.433137825389527e-06 -1.370280946643266e-05 3.613195524121677e-04 -1.231631171666722e-05 7.225965771660656e-04
1.146077556078170e-01 1.081204072436367e-05 4.913693789021150e-05 1.873254810670414e-04 -4.495431811807078e-06 1.216299312781797e-04
1.157790228597810e-01 -1.829707901211721e-05 4.026656266242992e-05 2.408119617096756e-04 -2.554726863852961e-06 4.113257563211652e-04
1.182146559312204e-01 -2.562755390562231e-05 -1.327864719730184e-05 6.119865079221261e-05 4.194633921224532e-08 3.722178739897524e-04
1.170105684811220e-01 -2.099968984327240e-06 -8.131753572817622e-06 2.125757659870403e-04 -8.162806198680911e-06 4.251405342221561e-04
1.144708097281592e-01 3.105854191434183e-06 4.888571729069826e-05 3.674360709941090e-04 -9.343940325855472e-06 4.244915918062796e-04
1.182829671076528e-01 -2.977399787533502e-05 -1.709340184282595e-05 2.121452621025324e-04 -5.519285772342873e-06 7.296041185561027e-04
1.170098686970484e-01 -4.339523995434361e-07 -1.479435032050381e-06 4.392839652561804e-05 -2.102435679356349e-06 8.786373493552195e-05
1.194539365216010e-01 -3.321542725581836e-05 -1.296384986487680e-05 4.683461493300615e-05 -1.124906360542632e-05 6.561258881803058e-04
1.219067884919481e-01 -5.277681565683136e-06 -6.821893311899752e-05 3.274455419886232e-04 -7.293292278140124e-06 9.335653680056748e-05
1.170098898044064e-01 -3.433137825389527e-06 -1.370280946643266e-05 3.613195524121677e-04 -1.231631171666722e-05 7.225965771660656e-04
1.182146559312204e-01 -2.562755390562231e-05 -1.327864719730184e-05 6.119865079221261e-05 4.194633921224532e-08 3.722178739897524e-04
1.207238720454631e-01 -3.714520849172316e-05 -6.373864619191555e-05 1.508293423311664e-04 2.086698315557418e-06 3.684958311598208e-04
1.194224955863704e-01 -1.451279494602609e-05 -5.294267655494248e-05 1.856930402607425e-04 -1.488409509733390e-06 1.215241519918208e-04
1.170105684811220e-01 -2.099968984327240e-06 -8.131753572817622e-06 2.125757659870403e-04 -8.162806198680911e-06 4.251405342221561e-04
1.182829671076528e-01 -2.977399787533502e-05 -1.709340184282595e-05 2.121452621025324e-04 -5.519285772342873e-06 7.296041185561027e-04
1.195588126552384e-01 -1.011823403812615e-05 -6.466447071602963e-05 3.639190014566226e-04 -6.821131626978463e-06 4.241952210657665e-04
1.170151098004410e-01 -1.369706863308062e-05 -4.577144867086543e-05 7.735501136444403e-04 -3.129314304314976e-05 1.546647884088727e-03
1.145683591905070e-01 3.405522952753691e-05 -1.103498618275815e-05 4.545608035948029e-05 4.701044654533362e-06 6.584745852776014e-04
1.219067884919481e-01 -5.277681565683136e-06 -6.821893311899752e-05 3.274455419886232e-04 -7.293292278140124e-06 9.335653680056748e-05
1.170098898044064e-01 -3.433137825389527e-06 -1.370280946643266e-05 3.613195524121677e-04 -1.231631171666722e-05 7.225965771660656e-04
1.156496344866876e-01 2.760806578975218e-05 -2.793256664703995e-05 3.567375246402637e-04 -7.945021892055147e-06 1.053417269756049e-03
1.182495446001828e-01 1.444769496256010e-05 -5.462139345095224e-05 2.382802910805890e-04 -5.754930803236605e-06 4.143113740971682e-04
1.197190942667407e-01 3.151484900308612e-06 -8.049094286774967e-05 5.215618928204767e-04 -1.736752188663594e-05 7.086624129170408e-04
1.170053778312977e-01 -5.445444166866495e-06 -1.932354959592713e-05 5.003086260473790e-04 -1.742518203704078e-05 1.000456797761238e-03
1.157389312963265e-01 2.698452481846735e-05 -1.041003593448416e-05 2.122366396447113e-04 -1.064578302938996e-05 7.331214188335157e-04
1.195588126552384e-01 -1.011823403812615e-05 -6.466447071602963e-05 3.639190014566226e-04 -6.821131626978463e-06 4.241952210657665e-04
1.170151098004410e-01 -1.369706863308062e-05 -4.577144867086543e-05 7.735501136444403e-04 -3.129314304314976e-05 1.546647884088727e-03
1.121358037543034e-01 -1.690767353910005e-06 6.641181328022859e-05 3.297942494829997e-04 7.450927990959287e-07 9.113275083908349e-05
1.145683591905070e-01 3.405522952753691e-05 -1.103498618275815e-05 4.545608035948029e-05 4.701044654533362e-06 6.584745852776014e-04
1.170098898044064e-01 -3.433137825389527e-06 -1.370280946643266e-05 3.613195524121677e-04 -1.231631171666722e-05 7.225965771660656e-04
1.142996238870625e-01 -1.776270637670916e-05 4.917092149613251e-05 5.285264084860604e-04 -1.104173913659347e-05 7.118930359334238e-04
1.133121993595332e-01 3.482530333586480e-05 5.091370706204051e-05 1.514885950120318e-04 -7.358554492284945e-06 3.687015099848197e-04
1.156496344866876e-01 2.760806578975218e-05 -2.793256664703995e-05 3.567375246402637e-04 -7.945021892055147e-06 1.053417269756049e-03
1.170053778312977e-01 -5.445444166866495e-06 -1.932354959592713e-05 5.003086260473790e-04 -1.742518203704078e-05 1.000456797761238e-03
1.144708097281592e-01 3.105854191434183e-06 4.888571729069826e-05 3.674360709941090e-04 -9.343940325855472e-06 4.244915918062796e-04
1.157389312963265e-01 2.698452481846735e-05 -1.041003593448416e-05 2.122366396447113e-04 -1.064578302938996e-05 7.331214188335157e-04
1.170151098004410e-01 -1.369706863308062e-05 -4.577144867086543e-05 7.735501136444403e-04 -3.129314304314976e-05 1.546647884088727e-03
1.194539365216010e-01 -3.321542725581836e-05 -1.296384986487680e-05 4.683461493300615e-05 -1.124906360542632e-05 6.561258881803058e-04
1.121358037543034e-01 -1.690767353910005e-06 6.641181328022859e-05 3.297942494829997e-04 7.450927990959287e-07 9.113275083908349e-05
1.170098898044064e-01 -3.433137825389527e-06 -1.370280946643266e-05 3.613195524121677e-04 -1.231631171666722e-05 7.225965771660656e-04
1.183595494212900e-01 -3.718391140472389e-05 -1.753050114775171e-05 3.537566330546227e-04 -2.046400599444202e-05 1.046452389365234e-03
1.157790228597810e-01 -1.829707901211721e-05 4.026656266242992e-05 2.408119617096756e-04 -2.554726863852961e-06 4.113257563211652e-04
1.142996238870625e-01 -1.776270637670916e-05 4.917092149613251e-05 5.285264084860604e-04 -1.104173913659347e-05 7.118930359334238e-04
1.170053778312977e-01 -5.445444166866495e-06 -1.932354959592713e-05 5.003086260473790e-04 -1.742518203704078e-05 1.000456797761238e-03
1.182829671076528e-01 -2.977399787533502e-05 -1.709340184282595e-05 2.121452621025324e-04 -5.519285772342873e-06 7.296041185561027e-04
1.144708097281592e-01 3.105854191434183e-06 4.888571729069826e-05 3.674360709941090e-04 -9.343940325855472e-06 4.244915918062796e-04
1.170151098004410e-01 -1.369706863308062e-05 -4.577144867086543e-05 7.735501136444403e-04 -3.129314304314976e-05 1.546647884088727e-03
1.219067884919481e-01 -5.277681565683136e-06 -6.821893311899752e-05 3.274455419886232e-04 -7.293292278140124e-06 9.335653680056748e-05
1.194539365216010e-01 -3.321542725581836e-05 -1.296384986487680e-05 4.683461493300615e-05 -1.124906360542632e-05 6.561258881803058e-04
1.170098898044064e-01 -3.433137825389527e-06 -1.370280946643266e-05 3.613195524121677e-04 -1.231631171666722e-05 7.225965771660656e-04
1.197190942667407e-01 3.151484900308612e-06 -8.049094286774967e-05 5.215618928204767e-04 -1.736752188663594e-05 7.086624129170408e-04
1.207238720454631e-01 -3.714520849172316e-05 -6.373864619191555e-05 1.508293423311664e-04 2.086698315557418e-06 3.684958311598208e-04
1.183595494212900e-01 -3.718391140472389e-05 -1.753050114775171e-05 3.537566330546227e-04 -2.046400599444202e-05 1.046452389365234e-03
1.170053778312977e-01 -5.445444166866495e-06 -1.932354959592713e-05 5.003086260473790e-04 -1.742518203704078e-05 1.000456797761238e-03
1.195588126552384e-01 -1.011823403812615e-05 -6.466447071602963e-05 3.639190014566226e-04 -6.821131626978463e-06 4.241952210657665e-04
1.182829671076528e-01 -2.977399787533502e-05 -1.709340184282595e-05 2.121452621025324e-04 -5.519285772342873e-06 7.296041185561027e-04
1.202771318039727e-01 3.464874273191477e-05 -1.172774710929778e-04 2.847774937533261e-04 -8.920629790503717e-06 5.154236038959583e-04
1.072256950461992e-01 5.384166722530825e-05 7.734654488302145e-05 2.238604734660394e-04 -1.045953464754578e-05 5.101340811708041e-04
1.170151098004410e-01 -1.369706863308062e-05 -4.577144867086543e-05 7.735501136444403e-04 -3.129314304314976e-05 1.546647884088727e-03
1.119012688222033e-01 1.270561974614154e-04 -1.059500866541201e-04 1.800668758731246e-04 1.024331950212445e-05 2.802986461333174e-03
1.138206203387276e-01 2.340988947634926e-05 -4.402542722736377e-06 1.688695176631670e-04 -4.451638616030804e-05 1.109977308190670e-03
1.118412405888892e-01 7.177739277771931e-05 1.098749454532342e-04 5.647695342897896e-04 3.404397385061679e-05 1.120402598496877e-03
1.187411683788928e-01 3.786465602298607e-05 -1.471612157561778e-04 5.455880145071960e-04 -7.122827695405243e-06 1.101879454676091e-03
1.167695743635226e-01 1.193602456071263e-05 -7.740464177526897e-05 3.974332544679650e-04 -2.388197399279284e-05 1.385210026417210e-03
1.092953080578641e-01 -6.230666762077210e-05 -7.913983168856969e-05 -8.778758899882721e-05 -8.663133758766578e-05 1.518561706797769e-03
1.146457115995091e-01 5.963599979070555e-05 -5.115754572675756e-05 5.285217882387283e-04 -1.669108087588873e-05 2.228767367694300e-03
1.072256950461992e-01 5.384166722530825e-05 7.734654488302145e-05 2.238604734660394e-04 -1.045953464754578e-05 5.101340811708041e-04
1.137778203660361e-01 -3.906660119625933e-05 7.245105747761204e-05 3.000563314177218e-04 -8.810367269066313e-06 5.288282372563607e-04
1.170151098004410e-01 -1.369706863308062e-05 -4.577144867086543e-05 7.735501136444403e-04 -3.129314304314976e-05 1.546647884088727e-03
1.066085778234844e-01 -3.528208199875830e-05 2.112139876855074e-04 1.421290419988448e-03 -1.725259995804617e-05 4.038788916180481e-04
1.106879574551795e-01 2.454075161258434e-05 4.016837471724179e-05 5.594796667928760e-04 -2.328492691623171e-05 3.449316946011063e-04
1.153074100005913e-01 -6.062730702418618e-05 8.898973867299686e-05 5.541311269604177e-04 -3.503582167757675e-05 1.103064060266513e-03
1.118412405888892e-01 7.177739277771931e-05 1.098749454532342e-04 5.647695342897896e-04 3.404397385061679e-05 1.120402598496877e-03
1.070871583779216e-01 -1.867339874896527e-05 -9.329401287513033e-05 8.289383476465797e-04 -7.979059175511796e-05 2.076040521322255e-04
1.108556407170816e-01 -3.925305580850978e-06 -3.834753652890939e-05 6.558987531462667e-04 -3.036684973516924e-06 4.425166476794575e-04
1.122175375431292e-01 1.359994993348527e-05 1.009759905471778e-04 1.127361311750765e-03 -2.404114114210651e-05 1.052875647920343e-03
1.137778203660361e-01 -3.906660119625933e-05 7.245105747761204e-05 3.000563314177218e-04 -8.810367269066313e-06 5.288282372563607e-04
1.267231538050332e-01 -7.505380314984432e-05 -1.389598049865945e-04 1.936053949493220e-04 -1.051866251051549e-05 4.511749546716563e-04
1.170151098004410e-01 -1.369706863308062e-05 -4.577144867086543e-05 7.735501136444403e-04 -3.129314304314976e-05 1.546647884088727e-03
1.222149292977398e-01 -1.645243539309474e-04 -8.704106206139228e-05 1.684747517410048e-04 -9.456899342243518e-05 2.725881704198323e-03
1.201428029060896e-01 -2.124314961412899e-05 -3.076663543105655e-05 1.667359951016029e-04 3.976889213465909e-05 1.090590825562198e-03
1.221431642385156e-01 -7.885234481214075e-05 -1.523471104457970e-04 5.429087737052242e-04 -5.064611264161888e-05 1.088806831429190e-03
1.153074100005913e-01 -6.062730702418618e-05 8.898973867299686e-05 5.541311269604177e-04 -3.503582167757675e-05 1.103064060266513e-03
1.173345452673811e-01 -6.849472207267325e-06 -5.515153321155729e-05 3.814159892063652e-04 7.972501882093189e-06 1.369416284515565e-03
1.246841263497924e-01 -3.118072595163380e-07 -1.076030448569765e-04 -1.313156821692314e-04 -3.845148246241988e-06 1.403390062338852e-03
1.194228689176327e-01 -8.738773913445612e-05 -7.838995127016672e-05 5.005452057520040e-04 -4.472696753953238e-05 2.177759620183775e-03
1.267231538050332e-01 -7.505380314984432e-05 -1.389598049865945e-04 1.936053949493220e-04 -1.051866251051549e-05 4.511749546716563e-04
1.202771318039727e-01 3.464874273191477e-05 -1.172774710929778e-04 2.847774937533261e-04 -8.920629790503717e-06 5.154236038959583e-04
1.170151098004410e-01 -1.369706863308062e-05 -4.577144867086543e-05 7.735501136444403e-04 -3.129314304314976e-05 1.546647884088727e-03
1.272406094138799e-01 -6.717757093813171e-06 -3.688820195009825e-04 1.344172935077343e-03 -6.710549152771598e-05 2.962646537863307e-04
1.233301233663517e-01 -2.823153790113513e-05 -4.902499080232138e-05 5.401128210641832e-04 1.853955627926084e-05 3.259726397362811e-04
1.187411683788928e-01 3.786465602298607e-05 -1.471612157561778e-04 5.455880145071960e-04 -7.122827695405243e-06 1.101879454676091e-03
1.221431642385156e-01 -7.885234481214075e-05 -1.523471104457970e-04 5.429087737052242e-04 -5.064611264161888e-05 1.088806831429190e-03
1.267488947893227e-01 -4.269972622888941e-05 -2.913137888206154e-05 7.560749256105891e-04 2.254239441117211e-07 1.048010268903374e-04
1.231050916496377e-01 -3.276886941829015e-06 -1.636378334605623e-05 5.978178447067519e-04 -2.379843058273799e-05 3.672600266180091e-04
1.217726852676193e-01 -4.440906488089663e-05 -1.926780864090507e-04 1.076356278081158e-03 -3.738059064054764e-05 1.005336533516704e-03
1.202771318039727e-01 3.464874273191477e-05 -1.172774710929778e-04 2.847774937533261e-04 -8.920629790503717e-06 5.154236038959583e-04
1.242687613528718e-01 -2.457070499276847e-04 9.342412354166631e-04 1.123162361600344e-03 1.108107615008944e-04 2.115357201808779e-03
1.119012688222033e-01 1.270561974614154e-04 -1.059500866541201e-04 1.800668758731246e-04 1.024331950212445e-05 2.802986461333174e-03
1.272406094138799e-01 -6.717757093813171e-06 -3.688820195009825e-04 1.344172935077343e-03 -6.710549152771598e-05 2.962646537863307e-04
1.222354367266560e-01 8.978008729236642e-06 6.087723318653805e-05 3.787498599661695e-04 -3.973769591644963e-05 9.130991476618590e-04
1.177061107949137e-01 5.007603211678581e-05 2.408941580647105e-04 7.495354768340736e-04 1.048971863451271e-04 2.309005776939913e-03
1.167695743635226e-01 1.193602456071263e-05 -7.740464177526897e-05 3.974332544679650e-04 -2.388197399279284e-05 1.385210026417210e-03
1.231050916496377e-01 -3.276886941829015e-06 -1.636378334605623e-05 5.978178447067519e-04 -2.379843058273799e-05 3.672600266180091e-04
1.262638605002144e-01 -4.219114104766669e-05 -2.681886090026966e-05 1.023289301047480e-03 -6.082913610039281e-05 1.023937146307277e-03
1.196303583473907e-01 9.183157218607433e-05 -2.486113051126592e-04 9.861173779703275e-04 4.327611810714577e-06 1.712833116115797e-03
1.072256950461992e-01 5.384166722530825e-05 7.734654488302145e-05 2.238604734660394e-04 -1.045953464754578e-05 5.101340811708041e-04
9.465364960068395e-02 -3.259638135671944e-04 -4.423600739278942e-04 9.422643434012150e-04 1.327728151524291e-04 1.975332308007582e-03
1.066085778234844e-01 -3.528208199875830e-05 2.112139876855074e-04 1.421290419988448e-03 -1.725259995804617e-05 4.038788916180481e-04
1.119012688222033e-01 1.270561974614154e-04 -1.059500866541201e-04 1.800668758731246e-04 1.024331950212445e-05 2.802986461333174e-03
1.009184290164467e-01 4.449431139956419e-06 6.875310387283492e-05 5.839923724625319e-04 -9.959832424662497e-05 1.036964551514007e-03
1.002217359477145e-01 -1.281046995558552e-04 8.560749878541656e-05 1.377176303354147e-03 1.321740183195549e-05 7.489271061078387e-04
1.070871583779216e-01 -1.867339874896527e-05 -9.329401287513033e-05 8.289383476465797e-04 -7.979059175511796e-05 2.076040521322255e-04
1.092953080578641e-01 -6.230666762077210e-05 -7.913983168856969e-05 -8.778758899882721e-05 -8.663133758766578e-05 1.518561706797769e-03
1.032386066441122e-01 3.229803206898380e-05 -1.603029116781729e-04 1.322771165530129e-04 5.365977039078874e-05 2.470476323537213e-03
1.091049671188763e-01 6.475541669645555e-05 9.984146981991005e-05 6.678917162882716e-04 -3.317763203503446e-06 1.602195578122646e-03
1.137778203660361e-01 -3.906660119625933e-05 7.245105747761204e-05 3.000563314177218e-04 -8.810367269066313e-06 5.288282372563607e-04
1.096629440998001e-01 3.450601903617732e-04 -4.288365177857633e-04 1.076650343271760e-03 1.055279579037299e-04 2.095862123981938e-03
1.222149292977398e-01 -1.645243539309474e-04 -8.704106206139228e-05 1.684747517410048e-04 -9.456899342243518e-05 2.725881704198323e-03
1.066085778234844e-01 -3.528208199875830e-05 2.112139876855074e-04 1.421290419988448e-03 -1.725259995804617e-05 4.038788916180481e-04
1.117199280999112e-01 -2.103643037709450e-05 4.752924547118991e-05 3.927625554233369e-04 5.852797693186086e-05 9.333535302181719e-04
1.163675918838438e-01 -2.173952002549954e-05 -1.376163582989061e-04 7.426699954929427e-04 -6.130833077978800e-05 2.288248324035756e-03
1.173345452673811e-01 -6.849472207267325e-06 -5.515153321155729e-05 3.814159892063652e-04 7.972501882093189e-06 1.369416284515565e-03
1.108556407170816e-01 -3.925305580850978e-06 -3.834753652890939e-05 6.558987531462667e-04 -3.036684973516924e-06 4.425166476794575e-04
1.075666555010393e-01 5.384454877447064e-05 9.583166093906521e-05 1.019811432601689e-03 8.087870158914250e-05 1.069852250024236e-03
1.143741612396901e-01 -9.368437947605178e-05 1.324920579121541e-04 1.006151484120538e-03 -3.343554671154077e-05 1.743750258485758e-03
1.267231538050332e-01 -7.505380314984432e-05 -1.389598049865945e-04 1.936053949493220e-04 -1.051866251051549e-05 4.511749546716563e-04
1.384911019274813e-01 5.045583855487579e-04 1.027216674487124e-03 1.008959265422813e-03 1.014547180800952e-04 2.108349352503103e-03
1.272406094138799e-01 -6.717757093813171e-06 -3.688820195009825e-04 1.344172935077343e-03 -6.710549152771598e-05 2.962646537863307e-04
1.222149292977398e-01 -1.645243539309474e-04 -8.704106206139228e-05 1.684747517410048e-04 -9.456899342243518e-05 2.725881704198323e-03
1.324808695601460e-01 6.857703080976295e-05 1.246408514729241e-04 5.936824328572851e-04 1.947327180809049e-04 1.012479635141111e-03
1.331804112748879e-01 2.171720659669993e-04 -2.900591735428903e-05 1.352065669352269e-03 2.729625091092433e-05 7.477201033131652e-04
1.267488947893227e-01 -4.269972622888941e-05 -2.913137888206154e-05 7.560749256105891e-04 2.254239441117211e-07 1.048010268903374e-04
1.246841263497924e-01 -3.118072595163380e-07 -1.076030448569765e-04 -1.313156821692314e-04 -3.845148246241988e-06 1.403390062338852e-03
1.304066475080277e-01 -1.636208202086336e-05 3.410794527343667e-04 1.699540275784435e-04 -3.665921249988341e-05 2.469725736565533e-03
1.248708684143325e-01 -1.323955227040363e-04 -2.818102669630880e-04 6.207381306818957e-04 -1.107346278128861e-04 1.504083861764817e-03
1.242687613528718e-01 -2.457070499276847e-04 9.342412354166631e-04 1.123162361600344e-03 1.108107615008944e-04 2.115357201808779e-03
9.465364960068395e-02 -3.259638135671944e-04 -4.423600739278942e-04 9.422643434012150e-04 1.327728151524291e-04 1.975332308007582e-03
1.119012688222033e-01 1.270561974614154e-04 -1.059500866541201e-04 1.800668758731246e-04 1.024331950212445e-05 2.802986461333174e-03
1.170812082488320e-01 1.028744369743130e-04 4.416307002695638e-04 2.064247965761905e-03 2.545117845254492e-04 4.130306035828271e-03
1.091916298376550e-01 -5.732706506657954e-04 3.652306606770532e-04 8.411990065557616e-04 4.636223736282548e-04 2.890936793435199e-03
1.032386066441122e-01 3.229803206898380e-05 -1.603029116781729e-04 1.322771165530129e-04 5.365977039078874e-05 2.470476323537213e-03
1.177061107949137e-01 5.007603211678581e-05 2.408941580647105e-04 7.495354768340736e-04 1.048971863451271e-04 2.309005776939913e-03
1.208378934551020e-01 -2.727664485998091e-04 1.178573040847111e-03 1.714336656450250e-03 1.708956594685522e-04 3.327589162752333e-03
1.054146457745044e-01 -3.136507242493973e-04 -3.707269839982194e-04 1.566774791362146e-03 9.984804973880358e-05 3.186802045878309e-03
1.140824550630814e-01 2.336765484931882e-06 1.367085670886022e-04 1.041071847025483e-03 7.059943906547513e-05 3.475828845630650e-03
9.465364960068395e-02 -3.259638135671944e-04 -4.423600739278942e-04 9.422643434012150e-04 1.327728151524291e-04 1.975332308007582e-03
1.096629440998001e-01 3.450601903617732e-04 -4.288365177857633e-04 1.076650343271760e-03 1.055279579037299e-04 2.095862123981938e-03
1.066085778234844e-01 -3.528208199875830e-05 2.112139876855074e-04 1.421290419988448e-03 -1.725259995804617e-05 4.038788916180481e-04
1.170812082488320e-01 1.028744369743130e-04 4.416307002695638e-04 2.064247965761905e-03 2.545117845254492e-04 4.130306035828271e-03
1.013904671247277e-01 1.197618533118118e-06 -9.990535496763773e-04 1.426683791095889e-03 3.010003473653669e-04 1.633083130110157e-03
1.075666555010393e-01 5.384454877447064e-05 9.583166093906521e-05 1.019811432601689e-03 8.087870158914250e-05 1.069852250024236e-03
1.002217359477145e-01 -1.281046995558552e-04 8.560749878541656e-05 1.377176303354147e-03 1.321740183195549e-05 7.489271061078387e-04
1.054146457745044e-01 -3.136507242493973e-04 -3.707269839982194e-04 1.566774791362146e-03 9.984804973880358e-05 3.186802045878309e-03
1.132259453134436e-01 4.546764065093585e-04 -3.642943595251710e-04 1.663252733177312e-03 2.518388176805922e-04 3.288995648563968e-03
1.110292603802427e-01 1.240003014008917e-05 7.214031361913691e-05 1.738489038476936e-03 7.811831215194606e-05 2.116534252576516e-03
1.096629440998001e-01 3.450601903617732e-04 -4.288365177857633e-04 1.076650343271760e-03 1.055279579037299e-04 2.095862123981938e-03
1.384911019274813e-01 5.045583855487579e-04 1.027216674487124e-03 1.008959265422813e-03 1.014547180800952e-04 2.108349352503103e-03
1.222149292977398e-01 -1.645243539309474e-04 -8.704106206139228e-05 1.684747517410048e-04 -9.456899342243518e-05 2.725881704198323e-03
1.170812082488320e-01 1.028744369743130e-04 4.416307002695638e-04 2.064247965761905e-03 2.545117845254492e-04 4.130306035828271e-03
1.245331034588916e-01 6.420444400278751e-04 4.652026391798586e-04 8.687051773955210e-04 -2.022258545028303e-04 2.967103326805268e-03
1.304066475080277e-01 -1.636208202086336e-05 3.410794527343667e-04 1.699540275784435e-04 -3.665921249988341e-05 2.469725736565533e-03
1.163675918838438e-01 -2.173952002549954e-05 -1.376163582989061e-04 7.426699954929427e-04 -6.130833077978800e-05 2.288248324035756e-03
1.132259453134436e-01 4.546764065093585e-04 -3.642943595251710e-04 1.663252733177312e-03 2.518388176805922e-04 3.288995648563968e-03
1.282582764446353e-01 5.308307318972411e-04 1.220443672502711e-03 1.624928824594513e-03 3.294090911001961e-04 3.334800868547702e-03
1.200581641525785e-01 6.037159084340244e-05 1.591356041882547e-04 1.060754310915606e-03 1.022694939525206e-04 3.473100889172400e-03
1.384911019274813e-01 5.045583855487579e-04 1.027216674487124e-03 1.008959265422813e-03 1.014547180800952e-04 2.108349352503103e-03
1.242687613528718e-01 -2.457070499276847e-04 9.342412354166631e-04 1.123162361600344e-03 1.108107615008944e-04 2.115357201808779e-03
1.272406094138799e-01 -6.717757093813171e-06 -3.688820195009825e-04 1.344172935077343e-03 -6.710549152771598e-05 2.962646537863307e-04
1.170812082488320e-01 1.028744369743130e-04 4.416307002695638e-04 2.064247965761905e-03 2.545117845254492e-04 4.130306035828271e-03
1.320761735242377e-01 2.234335526126724e-04 1.416130650898396e-03 1.502821880649044e-03 -3.947338583649304e-05 1.781931942452641e-03
1.262638605002144e-01 -4.219114104766669e-05 -2.681886090026966e-05 1.023289301047480e-03 -6.082913610039281e-05 1.023937146307277e-03
1.331804112748879e-01 2.171720659669993e-04 -2.900591735428903e-05 1.352065669352269e-03 2.729625091092433e-05 7.477201033131652e-04
1.282582764446353e-01 5.308307318972411e-04 1.220443672502711e-03 1.624928824594513e-03 3.294090911001961e-04 3.334800868547702e-03
1.208378934551020e-01 -2.727664485998091e-04 1.178573040847111e-03 1.714336656450250e-03 1.708956594685522e-04 3.327589162752333e-03
1.229838245262615e-01 5.538732718060312e-05 1.895590195666768e-04 1.735745860022557e-03 9.473042527383273e-05 2.090859160566776e-03
1.170151098004410e-01 -1.369706863308062e-05 -4.577144867086543e-05 7.735501136444403e-04 -3.129314304314976e-05 1.546647884088727e-03
1.119012688222033e-01 1.270561974614154e-04 -1.059500866541201e-04 1.800668758731246e-04 1.024331950212445e-05 2.802986461333174e-03
1.272406094138799e-01 -6.717757093813171e-06 -3.688820195009825e-04 1.344172935077343e-03 -6.710549152771598e-05 2.962646537863307e-04
1.202771318039727e-01 3.464874273191477e-05 -1.172774710929778e-04 2.847774937533261e-04 -8.920629790503717e-06 5.154236038959583e-04
1.146457115995091e-01 5.963599979070555e-05 -5.115754572675756e-05 5.285217882387283e-04 -1.669108087588873e-05 2.228767367694300e-03
1.196303583473907e-01 9.183157218607433e-05 -2.486113051126592e-04 9.861173779703275e-04 4.327611810714577e-06 1.712833116115797e-03
1.217726852676193e-01 -4.440906488089663e-05 -1.926780864090507e-04 1.076356278081158e-03 -3.738059064054764e-05 1.005336533516704e-03
1.187411683788928e-01 3.786465602298607e-05 -1.471612157561778e-04 5.455880145071960e-04 -7.122827695405243e-06 1.101879454676091e-03
1.167695743635226e-01 1.193602456071263e-05 -7.740464177526897e-05 3.974332544679650e-04 -2.388197399279284e-05 1.385210026417210e-03
1.231050916496377e-01 -3.276886941829015e-06 -1.636378334605623e-05 5.978178447067519e-04 -2.379843058273799e-05 3.672600266180091e-04
1.170151098004410e-01 -1.369706863308062e-05 -4.577144867086543e-05 7.735501136444403e-04 -3.129314304314976e-05 1.546647884088727e-03
1.066085778234844e-01 -3.528208199875830e-05 2.112139876855074e-04 1.421290419988448e-03 -1.725259995804617e-05 4.038788916180481e-04
1.119012688222033e-01 1.270561974614154e-04 -1.059500866541201e-04 1.800668758731246e-04 1.024331950212445e-05 2.802986461333174e-03
1.072256950461992e-01 5.384166722530825e-05 7.734654488302145e-05 2.238604734660394e-04 -1.045953464754578e-05 5.101340811708041e-04
1.122175375431292e-01 1.359994993348527e-05 1.009759905471778e-04 1.127361311750765e-03 -2.404114114210651e-05 1.052875647920343e-03
1.091049671188763e-01 6.475541669645555e-05 9.984146981991005e-05 6.678917162882716e-04 -3.317763203503446e-06 1.602195578122646e-03
1.146457115995091e-01 5.963599979070555e-05 -5.115754572675756e-05 5.285217882387283e-04 -1.669108087588873e-05 2.228767367694300e-03
1.118412405888892e-01 7.177739277771931e-05 1.098749454532342e-04 5.647695342897896e-04 3.404397385061679e-05 1.120402598496877e-03
1.070871583779216e-01 -1.867339874896527e-05 -9.329401287513033e-05 8.289383476465797e-04 -7.979059175511796e-05 2.076040521322255e-04
1.092953080578641e-01 -6.230666762077210e-05 -7.913983168856969e-05 -8.778758899882721e-05 -8.663133758766578e-05 1.518561706797769e-03
1.170151098004410e-01 -1.369706863308062e-05 -4.577144867086543e-05 7.735501136444403e-04 -3.129314304314976e-05 1.546647884088727e-03
1.222149292977398e-01 -1.645243539309474e-04 -8.704106206139228e-05 1.684747517410048e-04 -9.456899342243518e-05 2.725881704198323e-03
1.066085778234844e-01 -3.528208199875830e-05 2.112139876855074e-04 1.421290419988448e-03 -1.725259995804617e-05 4.038788916180481e-04
1.137778203660361e-01 -3.906660119625933e-05 7.245105747761204e-05 3.000563314177218e-04 -8.810367269066313e-06 5.288282372563607e-04
1.194228689176327e-01 -8.738773913445612e-05 -7.838995127016672e-05 5.005452057520040e-04 -4.472696753953238e-05 2.177759620183775e-03
1.143741612396901e-01 -9.368437947605178e-05 1.324920579121541e-04 1.006151484120538e-03 -3.343554671154077e-05 1.743750258485758e-03
1.122175375431292e-01 1.359994993348527e-05 1.009759905471778e-04 1.127361311750765e-03 -2.404114114210651e-05 1.052875647920343e-03
1.153074100005913e-01 -6.062730702418618e-05 8.898973867299686e-05 5.541311269604177e-04 -3.503582167757675e-05 1.103064060266513e-03
1.173345452673811e-01 -6.849472207267325e-06 -5.515153321155729e-05 3.814159892063652e-04 7.972501882093189e-06 1.369416284515565e-03
1.108556407170816e-01 -3.925305580850978e-06 -3.834753652890939e-05 6.558987531462667e-04 -3.036684973516924e-06 4.425166476794575e-04
1.170151098004410e-01 -1.369706863308062e-05 -4.577144867086543e-05 7.735501136444403e-04 -3.129314304314976e-05 1.546647884088727e-03
1.272406094138799e-01 -6.717757093813171e-06 -3.688820195009825e-04 1.344172935077343e-03 -6.710549152771598e-05 2.962646537863307e-04
1.222149292977398e-01 -1.645243539309474e-04 -8.704106206139228e-05 1.684747517410048e-04 -9.456899342243518e-05 2.725881704198323e-03
1.267231538050332e-01 -7.505380314984432e-05 -1.389598049865945e-04 1.936053949493220e-04 -1.051866251051549e-05 4.511749546716563e-04
1.217726852676193e-01 -4.440906488089663e-05 -1.926780864090507e-04 1.076356278081158e-03 -3.738059064054764e-05 1.005336533516704e-03
1.248708684143325e-01 -1.323955227040363e-04 -2.818102669630880e-04 6.207381306818957e-04 -1.107346278128861e-04 1.504083861764817e-03
1.194228689176327e-01 -8.738773913445612e-05 -7.838995127016672e-05 5.005452057520040e-04 -4.472696753953238e-05 2.177759620183775e-03
1.221431642385156e-01 -7.885234481214075e-05 -1.523471104457970e-04 5.429087737052242e-04 -5.064611264161888e-05 1.088806831429190e-03
1.267488947893227e-01 -4.269972622888941e-05 -2.913137888206154e-05 7.560749256105891e-04 2.254239441117211e-07 1.048010268903374e-04
1.246841263497924e-01 -3.118072595163380e-07 -1.076030448569765e-04 -1.313156821692314e-04 -3.845148246241988e-06 1.403390062338852e-03
1.170812082488320e-01 1.028744369743130e-04 4.416307002695638e-04 2.064247965761905e-03 2.545117845254492e-04 4.130306035828271e-03
1.272406094138799e-01 -6.717757093813171e-06 -3.688820195009825e-04 1.344172935077343e-03 -6.710549152771598e-05 2.962646537863307e-04
1.119012688222033e-01 1.270561974614154e-04 -1.059500866541201e-04 1.800668758731246e-04 1.024331950212445e-05 2.802986461333174e-03
1.242687613528718e-01 -2.457070499276847e-04 9.342412354166631e-04 1.123162361600344e-03 1.108107615008944e-04 2.115357201808779e-03
1.229838245262615e-01 5.538732718060312e-05 1.895590195666768e-04 1.735745860022557e-03 9.473042527383273e-05 2.090859160566776e-03
1.196303583473907e-01 9.183157218607433e-05 -2.486113051126592e-04 9.861173779703275e-04 4.327611810714577e-06 1.712833116115797e-03
1.140824550630814e-01 2.336765484931882e-06 1.367085670886022e-04 1.041071847025483e-03 7.059943906547513e-05 3.475828845630650e-03
1.208378934551020e-01 -2.727664485998091e-04 1.178573040847111e-03 1.714336656450250e-03 1.708956594685522e-04 3.327589162752333e-03
1.262638605002144e-01 -4.219114104766669e-05 -2.681886090026966e-05 1.023289301047480e-03 -6.082913610039281e-05 1.023937146307277e-03
1.177061107949137e-01 5.007603211678581e-05 2.408941580647105e-04 7.495354768340736e-04 1.048971863451271e-04 2.309005776939913e-03
1.170812082488320e-01 1.028744369743130e-04 4.416307002695638e-04 2.064247965761905e-03 2.545117845254492e-04 4.130306035828271e-03
1.119012688222033e-01 1.270561974614154e-04 -1.059500866541201e-04 1.800668758731246e-04 1.024331950212445e-05 2.802986461333174e-03
1.066085778234844e-01 -3.528208199875830e-05 2.112139876855074e-04 1.421290419988448e-03 -1.725259995804617e-05 4.038788916180481e-04
9.465364960068395e-02 -3.259638135671944e-04 -4.423600739278942e-04 9.422643434012150e-04 1.327728151524291e-04 1.975332308007582e-03
1.140824550630814e-01 2.336765484931882e-06 1.367085670886022e-04 1.041071847025483e-03 7.059943906547513e-05 3.475828845630650e-03
1.091049671188763e-01 6.475541669645555e-05 9.984146981991005e-05 6.678917162882716e-04 -3.317763203503446e-06 1.602195578122646e-03
1.110292603802427e-01 1.240003014008917e-05 7.214031361913691e-05 1.738489038476936e-03 7.811831215194606e-05 2.116534252576516e-03
1.054146457745044e-01 -3.136507242493973e-04 -3.707269839982194e-04 1.566774791362146e-03 9.984804973880358e-05 3.186802045878309e-03
1.032386066441122e-01 3.229803206898380e-05 -1.603029116781729e-04 1.322771165530129e-04 5.365977039078874e-05 2.470476323537213e-03
1.002217359477145e-01 -1.281046995558552e-04 8.560749878541656e-05 1.377176303354147e-03 1.321740183195549e-05 7.489271061078387e-04
1.170812082488320e-01 1.028744369743130e-04 4.416307002695638e-04 2.064247965761905e-03 2.545117845254492e-04 4.130306035828271e-03
1.066085778234844e-01 -3.528208199875830e-05 2.112139876855074e-04 1.421290419988448e-03 -1.725259995804617e-05 4.038788916180481e-04
1.222149292977398e-01 -1.645243539309474e-04 -8.704106206139228e-05 1.684747517410048e-04 -9.456899342243518e-05 2.725881704198323e-03
1.096629440998001e-01 3.450601903617732e-04 -4.288365177857633e-04 1.076650343271760e-03 1.055279579037299e-04 2.095862123981938e-03
1.110292603802427e-01 1.240003014008917e-05 7.214031361913691e-05 1.738489038476936e-03 7.811831215194606e-05 2.116534252576516e-03
1.143741612396901e-01 -9.368437947605178e-05 1.324920579121541e-04 1.006151484120538e-03 -3.343554671154077e-05 1.743750258485758e-03
1.200581641525785e-01 6.037159084340244e-05 1.591356041882547e-04 1.060754310915606e-03 1.022694939525206e-04 3.473100889172400e-03
1.132259453134436e-01 4.546764065093585e-04 -3.642943595251710e-04 1.663252733177312e-03 2.518388176805922e-04 3.288995648563968e-03
1.075666555010393e-01 5.384454877447064e-05 9.583166093906521e-05 1.019811432601689e-03 8.087870158914250e-05 1.069852250024236e-03
1.163675918838438e-01 -2.173952002549954e-05 -1.376163582989061e-04 7.426699954929427e-04 -6.130833077978800e-05 2.288248324035756e-03
1.170812082488320e-01 1.028744369743130e-04 4.416307002695638e-04 2.064247965761905e-03 2.545117845254492e-04 4.130306035828271e-03
1.222149292977398e-01 -1.645243539309474e-04 -8.704106206139228e-05 1.684747517410048e-04 -9.456899342243518e-05 2.725881704198323e-03
1.272406094138799e-01 -6.717757093813171e-06 -3.688820195009825e-04 1.344172935077343e-03 -6.710549152771598e-05 2.962646537863307e-04
1.384911019274813e-01 5.045583855487579e-04 1.027216674487124e-03 1.008959265422813e-03 1.014547180800952e-04 2.108349352503103e-03
1.200581641525785e-01 6.037159084340244e-05 1.591356041882547e-04 1.060754310915606e-03 1.022694939525206e-04 3.473100889172400e-03
1.248708684143325e-01 -1.323955227040363e-04 -2.818102669630880e-04 6.207381306818957e-04 -1.107346278128861e-04 1.504083861764817e-03
1.229838245262615e-01 5.538732718060312e-05 1.895590195666768e-04 1.735745860022557e-03 9.473042527383273e-05 2.090859160566776e-03
1.282582764446353e-01 5.308307318972411e-04 1.220443672502711e-03 1.624928824594513e-03 3.294090911001961e-04 3.334800868547702e-03
1.304066475080277e-01 -1.636208202086336e-05 3.410794527343667e-04 1.699540275784435e-04 -3.665921249988341e-05 2.469725736565533e-03
1.331804112748879e-01 2.171720659669993e-04 -2.900591735428903e-05 1.352065669352269e-03 2.729625091092433e-05 7.477201033131652e-04
1.170151098004410e-01 -1.369706863308062e-05 -4.577144867086543e-05 7.735501136444403e-04 -3.129314304314976e-05 1.546647884088727e-03
1.272406094138799e-01 -6.717757093813171e-06 -3.688820195009825e-04 1.344172935077343e-03 -6.710549152771598e-05 2.962646537863307e-04
1.119012688222033e-01 1.270561974614154e-04 -1.059500866541201e-04 1.800668758731246e-04 1.024331950212445e-05 2.802986461333174e-03
1.170382509444805e-01 -9.674590533529306e-06 -2.923928670024155e-05 1.558912193869419e-03 -3.427043665472748e-06 3.118100172466746e-03
1.217726852676193e-01 -4.440906488089663e-05 -1.926780864090507e-04 1.076356278081158e-03 -3.738059064054764e-05 1.005336533516704e-03
1.196303583473907e-01 9.183157218607433e-05 -2.486113051126592e-04 9.861173779703275e-04 4.327611810714577e-06 1.712833116115797e-03
1.146457115995091e-01 5.963599979070555e-05 -5.115754572675756e-05 5.285217882387283e-04 -1.669108087588873e-05 2.228767367694300e-03
1.170234167976247e-01 -1.328557230514136e-05 -5.154159729764026e-05 1.174373193469923e-03 -2.413037649689461e-05 2.348654947724752e-03
1.224253786512384e-01 -1.436071346987072e-05 -1.827752771045344e-04 1.552272110040706e-03 -2.003616480824963e-05 1.844155736055337e-03
1.143317313929211e-01 6.251298067739818e-05 -4.032289337353804e-05 9.323948802567872e-04 -8.861047022321469e-07 3.139464518792063e-03
1.170151098004410e-01 -1.369706863308062e-05 -4.577144867086543e-05 7.735501136444403e-04 -3.129314304314976e-05 1.546647884088727e-03
1.119012688222033e-01 1.270561974614154e-04 -1.059500866541201e-04 1.800668758731246e-04 1.024331950212445e-05 2.802986461333174e-03
1.066085778234844e-01 -3.528208199875830e-05 2.112139876855074e-04 1.421290419988448e-03 -1.725259995804617e-05 4.038788916180481e-04
1.170382509444805e-01 -9.674590533529306e-06 -2.923928670024155e-05 1.558912193869419e-03 -3.427043665472748e-06 3.118100172466746e-03
1.146457115995091e-01 5.963599979070555e-05 -5.115754572675756e-05 5.285217882387283e-04 -1.669108087588873e-05 2.228767367694300e-03
1.091049671188763e-01 6.475541669645555e-05 9.984146981991005e-05 6.678917162882716e-04 -3.317763203503446e-06 1.602195578122646e-03
1.122175375431292e-01 1.359994993348527e-05 1.009759905471778e-04 1.127361311750765e-03 -2.404114114210651e-05 1.052875647920343e-03
1.170234167976247e-01 -1.328557230514136e-05 -5.154159729764026e-05 1.174373193469923e-03 -2.413037649689461e-05 2.348654947724752e-03
1.143317313929211e-01 6.251298067739818e-05 -4.032289337353804e-05 9.323948802567872e-04 -8.861047022321469e-07 3.139464518792063e-03
1.115897352165097e-01 -1.267389037001721e-05 1.100785211617410e-04 1.575623919499459e-03 -7.910419668368984e-06 1.873524746113365e-03
1.170151098004410e-01 -1.369706863308062e-05 -4.577144867086543e-05 7.735501136444403e-04 -3.129314304314976e-05 1.546647884088727e-03
1.066085778234844e-01 -3.528208199875830e-05 2.112139876855074e-04 1.421290419988448e-03 -1.725259995804617e-05 4.038788916180481e-04
1.222149292977398e-01 -1.645243539309474e-04 -8.704106206139228e-05 1.684747517410048e-04 -9.456899342243518e-05 2.725881704198323e-03
1.170382509444805e-01 -9.674590533529306e-06 -2.923928670024155e-05 1.558912193869419e-03 -3.427043665472748e-06 3.118100172466746e-03
1.122175375431292e-01 1.359994993348527e-05 1.009759905471778e-04 1.127361311750765e-03 -2.404114114210651e-05 1.052875647920343e-03
1.143741612396901e-01 -9.368437947605178e-05 1.324920579121541e-04 1.006151484120538e-03 -3.343554671154077e-05 1.743750258485758e-03
1.194228689176327e-01 -8.738773913445612e-05 -7.838995127016672e-05 5.005452057520040e-04 -4.472696753953238e-05 2.177759620183775e-03
1.170234167976247e-01 -1.328557230514136e-05 -5.154159729764026e-05 1.174373193469923e-03 -2.413037649689461e-05 2.348654947724752e-03
1.115897352165097e-01 -1.267389037001721e-05 1.100785211617410e-04 1.575623919499459e-03 -7.910419668368984e-06 1.873524746113365e-03
1.197489375213959e-01 -8.438750480152980e-05 -3.947865665869383e-05 9.260535413127202e-04 -2.705025243147512e-05 3.116120225129572e-03
1.170151098004410e-01 -1.369706863308062e-05 -4.577144867086543e-05 7.735501136444403e-04 -3.129314304314976e-05 1.546647884088727e-03
1.222149292977398e-01 -1.645243539309474e-04 -8.704106206139228e-05 1.684747517410048e-04 -9.456899342243518e-05 2.725881704198323e-03
1.272406094138799e-01 -6.717757093813171e-06 -3.688820195009825e-04 1.344172935077343e-03 -6.710549152771598e-05 2.962646537863307e-04
1.170382509444805e-01 -9.674590533529306e-06 -2.923928670024155e-05 1.558912193869419e-03 -3.427043665472748e-06 3.118100172466746e-03
1.194228689176327e-01 -8.738773913445612e-05 -7.838995127016672e-05 5.005452057520040e-04 -4.472696753953238e-05 2.177759620183775e-03
1.248708684143325e-01 -1.323955227040363e-04 -2.818102669630880e-04 6.207381306818957e-04 -1.107346278128861e-04 1.504083861764817e-03
1.217726852676193e-01 -4.440906488089663e-05 -1.926780864090507e-04 1.076356278081158e-03 -3.738059064054764e-05 1.005336533516704e-03
1.170234167976247e-01 -1.328557230514136e-05 -5.154159729764026e-05 1.174373193469923e-03 -2.413037649689461e-05 2.348654947724752e-03
1.197489375213959e-01 -8.438750480152980e-05 -3.947865665869383e-05 9.260535413127202e-04 -2.705025243147512e-05 3.116120225129572e-03
1.224253786512384e-01 -1.436071346987072e-05 -1.827752771045344e-04 1.552272110040706e-03 -2.003616480824963e-05 1.844155736055337e-03
1.170812082488320e-01 1.028744369743130e-04 4.416307002695638e-04 2.064247965761905e-03 2.545117845254492e-04 4.130306035828271e-03
1.119012688222033e-01 1.270561974614154e-04 -1.059500866541201e-04 1.800668758731246e-04 1.024331950212445e-05 2.802986461333174e-03
1.272406094138799e-01 -6.717757093813171e-06 -3.688820195009825e-04 1.344172935077343e-03 -6.710549152771598e-05 2.962646537863307e-04
1.170382509444805e-01 -9.674590533529306e-06 -2.923928670024155e-05 1.558912193869419e-03 -3.427043665472748e-06 3.118100172466746e-03
1.140824550630814e-01 2.336765484931882e-06 1.367085670886022e-04 1.041071847025483e-03 7.059943906547513e-05 3.475828845630650e-03
1.196303583473907e-01 9.183157218607433e-05 -2.486113051126592e-04 9.861173779703275e-04 4.327611810714577e-06 1.712833116115797e-03
1.229838245262615e-01 5.538732718060312e-05 1.895590195666768e-04 1.735745860022557e-03 9.473042527383273e-05 2.090859160566776e-03
1.170659761392828e-01 2.402818796471328e-05 1.095386786344206e-04 1.679954552331820e-03 7.688213505904560e-05 3.361106562342006e-03
1.143317313929211e-01 6.251298067739818e-05 -4.032289337353804e-05 9.323948802567872e-04 -8.861047022321469e-07 3.139464518792063e-03
1.224253786512384e-01 -1.436071346987072e-05 -1.827752771045344e-04 1.552272110040706e-03 -2.003616480824963e-05 1.844155736055337e-03
1.170812082488320e-01 1.028744369743130e-04 4.416307002695638e-04 2.064247965761905e-03 2.545117845254492e-04 4.130306035828271e-03
1.066085778234844e-01 -3.528208199875830e-05 2.112139876855074e-04 1.421290419988448e-03 -1.725259995804617e-05 4.038788916180481e-04
1.119012688222033e-01 1.270561974614154e-04 -1.059500866541201e-04 1.800668758731246e-04 1.024331950212445e-05 2.802986461333174e-03
1.170382509444805e-01 -9.674590533529306e-06 -2.923928670024155e-05 1.558912193869419e-03 -3.427043665472748e-06 3.118100172466746e-03
1.110292603802427e-01 1.240003014008917e-05 7.214031361913691e-05 1.738489038476936e-03 7.811831215194606e-05 2.116534252576516e-03
1.091049671188763e-01 6.475541669645555e-05 9.984146981991005e-05 6.678917162882716e-04 -3.317763203503446e-06 1.602195578122646e-03
1.140824550630814e-01 2.336765484931882e-06 1.367085670886022e-04 1.041071847025483e-03 7.059943906547513e-05 3.475828845630650e-03
1.170659761392828e-01 2.402818796471328e-05 1.095386786344206e-04 1.679954552331820e-03 7.688213505904560e-05 3.361106562342006e-03
1.115897352165097e-01 -1.267389037001721e-05 1.100785211617410e-04 1.575623919499459e-03 -7.910419668368984e-06 1.873524746113365e-03
1.143317313929211e-01 6.251298067739818e-05 -4.032289337353804e-05 9.323948802567872e-04 -8.861047022321469e-07 3.139464518792063e-03
1.170812082488320e-01 1.028744369743130e-04 4.416307002695638e-04 2.064247965761905e-03 2.545117845254492e-04 4.130306035828271e-03
1.222149292977398e-01 -1.645243539309474e-04 -8.704106206139228e-05 1.684747517410048e-04 -9.456899342243518e-05 2.725881704198323e-03
1.066085778234844e-01 -3.528208199875830e-05 2.112139876855074e-04 1.421290419988448e-03 -1.725259995804617e-05 4.038788916180481e-04
1.170382509444805e-01 -9.674590533529306e-06 -2.923928670024155e-05 1.558912193869419e-03 -3.427043665472748e-06 3.118100172466746e-03
1.200581641525785e-01 6.037159084340244e-05 1.591356041882547e-04 1.060754310915606e-03 1.022694939525206e-04 3.473100889172400e-03
1.143741612396901e-01 -9.368437947605178e-05 1.324920579121541e-04 1.006151484120538e-03 -3.343554671154077e-05 1.743750258485758e-03
1.110292603802427e-01 1.240003014008917e-05 7.214031361913691e-05 1.738489038476936e-03 7.811831215194606e-05 2.116534252576516e-03
1.170659761392828e-01 2.402818796471328e-05 1.095386786344206e-04 1.679954552331820e-03 7.688213505904560e-05 3.361106562342006e-03
1.197489375213959e-01 -8.438750480152980e-05 -3.947865665869383e-05 9.260535413127202e-04 -2.705025243147512e-05 3.116120225129572e-03
1.115897352165097e-01 -1.267389037001721e-05 1.100785211617410e-04 1.575623919499459e-03 -7.910419668368984e-06 1.873524746113365e-03
1.170812082488320e-01 1.028744369743130e-04 4.416307002695638e-04 2.064247965761905e-03 2.545117845254492e-04 4.130306035828271e-03
1.272406094138799e-01 -6.717757093813171e-06 -3.688820195009825e-04 1.344172935077343e-03 -6.710549152771598e-05 2.962646537863307e-04
1.222149292977398e-01 -1.645243539309474e-04 -8.704106206139228e-05 1.684747517410048e-04 -9.456899342243518e-05 2.725881704198323e-03
1.170382509444805e-01 -9.674590533529306e-06 -2.923928670024155e-05 1.558912193869419e-03 -3.427043665472748e-06 3.118100172466746e-03
1.229838245262615e-01 5.538732718060312e-05 1.895590195666768e-04 1.735745860022557e-03 9.473042527383273e-05 2.090859160566776e-03
1.248708684143325e-01 -1.323955227040363e-04 -2.818102669630880e-04 6.207381306818957e-04 -1.107346278128861e-04 1.504083861764817e-03
1.200581641525785e-01 6.037159084340244e-05 1.591356041882547e-04 1.060754310915606e-03 1.022694939525206e-04 3.473100889172400e-03
1.170659761392828e-01 2.402818796471328e-05 1.095386786344206e-04 1.679954552331820e-03 7.688213505904560e-05 3.361106562342006e-03
1.224253786512384e-01 -1.436071346987072e-05 -1.827752771045344e-04 1.552272110040706e-03 -2.003616480824963e-05 1.844155736055337e-03
1.197489375213959e-01 -8.438750480152980e-05 -3.947865665869383e-05 9.260535413127202e-04 -2.705025243147512e-05 3.116120225129572e-03
        </DataArray>
        <DataArray type="Float64" Name="nodal_cauchy_stresses_xyz" NumberOfComponents="6" format="ascii">
1.325411059379725e+01 -2.349857737526328e-04 3.978598513250902e-03 -2.318360171106730e-03 -1.589394686813264e-03 -5.627325265657224e-03
1.223802771912847e+01 -4.507200961324406e-03 -5.650510417796567e-03 -3.403147342369772e-03 -5.136479206080569e-03 -5.715000820628764e-03
1.299782678392159e+01 -3.498534515305104e-05 -1.151325574071793e-04 4.969069651470967e-03 -1.800233011439209e-04 9.939101272717998e-03
1.270134015621119e+01 3.099381263596600e-03 -1.257120672078559e-03 -1.544775721782085e-02 3.861889286802195e-04 2.604205061849986e-02
1.275193184550102e+01 -1.174392627781236e-05 -4.494469872568196e-05 7.833375630274544e-04 -2.265870465234266e-05 4.451781197027774e-03
1.259800057945860e+01 1.873044577679331e-07 4.980036632949164e-04 2.604559631415900e-03 -3.272125179663305e-04 3.948697613497618e-03
1.313255626196024e+01 6.908035785914696e-04 -8.330494509485387e-04 6.016082836011573e-04 -6.165857444417869e-05 2.582904124025974e-03
1.299448537604508e+01 2.174962854337478e-04 1.737972532666321e-03 -3.429406026073522e-03 -5.240179440441458e-04 4.405185869242107e-03
1.247233085403021e+01 -1.398707415475542e-03 -2.994346513088312e-03 -1.355179173266283e-02 -3.403282416838893e-03 5.965520205322509e-03
1.285168762658352e+01 2.293356076452561e-03 -1.535593333539177e-04 -3.835613789875351e-03 -5.640451258138910e-04 1.773171265607899e-02
1.223802771912847e+01 -4.507200961324406e-03 -5.650510417796567e-03 -3.403147342369772e-03 -5.136479206080569e-03 -5.715000820628764e-03
1.274303824166373e+01 3.904473787112025e-04 -3.435821117248238e-03 -1.940669436843688e-03 1.909023634161229e-03 -5.484560877994439e-03
1.299782678392159e+01 -3.498534515305104e-05 -1.151325574071793e-04 4.969069651470967e-03 -1.800233011439209e-04 9.939101272717998e-03
1.240606303505938e+01 -2.193314483970642e-04 6.106549510781909e-03 1.358712739844572e-02 2.795890976820090e-05 -2.989266243427429e-02
1.250472931254271e+01 -1.107416479588182e-05 -4.674157193464970e-05 2.338005892476105e-03 -2.259606649516603e-05 1.796790646031768e-03
1.286385956432573e+01 -6.355935625532254e-04 8.731422989717037e-04 9.166768066300392e-04 1.282180372958831e-04 2.699151063909258e-03
1.259800057945860e+01 1.873044577679331e-07 4.980036632949164e-04 2.604559631415900e-03 -3.272125179663305e-04 3.948697613497618e-03
1.233861513019571e+01 -1.843954950475817e-03 -1.494438522439340e-03 4.040382174929860e-03 -4.012729318224965e-03 -1.893399482675848e-02
1.259803855591783e+01 6.625064568273422e-04 -7.563691994670455e-04 1.634148137751583e-03 1.969262060903963e-03 -1.407350040747155e-02
1.270584146413025e+01 9.496132166231335e-04 4.450249597070461e-03 9.098063953283666e-03 -4.271364690752407e-04 -7.202714237315449e-03
1.274303824166373e+01 3.904473787112025e-04 -3.435821117248238e-03 -1.940669436843688e-03 1.909023634161229e-03 -5.484560877994439e-03
1.377126840526756e+01 4.340751055898946e-03 5.871337037044081e-03 -4.324634212752188e-03 5.356092140771715e-03 -7.157096914499749e-03
1.299782678392159e+01 -3.498534515305104e-05 -1.151325574071793e-04 4.969069651470967e-03 -1.800233011439209e-04 9.939101272717998e-03
1.329642305108329e+01 -2.955102176695124e-03 -1.421135202586808e-03 -1.635655391823080e-02 -1.045401398722075e-03 2.374156467206806e-02
1.324934076846142e+01 -1.177767144060226e-05 -4.513623547880441e-05 5.691095236398033e-04 -2.275322634650787e-05 4.007042672825959e-03
1.340408453154550e+01 -6.420873558950601e-05 -5.771276955633521e-04 1.897180872709833e-03 2.421013965336516e-04 2.809998892209188e-03
1.286385956432573e+01 -6.355935625532254e-04 8.731422989717037e-04 9.166768066300392e-04 1.282180372958831e-04 2.699151063909258e-03
1.300234688229782e+01 -3.899402756945423e-04 -2.284731282170336e-03 -3.410866460637691e-03 2.705207082273295e-04 3.848991366062800e-03
1.353113789530013e+01 1.498874722619131e-03 1.895268115847242e-03 -1.436840508105129e-02 3.334212380920879e-03 4.541714238507733e-03
1.314530031196233e+01 -2.299998591508383e-03 -1.295979147302480e-03 -4.129852600448720e-03 -1.647705832860330e-05 1.679229523886814e-02
1.377126840526756e+01 4.340751055898946e-03 5.871337037044081e-03 -4.324634212752188e-03 5.356092140771715e-03 -7.157096914499749e-03
1.325411059379725e+01 -2.349857737526328e-04 3.978598513250902e-03 -2.318360171106730e-03 -1.589394686813264e-03 -5.627325265657224e-03
1.299782678392159e+01 -3.498534515305104e-05 -1.151325574071793e-04 4.969069651470967e-03 -1.800233011439209e-04 9.939101272717998e-03
1.359620991935301e+01 -5.370756111877663e-04 -6.000633294815312e-03 1.128672691915224e-02 -6.871026325516929e-04 -3.374752532677804e-02
1.349957600193055e+01 -1.116109952491683e-05 -4.728283521051051e-05 1.893238967470680e-03 -2.282111753147979e-05 9.088620296359433e-04
1.313255626196024e+01 6.908035785914696e-04 -8.330494509485387e-04 6.016082836011573e-04 -6.165857444417869e-05 2.582904124025974e-03
1.340408453154550e+01 -6.420873558950601e-05 -5.771276955633521e-04 1.897180872709833e-03 2.421013965336516e-04 2.809998892209188e-03
1.366801374745510e+01 1.262705453876157e-03 1.667483586016766e-03 2.914300454152124e-03 3.813430297633291e-03 -2.112307585914881e-02
1.340195392629819e+01 -6.914248263665396e-04 6.568131850152093e-04 7.803353975984410e-04 -2.092470165433056e-03 -1.542724223112798e-02
1.329306632554875e+01 -1.328413412699258e-03 -4.734670641130304e-03 8.158655532154271e-03 -1.533718126028962e-04 -8.737236536326382e-03
1.325411059379725e+01 -2.349857737526328e-04 3.978598513250902e-03 -2.318360171106730e-03 -1.589394686813264e-03 -5.627325265657224e-03
1.339652286519361e+01 3.092751296271088e-03 -1.048952311215468e-02 -1.797728281591509e-02 -8.064518946322508e-04 -4.190244239303046e-02
1.270134015621119e+01 3.099381263596600e-03 -1.257120672078559e-03 -1.544775721782085e-02 3.861889286802195e-04 2.604205061849986e-02
1.359620991935301e+01 -5.370756111877663e-04 -6.000633294815312e-03 1.128672691915224e-02 -6.871026325516929e-04 -3.374752532677804e-02
1.330537277191851e+01 2.783964523269886e-03 -5.247284901920990e-03 -1.419484539009734e-02 -1.797129093674549e-03 -2.413760453053115e-02
1.302804903648225e+01 -5.455244833608866e-05 -1.349459500449569e-02 -1.210907114315638e-02 2.413805179033735e-04 -1.716760048712693e-03
1.299448537604508e+01 2.174962854337478e-04 1.737972532666321e-03 -3.429406026073522e-03 -5.240179440441458e-04 4.405185869242107e-03
1.340195392629819e+01 -6.914248263665396e-04 6.568131850152093e-04 7.803353975984410e-04 -2.092470165433056e-03 -1.542724223112798e-02
1.349504143416825e+01 4.667108673245183e-03 -7.592459248659499e-03 -5.895169141008464e-03 3.056471737195121e-04 -4.109151122032668e-02
1.315022014092459e+01 1.259891987141753e-03 -5.019715414947706e-03 3.075130412103345e-03 -5.842690267336911e-04 -2.767386781789706e-05
1.223802771912847e+01 -4.507200961324406e-03 -5.650510417796567e-03 -3.403147342369772e-03 -5.136479206080569e-03 -5.715000820628764e-03
1.181301962281322e+01 4.887123518718910e-03 6.981250255899173e-03 -1.857480533923120e-02 -9.265538196794247e-04 -3.044885863707538e-02
1.240606303505938e+01 -2.193314483970642e-04 6.106549510781909e-03 1.358712739844572e-02 2.795890976820090e-05 -2.989266243427429e-02
1.270134015621119e+01 3.099381263596600e-03 -1.257120672078559e-03 -1.544775721782085e-02 3.861889286802195e-04 2.604205061849986e-02
1.208946864249745e+01 1.789598366001206e-03 4.094998602101020e-03 -6.305480180627770e-03 -5.373170716289066e-03 -1.671276512076424e-02
1.214157955328914e+01 7.921998105643745e-03 1.200488404129933e-02 7.911449276547935e-03 2.712788252004813e-03 -4.383244154861370e-02
1.233861513019571e+01 -1.843954950475817e-03 -1.494438522439340e-03 4.040382174929860e-03 -4.012729318224965e-03 -1.893399482675848e-02
1.247233085403021e+01 -1.398707415475542e-03 -2.994346513088312e-03 -1.355179173266283e-02 -3.403282416838893e-03 5.965520205322509e-03
1.229520691317697e+01 9.726913669971715e-03 1.258397448697287e-02 -2.983671031706626e-02 2.890417748063503e-03 7.812927961960167e-03
1.254852313041758e+01 3.136322544922227e-03 4.518917075506267e-03 -4.551604378723666e-03 -6.902245433884072e-04 -2.554995125743851e-03
1.274303824166373e+01 3.904473787112025e-04 -3.435821117248238e-03 -1.940669436843688e-03 1.909023634161229e-03 -5.484560877994439e-03
1.260460455035227e+01 -3.561976144251944e-03 6.517327974455660e-03 -1.346804622867924e-02 -8.339355115585519e-04 -3.427064153938327e-02
1.329642305108329e+01 -2.955102176695124e-03 -1.421135202586808e-03 -1.635655391823080e-02 -1.045401398722075e-03 2.374156467206806e-02
1.240606303505938e+01 -2.193314483970642e-04 6.106549510781909e-03 1.358712739844572e-02 2.795890976820090e-05 -2.989266243427429e-02
1.269414837570368e+01 -2.763721173830663e-03 4.736695140095097e-03 -1.274561563743355e-02 1.710212168544445e-03 -2.200416178204379e-02
1.297057478479520e+01 -5.546273373717386e-04 1.091594048005515e-02 -1.142546149360904e-02 -1.568211491065570e-03 -1.128312830598605e-03
1.300234688229782e+01 -3.899402756945423e-04 -2.284731282170336e-03 -3.410866460637691e-03 2.705207082273295e-04 3.848991366062800e-03
1.259803855591783e+01 6.625064568273422e-04 -7.563691994670455e-04 1.634148137751583e-03 1.969262060903963e-03 -1.407350040747155e-02
1.250661650863908e+01 -5.193040693434395e-03 6.658946560744625e-03 -2.817838068773071e-03 -1.338627905604470e-03 -3.613283064854569e-02
1.284894529102517e+01 -1.689456729147184e-03 3.520421083528641e-03 3.860903587556585e-03 -2.984498009101206e-04 6.635226010992750e-04
1.377126840526756e+01 4.340751055898946e-03 5.871337037044081e-03 -4.324634212752188e-03 5.356092140771715e-03 -7.157096914499749e-03
1.418855913786139e+01 -6.640922680030413e-03 -1.223504955086299e-02 -3.065822628993553e-02 -8.044797453968782e-04 -5.466942321598848e-02
1.359620991935301e+01 -5.370756111877663e-04 -6.000633294815312e-03 1.128672691915224e-02 -6.871026325516929e-04 -3.374752532677804e-02
1.329642305108329e+01 -2.955102176695124e-03 -1.421135202586808e-03 -1.635655391823080e-02 -1.045401398722075e-03 2.374156467206806e-02
1.392302425554860e+01 -2.292244487169475e-03 -5.127954022679366e-03 -1.038322565610504e-02 5.179540977265218e-03 -2.437263039471516e-02
1.386547679017268e+01 -8.233804296184597e-03 -1.109359027202383e-02 2.683237897517919e-03 -2.429171625676654e-03 -5.358501010376178e-02
1.366801374745510e+01 1.262705453876157e-03 1.667483586016766e-03 2.914300454152124e-03 3.813430297633291e-03 -2.112307585914881e-02
1.353113789530013e+01 1.498874722619131e-03 1.895268115847242e-03 -1.436840508105129e-02 3.334212380920879e-03 4.541714238507733e-03
1.370881543940531e+01 -8.492249531653737e-03 -1.494735168097530e-02 -3.394756364905922e-02 -2.313203973654368e-03 -1.080683145744010e-03
1.345236075219092e+01 -3.339659088569743e-03 -5.791869006709806e-03 -6.171239887760083e-03 1.657524971031546e-04 -5.651766902307185e-03
1.339652286519361e+01 3.092751296271088e-03 -1.048952311215468e-02 -1.797728281591509e-02 -8.064518946322508e-04 -4.190244239303046e-02
1.181301962281322e+01 4.887123518718910e-03 6.981250255899173e-03 -1.857480533923120e-02 -9.265538196794247e-04 -3.044885863707538e-02
1.270134015621119e+01 3.099381263596600e-03 -1.257120672078559e-03 -1.544775721782085e-02 3.861889286802195e-04 2.604205061849986e-02
1.300152041150769e+01 -1.610671398271930e-03 -5.618899223776429e-03 3.178693139476656e-02 -3.566224613127138e-03 6.353969439377971e-02
1.261383271834307e+01 2.156251619417803e-03 -1.222470848722626e-03 -2.745995679527213e-02 -4.186817328345168e-03 2.213933927975300e-02
1.229520691317697e+01 9.726913669971715e-03 1.258397448697287e-02 -2.983671031706626e-02 2.890417748063503e-03 7.812927961960167e-03
1.302804903648225e+01 -5.455244833608866e-05 -1.349459500449569e-02 -1.210907114315638e-02 2.413805179033735e-04 -1.716760048712693e-03
1.321125519199928e+01 3.183934293333299e-03 -1.411007208994535e-02 8.162702246263679e-03 -1.076426085166802e-03 1.696602557532064e-02
1.237191122423761e+01 6.247771620500160e-03 8.989257469530469e-03 1.305806366650298e-02 2.604602361739311e-03 2.544194224112068e-02
1.283391046706400e+01 2.365147125149146e-03 -3.276001552339675e-03 2.963599579367105e-03 -1.025869849820621e-03 3.994456310874511e-02
1.181301962281322e+01 4.887123518718910e-03 6.981250255899173e-03 -1.857480533923120e-02 -9.265538196794247e-04 -3.044885863707538e-02
1.260460455035227e+01 -3.561976144251944e-03 6.517327974455660e-03 -1.346804622867924e-02 -8.339355115585519e-04 -3.427064153938327e-02
1.240606303505938e+01 -2.193314483970642e-04 6.106549510781909e-03 1.358712739844572e-02 2.795890976820090e-05 -2.989266243427429e-02
1.300152041150769e+01 -1.610671398271930e-03 -5.618899223776429e-03 3.178693139476656e-02 -3.566224613127138e-03 6.353969439377971e-02
1.223234706373810e+01 2.003899437405140e-03 3.751745632365606e-03 1.295657447911764e-02 -2.292605730852720e-03 -5.127743584390173e-02
1.250661650863908e+01 -5.193040693434395e-03 6.658946560744625e-03 -2.817838068773071e-03 -1.338627905604470e-03 -3.613283064854569e-02
1.214157955328914e+01 7.921998105643745e-03 1.200488404129933e-02 7.911449276547935e-03 2.712788252004813e-03 -4.383244154861370e-02
1.237191122423761e+01 6.247771620500160e-03 8.989257469530469e-03 1.305806366650298e-02 2.604602361739311e-03 2.544194224112068e-02
1.279185356920256e+01 -5.693260564568339e-03 7.117386428818473e-03 1.054588456208718e-02 -3.608621665876204e-03 2.059968159893962e-02
1.266977745013243e+01 -1.795266651190803e-03 3.949550760994281e-03 2.053520959861225e-02 -1.307302917386029e-03 6.496703469174113e-03
1.260460455035227e+01 -3.561976144251944e-03 6.517327974455660e-03 -1.346804622867924e-02 -8.339355115585519e-04 -3.427064153938327e-02
1.418855913786139e+01 -6.640922680030413e-03 -1.223504955086299e-02 -3.065822628993553e-02 -8.044797453968782e-04 -5.466942321598848e-02
1.329642305108329e+01 -2.955102176695124e-03 -1.421135202586808e-03 -1.635655391823080e-02 -1.045401398722075e-03 2.374156467206806e-02
1.300152041150769e+01 -1.610671398271930e-03 -5.618899223776429e-03 3.178693139476656e-02 -3.566224613127138e-03 6.353969439377971e-02
1.338350409632027e+01 -1.859107257201387e-03 -3.531330086134163e-03 -3.064341423832639e-02 3.421441623208456e-03 1.437894028870549e-02
1.370881543940531e+01 -8.492249531653737e-03 -1.494735168097530e-02 -3.394756364905922e-02 -2.313203973654368e-03 -1.080683145744010e-03
1.297057478479520e+01 -5.546273373717386e-04 1.091594048005515e-02 -1.142546149360904e-02 -1.568211491065570e-03 -1.128312830598605e-03
1.279185356920256e+01 -5.693260564568339e-03 7.117386428818473e-03 1.054588456208718e-02 -3.608621665876204e-03 2.059968159893962e-02
1.362999133001892e+01 -7.282038236092211e-03 -1.450547898096979e-02 5.898918631328734e-03 -4.963657622857727e-03 1.226693715485302e-02
1.316418359921905e+01 -3.462634399869889e-03 -2.323846166580290e-03 1.838211642637829e-03 -2.143254310206698e-03 3.770152043263091e-02
1.418855913786139e+01 -6.640922680030413e-03 -1.223504955086299e-02 -3.065822628993553e-02 -8.044797453968782e-04 -5.466942321598848e-02
1.339652286519361e+01 3.092751296271088e-03 -1.048952311215468e-02 -1.797728281591509e-02 -8.064518946322508e-04 -4.190244239303046e-02
1.359620991935301e+01 -5.370756111877663e-04 -6.000633294815312e-03 1.128672691915224e-02 -6.871026325516929e-04 -3.374752532677804e-02
1.300152041150769e+01 -1.610671398271930e-03 -5.618899223776429e-03 3.178693139476656e-02 -3.566224613127138e-03 6.353969439377971e-02
1.377155875331855e+01 -2.716115832992499e-03 -4.167690664985711e-03 5.197610831884469e-03 1.528568136891274e-03 -6.506059532166469e-02
1.349504143416825e+01 4.667108673245183e-03 -7.592459248659499e-03 -5.895169141008464e-03 3.056471737195121e-04 -4.109151122032668e-02
1.386547679017268e+01 -8.233804296184597e-03 -1.109359027202383e-02 2.683237897517919e-03 -2.429171625676654e-03 -5.358501010376178e-02
1.362999133001892e+01 -7.282038236092211e-03 -1.450547898096979e-02 5.898918631328734e-03 -4.963657622857727e-03 1.226693715485302e-02
1.321125519199928e+01 3.183934293333299e-03 -1.411007208994535e-02 8.162702246263679e-03 -1.076426085166802e-03 1.696602557532064e-02
1.333029304837610e+01 9.602315830614536e-05 -7.701804769160920e-03 1.829231463425377e-02 -1.861793897040582e-03 3.060354358416320e-03
1.299782678392159e+01 -3.498534515305104e-05 -1.151325574071793e-04 4.969069651470967e-03 -1.800233011439209e-04 9.939101272717998e-03
1.270134015621119e+01 3.099381263596600e-03 -1.257120672078559e-03 -1.544775721782085e-02 3.861889286802195e-04 2.604205061849986e-02
1.359620991935301e+01 -5.370756111877663e-04 -6.000633294815312e-03 1.128672691915224e-02 -6.871026325516929e-04 -3.374752532677804e-02
1.325411059379725e+01 -2.349857737526328e-04 3.978598513250902e-03 -2.318360171106730e-03 -1.589394686813264e-03 -5.627325265657224e-03
1.285168762658352e+01 2.293356076452561e-03 -1.535593333539177e-04 -3.835613789875351e-03 -5.640451258138910e-04 1.773171265607899e-02
1.315022014092459e+01 1.259891987141753e-03 -5.019715414947706e-03 3.075130412103345e-03 -5.842690267336911e-04 -2.767386781789706e-05
1.329306632554875e+01 -1.328413412699258e-03 -4.734670641130304e-03 8.158655532154271e-03 -1.533718126028962e-04 -8.737236536326382e-03
1.313255626196024e+01 6.908035785914696e-04 -8.330494509485387e-04 6.016082836011573e-04 -6.165857444417869e-05 2.582904124025974e-03
1.299448537604508e+01 2.174962854337478e-04 1.737972532666321e-03 -3.429406026073522e-03 -5.240179440441458e-04 4.405185869242107e-03
1.340195392629819e+01 -6.914248263665396e-04 6.568131850152093e-04 7.803353975984410e-04 -2.092470165433056e-03 -1.542724223112798e-02
1.299782678392159e+01 -3.498534515305104e-05 -1.151325574071793e-04 4.969069651470967e-03 -1.800233011439209e-04 9.939101272717998e-03
1.240606303505938e+01 -2.193314483970642e-04 6.106549510781909e-03 1.358712739844572e-02 2.795890976820090e-05 -2.989266243427429e-02
1.270134015621119e+01 3.099381263596600e-03 -1.257120672078559e-03 -1.544775721782085e-02 3.861889286802195e-04 2.604205061849986e-02
1.223802771912847e+01 -4.507200961324406e-03 -5.650510417796567e-03 -3.403147342369772e-03 -5.136479206080569e-03 -5.715000820628764e-03
1.270584146413025e+01 9.496132166231335e-04 4.450249597070461e-03 9.098063953283666e-03 -4.271364690752407e-04 -7.202714237315449e-03
1.254852313041758e+01 3.136322544922227e-03 4.518917075506267e-03 -4.551604378723666e-03 -6.902245433884072e-04 -2.554995125743851e-03
1.285168762658352e+01 2.293356076452561e-03 -1.535593333539177e-04 -3.835613789875351e-03 -5.640451258138910e-04 1.773171265607899e-02
1.259800057945860e+01 1.873044577679331e-07 4.980036632949164e-04 2.604559631415900e-03 -3.272125179663305e-04 3.948697613497618e-03
1.233861513019571e+01 -1.843954950475817e-03 -1.494438522439340e-03 4.040382174929860e-03 -4.012729318224965e-03 -1.893399482675848e-02
1.247233085403021e+01 -1.398707415475542e-03 -2.994346513088312e-03 -1.355179173266283e-02 -3.403282416838893e-03 5.965520205322509e-03
1.299782678392159e+01 -3.498534515305104e-05 -1.151325574071793e-04 4.969069651470967e-03 -1.800233011439209e-04 9.939101272717998e-03
1.329642305108329e+01 -2.955102176695124e-03 -1.421135202586808e-03 -1.635655391823080e-02 -1.045401398722075e-03 2.374156467206806e-02
1.240606303505938e+01 -2.193314483970642e-04 6.106549510781909e-03 1.358712739844572e-02 2.795890976820090e-05 -2.989266243427429e-02
1.274303824166373e+01 3.904473787112025e-04 -3.435821117248238e-03 -1.940669436843688e-03 1.909023634161229e-03 -5.484560877994439e-03
1.314530031196233e+01 -2.299998591508383e-03 -1.295979147302480e-03 -4.129852600448720e-03 -1.647705832860330e-05 1.679229523886814e-02
1.284894529102517e+01 -1.689456729147184e-03 3.520421083528641e-03 3.860903587556585e-03 -2.984498009101206e-04 6.635226010992750e-04
1.270584146413025e+01 9.496132166231335e-04 4.450249597070461e-03 9.098063953283666e-03 -4.271364690752407e-04 -7.202714237315449e-03
1.286385956432573e+01 -6.355935625532254e-04 8.731422989717037e-04 9.166768066300392e-04 1.282180372958831e-04 2.699151063909258e-03
1.300234688229782e+01 -3.899402756945423e-04 -2.284731282170336e-03 -3.410866460637691e-03 2.705207082273295e-04 3.848991366062800e-03
1.259803855591783e+01 6.625064568273422e-04 -7.563691994670455e-04 1.634148137751583e-03 1.969262060903963e-03 -1.407350040747155e-02
1.299782678392159e+01 -3.498534515305104e-05 -1.151325574071793e-04 4.969069651470967e-03 -1.800233011439209e-04 9.939101272717998e-03
1.359620991935301e+01 -5.370756111877663e-04 -6.000633294815312e-03 1.128672691915224e-02 -6.871026325516929e-04 -3.374752532677804e-02
1.329642305108329e+01 -2.955102176695124e-03 -1.421135202586808e-03 -1.635655391823080e-02 -1.045401398722075e-03 2.374156467206806e-02
1.377126840526756e+01 4.340751055898946e-03 5.871337037044081e-03 -4.324634212752188e-03 5.356092140771715e-03 -7.157096914499749e-03
1.329306632554875e+01 -1.328413412699258e-03 -4.734670641130304e-03 8.158655532154271e-03 -1.533718126028962e-04 -8.737236536326382e-03
1.345236075219092e+01 -3.339659088569743e-03 -5.791869006709806e-03 -6.171239887760083e-03 1.657524971031546e-04 -5.651766902307185e-03
1.314530031196233e+01 -2.299998591508383e-03 -1.295979147302480e-03 -4.129852600448720e-03 -1.647705832860330e-05 1.679229523886814e-02
1.340408453154550e+01 -6.420873558950601e-05 -5.771276955633521e-04 1.897180872709833e-03 2.421013965336516e-04 2.809998892209188e-03
1.366801374745510e+01 1.262705453876157e-03 1.667483586016766e-03 2.914300454152124e-03 3.813430297633291e-03 -2.112307585914881e-02
1.353113789530013e+01 1.498874722619131e-03 1.895268115847242e-03 -1.436840508105129e-02 3.334212380920879e-03 4.541714238507733e-03
1.300152041150769e+01 -1.610671398271930e-03 -5.618899223776429e-03 3.178693139476656e-02 -3.566224613127138e-03 6.353969439377971e-02
1.359620991935301e+01 -5.370756111877663e-04 -6.000633294815312e-03 1.128672691915224e-02 -6.871026325516929e-04 -3.374752532677804e-02
1.270134015621119e+01 3.099381263596600e-03 -1.257120672078559e-03 -1.544775721782085e-02 3.861889286802195e-04 2.604205061849986e-02
1.339652286519361e+01 3.092751296271088e-03 -1.048952311215468e-02 -1.797728281591509e-02 -8.064518946322508e-04 -4.190244239303046e-02
1.333029304837610e+01 9.602315830614536e-05 -7.701804769160920e-03 1.829231463425377e-02 -1.861793897040582e-03 3.060354358416320e-03
1.315022014092459e+01 1.259891987141753e-03 -5.019715414947706e-03 3.075130412103345e-03 -5.842690267336911e-04 -2.767386781789706e-05
1.283391046706400e+01 2.365147125149146e-03 -3.276001552339675e-03 2.963599579367105e-03 -1.025869849820621e-03 3.994456310874511e-02
1.321125519199928e+01 3.183934293333299e-03 -1.411007208994535e-02 8.162702246263679e-03 -1.076426085166802e-03 1.696602557532064e-02
1.349504143416825e+01 4.667108673245183e-03 -7.592459248659499e-03 -5.895169141008464e-03 3.056471737195121e-04 -4.109151122032668e-02
1.302804903648225e+01 -5.455244833608866e-05 -1.349459500449569e-02 -1.210907114315638e-02 2.413805179033735e-04 -1.716760048712693e-03
1.300152041150769e+01 -1.610671398271930e-03 -5.618899223776429e-03 3.178693139476656e-02 -3.566224613127138e-03 6.353969439377971e-02
1.270134015621119e+01 3.099381263596600e-03 -1.257120672078559e-03 -1.544775721782085e-02 3.861889286802195e-04 2.604205061849986e-02
1.240606303505938e+01 -2.193314483970642e-04 6.106549510781909e-03 1.358712739844572e-02 2.795890976820090e-05 -2.989266243427429e-02
1.181301962281322e+01 4.887123518718910e-03 6.981250255899173e-03 -1.857480533923120e-02 -9.265538196794247e-04 -3.044885863707538e-02
1.283391046706400e+01 2.365147125149146e-03 -3.276001552339675e-03 2.963599579367105e-03 -1.025869849820621e-03 3.994456310874511e-02
1.254852313041758e+01 3.136322544922227e-03 4.518917075506267e-03 -4.551604378723666e-03 -6.902245433884072e-04 -2.554995125743851e-03
1.266977745013243e+01 -1.795266651190803e-03 3.949550760994281e-03 2.053520959861225e-02 -1.307302917386029e-03 6.496703469174113e-03
1.237191122423761e+01 6.247771620500160e-03 8.989257469530469e-03 1.305806366650298e-02 2.604602361739311e-03 2.544194224112068e-02
1.229520691317697e+01 9.726913669971715e-03 1.258397448697287e-02 -2.983671031706626e-02 2.890417748063503e-03 7.812927961960167e-03
1.214157955328914e+01 7.921998105643745e-03 1.200488404129933e-02 7.911449276547935e-03 2.712788252004813e-03 -4.383244154861370e-02
1.300152041150769e+01 -1.610671398271930e-03 -5.618899223776429e-03 3.178693139476656e-02 -3.566224613127138e-03 6.353969439377971e-02
1.240606303505938e+01 -2.193314483970642e-04 6.106549510781909e-03 1.358712739844572e-02 2.795890976820090e-05 -2.989266243427429e-02
1.329642305108329e+01 -2.955102176695124e-03 -1.421135202586808e-03 -1.635655391823080e-02 -1.045401398722075e-03 2.374156467206806e-02
1.260460455035227e+01 -3.561976144251944e-03 6.517327974455660e-03 -1.346804622867924e-02 -8.339355115585519e-04 -3.427064153938327e-02
1.266977745013243e+01 -1.795266651190803e-03 3.949550760994281e-03 2.053520959861225e-02 -1.307302917386029e-03 6.496703469174113e-03
1.284894529102517e+01 -1.689456729147184e-03 3.520421083528641e-03 3.860903587556585e-03 -2.984498009101206e-04 6.635226010992750e-04
1.316418359921905e+01 -3.462634399869889e-03 -2.323846166580290e-03 1.838211642637829e-03 -2.143254310206698e-03 3.770152043263091e-02
1.279185356920256e+01 -5.693260564568339e-03 7.117386428818473e-03 1.054588456208718e-02 -3.608621665876204e-03 2.059968159893962e-02
1.250661650863908e+01 -5.193040693434395e-03 6.658946560744625e-03 -2.817838068773071e-03 -1.338627905604470e-03 -3.613283064854569e-02
1.297057478479520e+01 -5.546273373717386e-04 1.091594048005515e-02 -1.142546149360904e-02 -1.568211491065570e-03 -1.128312830598605e-03
1.300152041150769e+01 -1.610671398271930e-03 -5.618899223776429e-03 3.178693139476656e-02 -3.566224613127138e-03 6.353969439377971e-02
1.329642305108329e+01 -2.955102176695124e-03 -1.421135202586808e-03 -1.635655391823080e-02 -1.045401398722075e-03 2.374156467206806e-02
1.359620991935301e+01 -5.370756111877663e-04 -6.000633294815312e-03 1.128672691915224e-02 -6.871026325516929e-04 -3.374752532677804e-02
1.418855913786139e+01 -6.640922680030413e-03 -1.223504955086299e-02 -3.065822628993553e-02 -8.044797453968782e-04 -5.466942321598848e-02
1.316418359921905e+01 -3.462634399869889e-03 -2.323846166580290e-03 1.838211642637829e-03 -2.143254310206698e-03 3.770152043263091e-02
1.345236075219092e+01 -3.339659088569743e-03 -5.791869006709806e-03 -6.171239887760083e-03 1.657524971031546e-04 -5.651766902307185e-03
1.333029304837610e+01 9.602315830614536e-05 -7.701804769160920e-03 1.829231463425377e-02 -1.861793897040582e-03 3.060354358416320e-03
1.362999133001892e+01 -7.282038236092211e-03 -1.450547898096979e-02 5.898918631328734e-03 -4.963657622857727e-03 1.226693715485302e-02
1.370881543940531e+01 -8.492249531653737e-03 -1.494735168097530e-02 -3.394756364905922e-02 -2.313203973654368e-03 -1.080683145744010e-03
1.386547679017268e+01 -8.233804296184597e-03 -1.109359027202383e-02 2.683237897517919e-03 -2.429171625676654e-03 -5.358501010376178e-02
1.299782678392159e+01 -3.498534515305104e-05 -1.151325574071793e-04 4.969069651470967e-03 -1.800233011439209e-04 9.939101272717998e-03
1.359620991935301e+01 -5.370756111877663e-04 -6.000633294815312e-03 1.128672691915224e-02 -6.871026325516929e-04 -3.374752532677804e-02
1.270134015621119e+01 3.099381263596600e-03 -1.257120672078559e-03 -1.544775721782085e-02 3.861889286802195e-04 2.604205061849986e-02
1.299880798312505e+01 -3.875119442136437e-04 -1.545977898858798e-03 1.548371121918506e-02 -1.262353295129037e-03 3.096549502693970e-02
1.329306632554875e+01 -1.328413412699258e-03 -4.734670641130304e-03 8.158655532154271e-03 -1.533718126028962e-04 -8.737236536326382e-03
1.315022014092459e+01 1.259891987141753e-03 -5.019715414947706e-03 3.075130412103345e-03 -5.842690267336911e-04 -2.767386781789706e-05
1.285168762658352e+01 2.293356076452561e-03 -1.535593333539177e-04 -3.835613789875351e-03 -5.640451258138910e-04 1.773171265607899e-02
1.299847337017295e+01 -2.221076069693305e-04 -8.629451432701548e-04 1.122784799010440e-02 -7.988623645087191e-04 2.245593572336048e-02
1.331008850177373e+01 -9.870714348905658e-04 -5.919663356623402e-03 1.525684885955737e-02 -7.183525888052984e-04 8.505663810480773e-05
1.284394326523856e+01 2.402360674072430e-03 -1.258068214129451e-03 8.989380053479074e-04 -1.067897794601676e-03 3.275135483363446e-02
1.299782678392159e+01 -3.498534515305104e-05 -1.151325574071793e-04 4.969069651470967e-03 -1.800233011439209e-04 9.939101272717998e-03
1.270134015621119e+01 3.099381263596600e-03 -1.257120672078559e-03 -1.544775721782085e-02 3.861889286802195e-04 2.604205061849986e-02
1.240606303505938e+01 -2.193314483970642e-04 6.106549510781909e-03 1.358712739844572e-02 2.795890976820090e-05 -2.989266243427429e-02
1.299880798312505e+01 -3.875119442136437e-04 -1.545977898858798e-03 1.548371121918506e-02 -1.262353295129037e-03 3.096549502693970e-02
1.285168762658352e+01 2.293356076452561e-03 -1.535593333539177e-04 -3.835613789875351e-03 -5.640451258138910e-04 1.773171265607899e-02
1.254852313041758e+01 3.136322544922227e-03 4.518917075506267e-03 -4.551604378723666e-03 -6.902245433884072e-04 -2.554995125743851e-03
1.270584146413025e+01 9.496132166231335e-04 4.450249597070461e-03 9.098063953283666e-03 -4.271364690752407e-04 -7.202714237315449e-03
1.299847337017295e+01 -2.221076069693305e-04 -8.629451432701548e-04 1.122784799010440e-02 -7.988623645087191e-04 2.245593572336048e-02
1.284394326523856e+01 2.402360674072430e-03 -1.258068214129451e-03 8.989380053479074e-04 -1.067897794601676e-03 3.275135483363446e-02
1.268964075966310e+01 1.997135647348936e-04 4.292168925712101e-03 1.674437616410672e-02 -9.524282130141482e-04 2.348458886523936e-03
1.299782678392159e+01 -3.498534515305104e-05 -1.151325574071793e-04 4.969069651470967e-03 -1.800233011439209e-04 9.939101272717998e-03
1.240606303505938e+01 -2.193314483970642e-04 6.106549510781909e-03 1.358712739844572e-02 2.795890976820090e-05 -2.989266243427429e-02
1.329642305108329e+01 -2.955102176695124e-03 -1.421135202586808e-03 -1.635655391823080e-02 -1.045401398722075e-03 2.374156467206806e-02
1.299880798312505e+01 -3.875119442136437e-04 -1.545977898858798e-03 1.548371121918506e-02 -1.262353295129037e-03 3.096549502693970e-02
1.270584146413025e+01 9.496132166231335e-04 4.450249597070461e-03 9.098063953283666e-03 -4.271364690752407e-04 -7.202714237315449e-03
1.284894529102517e+01 -1.689456729147184e-03 3.520421083528641e-03 3.860903587556585e-03 -2.984498009101206e-04 6.635226010992750e-04
1.314530031196233e+01 -2.299998591508383e-03 -1.295979147302480e-03 -4.129852600448720e-03 -1.647705832860330e-05 1.679229523886814e-02
1.299847337017295e+01 -2.221076069693305e-04 -8.629451432701548e-04 1.122784799010440e-02 -7.988623645087191e-04 2.245593572336048e-02
1.268964075966310e+01 1.997135647348936e-04 4.292168925712101e-03 1.674437616410672e-02 -9.524282130141482e-04 2.348458886523936e-03
1.315416952531276e+01 -2.705976884242553e-03 -1.852403665217212e-03 3.248703556444766e-04 -6.029134393202402e-04 3.126377212100809e-02
1.299782678392159e+01 -3.498534515305104e-05 -1.151325574071793e-04 4.969069651470967e-03 -1.800233011439209e-04 9.939101272717998e-03
1.329642305108329e+01 -2.955102176695124e-03 -1.421135202586808e-03 -1.635655391823080e-02 -1.045401398722075e-03 2.374156467206806e-02
1.359620991935301e+01 -5.370756111877663e-04 -6.000633294815312e-03 1.128672691915224e-02 -6.871026325516929e-04 -3.374752532677804e-02
1.299880798312505e+01 -3.875119442136437e-04 -1.545977898858798e-03 1.548371121918506e-02 -1.262353295129037e-03 3.096549502693970e-02
1.314530031196233e+01 -2.299998591508383e-03 -1.295979147302480e-03 -4.129852600448720e-03 -1.647705832860330e-05 1.679229523886814e-02
1.345236075219092e+01 -3.339659088569743e-03 -5.791869006709806e-03 -6.171239887760083e-03 1.657524971031546e-04 -5.651766902307185e-03
1.329306632554875e+01 -1.328413412699258e-03 -4.734670641130304e-03 8.158655532154271e-03 -1.533718126028962e-04 -8.737236536326382e-03
1.299847337017295e+01 -2.221076069693305e-04 -8.629451432701548e-04 1.122784799010440e-02 -7.988623645087191e-04 2.245593572336048e-02
1.315416952531276e+01 -2.705976884242553e-03 -1.852403665217212e-03 3.248703556444766e-04 -6.029134393202402e-04 3.126377212100809e-02
1.331008850177373e+01 -9.870714348905658e-04 -5.919663356623402e-03 1.525684885955737e-02 -7.183525888052984e-04 8.505663810480773e-05
1.300152041150769e+01 -1.610671398271930e-03 -5.618899223776429e-03 3.178693139476656e-02 -3.566224613127138e-03 6.353969439377971e-02
1.270134015621119e+01 3.099381263596600e-03 -1.257120672078559e-03 -1.544775721782085e-02 3.861889286802195e-04 2.604205061849986e-02
1.359620991935301e+01 -5.370756111877663e-04 -6.000633294815312e-03 1.128672691915224e-02 -6.871026325516929e-04 -3.374752532677804e-02
1.299880798312505e+01 -3.875119442136437e-04 -1.545977898858798e-03 1.548371121918506e-02 -1.262353295129037e-03 3.096549502693970e-02
1.283391046706400e+01 2.365147125149146e-03 -3.276001552339675e-03 2.963599579367105e-03 -1.025869849820621e-03 3.994456310874511e-02
1.315022014092459e+01 1.259891987141753e-03 -5.019715414947706e-03 3.075130412103345e-03 -5.842690267336911e-04 -2.767386781789706e-05
1.333029304837610e+01 9.602315830614536e-05 -7.701804769160920e-03 1.829231463425377e-02 -1.861793897040582e-03 3.060354358416320e-03
1.299901454062086e+01 -6.584681996909855e-04 -2.411044021629669e-03 1.695394951390092e-02 -1.902685821118607e-03 3.389709050676850e-02
1.284394326523856e+01 2.402360674072430e-03 -1.258068214129451e-03 8.989380053479074e-04 -1.067897794601676e-03 3.275135483363446e-02
1.331008850177373e+01 -9.870714348905658e-04 -5.919663356623402e-03 1.525684885955737e-02 -7.183525888052984e-04 8.505663810480773e-05
1.300152041150769e+01 -1.610671398271930e-03 -5.618899223776429e-03 3.178693139476656e-02 -3.566224613127138e-03 6.353969439377971e-02
1.240606303505938e+01 -2.193314483970642e-04 6.106549510781909e-03 1.358712739844572e-02 2.795890976820090e-05 -2.989266243427429e-02
1.270134015621119e+01 3.099381263596600e-03 -1.257120672078559e-03 -1.544775721782085e-02 3.861889286802195e-04 2.604205061849986e-02
1.299880798312505e+01 -3.875119442136437e-04 -1.545977898858798e-03 1.548371121918506e-02 -1.262353295129037e-03 3.096549502693970e-02
1.266977745013243e+01 -1.795266651190803e-03 3.949550760994281e-03 2.053520959861225e-02 -1.307302917386029e-03 6.496703469174113e-03
1.254852313041758e+01 3.136322544922227e-03 4.518917075506267e-03 -4.551604378723666e-03 -6.902245433884072e-04 -2.554995125743851e-03
1.283391046706400e+01 2.365147125149146e-03 -3.276001552339675e-03 2.963599579367105e-03 -1.025869849820621e-03 3.994456310874511e-02
1.299901454062086e+01 -6.584681996909855e-04 -2.411044021629669e-03 1.695394951390092e-02 -1.902685821118607e-03 3.389709050676850e-02
1.268964075966310e+01 1.997135647348936e-04 4.292168925712101e-03 1.674437616410672e-02 -9.524282130141482e-04 2.348458886523936e-03
1.284394326523856e+01 2.402360674072430e-03 -1.258068214129451e-03 8.989380053479074e-04 -1.067897794601676e-03 3.275135483363446e-02
1.300152041150769e+01 -1.610671398271930e-03 -5.618899223776429e-03 3.178693139476656e-02 -3.566224613127138e-03 6.353969439377971e-02
1.329642305108329e+01 -2.955102176695124e-03 -1.421135202586808e-03 -1.635655391823080e-02 -1.045401398722075e-03 2.374156467206806e-02
1.240606303505938e+01 -2.193314483970642e-04 6.106549510781909e-03 1.358712739844572e-02 2.795890976820090e-05 -2.989266243427429e-02
1.299880798312505e+01 -3.875119442136437e-04 -1.545977898858798e-03 1.548371121918506e-02 -1.262353295129037e-03 3.096549502693970e-02
1.316418359921905e+01 -3.462634399869889e-03 -2.323846166580290e-03 1.838211642637829e-03 -2.143254310206698e-03 3.770152043263091e-02
1.284894529102517e+01 -1.689456729147184e-03 3.520421083528641e-03 3.860903587556585e-03 -2.984498009101206e-04 6.635226010992750e-04
1.266977745013243e+01 -1.795266651190803e-03 3.949550760994281e-03 2.053520959861225e-02 -1.307302917386029e-03 6.496703469174113e-03
1.299901454062086e+01 -6.584681996909855e-04 -2.411044021629669e-03 1.695394951390092e-02 -1.902685821118607e-03 3.389709050676850e-02
1.315416952531276e+01 -2.705976884242553e-03 -1.852403665217212e-03 3.248703556444766e-04 -6.029134393202402e-04 3.126377212100809e-02
1.268964075966310e+01 1.997135647348936e-04 4.292168925712101e-03 1.674437616410672e-02 -9.524282130141482e-04 2.348458886523936e-03
1.300152041150769e+01 -1.610671398271930e-03 -5.618899223776429e-03 3.178693139476656e-02 -3.566224613127138e-03 6.353969439377971e-02
1.359620991935301e+01 -5.370756111877663e-04 -6.000633294815312e-03 1.128672691915224e-02 -6.871026325516929e-04 -3.374752532677804e-02
1.329642305108329e+01 -2.955102176695124e-03 -1.421135202586808e-03 -1.635655391823080e-02 -1.045401398722075e-03 2.374156467206806e-02
1.299880798312505e+01 -3.875119442136437e-04 -1.545977898858798e-03 1.548371121918506e-02 -1.262353295129037e-03 3.096549502693970e-02
1.333029304837610e+01 9.602315830614536e-05 -7.701804769160920e-03 1.829231463425377e-02 -1.861793897040582e-03 3.060354358416320e-03
1.345236075219092e+01 -3.339659088569743e-03 -5.791869006709806e-03 -6.171239887760083e-03 1.657524971031546e-04 -5.651766902307185e-03
1.316418359921905e+01 -3.462634399869889e-03 -2.323846166580290e-03 1.838211642637829e-03 -2.143254310206698e-03 3.770152043263091e-02
1.299901454062086e+01 -6.584681996909855e-04 -2.411044021629669e-03 1.695394951390092e-02 -1.902685821118607e-03 3.389709050676850e-02
1.331008850177373e+01 -9.870714348905658e-04 -5.919663356623402e-03 1.525684885955737e-02 -7.183525888052984e-04 8.505663810480773e-05
1.315416952531276e+01 -2.705976884242553e-03 -1.852403665217212e-03 3.248703556444766e-04 -6.029134393202402e-04 3.126377212100809e-02
1.339652286519361e+01 3.092751296271088e-03 -1.048952311215468e-02 -1.797728281591509e-02 -8.064518946322508e-04 -4.190244239303046e-02
1.181301962281322e+01 4.887123518718910e-03 6.981250255899173e-03 -1.857480533923120e-02 -9.265538196794247e-04 -3.044885863707538e-02
1.300152041150769e+01 -1.610671398271930e-03 -5.618899223776429e-03 3.178693139476656e-02 -3.566224613127138e-03 6.353969439377971e-02
1.238392660357994e+01 1.183794944081259e-02 -1.465728007865289e-02 -6.110528735530700e-02 1.777444094706789e-05 1.200763930490639e-01
1.261383271834307e+01 2.156251619417803e-03 -1.222470848722626e-03 -2.745995679527213e-02 -4.186817328345168e-03 2.213933927975300e-02
1.237191122423761e+01 6.247771620500160e-03 8.989257469530469e-03 1.305806366650298e-02 2.604602361739311e-03 2.544194224112068e-02
1.321125519199928e+01 3.183934293333299e-03 -1.411007208994535e-02 8.162702246263679e-03 -1.076426085166802e-03 1.696602557532064e-02
1.297198628599032e+01 9.824425671114097e-04 -8.703396085947671e-03 -2.357310087597270e-02 -2.673030090742974e-03 1.158101512505014e-02
1.206762025564897e+01 -5.212995106409057e-03 -9.219717727182575e-03 -6.854989255174322e-02 -7.912651654579409e-03 3.304834498074995e-02
1.271555419300371e+01 5.234241069538662e-03 -7.894325853974730e-03 -1.011085894104874e-02 -2.468010741592684e-03 9.686739587682490e-02
1.181301962281322e+01 4.887123518718910e-03 6.981250255899173e-03 -1.857480533923120e-02 -9.265538196794247e-04 -3.044885863707538e-02
1.260460455035227e+01 -3.561976144251944e-03 6.517327974455660e-03 -1.346804622867924e-02 -8.339355115585519e-04 -3.427064153938327e-02
1.300152041150769e+01 -1.610671398271930e-03 -5.618899223776429e-03 3.178693139476656e-02 -3.566224613127138e-03 6.353969439377971e-02
1.173817277237045e+01 -4.531366962255688e-03 2.033614735608184e-02 6.600345215370981e-02 -2.582878396117882e-03 -1.097127469250767e-01
1.223234706373810e+01 2.003899437405140e-03 3.751745632365606e-03 1.295657447911764e-02 -2.292605730852720e-03 -5.127743584390173e-02
1.279185356920256e+01 -5.693260564568339e-03 7.117386428818473e-03 1.054588456208718e-02 -3.608621665876204e-03 2.059968159893962e-02
1.237191122423761e+01 6.247771620500160e-03 8.989257469530469e-03 1.305806366650298e-02 2.604602361739311e-03 2.544194224112068e-02
1.179949629577923e+01 -2.291786642930169e-03 -7.578951359282290e-03 2.519708621416718e-02 -7.607413375846763e-03 -9.526310378310959e-02
1.225324350743747e+01 -7.699931357475584e-04 -3.083044665079261e-03 5.613605926590371e-03 -5.972708520870513e-04 -7.537881271307333e-02
1.241835272454203e+01 3.894054417851718e-04 8.523128221131538e-03 5.139455998911804e-02 -3.166015212249907e-03 -1.719406202911672e-02
1.260460455035227e+01 -3.561976144251944e-03 6.517327974455660e-03 -1.346804622867924e-02 -8.339355115585519e-04 -3.427064153938327e-02
1.418855913786139e+01 -6.640922680030413e-03 -1.223504955086299e-02 -3.065822628993553e-02 -8.044797453968782e-04 -5.466942321598848e-02
1.300152041150769e+01 -1.610671398271930e-03 -5.618899223776429e-03 3.178693139476656e-02 -3.566224613127138e-03 6.353969439377971e-02
1.364144546322063e+01 -1.433349548685514e-02 -1.245195104283142e-02 -7.041148483229180e-02 -9.216592291069584e-03 9.711385100205275e-02
1.338350409632027e+01 -1.859107257201387e-03 -3.531330086134163e-03 -3.064341423832639e-02 3.421441623208456e-03 1.437894028870549e-02
1.362999133001892e+01 -7.282038236092211e-03 -1.450547898096979e-02 5.898918631328734e-03 -4.963657622857727e-03 1.226693715485302e-02
1.279185356920256e+01 -5.693260564568339e-03 7.117386428818473e-03 1.054588456208718e-02 -3.608621665876204e-03 2.059968159893962e-02
1.304046071093709e+01 -6.673135787838239e-04 -6.596203785618185e-03 -2.640736776470095e-02 2.611516449172212e-04 7.928092912491200e-03
1.393856697741198e+01 4.937056995437824e-04 -1.127324439519831e-02 -8.173663269270308e-02 -2.197021322393918e-04 3.427439765127077e-03
1.329856177664437e+01 -7.946038521051238e-03 -1.013805434495304e-02 -1.631739548852181e-02 -4.885451415377252e-03 8.527965190664835e-02
1.418855913786139e+01 -6.640922680030413e-03 -1.223504955086299e-02 -3.065822628993553e-02 -8.044797453968782e-04 -5.466942321598848e-02
1.339652286519361e+01 3.092751296271088e-03 -1.048952311215468e-02 -1.797728281591509e-02 -8.064518946322508e-04 -4.190244239303046e-02
1.300152041150769e+01 -1.610671398271930e-03 -5.618899223776429e-03 3.178693139476656e-02 -3.566224613127138e-03 6.353969439377971e-02
1.425354182070542e+01 -1.711424255852920e-03 -3.109780069511308e-02 4.302876657658118e-02 -6.630380121853307e-03 -1.523705656218075e-01
1.377155875331855e+01 -2.716115832992499e-03 -4.167690664985711e-03 5.197610831884469e-03 1.528568136891274e-03 -6.506059532166469e-02
1.321125519199928e+01 3.183934293333299e-03 -1.411007208994535e-02 8.162702246263679e-03 -1.076426085166802e-03 1.696602557532064e-02
1.362999133001892e+01 -7.282038236092211e-03 -1.450547898096979e-02 5.898918631328734e-03 -4.963657622857727e-03 1.226693715485302e-02
1.418965683901633e+01 -4.268224277909486e-03 -1.263710148103458e-03 5.916676310564114e-03 -9.281814438426902e-05 -1.296746685001658e-01
1.374216496854867e+01 -5.983176684797218e-04 -7.235248720264403e-04 -8.390181018220332e-03 -2.255905598440069e-03 -9.944175212735408e-02
1.358460835589965e+01 -4.730203089099029e-03 -1.762290630196436e-02 3.980418295345819e-02 -4.190015341213114e-03 -3.546879763679529e-02
1.339652286519361e+01 3.092751296271088e-03 -1.048952311215468e-02 -1.797728281591509e-02 -8.064518946322508e-04 -4.190244239303046e-02
1.388003928921564e+01 -2.279251146881319e-02 8.117913130240544e-02 -3.458375473911223e-02 8.318246591209034e-03 -7.808171103907019e-02
1.238392660357994e+01 1.183794944081259e-02 -1.465728007865289e-02 -6.110528735530700e-02 1.777444094706789e-05 1.200763930490639e-01
1.425354182070542e+01 -1.711424255852920e-03 -3.109780069511308e-02 4.302876657658118e-02 -6.630380121853307e-03 -1.523705656218075e-01
1.363519921515702e+01 9.108054683641361e-04 5.280147763294332e-03 -5.433910379150064e-02 -3.510970426186249e-03 -9.209311315038111e-02
1.308515669884901e+01 4.206731478835978e-03 1.814954054016081e-02 -3.586142540900438e-02 8.160772161595407e-03 5.048053260224773e-03
1.297198628599032e+01 9.824425671114097e-04 -8.703396085947671e-03 -2.357310087597270e-02 -2.673030090742974e-03 1.158101512505014e-02
1.374216496854867e+01 -5.983176684797218e-04 -7.235248720264403e-04 -8.390181018220332e-03 -2.255905598440069e-03 -9.944175212735408e-02
1.413098624720582e+01 -4.342580321679098e-03 -1.886360108586741e-03 -1.872633441148596e-02 -5.938130869740588e-03 -1.331426505491233e-01
1.332554703117697e+01 7.539911483270094e-03 -2.443518942524153e-02 1.336096178212950e-02 -8.450465232569573e-04 3.254573492401172e-04
1.181301962281322e+01 4.887123518718910e-03 6.981250255899173e-03 -1.857480533923120e-02 -9.265538196794247e-04 -3.044885863707538e-02
1.032851659169610e+01 -3.041393118248740e-02 -4.362902151064973e-02 -2.287334139697968e-02 1.064732226520887e-02 -3.887877798824878e-02
1.173817277237045e+01 -4.531366962255688e-03 2.033614735608184e-02 6.600345215370981e-02 -2.582878396117882e-03 -1.097127469250767e-01
1.238392660357994e+01 1.183794944081259e-02 -1.465728007865289e-02 -6.110528735530700e-02 1.777444094706789e-05 1.200763930490639e-01
1.106604146931968e+01 4.877790345531822e-05 5.227126920372561e-03 -1.554613673746740e-02 -9.741357305240689e-03 -4.487521966389840e-02
1.098117403830492e+01 -1.312557238804548e-02 8.487064905981520e-03 4.091240046360928e-02 -3.938012789967554e-05 -1.148714835429764e-01
1.179949629577923e+01 -2.291786642930169e-03 -7.578951359282290e-03 2.519708621416718e-02 -7.607413375846763e-03 -9.526310378310959e-02
1.206762025564897e+01 -5.212995106409057e-03 -9.219717727182575e-03 -6.854989255174322e-02 -7.912651654579409e-03 3.304834498074995e-02
1.134811909802391e+01 3.549054170399754e-03 -1.924996293666559e-02 -8.385344609597109e-02 4.390858695236815e-03 4.738374055642357e-02
1.204266281761626e+01 5.551156043020035e-03 7.053366260570376e-03 -1.044014309295044e-02 -1.093650551446125e-03 5.542726801945255e-03
1.260460455035227e+01 -3.561976144251944e-03 6.517327974455660e-03 -1.346804622867924e-02 -8.339355115585519e-04 -3.427064153938327e-02
1.211488804699138e+01 3.035212286294618e-02 -4.191164101282998e-02 -2.458303457193889e-02 7.732174716961908e-03 -5.678959553143544e-02
1.364144546322063e+01 -1.433349548685514e-02 -1.245195104283142e-02 -7.041148483229180e-02 -9.216592291069584e-03 9.711385100205275e-02
1.173817277237045e+01 -4.531366962255688e-03 2.033614735608184e-02 6.600345215370981e-02 -2.582878396117882e-03 -1.097127469250767e-01
1.235736754567864e+01 -1.867759089460523e-03 3.825471631061035e-03 -4.473706148871320e-02 5.198943038306925e-03 -7.303696289080576e-02
1.292852382423095e+01 -2.267137741948651e-03 -1.595152536805396e-02 -3.542993930538174e-02 -6.811953534081500e-03 5.084549085200465e-03
1.304046071093709e+01 -6.673135787838239e-04 -6.596203785618185e-03 -2.640736776470095e-02 2.611516449172212e-04 7.928092912491200e-03
1.225324350743747e+01 -7.699931357475584e-04 -3.083044665079261e-03 5.613605926590371e-03 -5.972708520870513e-04 -7.537881271307333e-02
1.185536633386272e+01 4.179903179630648e-03 8.520328414979107e-03 -2.371589639550399e-03 6.543283242793687e-03 -9.651353861162661e-02
1.268404657745937e+01 -9.216016611452571e-03 9.670380872305793e-03 1.882078327247599e-02 -4.350895710295791e-03 1.197091507322252e-02
1.418855913786139e+01 -6.640922680030413e-03 -1.223504955086299e-02 -3.065822628993553e-02 -8.044797453968782e-04 -5.466942321598848e-02
1.562393779677535e+01 4.445612348222699e-02 8.934807980531692e-02 -5.651453481292879e-02 8.198461489472713e-03 -1.038412630615009e-01
1.425354182070542e+01 -1.711424255852920e-03 -3.109780069511308e-02 4.302876657658118e-02 -6.630380121853307e-03 -1.523705656218075e-01
1.364144546322063e+01 -1.433349548685514e-02 -1.245195104283142e-02 -7.041148483229180e-02 -9.216592291069584e-03 9.711385100205275e-02
1.489943704395793e+01 5.864814397397115e-03 1.072798580113945e-02 -3.859708147365829e-02 1.696028509170566e-02 -9.660713416249585e-02
1.498281665337408e+01 1.818344108861891e-02 -1.025045982639386e-03 9.943624267927461e-03 1.719456325765303e-03 -1.719890997215515e-01
1.418965683901633e+01 -4.268224277909486e-03 -1.263710148103458e-03 5.916676310564114e-03 -9.281814438426902e-05 -1.296746685001658e-01
1.393856697741198e+01 4.937056995437824e-04 -1.127324439519831e-02 -8.173663269270308e-02 -2.197021322393918e-04 3.427439765127077e-03
1.464320062139240e+01 -7.563901629200599e-04 2.664717285146352e-02 -1.038909166691238e-01 -3.427843822569958e-03 2.070413454959182e-05
1.396703050042426e+01 -1.201184212187643e-02 -2.661519229217059e-02 -2.684450214759398e-02 -1.040943255956663e-02 -2.795604555543527e-02
1.388003928921564e+01 -2.279251146881319e-02 8.117913130240544e-02 -3.458375473911223e-02 8.318246591209034e-03 -7.808171103907019e-02
1.032851659169610e+01 -3.041393118248740e-02 -4.362902151064973e-02 -2.287334139697968e-02 1.064732226520887e-02 -3.887877798824878e-02
1.238392660357994e+01 1.183794944081259e-02 -1.465728007865289e-02 -6.110528735530700e-02 1.777444094706789e-05 1.200763930490639e-01
1.301841317133517e+01 6.449657780445665e-03 2.839983696821076e-02 5.907028121934232e-02 1.721685852844789e-02 1.182281666590322e-01
1.206883822557183e+01 -5.233825775708412e-02 2.565658295344362e-02 -4.307904698516760e-02 3.990678998117053e-02 1.186308558262125e-02
1.134811909802391e+01 3.549054170399754e-03 -1.924996293666559e-02 -8.385344609597109e-02 4.390858695236815e-03 4.738374055642357e-02
1.308515669884901e+01 4.206731478835978e-03 1.814954054016081e-02 -3.586142540900438e-02 8.160772161595407e-03 5.048053260224773e-03
1.346667575655414e+01 -2.645636623405541e-02 9.807158790763325e-02 2.364645939234764e-02 1.122176543960628e-02 4.049181857250151e-02
1.162484714056412e+01 -3.051118712451756e-02 -4.188123935245006e-02 2.406309063499971e-02 5.111777742083153e-03 5.227432598646802e-02
1.265341057969773e+01 -7.557161275804926e-04 3.996160432899832e-03 -8.464486149965126e-03 3.293732965049879e-03 1.211902420621028e-01
1.032851659169610e+01 -3.041393118248740e-02 -4.362902151064973e-02 -2.287334139697968e-02 1.064732226520887e-02 -3.887877798824878e-02
1.211488804699138e+01 3.035212286294618e-02 -4.191164101282998e-02 -2.458303457193889e-02 7.732174716961908e-03 -5.678959553143544e-02
1.173817277237045e+01 -4.531366962255688e-03 2.033614735608184e-02 6.600345215370981e-02 -2.582878396117882e-03 -1.097127469250767e-01
1.301841317133517e+01 6.449657780445665e-03 2.839983696821076e-02 5.907028121934232e-02 1.721685852844789e-02 1.182281666590322e-01
1.113504767962754e+01 -1.833834174185056e-03 -9.250567913843057e-02 1.240893065915524e-02 2.523706201912609e-02 -7.958338846665249e-02
1.185536633386272e+01 4.179903179630648e-03 8.520328414979107e-03 -2.371589639550399e-03 6.543283242793687e-03 -9.651353861162661e-02
1.098117403830492e+01 -1.312557238804548e-02 8.487064905981520e-03 4.091240046360928e-02 -3.938012789967554e-05 -1.148714835429764e-01
1.162484714056412e+01 -3.051118712451756e-02 -4.188123935245006e-02 2.406309063499971e-02 5.111777742083153e-03 5.227432598646802e-02
1.255194722402457e+01 3.904858442367845e-02 -4.090720939046709e-02 2.678075244394539e-02 1.853211633448461e-02 4.703222864094895e-02
1.228199494200792e+01 -1.001681976916602e-03 2.346469180592384e-03 6.310312834750631e-02 3.893898204382067e-03 -8.634830703531307e-03
1.211488804699138e+01 3.035212286294618e-02 -4.191164101282998e-02 -2.458303457193889e-02 7.732174716961908e-03 -5.678959553143544e-02
1.562393779677535e+01 4.445612348222699e-02 8.934807980531692e-02 -5.651453481292879e-02 8.198461489472713e-03 -1.038412630615009e-01
1.364144546322063e+01 -1.433349548685514e-02 -1.245195104283142e-02 -7.041148483229180e-02 -9.216592291069584e-03 9.711385100205275e-02
1.301841317133517e+01 6.449657780445665e-03 2.839983696821076e-02 5.907028121934232e-02 1.721685852844789e-02 1.182281666590322e-01
1.391562630564759e+01 5.713309119009125e-02 3.481691993801968e-02 -5.531750224960775e-02 -1.992050661159060e-02 -1.297457172597387e-02
1.464320062139240e+01 -7.563901629200599e-04 2.664717285146352e-02 -1.038909166691238e-01 -3.427843822569958e-03 2.070413454959182e-05
1.292852382423095e+01 -2.267137741948651e-03 -1.595152536805396e-02 -3.542993930538174e-02 -6.811953534081500e-03 5.084549085200465e-03
1.255194722402457e+01 3.904858442367845e-02 -4.090720939046709e-02 2.678075244394539e-02 1.853211633448461e-02 4.703222864094895e-02
1.436885488183884e+01 4.555218603736193e-02 1.014847550276118e-01 9.430937042035931e-03 2.588163888949582e-02 2.795225011108474e-02
1.337898668311032e+01 4.460600527954440e-03 6.211756089180993e-03 -1.110881112465732e-02 6.184564633066929e-03 1.115944141634473e-01
1.562393779677535e+01 4.445612348222699e-02 8.934807980531692e-02 -5.651453481292879e-02 8.198461489472713e-03 -1.038412630615009e-01
1.388003928921564e+01 -2.279251146881319e-02 8.117913130240544e-02 -3.458375473911223e-02 8.318246591209034e-03 -7.808171103907019e-02
1.425354182070542e+01 -1.711424255852920e-03 -3.109780069511308e-02 4.302876657658118e-02 -6.630380121853307e-03 -1.523705656218075e-01
1.301841317133517e+01 6.449657780445665e-03 2.839983696821076e-02 5.907028121934232e-02 1.721685852844789e-02 1.182281666590322e-01
1.482929928737123e+01 1.823665409505090e-02 1.251589699621702e-01 -1.243004857994675e-02 -5.249089250660439e-03 -1.164299141977716e-01
1.413098624720582e+01 -4.342580321679098e-03 -1.886360108586741e-03 -1.872633441148596e-02 -5.938130869740588e-03 -1.331426505491233e-01
1.498281665337408e+01 1.818344108861891e-02 -1.025045982639386e-03 9.943624267927461e-03 1.719456325765303e-03 -1.719890997215515e-01
1.436885488183884e+01 4.555218603736193e-02 1.014847550276118e-01 9.430937042035931e-03 2.588163888949582e-02 2.795225011108474e-02
1.346667575655414e+01 -2.645636623405541e-02 9.807158790763325e-02 2.364645939234764e-02 1.122176543960628e-02 4.049181857250151e-02
1.373321846326286e+01 2.970526129934199e-03 1.331715522858343e-02 5.350112136471930e-02 5.575070300984927e-03 -2.986655059657441e-02
1.300152041150769e+01 -1.610671398271930e-03 -5.618899223776429e-03 3.178693139476656e-02 -3.566224613127138e-03 6.353969439377971e-02
1.238392660357994e+01 1.183794944081259e-02 -1.465728007865289e-02 -6.110528735530700e-02 1.777444094706789e-05 1.200763930490639e-01
1.425354182070542e+01 -1.711424255852920e-03 -3.109780069511308e-02 4.302876657658118e-02 -6.630380121853307e-03 -1.523705656218075e-01
1.339652286519361e+01 3.092751296271088e-03 -1.048952311215468e-02 -1.797728281591509e-02 -8.064518946322508e-04 -4.190244239303046e-02
1.271555419300371e+01 5.234241069538662e-03 -7.894325853974730e-03 -1.011085894104874e-02 -2.468010741592684e-03 9.686739587682490e-02
1.332554703117697e+01 7.539911483270094e-03 -2.443518942524153e-02 1.336096178212950e-02 -8.450465232569573e-04 3.254573492401172e-04
1.358460835589965e+01 -4.730203089099029e-03 -1.762290630196436e-02 3.980418295345819e-02 -4.190015341213114e-03 -3.546879763679529e-02
1.321125519199928e+01 3.183934293333299e-03 -1.411007208994535e-02 8.162702246263679e-03 -1.076426085166802e-03 1.696602557532064e-02
1.297198628599032e+01 9.824425671114097e-04 -8.703396085947671e-03 -2.357310087597270e-02 -2.673030090742974e-03 1.158101512505014e-02
1.374216496854867e+01 -5.983176684797218e-04 -7.235248720264403e-04 -8.390181018220332e-03 -2.255905598440069e-03 -9.944175212735408e-02
1.300152041150769e+01 -1.610671398271930e-03 -5.618899223776429e-03 3.178693139476656e-02 -3.566224613127138e-03 6.353969439377971e-02
1.173817277237045e+01 -4.531366962255688e-03 2.033614735608184e-02 6.600345215370981e-02 -2.582878396117882e-03 -1.097127469250767e-01
1.238392660357994e+01 1.183794944081259e-02 -1.465728007865289e-02 -6.110528735530700e-02 1.777444094706789e-05 1.200763930490639e-01
1.181301962281322e+01 4.887123518718910e-03 6.981250255899173e-03 -1.857480533923120e-02 -9.265538196794247e-04 -3.044885863707538e-02
1.241835272454203e+01 3.894054417851718e-04 8.523128221131538e-03 5.139455998911804e-02 -3.166015212249907e-03 -1.719406202911672e-02
1.204266281761626e+01 5.551156043020035e-03 7.053366260570376e-03 -1.044014309295044e-02 -1.093650551446125e-03 5.542726801945255e-03
1.271555419300371e+01 5.234241069538662e-03 -7.894325853974730e-03 -1.011085894104874e-02 -2.468010741592684e-03 9.686739587682490e-02
1.237191122423761e+01 6.247771620500160e-03 8.989257469530469e-03 1.305806366650298e-02 2.604602361739311e-03 2.544194224112068e-02
1.179949629577923e+01 -2.291786642930169e-03 -7.578951359282290e-03 2.519708621416718e-02 -7.607413375846763e-03 -9.526310378310959e-02
1.206762025564897e+01 -5.212995106409057e-03 -9.219717727182575e-03 -6.854989255174322e-02 -7.912651654579409e-03 3.304834498074995e-02
1.300152041150769e+01 -1.610671398271930e-03 -5.618899223776429e-03 3.178693139476656e-02 -3.566224613127138e-03 6.353969439377971e-02
1.364144546322063e+01 -1.433349548685514e-02 -1.245195104283142e-02 -7.041148483229180e-02 -9.216592291069584e-03 9.711385100205275e-02
1.173817277237045e+01 -4.531366962255688e-03 2.033614735608184e-02 6.600345215370981e-02 -2.582878396117882e-03 -1.097127469250767e-01
1.260460455035227e+01 -3.561976144251944e-03 6.517327974455660e-03 -1.346804622867924e-02 -8.339355115585519e-04 -3.427064153938327e-02
1.329856177664437e+01 -7.946038521051238e-03 -1.013805434495304e-02 -1.631739548852181e-02 -4.885451415377252e-03 8.527965190664835e-02
1.268404657745937e+01 -9.216016611452571e-03 9.670380872305793e-03 1.882078327247599e-02 -4.350895710295791e-03 1.197091507322252e-02
1.241835272454203e+01 3.894054417851718e-04 8.523128221131538e-03 5.139455998911804e-02 -3.166015212249907e-03 -1.719406202911672e-02
1.279185356920256e+01 -5.693260564568339e-03 7.117386428818473e-03 1.054588456208718e-02 -3.608621665876204e-03 2.059968159893962e-02
1.304046071093709e+01 -6.673135787838239e-04 -6.596203785618185e-03 -2.640736776470095e-02 2.611516449172212e-04 7.928092912491200e-03
1.225324350743747e+01 -7.699931357475584e-04 -3.083044665079261e-03 5.613605926590371e-03 -5.972708520870513e-04 -7.537881271307333e-02
1.300152041150769e+01 -1.610671398271930e-03 -5.618899223776429e-03 3.178693139476656e-02 -3.566224613127138e-03 6.353969439377971e-02
1.425354182070542e+01 -1.711424255852920e-03 -3.109780069511308e-02 4.302876657658118e-02 -6.630380121853307e-03 -1.523705656218075e-01
1.364144546322063e+01 -1.433349548685514e-02 -1.245195104283142e-02 -7.041148483229180e-02 -9.216592291069584e-03 9.711385100205275e-02
1.418855913786139e+01 -6.640922680030413e-03 -1.223504955086299e-02 -3.065822628993553e-02 -8.044797453968782e-04 -5.466942321598848e-02
1.358460835589965e+01 -4.730203089099029e-03 -1.762290630196436e-02 3.980418295345819e-02 -4.190015341213114e-03 -3.546879763679529e-02
1.396703050042426e+01 -1.201184212187643e-02 -2.661519229217059e-02 -2.684450214759398e-02 -1.040943255956663e-02 -2.795604555543527e-02
1.329856177664437e+01 -7.946038521051238e-03 -1.013805434495304e-02 -1.631739548852181e-02 -4.885451415377252e-03 8.527965190664835e-02
1.362999133001892e+01 -7.282038236092211e-03 -1.450547898096979e-02 5.898918631328734e-03 -4.963657622857727e-03 1.226693715485302e-02
1.418965683901633e+01 -4.268224277909486e-03 -1.263710148103458e-03 5.916676310564114e-03 -9.281814438426902e-05 -1.296746685001658e-01
1.393856697741198e+01 4.937056995437824e-04 -1.127324439519831e-02 -8.173663269270308e-02 -2.197021322393918e-04 3.427439765127077e-03
1.301841317133517e+01 6.449657780445665e-03 2.839983696821076e-02 5.907028121934232e-02 1.721685852844789e-02 1.182281666590322e-01
1.425354182070542e+01 -1.711424255852920e-03 -3.109780069511308e-02 4.302876657658118e-02 -6.630380121853307e-03 -1.523705656218075e-01
1.238392660357994e+01 1.183794944081259e-02 -1.465728007865289e-02 -6.110528735530700e-02 1.777444094706789e-05 1.200763930490639e-01
1.388003928921564e+01 -2.279251146881319e-02 8.117913130240544e-02 -3.458375473911223e-02 8.318246591209034e-03 -7.808171103907019e-02
1.373321846326286e+01 2.970526129934199e-03 1.331715522858343e-02 5.350112136471930e-02 5.575070300984927e-03 -2.986655059657441e-02
1.332554703117697e+01 7.539911483270094e-03 -2.443518942524153e-02 1.336096178212950e-02 -8.450465232569573e-04 3.254573492401172e-04
1.265341057969773e+01 -7.557161275804926e-04 3.996160432899832e-03 -8.464486149965126e-03 3.293732965049879e-03 1.211902420621028e-01
1.346667575655414e+01 -2.645636623405541e-02 9.807158790763325e-02 2.364645939234764e-02 1.122176543960628e-02 4.049181857250151e-02
1.413098624720582e+01 -4.342580321679098e-03 -1.886360108586741e-03 -1.872633441148596e-02 -5.938130869740588e-03 -1.331426505491233e-01
1.308515669884901e+01 4.206731478835978e-03 1.814954054016081e-02 -3.586142540900438e-02 8.160772161595407e-03 5.048053260224773e-03
1.301841317133517e+01 6.449657780445665e-03 2.839983696821076e-02 5.907028121934232e-02 1.721685852844789e-02 1.182281666590322e-01
1.238392660357994e+01 1.183794944081259e-02 -1.465728007865289e-02 -6.110528735530700e-02 1.777444094706789e-05 1.200763930490639e-01
1.173817277237045e+01 -4.531366962255688e-03 2.033614735608184e-02 6.600345215370981e-02 -2.582878396117882e-03 -1.097127469250767e-01
1.032851659169610e+01 -3.041393118248740e-02 -4.362902151064973e-02 -2.287334139697968e-02 1.064732226520887e-02 -3.887877798824878e-02
1.265341057969773e+01 -7.557161275804926e-04 3.996160432899832e-03 -8.464486149965126e-03 3.293732965049879e-03 1.211902420621028e-01
1.204266281761626e+01 5.551156043020035e-03 7.053366260570376e-03 -1.044014309295044e-02 -1.093650551446125e-03 5.542726801945255e-03
1.228199494200792e+01 -1.001681976916602e-03 2.346469180592384e-03 6.310312834750631e-02 3.893898204382067e-03 -8.634830703531307e-03
1.162484714056412e+01 -3.051118712451756e-02 -4.188123935245006e-02 2.406309063499971e-02 5.111777742083153e-03 5.227432598646802e-02
1.134811909802391e+01 3.549054170399754e-03 -1.924996293666559e-02 -8.385344609597109e-02 4.390858695236815e-03 4.738374055642357e-02
1.098117403830492e+01 -1.312557238804548e-02 8.487064905981520e-03 4.091240046360928e-02 -3.938012789967554e-05 -1.148714835429764e-01
1.301841317133517e+01 6.449657780445665e-03 2.839983696821076e-02 5.907028121934232e-02 1.721685852844789e-02 1.182281666590322e-01
1.173817277237045e+01 -4.531366962255688e-03 2.033614735608184e-02 6.600345215370981e-02 -2.582878396117882e-03 -1.097127469250767e-01
1.364144546322063e+01 -1.433349548685514e-02 -1.245195104283142e-02 -7.041148483229180e-02 -9.216592291069584e-03 9.711385100205275e-02
1.211488804699138e+01 3.035212286294618e-02 -4.191164101282998e-02 -2.458303457193889e-02 7.732174716961908e-03 -5.678959553143544e-02
1.228199494200792e+01 -1.001681976916602e-03 2.346469180592384e-03 6.310312834750631e-02 3.893898204382067e-03 -8.634830703531307e-03
1.268404657745937e+01 -9.216016611452571e-03 9.670380872305793e-03 1.882078327247599e-02 -4.350895710295791e-03 1.197091507322252e-02
1.337898668311032e+01 4.460600527954440e-03 6.211756089180993e-03 -1.110881112465732e-02 6.184564633066929e-03 1.115944141634473e-01
1.255194722402457e+01 3.904858442367845e-02 -4.090720939046709e-02 2.678075244394539e-02 1.853211633448461e-02 4.703222864094895e-02
1.185536633386272e+01 4.179903179630648e-03 8.520328414979107e-03 -2.371589639550399e-03 6.543283242793687e-03 -9.651353861162661e-02
1.292852382423095e+01 -2.267137741948651e-03 -1.595152536805396e-02 -3.542993930538174e-02 -6.811953534081500e-03 5.084549085200465e-03
1.301841317133517e+01 6.449657780445665e-03 2.839983696821076e-02 5.907028121934232e-02 1.721685852844789e-02 1.182281666590322e-01
1.364144546322063e+01 -1.433349548685514e-02 -1.245195104283142e-02 -7.041148483229180e-02 -9.216592291069584e-03 9.711385100205275e-02
1.425354182070542e+01 -1.711424255852920e-03 -3.109780069511308e-02 4.302876657658118e-02 -6.630380121853307e-03 -1.523705656218075e-01
1.562393779677535e+01 4.445612348222699e-02 8.934807980531692e-02 -5.651453481292879e-02 8.198461489472713e-03 -1.038412630615009e-01
1.337898668311032e+01 4.460600527954440e-03 6.211756089180993e-03 -1.110881112465732e-02 6.184564633066929e-03 1.115944141634473e-01
1.396703050042426e+01 -1.201184212187643e-02 -2.661519229217059e-02 -2.684450214759398e-02 -1.040943255956663e-02 -2.795604555543527e-02
1.373321846326286e+01 2.970526129934199e-03 1.331715522858343e-02 5.350112136471930e-02 5.575070300984927e-03 -2.986655059657441e-02
1.436885488183884e+01 4.555218603736193e-02 1.014847550276118e-01 9.430937042035931e-03 2.588163888949582e-02 2.795225011108474e-02
1.464320062139240e+01 -7.563901629200599e-04 2.664717285146352e-02 -1.038909166691238e-01 -3.427843822569958e-03 2.070413454959182e-05
1.498281665337408e+01 1.818344108861891e-02 -1.025045982639386e-03 9.943624267927461e-03 1.719456325765303e-03 -1.719890997215515e-01
1.300152041150769e+01 -1.610671398271930e-03 -5.618899223776429e-03 3.178693139476656e-02 -3.566224613127138e-03 6.353969439377971e-02
1.425354182070542e+01 -1.711424255852920e-03 -3.109780069511308e-02 4.302876657658118e-02 -6.630380121853307e-03 -1.523705656218075e-01
1.238392660357994e+01 1.183794944081259e-02 -1.465728007865289e-02 -6.110528735530700e-02 1.777444094706789e-05 1.200763930490639e-01
1.301271539051919e+01 -2.335070874263572e-03 -8.488028056716227e-03 7.192169900170273e-02 -3.232426099582736e-03 1.438572744092297e-01
1.358460835589965e+01 -4.730203089099029e-03 -1.762290630196436e-02 3.980418295345819e-02 -4.190015341213114e-03 -3.546879763679529e-02
1.332554703117697e+01 7.539911483270094e-03 -2.443518942524153e-02 1.336096178212950e-02 -8.450465232569573e-04 3.254573492401172e-04
1.271555419300371e+01 5.234241069538662e-03 -7.894325853974730e-03 -1.011085894104874e-02 -2.468010741592684e-03 9.686739587682490e-02
1.300692262095613e+01 -2.094111825869687e-03 -8.231744469351931e-03 5.277135467628502e-02 -3.965337120499790e-03 1.055323423987252e-01
1.366824121087741e+01 -2.710278231750092e-03 -1.879038683299028e-02 6.767773352976618e-02 -3.815068392742469e-03 1.040575714151611e-02
1.268254509745576e+01 4.985929759966576e-03 -9.601170236518332e-03 1.237548183646513e-02 -2.217627827801324e-03 1.503882804369813e-01
1.300152041150769e+01 -1.610671398271930e-03 -5.618899223776429e-03 3.178693139476656e-02 -3.566224613127138e-03 6.353969439377971e-02
1.238392660357994e+01 1.183794944081259e-02 -1.465728007865289e-02 -6.110528735530700e-02 1.777444094706789e-05 1.200763930490639e-01
1.173817277237045e+01 -4.531366962255688e-03 2.033614735608184e-02 6.600345215370981e-02 -2.582878396117882e-03 -1.097127469250767e-01
1.301271539051919e+01 -2.335070874263572e-03 -8.488028056716227e-03 7.192169900170273e-02 -3.232426099582736e-03 1.438572744092297e-01
1.271555419300371e+01 5.234241069538662e-03 -7.894325853974730e-03 -1.011085894104874e-02 -2.468010741592684e-03 9.686739587682490e-02
1.204266281761626e+01 5.551156043020035e-03 7.053366260570376e-03 -1.044014309295044e-02 -1.093650551446125e-03 5.542726801945255e-03
1.241835272454203e+01 3.894054417851718e-04 8.523128221131538e-03 5.139455998911804e-02 -3.166015212249907e-03 -1.719406202911672e-02
1.300692262095613e+01 -2.094111825869687e-03 -8.231744469351931e-03 5.277135467628502e-02 -3.965337120499790e-03 1.055323423987252e-01
1.268254509745576e+01 4.985929759966576e-03 -9.601170236518332e-03 1.237548183646513e-02 -2.217627827801324e-03 1.503882804369813e-01
1.234699500007324e+01 -2.660357236252381e-03 7.265037477745481e-03 7.778559319356620e-02 -2.894651164568012e-03 2.975478607933425e-02
1.300152041150769e+01 -1.610671398271930e-03 -5.618899223776429e-03 3.178693139476656e-02 -3.566224613127138e-03 6.353969439377971e-02
1.173817277237045e+01 -4.531366962255688e-03 2.033614735608184e-02 6.600345215370981e-02 -2.582878396117882e-03 -1.097127469250767e-01
1.364144546322063e+01 -1.433349548685514e-02 -1.245195104283142e-02 -7.041148483229180e-02 -9.216592291069584e-03 9.711385100205275e-02
1.301271539051919e+01 -2.335070874263572e-03 -8.488028056716227e-03 7.192169900170273e-02 -3.232426099582736e-03 1.438572744092297e-01
1.241835272454203e+01 3.894054417851718e-04 8.523128221131538e-03 5.139455998911804e-02 -3.166015212249907e-03 -1.719406202911672e-02
1.268404657745937e+01 -9.216016611452571e-03 9.670380872305793e-03 1.882078327247599e-02 -4.350895710295791e-03 1.197091507322252e-02
1.329856177664437e+01 -7.946038521051238e-03 -1.013805434495304e-02 -1.631739548852181e-02 -4.885451415377252e-03 8.527965190664835e-02
1.300692262095613e+01 -2.094111825869687e-03 -8.231744469351931e-03 5.277135467628502e-02 -3.965337120499790e-03 1.055323423987252e-01
1.234699500007324e+01 -2.660357236252381e-03 7.265037477745481e-03 7.778559319356620e-02 -2.894651164568012e-03 2.975478607933425e-02
1.334305106192896e+01 -8.199214433720139e-03 -9.326754237124209e-03 7.553651790834537e-03 -4.487920034008150e-03 1.402851910013798e-01
1.300152041150769e+01 -1.610671398271930e-03 -5.618899223776429e-03 3.178693139476656e-02 -3.566224613127138e-03 6.353969439377971e-02
1.364144546322063e+01 -1.433349548685514e-02 -1.245195104283142e-02 -7.041148483229180e-02 -9.216592291069584e-03 9.711385100205275e-02
1.425354182070542e+01 -1.711424255852920e-03 -3.109780069511308e-02 4.302876657658118e-02 -6.630380121853307e-03 -1.523705656218075e-01
1.301271539051919e+01 -2.335070874263572e-03 -8.488028056716227e-03 7.192169900170273e-02 -3.232426099582736e-03 1.438572744092297e-01
1.329856177664437e+01 -7.946038521051238e-03 -1.013805434495304e-02 -1.631739548852181e-02 -4.885451415377252e-03 8.527965190664835e-02
1.396703050042426e+01 -1.201184212187643e-02 -2.661519229217059e-02 -2.684450214759398e-02 -1.040943255956663e-02 -2.795604555543527e-02
1.358460835589965e+01 -4.730203089099029e-03 -1.762290630196436e-02 3.980418295345819e-02 -4.190015341213114e-03 -3.546879763679529e-02
1.300692262095613e+01 -2.094111825869687e-03 -8.231744469351931e-03 5.277135467628502e-02 -3.965337120499790e-03 1.055323423987252e-01
1.334305106192896e+01 -8.199214433720139e-03 -9.326754237124209e-03 7.553651790834537e-03 -4.487920034008150e-03 1.402851910013798e-01
1.366824121087741e+01 -2.710278231750092e-03 -1.879038683299028e-02 6.767773352976618e-02 -3.815068392742469e-03 1.040575714151611e-02
1.301841317133517e+01 6.449657780445665e-03 2.839983696821076e-02 5.907028121934232e-02 1.721685852844789e-02 1.182281666590322e-01
1.238392660357994e+01 1.183794944081259e-02 -1.465728007865289e-02 -6.110528735530700e-02 1.777444094706789e-05 1.200763930490639e-01
1.425354182070542e+01 -1.711424255852920e-03 -3.109780069511308e-02 4.302876657658118e-02 -6.630380121853307e-03 -1.523705656218075e-01
1.301271539051919e+01 -2.335070874263572e-03 -8.488028056716227e-03 7.192169900170273e-02 -3.232426099582736e-03 1.438572744092297e-01
1.265341057969773e+01 -7.557161275804926e-04 3.996160432899832e-03 -8.464486149965126e-03 3.293732965049879e-03 1.211902420621028e-01
1.332554703117697e+01 7.539911483270094e-03 -2.443518942524153e-02 1.336096178212950e-02 -8.450465232569573e-04 3.254573492401172e-04
1.373321846326286e+01 2.970526129934199e-03 1.331715522858343e-02 5.350112136471930e-02 5.575070300984927e-03 -2.986655059657441e-02
1.301656803752604e+01 2.531763336027643e-04 2.217721367490441e-03 5.186762315219538e-02 3.111053686338084e-03 1.037988418389450e-01
1.268254509745576e+01 4.985929759966576e-03 -9.601170236518332e-03 1.237548183646513e-02 -2.217627827801324e-03 1.503882804369813e-01
1.366824121087741e+01 -2.710278231750092e-03 -1.879038683299028e-02 6.767773352976618e-02 -3.815068392742469e-03 1.040575714151611e-02
1.301841317133517e+01 6.449657780445665e-03 2.839983696821076e-02 5.907028121934232e-02 1.721685852844789e-02 1.182281666590322e-01
1.173817277237045e+01 -4.531366962255688e-03 2.033614735608184e-02 6.600345215370981e-02 -2.582878396117882e-03 -1.097127469250767e-01
1.238392660357994e+01 1.183794944081259e-02 -1.465728007865289e-02 -6.110528735530700e-02 1.777444094706789e-05 1.200763930490639e-01
1.301271539051919e+01 -2.335070874263572e-03 -8.488028056716227e-03 7.192169900170273e-02 -3.232426099582736e-03 1.438572744092297e-01
1.228199494200792e+01 -1.001681976916602e-03 2.346469180592384e-03 6.310312834750631e-02 3.893898204382067e-03 -8.634830703531307e-03
1.204266281761626e+01 5.551156043020035e-03 7.053366260570376e-03 -1.044014309295044e-02 -1.093650551446125e-03 5.542726801945255e-03
1.265341057969773e+01 -7.557161275804926e-04 3.996160432899832e-03 -8.464486149965126e-03 3.293732965049879e-03 1.211902420621028e-01
1.301656803752604e+01 2.531763336027643e-04 2.217721367490441e-03 5.186762315219538e-02 3.111053686338084e-03 1.037988418389450e-01
1.234699500007324e+01 -2.660357236252381e-03 7.265037477745481e-03 7.778559319356620e-02 -2.894651164568012e-03 2.975478607933425e-02
1.268254509745576e+01 4.985929759966576e-03 -9.601170236518332e-03 1.237548183646513e-02 -2.217627827801324e-03 1.503882804369813e-01
1.301841317133517e+01 6.449657780445665e-03 2.839983696821076e-02 5.907028121934232e-02 1.721685852844789e-02 1.182281666590322e-01
1.364144546322063e+01 -1.433349548685514e-02 -1.245195104283142e-02 -7.041148483229180e-02 -9.216592291069584e-03 9.711385100205275e-02
1.173817277237045e+01 -4.531366962255688e-03 2.033614735608184e-02 6.600345215370981e-02 -2.582878396117882e-03 -1.097127469250767e-01
1.301271539051919e+01 -2.335070874263572e-03 -8.488028056716227e-03 7.192169900170273e-02 -3.232426099582736e-03 1.438572744092297e-01
1.337898668311032e+01 4.460600527954440e-03 6.211756089180993e-03 -1.110881112465732e-02 6.184564633066929e-03 1.115944141634473e-01
1.268404657745937e+01 -9.216016611452571e-03 9.670380872305793e-03 1.882078327247599e-02 -4.350895710295791e-03 1.197091507322252e-02
1.228199494200792e+01 -1.001681976916602e-03 2.346469180592384e-03 6.310312834750631e-02 3.893898204382067e-03 -8.634830703531307e-03
1.301656803752604e+01 2.531763336027643e-04 2.217721367490441e-03 5.186762315219538e-02 3.111053686338084e-03 1.037988418389450e-01
1.334305106192896e+01 -8.199214433720139e-03 -9.326754237124209e-03 7.553651790834537e-03 -4.487920034008150e-03 1.402851910013798e-01
1.234699500007324e+01 -2.660357236252381e-03 7.265037477745481e-03 7.778559319356620e-02 -2.894651164568012e-03 2.975478607933425e-02
1.301841317133517e+01 6.449657780445665e-03 2.839983696821076e-02 5.907028121934232e-02 1.721685852844789e-02 1.182281666590322e-01
1.425354182070542e+01 -1.711424255852920e-03 -3.109780069511308e-02 4.302876657658118e-02 -6.630380121853307e-03 -1.523705656218075e-01
1.364144546322063e+01 -1.433349548685514e-02 -1.245195104283142e-02 -7.041148483229180e-02 -9.216592291069584e-03 9.711385100205275e-02
1.301271539051919e+01 -2.335070874263572e-03 -8.488028056716227e-03 7.192169900170273e-02 -3.232426099582736e-03 1.438572744092297e-01
1.373321846326286e+01 2.970526129934199e-03 1.331715522858343e-02 5.350112136471930e-02 5.575070300984927e-03 -2.986655059657441e-02
1.396703050042426e+01 -1.201184212187643e-02 -2.661519229217059e-02 -2.684450214759398e-02 -1.040943255956663e-02 -2.795604555543527e-02
1.337898668311032e+01 4.460600527954440e-03 6.211756089180993e-03 -1.110881112465732e-02 6.184564633066929e-03 1.115944141634473e-01
1.301656803752604e+01 2.531763336027643e-04 2.217721367490441e-03 5.186762315219538e-02 3.111053686338084e-03 1.037988418389450e-01
1.366824121087741e+01 -2.710278231750092e-03 -1.879038683299028e-02 6.767773352976618e-02 -3.815068392742469e-03 1.040575714151611e-02
1.334305106192896e+01 -8.199214433720139e-03 -9.326754237124209e-03 7.553651790834537e-03 -4.487920034008150e-03 1.402851910013798e-01
        </DataArray>
  </PointData>
  <CellData>
        <DataArray type="Float64" Name="element_GL_strains_xyz" NumberOfComponents="6" format="ascii">
1.153932728527664e-01 6.477950786065723e-06 2.545896163941297e-06 3.070739010516253e-05 5.769539142175201e-06 1.730700031887644e-04
1.137758851414617e-01 1.008755085127322e-05 1.222433757247510e-05 8.704009454017656e-05 2.347268619370017e-06 6.301776247628870e-05
1.186395848353753e-01 -7.014331236829263e-06 -8.352601438790797e-06 3.070301323767080e-05 -7.935184468704503e-06 1.710550370182595e-04
1.202685803481218e-01 -1.165057159893679e-05 -1.475451648078052e-05 8.502491515931712e-05 -4.512945426268897e-06 5.980190298622218e-05
1.188618990881817e-01 9.450230338811649e-06 -3.355611357203081e-05 1.714596393384885e-04 -1.761384493338041e-05 3.060026095236183e-04
1.114917794178300e-01 1.896047850209748e-05 2.886882594392570e-05 1.202826611995987e-04 -4.712767108502715e-05 2.785873097062341e-04
1.151714898026906e-01 -1.171721938919568e-05 2.461172582585158e-05 1.724170089014432e-04 1.290419307959747e-05 3.037919836277052e-04
1.225625092532590e-01 -2.335642064822674e-05 -3.994159860123969e-05 1.194963262038439e-04 4.429249677616505e-05 2.790542538104640e-04
1.147737143028060e-01 2.530392400094950e-05 -2.463327627102996e-05 2.568111943900832e-04 -2.504443817189803e-06 1.097370834411298e-03
1.125454978988864e-01 -1.064427874150620e-05 4.500039363278252e-05 5.512572212042483e-04 -5.594381946539559e-06 5.148409814540396e-04
1.192424091040429e-01 -3.090433440794405e-05 -1.982783891799067e-05 2.568428235385727e-04 -1.522712498676575e-05 1.086927628642407e-03
1.214824021163214e-01 -9.831107765784219e-07 -6.734840975246292e-05 5.408154816881024e-04 -1.213668853597930e-05 5.123579547401615e-04
1.181832390533000e-01 2.026285557835128e-05 -4.502369135603312e-05 8.771891740977818e-05 -2.520719558041250e-06 1.877836423709099e-04
1.135135686227542e-01 2.053607640548072e-05 3.880277346224315e-05 1.033401996656080e-04 -5.060725015546621e-06 1.959718963353014e-04
1.158455952996823e-01 -2.115293905793902e-05 3.885692017685516e-05 8.985024055705477e-05 -2.952120882952447e-07 1.868678332865107e-04
1.205264133554933e-01 -2.229413003571046e-05 -4.583745475916778e-05 1.002130245153453e-04 1.563325429577336e-06 1.916293154761071e-04
1.184903142174663e-01 6.460810956010477e-06 -7.884099543137291e-05 3.135804792637416e-04 -7.831291968606596e-06 6.341534822169645e-04
1.125746232908494e-01 7.243762670311460e-05 8.909578435711829e-05 3.191557954463866e-04 -5.886800177620024e-06 6.358074102481776e-04
1.155350102649193e-01 -1.228231564713578e-05 5.532984766137838e-05 3.184480453852310e-04 -7.616872187463109e-06 6.304622398352608e-04
1.214407274919722e-01 -7.539628451659619e-05 -1.097426690864767e-04 3.135225952407058e-04 -5.635893418464093e-06 6.289967434722019e-04
1.176154040947934e-01 1.569420541019939e-05 -4.723466461228898e-05 2.106057888921114e-04 -5.684366583627358e-06 4.245393640223480e-04
1.152070397951399e-01 2.200511961658602e-05 3.484485111340807e-05 2.133969322257537e-04 -5.286125733689510e-06 4.250713610846979e-04
1.164107560863666e-01 -1.887576651386780e-05 3.180365981478306e-05 2.119812058847219e-04 -6.095060701198322e-06 4.231215903788909e-04
1.188210019869728e-01 -2.579007053611637e-05 -5.087909215474584e-05 2.125135466098267e-04 -6.620227131348954e-06 4.242302950692571e-04
1.176793701740974e-01 1.052138708335093e-05 -4.634480586020173e-05 3.590210133378989e-04 -1.405183002646540e-05 7.223329726548463e-04
1.150018365514779e-01 1.683395869134241e-05 2.208631150167617e-05 3.631398414790423e-04 -2.072874929405557e-05 7.234591953110305e-04
1.163400533290465e-01 -1.722011039630156e-05 1.904452304136994e-05 3.610503977846074e-04 -7.330333669432479e-06 7.201808988234443e-04
1.190199129640730e-01 -2.413070416314167e-05 -4.998453372104250e-05 3.602557966021558e-04 -7.743179740904368e-07 7.206973784813384e-04
1.142079012638934e-01 2.532847208878974e-05 -1.932667504905838e-05 3.653788046706475e-04 -1.043316528896083e-05 1.591293409935795e-03
1.114002984110419e-01 4.148991663149859e-05 4.467053265516663e-05 8.053555870935472e-04 -1.284456368223183e-05 7.239165362734428e-04
1.197949021265803e-01 -4.077246191966366e-05 -6.741162398900269e-05 3.399122586051020e-04 -2.017260000036524e-05 1.551850579043419e-03
1.225736522122604e-01 -5.625674194989494e-05 -8.784911135317763e-05 7.659298062294748e-04 -1.775094074092448e-05 6.861199197320271e-04
1.208731191240285e-01 2.559960446267551e-05 -4.519713199990782e-05 6.794080648637839e-04 -2.865617427895358e-05 1.233057784971989e-03
1.051755995540369e-01 8.023222211481218e-06 1.991866323269864e-05 5.301526894654667e-04 -9.703802833093198e-05 1.209891538974960e-03
1.131091581413081e-01 -2.507005173374433e-05 2.959704333042878e-05 7.029287749137678e-04 2.755406691545260e-05 1.272272734940472e-03
1.284741693978572e-01 -7.760493767536292e-06 -3.586411885131424e-05 5.069614701121854e-04 7.532083872707156e-05 1.123989337475588e-03
1.116296689986644e-01 -2.517177310428637e-04 2.800976153802676e-04 9.275329723882164e-04 2.683945559770712e-04 3.273595019358982e-03
1.062248398583489e-01 3.414266559476076e-07 -3.871223861344752e-04 1.629897458989731e-03 1.975915182335576e-04 1.828523861397224e-03
1.222613569001473e-01 3.293002633719261e-04 3.578160725221796e-04 9.368631802844868e-04 -2.150161297957691e-05 3.302571192464454e-03
1.274916708036407e-01 1.665953164763784e-04 7.685822189077568e-04 1.658852538617574e-03 4.934473623512464e-05 1.900537437291942e-03
1.191748676849610e-01 4.653235322393812e-05 -1.568370909829225e-04 5.849307509741161e-04 -4.945254523606567e-06 1.211535729599569e-03
1.105194694822664e-01 5.076739949408382e-05 8.205386727527797e-05 6.575748763417090e-04 2.294804298862759e-05 1.271748122142598e-03
1.148710735356162e-01 -6.852938972887190e-05 8.082800016692704e-05 5.953509921715887e-04 -3.219883525636038e-05 1.223925395859918e-03
1.234319247662638e-01 -7.352409146406391e-05 -1.588136403709584e-04 6.234141289064536e-04 -5.823532263358832e-05 1.214771098146709e-03
1.204314355375423e-01 -1.681497099879914e-05 1.381266062768782e-04 1.080009226012930e-03 3.946569572554817e-06 2.145877425533664e-03
1.067253379264934e-01 -2.717178790939689e-06 2.115776747758924e-05 1.068168094315205e-03 -5.189364486873493e-05 2.127125415068393e-03
1.136407952898508e-01 4.658294796176798e-05 5.102888013211460e-06 1.059686903133782e-03 7.106512965522578e-05 2.142322290736715e-03
1.271036751563561e-01 6.723672831193683e-05 1.567953610469019e-04 1.082431807878891e-03 1.505125349948366e-04 2.165330842600922e-03
1.182288916188435e-01 5.529932422262962e-05 -1.773099298723047e-04 1.030307327828347e-03 -9.061133384977087e-06 2.058130022916446e-03
1.134017442594773e-01 5.008004492315643e-05 8.141809237291464e-05 1.042619503419873e-03 4.357601045687961e-06 2.087320485468098e-03
1.158133378655160e-01 -7.656880279549583e-05 8.799164426995243e-05 1.042607829838339e-03 -3.076843131158091e-05 2.068494614436053e-03
1.206480498147184e-01 -8.332241342191848e-05 -1.827339373035586e-04 1.005089679309421e-03 -5.859760702057824e-05 2.027124775885195e-03
1.185299051714607e-01 -1.407617507639958e-05 7.436565140747642e-05 1.339000831162830e-03 2.869544507443997e-05 2.648920782621345e-03
1.125310393437169e-01 -1.921107104746467e-05 -1.538957778447758e-05 1.325499575923065e-03 1.981404432575233e-05 2.676457552439879e-03
1.155269113449215e-01 2.854550803924050e-05 -9.032423438165571e-06 1.336134165176451e-03 2.932075347275815e-05 2.683517021459480e-03
1.215374682413690e-01 2.161892268147392e-05 6.864517787263935e-05 1.324436705686830e-03 2.368513636403899e-05 2.643687527220710e-03
        </DataArray>
        <DataArray type="Float64" Name="element_cauchy_stresses_xyz" NumberOfComponents="6" format="ascii">
1.280194435746521e+01 5.837989636433606e-04 2.038555667720877e-04 -1.865637849533361e-03 5.131982795084174e-04 8.107798751253333e-03
1.260562494994184e+01 9.042262095591209e-04 1.102334957724250e-03 4.205688668649123e-03 2.048021479612598e-04 -3.361743234541116e-03
1.319708211150697e+01 -6.306417301721479e-04 -7.760257725506945e-04 -2.069108743259631e-03 -7.200266927720259e-04 7.496560627928013e-03
1.339591036232103e+01 -1.052018951303363e-03 -1.324333766777718e-03 3.594436405517111e-03 -4.116278419212817e-04 -4.512880781344066e-03
1.322432315762316e+01 8.294087561594251e-04 -3.081843462969504e-03 -4.441627891709400e-03 -1.617933208480201e-03 -1.264116004409207e-02
1.232939634767724e+01 1.701235156228956e-03 2.542831084599921e-03 -8.042022701250380e-03 -4.294490986397574e-03 -1.216580572263300e-02
1.277501564054951e+01 -1.078162850534197e-03 2.147924374739325e-03 -3.487977157976479e-03 1.125494493533731e-03 -1.122158305352052e-02
1.367726603298377e+01 -2.101218340108967e-03 -3.627673051166456e-03 -1.059652234304760e-02 3.946530537516026e-03 -1.709337023629068e-02
1.272840003903390e+01 2.240421483945440e-03 -3.084888047449359e-03 -1.311440196066144e-02 -4.856370159454337e-04 3.207890269083784e-02
1.245735694442769e+01 -1.181134666414000e-03 3.881878519497076e-03 1.717934350924174e-02 -7.725865437496073e-04 -2.436332111711889e-02
1.327250659780610e+01 -2.814578929536760e-03 -2.613147202582753e-03 -1.498662087365915e-02 -1.616155137410449e-03 2.748500509069618e-02
1.354553871348625e+01 -2.918946125184701e-04 -6.178676451289264e-03 1.258553285753074e-02 -1.328986968376949e-03 -3.186893890521504e-02
1.314153459112642e+01 1.814625084227439e-03 -4.082027181355776e-03 -1.480778269171379e-03 -2.433723392916624e-04 -1.746316403226306e-03
1.257346365245616e+01 1.844819138440745e-03 3.467483333868118e-03 5.559233148364526e-04 -4.746001521745367e-04 8.798969641843346e-05
1.285667754684017e+01 -1.914143963439394e-03 3.467880066925905e-03 -9.765762787685606e-04 -4.388456955327390e-05 -1.332313781719772e-03
1.342802945707448e+01 -2.009157557922243e-03 -4.146392020826652e-03 -5.753611074867790e-04 1.245391449591958e-04 -1.961522720068226e-03
1.318014689388755e+01 5.082822097907710e-04 -7.399420734220200e-03 -2.512338632139904e-03 -8.527939385057501e-04 -4.363809257245936e-03
1.245935499532914e+01 6.457480975115243e-03 7.710006384248564e-03 9.791260757510754e-05 -7.072092063411731e-04 -4.822228962729491e-05
1.281922892227201e+01 -1.184824938188847e-03 4.669523426172158e-03 -1.001707569004334e-03 -8.420317239936708e-04 -2.640203635950463e-03
1.354209707140759e+01 -6.839964586614639e-03 -1.014538037330493e-02 -3.603565349863566e-03 -6.614776210021227e-04 -6.983924079979957e-03
1.307267909188898e+01 1.380249106496055e-03 -4.380468946551083e-03 5.619278733003974e-03 -5.775850047353480e-04 1.157988798735604e-02
1.277883652013149e+01 1.950407968574945e-03 3.008556846488864e-03 6.320413226349519e-03 -5.434064540241362e-04 1.246640451671263e-02
1.292559072184042e+01 -1.732514770010095e-03 2.733842245535275e-03 5.970818439985979e-03 -6.156591367602703e-04 1.185021795330176e-02
1.322010340072043e+01 -2.350776541584884e-03 -4.703245859508315e-03 5.600352660580613e-03 -6.603659557732900e-04 1.112445154206856e-02
1.308103867944615e+01 8.513891397014446e-04 -4.554667060021267e-03 8.976310120452937e-03 -1.457971629682729e-03 1.839082577986707e-02
1.275468894922053e+01 1.419835255796408e-03 1.600780011047290e-03 1.010969934860889e-02 -2.065402011980307e-03 1.993823816052303e-02
1.291766107960992e+01 -1.647513364416967e-03 1.329380148841487e-03 9.543116711798598e-03 -8.553804344384259e-04 1.889037550779990e-02
1.324482955020581e+01 -2.264128791674554e-03 -4.874176740712634e-03 8.738827659802835e-03 -2.610966348267231e-04 1.750095586341273e-02
1.266176028963885e+01 2.213799801755773e-03 -3.532431736395298e-03 -1.702402538903167e-02 -1.465210482733366e-03 5.234244101696938e-02
1.231929777364938e+01 3.292850220661194e-03 3.730688937655414e-03 2.875946614580772e-02 -1.703764650999140e-03 -3.148719703835148e-02
1.334252029354512e+01 -3.698063126328641e-03 -7.725278844332441e-03 -2.280273558589133e-02 -2.270461621003305e-03 4.199597931181981e-02
1.368086190087084e+01 -5.442709933959973e-03 -8.007032379513009e-03 1.841306161906295e-02 -2.031066050100814e-03 -4.816642362688496e-02
1.347221371125307e+01 1.990868602298771e-03 -5.021631200230806e-03 -2.152518817977678e-02 -3.112780122078055e-03 -5.477988399051491e-02
1.157415042424858e+01 5.128642983702981e-04 5.701725929910593e-04 -2.303275866157220e-02 -9.367710942357903e-03 -3.175945967689916e-02
1.252811340658991e+01 -2.645397267359687e-03 1.447079374903572e-03 -1.321699873727244e-02 1.807271554650408e-03 -3.835425260459457e-02
1.440660250924174e+01 -7.816327912473128e-04 -3.778078538372226e-03 -4.282561919787171e-02 6.469388486725789e-03 -7.629191828053805e-02
1.236067273634086e+01 -2.346800504703383e-02 1.696000169336764e-02 -2.744136671612321e-02 2.157205082130755e-02 7.617395009929988e-02
1.170935722639640e+01 -2.129935574448665e-03 -3.800825364169723e-02 4.267825734753482e-02 1.516143938703505e-02 -4.936797824268187e-02
1.364402116631337e+01 2.889303909248023e-02 2.416261098623268e-02 -3.619455168885788e-02 -4.408979991379980e-03 5.856832457090785e-02
1.427674128010938e+01 1.293489310606851e-02 6.630609737590681e-02 2.506935130720827e-02 1.995675932175118e-03 -7.721765943089998e-02
1.326596946241340e+01 3.915163854997303e-03 -1.521089270886550e-02 -7.464378242546581e-03 -9.942238384753586e-04 -1.113340887515332e-02
1.221372773228637e+01 4.252837747927495e-03 6.100135357438134e-03 5.303606963981243e-03 1.404656576960289e-03 6.240425868486381e-03
1.274105531582164e+01 -6.470975628444423e-03 6.089135619543437e-03 -3.916701553288401e-03 -3.498913732400763e-03 -4.019668809838752e-03
1.378841188767136e+01 -6.852158412226353e-03 -1.526682150523756e-02 -6.416250244375999e-03 -5.743246532680704e-03 -1.613882523347577e-02
1.342119011182892e+01 -2.356455435889410e-03 8.947272374410457e-03 -8.271337253605354e-03 -1.351464564469120e-03 -1.774712355710582e-02
1.176496053222091e+01 -1.280276339064854e-03 -2.041068330370435e-03 2.117491796336891e-03 -6.764291984744025e-03 3.593157022686668e-03
1.259650894537180e+01 3.335821778699283e-03 -3.217407993766860e-03 -4.454619068589727e-03 4.628837903487126e-03 -6.659505530692375e-03
1.423924900418118e+01 5.127588914105374e-03 1.062547126091750e-02 -1.296695998496815e-02 1.170221429729769e-02 -2.640624899346433e-02
1.315456475571523e+01 4.225879092366288e-03 -1.892759676814822e-02 2.809253964635502e-02 -2.312647957616818e-03 5.543722318328294e-02
1.256526909896595e+01 3.736328759885788e-03 4.208356728761345e-03 3.260704229011510e-02 -1.176064099561103e-03 6.549430735249263e-02
1.285915059704594e+01 -7.670741940501656e-03 4.874603351604709e-03 3.075792672701038e-02 -4.311916122102633e-03 6.033505755327528e-02
1.345132982488340e+01 -8.186776209536914e-03 -1.927023576419983e-02 2.368203807453147e-02 -6.683356397445568e-03 4.900882200203072e-02
1.319304387582762e+01 -2.547870276372160e-03 1.644405348022594e-03 3.392753930408918e-02 3.423650284817558e-05 6.493389724578838e-02
1.246626790419713e+01 -3.039141348655983e-03 -6.690659130917970e-03 3.720040884292643e-02 -8.419656712152832e-04 7.692896299920141e-02
1.282865732627020e+01 1.269236354411828e-03 -6.048134765746420e-03 3.597042710948309e-02 2.755998523516106e-05 7.301366969616475e-02
1.355950111265287e+01 7.036577974111805e-04 1.226779365991028e-03 3.013815835690334e-02 -3.452435483743114e-04 5.974936012460836e-02
        </DataArray>
      </CellData>

    </Piece>
  </UnstructuredGrid>
</VTKFile>
