<?xml version="1.0" ?> 
<!-- 
# vtk DataFile Version 3.0
-->
<VTKFile type="UnstructuredGrid" version="0.1" compressor="vtkZLibDataCompressor" byte_order="LittleEndian">
  <UnstructuredGrid>
    <FieldData>
      <DataArray type="Float64" Name="TIME" NumberOfTuples="1" format="ascii">
1.000000000000000e+00 
      </DataArray>
    </FieldData>

    <Piece NumberOfPoints="24" NumberOfCells="4" >
      <Points>
        <DataArray type="Float64" NumberOfComponents="3" format="ascii">
0.000000000000000e+00 0.000000000000000e+00 0.000000000000000e+00
1.000000000000000e+00 1.000000000000000e+00 0.000000000000000e+00
0.000000000000000e+00 1.000000000000000e+00 0.000000000000000e+00
0.000000000000000e+00 0.000000000000000e+00 1.000000000000000e+00
1.000000000000000e+00 1.000000000000000e+00 1.000000000000000e+00
0.000000000000000e+00 1.000000000000000e+00 1.000000000000000e+00
0.000000000000000e+00 0.000000000000000e+00 0.000000000000000e+00
1.000000000000000e+00 0.000000000000000e+00 0.000000000000000e+00
1.000000000000000e+00 1.000000000000000e+00 0.000000000000000e+00
0.000000000000000e+00 0.000000000000000e+00 1.000000000000000e+00
1.000000000000000e+00 0.000000000000000e+00 1.000000000000000e+00
1.000000000000000e+00 1.000000000000000e+00 1.000000000000000e+00
1.000000000000000e+00 0.000000000000000e+00 0.000000000000000e+00
2.000000000000000e+00 1.000000000000000e+00 0.000000000000000e+00
1.000000000000000e+00 1.000000000000000e+00 0.000000000000000e+00
1.000000000000000e+00 0.000000000000000e+00 1.000000000000000e+00
2.000000000000000e+00 1.000000000000000e+00 1.000000000000000e+00
1.000000000000000e+00 1.000000000000000e+00 1.000000000000000e+00
1.000000000000000e+00 0.000000000000000e+00 0.000000000000000e+00
2.000000000000000e+00 0.000000000000000e+00 0.000000000000000e+00
2.000000000000000e+00 1.000000000000000e+00 0.000000000000000e+00
1.000000000000000e+00 0.000000000000000e+00 1.000000000000000e+00
2.000000000000000e+00 0.000000000000000e+00 1.000000000000000e+00
2.000000000000000e+00 1.000000000000000e+00 1.000000000000000e+00
        </DataArray>
      </Points>

      <Cells>
        <DataArray type="Int32" Name="connectivity" format="ascii">
0 1 2 3 4 5 6 7 8 9 10 11 12 13 14 15 16 17 18 19 20 21 22 23 
        </DataArray>
        <DataArray type="Int32" Name="offsets" format="ascii">
6 12 18 24 
        </DataArray>
        <DataArray type="UInt8" Name="types" format="ascii">
13 13 13 13 
        </DataArray>
      </Cells>

  <PointData>
        <DataArray type="Float64" Name="displacement" NumberOfComponents="3" format="ascii">
0.000000000000000e+00 0.000000000000000e+00 0.000000000000000e+00
1.078906330996335e-01 -4.265233085246113e-04 -3.000899831837509e-03
0.000000000000000e+00 0.000000000000000e+00 0.000000000000000e+00
0.000000000000000e+00 0.000000000000000e+00 0.000000000000000e+00
1.161473397398754e-01 -1.660928996725333e-03 -3.045255230402944e-03
0.000000000000000e+00 0.000000000000000e+00 0.000000000000000e+00
0.000000000000000e+00 0.000000000000000e+00 0.000000000000000e+00
1.057294189755749e-01 9.042332926185674e-05 -4.281543668908112e-03
1.078906330996335e-01 -4.265233085246113e-04 -3.000899831837509e-03
0.000000000000000e+00 0.000000000000000e+00 0.000000000000000e+00
1.136690945071878e-01 -2.151679228702637e-03 -4.353366084262732e-03
1.161473397398754e-01 -1.660928996725333e-03 -3.045255230402944e-03
1.057294189755749e-01 9.042332926185674e-05 -4.281543668908112e-03
2.131416676335272e-01 -2.686983000301933e-03 -1.562348828662595e-02
1.078906330996335e-01 -4.265233085246113e-04 -3.000899831837509e-03
1.136690945071878e-01 -2.151679228702637e-03 -4.353366084262732e-03
2.355326979945602e-01 -5.676395989850620e-03 -1.575510677027456e-02
1.161473397398754e-01 -1.660928996725333e-03 -3.045255230402944e-03
1.057294189755749e-01 9.042332926185674e-05 -4.281543668908112e-03
2.063686149000320e-01 -3.148830134558970e-03 -1.977790564199933e-02
2.131416676335272e-01 -2.686983000301933e-03 -1.562348828662595e-02
1.136690945071878e-01 -2.151679228702637e-03 -4.353366084262732e-03
2.313284494165633e-01 -6.505552642817538e-03 -1.990633031521497e-02
2.355326979945602e-01 -5.676395989850620e-03 -1.575510677027456e-02
        </DataArray>
        <DataArray type="Float64" Name="nodal_GL_strains_xyz" NumberOfComponents="6" format="ascii">
1.125159421048172e-01 -2.568753164941445e-04 -6.711991648755839e-06 5.120113874805636e-04 3.201609592676566e-04 -1.820610875186388e-03
1.119623743410131e-01 -3.425004219921927e-04 -1.780922384295485e-05 3.601369694753073e-04 -1.841796219396325e-04 1.250333514505317e-03
1.137096128718089e-01 0.000000000000000e+00 -3.872162741336372e-06 -2.132616542623303e-04 3.960048435003305e-17 -1.500449915918745e-03
1.215140970649940e-01 2.473520084567042e-04 -6.711991648755841e-06 -2.648640889058969e-04 3.270277134649201e-04 -1.849655328666418e-03
1.232039702845887e-01 3.298026779422722e-04 -1.780922384295485e-05 -3.866433486509328e-04 -1.745664470761860e-04 1.259243127504561e-03
1.228926498923643e-01 0.000000000000000e+00 -3.872162741336372e-06 -8.304644983626984e-04 3.958693182287698e-17 -1.522627615201512e-03
1.125159421048172e-01 -2.568753164941445e-04 -6.711991648755839e-06 5.120113874805636e-04 3.201609592676566e-04 -1.820610875186388e-03
1.093273002232584e-01 -1.781806356637201e-04 -5.455059551697602e-05 1.124043282532165e-03 1.304868707384003e-05 -1.015475555311111e-03
1.119623743410131e-01 -3.425004219921927e-04 -1.780922384295485e-05 3.601369694753073e-04 -1.841796219396325e-04 1.250333514505317e-03
1.215140970649940e-01 2.473520084567042e-04 -6.711991648755841e-06 -2.648640889058969e-04 3.270277134649201e-04 -1.849655328666418e-03
1.238022196472946e-01 6.119338261926869e-04 -5.455059551708285e-05 -6.245091933405639e-05 1.822085686385190e-05 -9.977782741470219e-04
1.232039702845887e-01 3.298026779422722e-04 -1.780922384295485e-05 -3.866433486509328e-04 -1.745664470761860e-04 1.259243127504561e-03
1.093273002232584e-01 -1.781806356637201e-04 -5.455059551697602e-05 1.124043282532165e-03 1.304868707384003e-05 -1.015475555311111e-03
1.083298146659748e-01 -1.039563700143561e-05 1.037459877779988e-04 1.067422709186518e-03 -8.606699638335011e-05 5.323336645745405e-03
1.119623743410131e-01 -3.425004219921927e-04 -1.780922384295485e-05 3.601369694753073e-04 -1.841796219396325e-04 1.250333514505317e-03
1.238022196472946e-01 6.119338261926869e-04 -5.455059551708285e-05 -6.245091933405639e-05 1.822085686385190e-05 -9.977782741470219e-04
1.256355573521301e-01 6.705487308323263e-04 1.037459877780309e-04 -2.440445392765370e-04 -9.363198864925572e-05 5.463914911125634e-03
1.232039702845887e-01 3.298026779422722e-04 -1.780922384295485e-05 -3.866433486509328e-04 -1.745664470761860e-04 1.259243127504561e-03
1.093273002232584e-01 -1.781806356637201e-04 -5.455059551697602e-05 1.124043282532165e-03 1.304868707384003e-05 -1.015475555311111e-03
1.058043905185446e-01 4.929593589854178e-04 1.709512348318011e-04 2.078457284908242e-03 4.823326500761838e-04 5.994136804912774e-03
1.083298146659748e-01 -1.039563700143561e-05 1.037459877779988e-04 1.067422709186518e-03 -8.606699638335011e-05 5.323336645745405e-03
1.238022196472946e-01 6.119338261926869e-04 -5.455059551708285e-05 -6.245091933405639e-05 1.822085686385190e-05 -9.977782741470219e-04
1.246873979804822e-01 8.463934447512438e-04 1.709512348318651e-04 1.421127895879307e-04 4.480610085639093e-04 6.180120221337452e-03
1.256355573521301e-01 6.705487308323263e-04 1.037459877780309e-04 -2.440445392765370e-04 -9.363198864925572e-05 5.463914911125634e-03
        </DataArray>
        <DataArray type="Float64" Name="nodal_cauchy_stresses_xyz" NumberOfComponents="6" format="ascii">
1.245441038546663e+01 -2.324935394700445e-02 8.408697596875657e-04 4.973600206897957e-02 2.873610935820234e-02 -2.228647231204384e-01
1.238916080481710e+01 -3.089425162758838e-02 -8.310740207245234e-04 2.656678805164574e-02 -1.663677943386583e-02 5.117775795496401e-02
1.259567854116453e+01 -2.260561536817882e-05 5.557134140047192e-04 -2.587321260620960e-02 1.272022291082808e-04 -1.841577773931273e-01
1.354208177733948e+01 2.227704147886025e-02 8.935733612921209e-04 -4.904790167505790e-02 2.984710928608539e-02 -2.296520703332873e-01
1.374879799551590e+01 2.987951656039638e-02 -7.583588301844852e-04 -7.067619095363201e-02 -1.518510221135814e-02 4.241591733492539e-02
1.371452107249863e+01 2.365956896758600e-04 5.859912162014368e-04 -1.031545459866239e-01 5.073838272158342e-04 -1.896763553923665e-01
1.245441038546663e+01 -2.324935394700445e-02 8.408697596875657e-04 4.973600206897957e-02 2.873610935820234e-02 -2.228647231204384e-01
1.206376280606693e+01 -1.637571069506503e-02 6.334186077084872e-04 9.384595018956779e-02 9.002338621690621e-04 -2.181748613526671e-01
1.238916080481710e+01 -3.089425162758838e-02 -8.310740207245234e-04 2.656678805164574e-02 -1.663677943386583e-02 5.117775795496401e-02
1.354208177733948e+01 2.227704147886025e-02 8.935733612921209e-04 -4.904790167505790e-02 2.984710928608539e-02 -2.296520703332873e-01
1.381098518572162e+01 5.504796792244624e-02 8.123725543606420e-04 -4.883623316513402e-02 2.874153258740377e-03 -2.352169229162637e-01
1.374879799551590e+01 2.987951656039638e-02 -7.583588301844852e-04 -7.067619095363201e-02 -1.518510221135814e-02 4.241591733492539e-02
1.206376280606693e+01 -1.637571069506503e-02 6.334186077084872e-04 9.384595018956779e-02 9.002338621690621e-04 -2.181748613526671e-01
1.196372273318526e+01 -1.271067363516669e-03 -1.877459160813781e-03 7.607790291667615e-02 -1.001773613570836e-02 3.809560199395612e-01
1.238916080481710e+01 -3.089425162758838e-02 -8.310740207245234e-04 2.656678805164574e-02 -1.663677943386583e-02 5.117775795496401e-02
1.381098518572162e+01 5.504796792244624e-02 8.123725543606420e-04 -4.883623316513402e-02 2.874153258740377e-03 -2.352169229162637e-01
1.405662400577359e+01 6.046958526472795e-02 -1.945821093007991e-03 -7.785159862530572e-02 -9.253029046078800e-03 3.687359278608427e-01
1.374879799551590e+01 2.987951656039638e-02 -7.583588301844852e-04 -7.067619095363201e-02 -1.518510221135814e-02 4.241591733492539e-02
1.206376280606693e+01 -1.637571069506503e-02 6.334186077084872e-04 9.384595018956779e-02 9.002338621690621e-04 -2.181748613526671e-01
1.166034658581318e+01 4.338920856911493e-02 1.298772814278970e-03 1.734858135346645e-01 3.975201932679748e-02 4.364126046164929e-01
1.196372273318526e+01 -1.271067363516669e-03 -1.877459160813781e-03 7.607790291667615e-02 -1.001773613570836e-02 3.809560199395612e-01
1.381098518572162e+01 5.504796792244624e-02 8.123725543606420e-04 -4.883623316513402e-02 2.874153258740377e-03 -2.352169229162637e-01
1.394241478475382e+01 7.561566213262413e-02 1.122870372861497e-03 -4.022453407099069e-02 3.851036094294028e-02 4.239744870290068e-01
1.405662400577359e+01 6.046958526472795e-02 -1.945821093007991e-03 -7.785159862530572e-02 -9.253029046078800e-03 3.687359278608427e-01
        </DataArray>
  </PointData>
  <CellData>
        <DataArray type="Float64" Name="element_GL_strains_xyz" NumberOfComponents="6" format="ascii">
1.183011313820854e-01 0.000000000000000e+00 -8.976888742795452e-06 -5.218630763125093e-04 -2.057342813667623e-04 1.896740453246841e-05
1.157289077877235e-01 -9.523308037440170e-06 -2.155127290826009e-05 7.690103748871735e-04 7.401502945277576e-05 8.374722012143079e-04
1.187194777685904e-01 -9.523308037440170e-06 8.190386632393279e-06 -2.869068673381022e-04 -4.155854805366149e-04 8.243749310577074e-04
1.152458942495123e-01 6.696764018683243e-04 7.036031044168241e-05 1.110285037248075e-03 6.944619755848891e-04 2.464871902999086e-03
        </DataArray>
        <DataArray type="Float64" Name="element_cauchy_stresses_xyz" NumberOfComponents="6" format="ascii">
1.315647000929608e+01 1.452376803294586e-04 -7.203077439484338e-04 -6.473749001371693e-02 -1.832619057394089e-02 -3.387429125835185e-02
1.284493138367274e+01 -9.967121243624679e-04 -2.382687896906900e-03 6.467367571738564e-02 6.341866364517040e-03 3.387427753665077e-02
1.320952615833521e+01 -4.823363528726800e-04 4.754183695594049e-04 -6.692775686193173e-02 -3.683817391527207e-02 -6.807955578920356e-02
1.278653230938291e+01 5.944111715069653e-02 2.453368685486399e-03 6.778544992639082e-02 6.105239640438238e-02 6.833105961361099e-02
        </DataArray>
      </CellData>

    </Piece>
  </UnstructuredGrid>
</VTKFile>
