-------------------------------------------------------------------------TITLE
Test of the new solid elements in 4C

Time Integration: Standard
Shape: pyramid5
Element-Technology: linear_kinematics
Fibers: element
----------------------------------------------------------------------------IO
STRUCT_STRAIN                   gl
STRUCT_STRESS                   cauchy
---------------------------------------------------------IO/RUNTIME VTK OUTPUT
OUTPUT_DATA_FORMAT              ascii
INTERVAL_STEPS                  1
EVERY_ITERATION                 no
-----------------------------------------------IO/RUNTIME VTK OUTPUT/STRUCTURE
OUTPUT_STRUCTURE                yes
DISPLACEMENT                    yes
ELEMENT_OWNER                   no
STRESS_STRAIN                   yes
-------------------------------------------------------------------PROBLEM TYPE
PROBLEMTYPE                      Structure
----------------------------------------------------------------DISCRETISATION
NUMSTRUCDIS                     1
----------------------------------------------------------------------SOLVER 1
NAME                            Structure_Solver
SOLVER                          UMFPACK
------------------------------------------------------------STRUCTURAL DYNAMIC
LINEAR_SOLVER                   1
INT_STRATEGY                    Standard
DYNAMICTYPE                      Statics
NLNSOL                          fullnewton
PREDICT                         ConstDis
TIMESTEP                        0.5
NUMSTEP                         2
MAXTIME                         1
TOLRES                          1.0E-12
TOLDISP                         1.0E-12
---------------------------------------------------------------------MATERIALS
MAT 1 MAT_Struct_StVenantKirchhoff YOUNG 10.0 NUE 0.3 DENS 1
------------------------------------------------------------------------FUNCT1
COMPONENT 0 SYMBOLIC_FUNCTION_OF_SPACE_TIME t
------------------------------------------------------------------------FUNCT2
COMPONENT 0 SYMBOLIC_FUNCTION_OF_SPACE_TIME (x+1)*(y+2)*(z+3)
------------------------------------------------------------RESULT DESCRIPTION
STRUCTURE DIS structure NODE 7 QUANTITY dispx VALUE      7.11105490816669517e-01 TOLERANCE 1e-12
STRUCTURE DIS structure NODE 7 QUANTITY dispy VALUE      5.40375034799001237e-03 TOLERANCE 1e-12
STRUCTURE DIS structure NODE 7 QUANTITY dispz VALUE     -1.66343885038271966e-01 TOLERANCE 1e-12
STRUCTURE DIS structure NODE 6 QUANTITY dispx VALUE      7.28382260558299799e-01 TOLERANCE 1e-12
STRUCTURE DIS structure NODE 6 QUANTITY dispy VALUE      2.83162556147918465e-01 TOLERANCE 1e-12
STRUCTURE DIS structure NODE 6 QUANTITY dispz VALUE     -1.27489580356978938e-01 TOLERANCE 1e-12
STRUCTURE DIS structure NODE 2 QUANTITY dispx VALUE      7.33987211996267930e-01 TOLERANCE 1e-12
STRUCTURE DIS structure NODE 2 QUANTITY dispy VALUE      2.53310386674997945e-01 TOLERANCE 1e-12
STRUCTURE DIS structure NODE 2 QUANTITY dispz VALUE      1.36409259059108973e-01 TOLERANCE 1e-12
STRUCTURE DIS structure NODE 3 QUANTITY dispx VALUE      5.63378707718537153e-01 TOLERANCE 1e-12
STRUCTURE DIS structure NODE 3 QUANTITY dispy VALUE     -4.72544528626474454e-03 TOLERANCE 1e-12
STRUCTURE DIS structure NODE 3 QUANTITY dispz VALUE      1.34367656889681442e-01 TOLERANCE 1e-12
STRUCTURE DIS structure NODE 7 QUANTITY stress_xx VALUE  6.68704007980741810e+00 TOLERANCE 1e-10
STRUCTURE DIS structure NODE 7 QUANTITY stress_yy VALUE -4.29390573355847904e-01 TOLERANCE 1e-10
STRUCTURE DIS structure NODE 7 QUANTITY stress_zz VALUE -4.68690956556014449e-01 TOLERANCE 1e-10
STRUCTURE DIS structure NODE 7 QUANTITY stress_xy VALUE  3.55381860423018892e-01 TOLERANCE 1e-10
STRUCTURE DIS structure NODE 7 QUANTITY stress_yz VALUE -3.71129115651991359e-03 TOLERANCE 1e-10
STRUCTURE DIS structure NODE 7 QUANTITY stress_yz VALUE -3.71129115651991359e-03 TOLERANCE 1e-10
STRUCTURE DIS structure NODE 6 QUANTITY stress_xx VALUE  7.39093701425587035e+00 TOLERANCE 1e-10
STRUCTURE DIS structure NODE 6 QUANTITY stress_yy VALUE  1.01984642794933578e-01 TOLERANCE 1e-10
STRUCTURE DIS structure NODE 6 QUANTITY stress_zz VALUE  7.22687627835829405e-01 TOLERANCE 1e-10
STRUCTURE DIS structure NODE 6 QUANTITY stress_xy VALUE  5.94111999158837389e-01 TOLERANCE 1e-10
STRUCTURE DIS structure NODE 6 QUANTITY stress_yz VALUE -1.08758403559366945e-02 TOLERANCE 1e-10
STRUCTURE DIS structure NODE 6 QUANTITY stress_yz VALUE -1.08758403559366945e-02 TOLERANCE 1e-10
STRUCTURE DIS structure NODE 2 QUANTITY stress_xx VALUE  7.67730907989469635e+00 TOLERANCE 1e-10
STRUCTURE DIS structure NODE 2 QUANTITY stress_yy VALUE  1.27768514745694217e+00 TOLERANCE 1e-10
STRUCTURE DIS structure NODE 2 QUANTITY stress_zz VALUE  1.19929396808619049e+00 TOLERANCE 1e-10
STRUCTURE DIS structure NODE 2 QUANTITY stress_xy VALUE  5.54305691850909055e-01 TOLERANCE 1e-10
STRUCTURE DIS structure NODE 2 QUANTITY stress_yz VALUE -3.27889096128624435e-01 TOLERANCE 1e-10
STRUCTURE DIS structure NODE 2 QUANTITY stress_yz VALUE -3.27889096128624435e-01 TOLERANCE 1e-10
STRUCTURE DIS structure NODE 3 QUANTITY stress_xx VALUE  6.98454615435117354e+00 TOLERANCE 1e-10
STRUCTURE DIS structure NODE 3 QUANTITY stress_yy VALUE  8.00243068811512970e-01 TOLERANCE 1e-10
STRUCTURE DIS structure NODE 3 QUANTITY stress_zz VALUE -5.15025908566496549e-03 TOLERANCE 1e-10
STRUCTURE DIS structure NODE 3 QUANTITY stress_xy VALUE -9.12436069155805884e-03 TOLERANCE 1e-10
STRUCTURE DIS structure NODE 3 QUANTITY stress_yz VALUE -8.83710788709998751e-03 TOLERANCE 1e-10
STRUCTURE DIS structure NODE 3 QUANTITY stress_yz VALUE -8.83710788709998751e-03 TOLERANCE 1e-10
-------------------------------------------------DESIGN SURF DIRICH CONDITIONS
E 1 NUMDOF 3 ONOFF 1 1 1 VAL 0.0 0.0 0.0 FUNCT 0 0 0
------------------------------------------------DESIGN SURF NEUMANN CONDITIONS
E 2 NUMDOF 6 ONOFF 1 1 1 0 0 0 VAL 5 0.01 0.01 0 0 0 FUNCT 1 2 2 0 0 0 TYPE Live
-------------------------------------------------DESIGN VOL NEUMANN CONDITIONS
E 1 NUMDOF 6 ONOFF 1 1 1 0 0 0 VAL 5 0.01 0.01 0 0 0 FUNCT 1 2 2 0 0 0 TYPE Live
------------------------------------------------------------------PROBLEM SIZE
ELEMENTS                        6
NODES                           9
DIM                             3
MATERIALS                       9999
-----------------------------------------------------------DSURF-NODE TOPOLOGY
NODE 4 DSURFACE 1
NODE 8 DSURFACE 1
NODE 1 DSURFACE 1
NODE 5 DSURFACE 1
NODE 7 DSURFACE 2
NODE 6 DSURFACE 2
NODE 2 DSURFACE 2
NODE 3 DSURFACE 2
------------------------------------------------------------DVOL-NODE TOPOLOGY
NODE 8 DVOL 1
NODE 3 DVOL 1
NODE 1 DVOL 1
NODE 2 DVOL 1
NODE 7 DVOL 1
NODE 9 DVOL 1
NODE 4 DVOL 1
NODE 6 DVOL 1
NODE 5 DVOL 1
-------------------------------------------------------------------NODE COORDS
NODE 1 COORD 0.002047565460885581 0.002047565460885581 0.002047565460885581
NODE 2 COORD 1.0780226009001797 0.07802260090017976 0.07802260090017976
NODE 3 COORD 0.9383666369845419 0.9383666369845419 -0.06163336301545805
NODE 4 COORD 0.07770836372293935 1.0777083637229394 0.07770836372293935
NODE 5 COORD -0.03259174855043017 -0.03259174855043017 0.9674082514495699
NODE 6 COORD 0.9867197514023776 -0.01328024859762239 0.9867197514023776
NODE 7 COORD 1.0567597542269112 1.0567597542269112 1.0567597542269112
NODE 8 COORD -0.01572717091797457 0.9842728290820254 0.9842728290820254
NODE 9 COORD 0.5085898786784442 0.5085898786784442 0.5085898786784442
------------------------------------------------------------STRUCTURE ELEMENTS
1 SOLID PYRAMID5 1 2 3 4 9 MAT 1 KINEM linear FIBER1 0.7071067811865475 0.7071067811865475 0.0
2 SOLID PYRAMID5 5 6 2 1 9 MAT 1 KINEM linear FIBER1 0.7582029890619258 0.5686522417964444 0.31900290794511477
3 SOLID PYRAMID5 6 7 3 2 9 MAT 1 KINEM linear FIBER1 0.8067891921354792 0.5378594614236528 0.24453711213318724
4 SOLID PYRAMID5 7 8 4 3 9 MAT 1 KINEM linear FIBER1 0.8476190582389812 0.5297619113993632 0.029904002082595523
5 SOLID PYRAMID5 8 5 1 4 9 MAT 1 KINEM linear FIBER1 0.8503604270366216 0.510216256221973 -0.12871097861848613
6 SOLID PYRAMID5 5 8 7 6 9 MAT 1 KINEM linear FIBER1 0.855663873806087 0.4991372597202174 -0.13675280992415886
