<?xml version="1.0" ?> 
<!-- 
# vtk DataFile Version 3.0
-->
<VTKFile type="UnstructuredGrid" version="0.1" compressor="vtkZLibDataCompressor" byte_order="LittleEndian">
  <UnstructuredGrid>
    <FieldData>
      <DataArray type="Float64" Name="TIME" NumberOfTuples="1" format="ascii">
1.000000000000000e+00 
      </DataArray>
    </FieldData>

    <Piece NumberOfPoints="336" NumberOfCells="42" >
      <Points>
        <DataArray type="Float64" NumberOfComponents="3" format="ascii">
4.000000000000000e+02 0.000000000000000e+00 -5.000000000000000e+00
4.000000000000000e+02 0.000000000000000e+00 5.000000000000000e+00
3.714285714285714e+02 0.000000000000000e+00 5.000000000000000e+00
3.714285714285714e+02 0.000000000000000e+00 -5.000000000000000e+00
3.965779445495241e+02 -5.221047688802063e+01 -5.000000000000000e+00
3.965779445495241e+02 -5.221047688802067e+01 5.000000000000000e+00
3.682509485102725e+02 -4.848115711030491e+01 5.000000000000000e+00
3.682509485102725e+02 -4.848115711030487e+01 -5.000000000000000e+00
3.714285714285714e+02 0.000000000000000e+00 -5.000000000000000e+00
3.714285714285714e+02 0.000000000000000e+00 5.000000000000000e+00
3.428571428571428e+02 0.000000000000000e+00 5.000000000000000e+00
3.428571428571429e+02 0.000000000000000e+00 -5.000000000000000e+00
3.682509485102725e+02 -4.848115711030487e+01 -5.000000000000000e+00
3.682509485102725e+02 -4.848115711030491e+01 5.000000000000000e+00
3.399239524710206e+02 -4.475183733258914e+01 5.000000000000000e+00
3.399239524710206e+02 -4.475183733258911e+01 -5.000000000000000e+00
3.428571428571429e+02 0.000000000000000e+00 -5.000000000000000e+00
3.428571428571428e+02 0.000000000000000e+00 5.000000000000000e+00
3.142857142857143e+02 0.000000000000000e+00 5.000000000000000e+00
3.142857142857143e+02 0.000000000000000e+00 -5.000000000000000e+00
3.399239524710206e+02 -4.475183733258911e+01 -5.000000000000000e+00
3.399239524710206e+02 -4.475183733258914e+01 5.000000000000000e+00
3.115969564317688e+02 -4.102251755487337e+01 5.000000000000000e+00
3.115969564317689e+02 -4.102251755487335e+01 -5.000000000000000e+00
3.142857142857143e+02 0.000000000000000e+00 -5.000000000000000e+00
3.142857142857143e+02 0.000000000000000e+00 5.000000000000000e+00
2.857142857142857e+02 0.000000000000000e+00 5.000000000000000e+00
2.857142857142857e+02 0.000000000000000e+00 -5.000000000000000e+00
3.115969564317689e+02 -4.102251755487335e+01 -5.000000000000000e+00
3.115969564317688e+02 -4.102251755487337e+01 5.000000000000000e+00
2.832699603925173e+02 -3.729319777715760e+01 5.000000000000000e+00
2.832699603925172e+02 -3.729319777715761e+01 -5.000000000000000e+00
2.857142857142857e+02 0.000000000000000e+00 -5.000000000000000e+00
2.857142857142857e+02 0.000000000000000e+00 5.000000000000000e+00
2.571428571428571e+02 0.000000000000000e+00 5.000000000000000e+00
2.571428571428572e+02 0.000000000000000e+00 -5.000000000000000e+00
2.832699603925172e+02 -3.729319777715761e+01 -5.000000000000000e+00
2.832699603925173e+02 -3.729319777715760e+01 5.000000000000000e+00
2.549429643532654e+02 -3.356387799944184e+01 5.000000000000000e+00
2.549429643532656e+02 -3.356387799944184e+01 -5.000000000000000e+00
2.571428571428572e+02 0.000000000000000e+00 -5.000000000000000e+00
2.571428571428571e+02 0.000000000000000e+00 5.000000000000000e+00
2.285714285714286e+02 0.000000000000000e+00 5.000000000000000e+00
2.285714285714286e+02 0.000000000000000e+00 -5.000000000000000e+00
2.549429643532656e+02 -3.356387799944184e+01 -5.000000000000000e+00
2.549429643532654e+02 -3.356387799944184e+01 5.000000000000000e+00
2.266159683140137e+02 -2.983455822172607e+01 5.000000000000000e+00
2.266159683140138e+02 -2.983455822172609e+01 -5.000000000000000e+00
2.285714285714286e+02 0.000000000000000e+00 -5.000000000000000e+00
2.285714285714286e+02 0.000000000000000e+00 5.000000000000000e+00
2.000000000000000e+02 0.000000000000000e+00 5.000000000000000e+00
2.000000000000000e+02 0.000000000000000e+00 -5.000000000000000e+00
2.266159683140138e+02 -2.983455822172609e+01 -5.000000000000000e+00
2.266159683140137e+02 -2.983455822172607e+01 5.000000000000000e+00
1.982889722747620e+02 -2.610523844401031e+01 5.000000000000000e+00
1.982889722747620e+02 -2.610523844401034e+01 -5.000000000000000e+00
3.965779445495241e+02 -5.221047688802063e+01 -5.000000000000000e+00
3.965779445495241e+02 -5.221047688802067e+01 5.000000000000000e+00
3.682509485102725e+02 -4.848115711030491e+01 5.000000000000000e+00
3.682509485102725e+02 -4.848115711030487e+01 -5.000000000000000e+00
3.863703305156273e+02 -1.035276180410083e+02 -5.000000000000000e+00
3.863703305156273e+02 -1.035276180410083e+02 5.000000000000000e+00
3.587724497645111e+02 -9.613278818093622e+01 5.000000000000000e+00
3.587724497645111e+02 -9.613278818093627e+01 -5.000000000000000e+00
3.682509485102725e+02 -4.848115711030487e+01 -5.000000000000000e+00
3.682509485102725e+02 -4.848115711030491e+01 5.000000000000000e+00
3.399239524710206e+02 -4.475183733258914e+01 5.000000000000000e+00
3.399239524710206e+02 -4.475183733258911e+01 -5.000000000000000e+00
3.587724497645111e+02 -9.613278818093627e+01 -5.000000000000000e+00
3.587724497645111e+02 -9.613278818093622e+01 5.000000000000000e+00
3.311745690133948e+02 -8.873795832086424e+01 5.000000000000000e+00
3.311745690133949e+02 -8.873795832086424e+01 -5.000000000000000e+00
3.399239524710206e+02 -4.475183733258911e+01 -5.000000000000000e+00
3.399239524710206e+02 -4.475183733258914e+01 5.000000000000000e+00
3.115969564317688e+02 -4.102251755487337e+01 5.000000000000000e+00
3.115969564317689e+02 -4.102251755487335e+01 -5.000000000000000e+00
3.311745690133949e+02 -8.873795832086424e+01 -5.000000000000000e+00
3.311745690133948e+02 -8.873795832086424e+01 5.000000000000000e+00
3.035766882622786e+02 -8.134312846079223e+01 5.000000000000000e+00
3.035766882622786e+02 -8.134312846079223e+01 -5.000000000000000e+00
3.115969564317689e+02 -4.102251755487335e+01 -5.000000000000000e+00
3.115969564317688e+02 -4.102251755487337e+01 5.000000000000000e+00
2.832699603925173e+02 -3.729319777715760e+01 5.000000000000000e+00
2.832699603925172e+02 -3.729319777715761e+01 -5.000000000000000e+00
3.035766882622786e+02 -8.134312846079223e+01 -5.000000000000000e+00
3.035766882622786e+02 -8.134312846079223e+01 5.000000000000000e+00
2.759788075111623e+02 -7.394829860072021e+01 5.000000000000000e+00
2.759788075111623e+02 -7.394829860072022e+01 -5.000000000000000e+00
2.832699603925172e+02 -3.729319777715761e+01 -5.000000000000000e+00
2.832699603925173e+02 -3.729319777715760e+01 5.000000000000000e+00
2.549429643532654e+02 -3.356387799944184e+01 5.000000000000000e+00
2.549429643532656e+02 -3.356387799944184e+01 -5.000000000000000e+00
2.759788075111623e+02 -7.394829860072022e+01 -5.000000000000000e+00
2.759788075111623e+02 -7.394829860072021e+01 5.000000000000000e+00
2.483809267600461e+02 -6.655346874064817e+01 5.000000000000000e+00
2.483809267600461e+02 -6.655346874064817e+01 -5.000000000000000e+00
2.549429643532656e+02 -3.356387799944184e+01 -5.000000000000000e+00
2.549429643532654e+02 -3.356387799944184e+01 5.000000000000000e+00
2.266159683140137e+02 -2.983455822172607e+01 5.000000000000000e+00
2.266159683140138e+02 -2.983455822172609e+01 -5.000000000000000e+00
2.483809267600461e+02 -6.655346874064817e+01 -5.000000000000000e+00
2.483809267600461e+02 -6.655346874064817e+01 5.000000000000000e+00
2.207830460089299e+02 -5.915863888057616e+01 5.000000000000000e+00
2.207830460089299e+02 -5.915863888057613e+01 -5.000000000000000e+00
2.266159683140138e+02 -2.983455822172609e+01 -5.000000000000000e+00
2.266159683140137e+02 -2.983455822172607e+01 5.000000000000000e+00
1.982889722747620e+02 -2.610523844401031e+01 5.000000000000000e+00
1.982889722747620e+02 -2.610523844401034e+01 -5.000000000000000e+00
2.207830460089299e+02 -5.915863888057613e+01 -5.000000000000000e+00
2.207830460089299e+02 -5.915863888057616e+01 5.000000000000000e+00
1.931851652578137e+02 -5.176380902050415e+01 5.000000000000000e+00
1.931851652578137e+02 -5.176380902050413e+01 -5.000000000000000e+00
3.863703305156273e+02 -1.035276180410083e+02 -5.000000000000000e+00
3.863703305156273e+02 -1.035276180410083e+02 5.000000000000000e+00
3.587724497645111e+02 -9.613278818093622e+01 5.000000000000000e+00
3.587724497645111e+02 -9.613278818093627e+01 -5.000000000000000e+00
3.695518130045147e+02 -1.530733729460359e+02 -5.000000000000000e+00
3.695518130045147e+02 -1.530733729460358e+02 5.000000000000000e+00
3.431552549327637e+02 -1.421395605927476e+02 5.000000000000000e+00
3.431552549327638e+02 -1.421395605927476e+02 -5.000000000000000e+00
3.587724497645111e+02 -9.613278818093627e+01 -5.000000000000000e+00
3.587724497645111e+02 -9.613278818093622e+01 5.000000000000000e+00
3.311745690133948e+02 -8.873795832086424e+01 5.000000000000000e+00
3.311745690133949e+02 -8.873795832086424e+01 -5.000000000000000e+00
3.431552549327638e+02 -1.421395605927476e+02 -5.000000000000000e+00
3.431552549327637e+02 -1.421395605927476e+02 5.000000000000000e+00
3.167586968610125e+02 -1.312057482394593e+02 5.000000000000000e+00
3.167586968610127e+02 -1.312057482394593e+02 -5.000000000000000e+00
3.311745690133949e+02 -8.873795832086424e+01 -5.000000000000000e+00
3.311745690133948e+02 -8.873795832086424e+01 5.000000000000000e+00
3.035766882622786e+02 -8.134312846079223e+01 5.000000000000000e+00
3.035766882622786e+02 -8.134312846079223e+01 -5.000000000000000e+00
3.167586968610127e+02 -1.312057482394593e+02 -5.000000000000000e+00
3.167586968610125e+02 -1.312057482394593e+02 5.000000000000000e+00
2.903621387892615e+02 -1.202719358861710e+02 5.000000000000000e+00
2.903621387892615e+02 -1.202719358861710e+02 -5.000000000000000e+00
3.035766882622786e+02 -8.134312846079223e+01 -5.000000000000000e+00
3.035766882622786e+02 -8.134312846079223e+01 5.000000000000000e+00
2.759788075111623e+02 -7.394829860072021e+01 5.000000000000000e+00
2.759788075111623e+02 -7.394829860072022e+01 -5.000000000000000e+00
2.903621387892615e+02 -1.202719358861710e+02 -5.000000000000000e+00
2.903621387892615e+02 -1.202719358861710e+02 5.000000000000000e+00
2.639655807175105e+02 -1.093381235328828e+02 5.000000000000000e+00
2.639655807175105e+02 -1.093381235328827e+02 -5.000000000000000e+00
2.759788075111623e+02 -7.394829860072022e+01 -5.000000000000000e+00
2.759788075111623e+02 -7.394829860072021e+01 5.000000000000000e+00
2.483809267600461e+02 -6.655346874064817e+01 5.000000000000000e+00
2.483809267600461e+02 -6.655346874064817e+01 -5.000000000000000e+00
2.639655807175105e+02 -1.093381235328827e+02 -5.000000000000000e+00
2.639655807175105e+02 -1.093381235328828e+02 5.000000000000000e+00
2.375690226457594e+02 -9.840431117959449e+01 5.000000000000000e+00
2.375690226457594e+02 -9.840431117959449e+01 -5.000000000000000e+00
2.483809267600461e+02 -6.655346874064817e+01 -5.000000000000000e+00
2.483809267600461e+02 -6.655346874064817e+01 5.000000000000000e+00
2.207830460089299e+02 -5.915863888057616e+01 5.000000000000000e+00
2.207830460089299e+02 -5.915863888057613e+01 -5.000000000000000e+00
2.375690226457594e+02 -9.840431117959449e+01 -5.000000000000000e+00
2.375690226457594e+02 -9.840431117959449e+01 5.000000000000000e+00
2.111724645740084e+02 -8.747049882630620e+01 5.000000000000000e+00
2.111724645740084e+02 -8.747049882630618e+01 -5.000000000000000e+00
2.207830460089299e+02 -5.915863888057613e+01 -5.000000000000000e+00
2.207830460089299e+02 -5.915863888057616e+01 5.000000000000000e+00
1.931851652578137e+02 -5.176380902050415e+01 5.000000000000000e+00
1.931851652578137e+02 -5.176380902050413e+01 -5.000000000000000e+00
2.111724645740084e+02 -8.747049882630618e+01 -5.000000000000000e+00
2.111724645740084e+02 -8.747049882630620e+01 5.000000000000000e+00
1.847759065022574e+02 -7.653668647301795e+01 5.000000000000000e+00
1.847759065022574e+02 -7.653668647301789e+01 -5.000000000000000e+00
3.695518130045147e+02 -1.530733729460359e+02 -5.000000000000000e+00
3.695518130045147e+02 -1.530733729460358e+02 5.000000000000000e+00
3.431552549327637e+02 -1.421395605927476e+02 5.000000000000000e+00
3.431552549327638e+02 -1.421395605927476e+02 -5.000000000000000e+00
3.464101615137754e+02 -2.000000000000000e+02 -5.000000000000000e+00
3.464101615137755e+02 -1.999999999999999e+02 5.000000000000000e+00
3.216665785485059e+02 -1.857142857142856e+02 5.000000000000000e+00
3.216665785485058e+02 -1.857142857142858e+02 -5.000000000000000e+00
3.431552549327638e+02 -1.421395605927476e+02 -5.000000000000000e+00
3.431552549327637e+02 -1.421395605927476e+02 5.000000000000000e+00
3.167586968610125e+02 -1.312057482394593e+02 5.000000000000000e+00
3.167586968610127e+02 -1.312057482394593e+02 -5.000000000000000e+00
3.216665785485058e+02 -1.857142857142858e+02 -5.000000000000000e+00
3.216665785485059e+02 -1.857142857142856e+02 5.000000000000000e+00
2.969229955832362e+02 -1.714285714285713e+02 5.000000000000000e+00
2.969229955832362e+02 -1.714285714285714e+02 -5.000000000000000e+00
3.167586968610127e+02 -1.312057482394593e+02 -5.000000000000000e+00
3.167586968610125e+02 -1.312057482394593e+02 5.000000000000000e+00
2.903621387892615e+02 -1.202719358861710e+02 5.000000000000000e+00
2.903621387892615e+02 -1.202719358861710e+02 -5.000000000000000e+00
2.969229955832362e+02 -1.714285714285714e+02 -5.000000000000000e+00
2.969229955832362e+02 -1.714285714285713e+02 5.000000000000000e+00
2.721794126179664e+02 -1.571428571428571e+02 5.000000000000000e+00
2.721794126179664e+02 -1.571428571428571e+02 -5.000000000000000e+00
2.903621387892615e+02 -1.202719358861710e+02 -5.000000000000000e+00
2.903621387892615e+02 -1.202719358861710e+02 5.000000000000000e+00
2.639655807175105e+02 -1.093381235328828e+02 5.000000000000000e+00
2.639655807175105e+02 -1.093381235328827e+02 -5.000000000000000e+00
2.721794126179664e+02 -1.571428571428571e+02 -5.000000000000000e+00
2.721794126179664e+02 -1.571428571428571e+02 5.000000000000000e+00
2.474358296526968e+02 -1.428571428571428e+02 5.000000000000000e+00
2.474358296526968e+02 -1.428571428571428e+02 -5.000000000000000e+00
2.639655807175105e+02 -1.093381235328827e+02 -5.000000000000000e+00
2.639655807175105e+02 -1.093381235328828e+02 5.000000000000000e+00
2.375690226457594e+02 -9.840431117959449e+01 5.000000000000000e+00
2.375690226457594e+02 -9.840431117959449e+01 -5.000000000000000e+00
2.474358296526968e+02 -1.428571428571428e+02 -5.000000000000000e+00
2.474358296526968e+02 -1.428571428571428e+02 5.000000000000000e+00
2.226922466874271e+02 -1.285714285714286e+02 5.000000000000000e+00
2.226922466874272e+02 -1.285714285714285e+02 -5.000000000000000e+00
2.375690226457594e+02 -9.840431117959449e+01 -5.000000000000000e+00
2.375690226457594e+02 -9.840431117959449e+01 5.000000000000000e+00
2.111724645740084e+02 -8.747049882630620e+01 5.000000000000000e+00
2.111724645740084e+02 -8.747049882630618e+01 -5.000000000000000e+00
2.226922466874272e+02 -1.285714285714285e+02 -5.000000000000000e+00
2.226922466874271e+02 -1.285714285714286e+02 5.000000000000000e+00
1.979486637221574e+02 -1.142857142857143e+02 5.000000000000000e+00
1.979486637221574e+02 -1.142857142857142e+02 -5.000000000000000e+00
2.111724645740084e+02 -8.747049882630618e+01 -5.000000000000000e+00
2.111724645740084e+02 -8.747049882630620e+01 5.000000000000000e+00
1.847759065022574e+02 -7.653668647301795e+01 5.000000000000000e+00
1.847759065022574e+02 -7.653668647301789e+01 -5.000000000000000e+00
1.979486637221574e+02 -1.142857142857142e+02 -5.000000000000000e+00
1.979486637221574e+02 -1.142857142857143e+02 5.000000000000000e+00
1.732050807568877e+02 -1.000000000000000e+02 5.000000000000000e+00
1.732050807568878e+02 -9.999999999999993e+01 -5.000000000000000e+00
3.464101615137754e+02 -2.000000000000000e+02 -5.000000000000000e+00
3.464101615137755e+02 -1.999999999999999e+02 5.000000000000000e+00
3.216665785485059e+02 -1.857142857142856e+02 5.000000000000000e+00
3.216665785485058e+02 -1.857142857142858e+02 -5.000000000000000e+00
3.173413361164941e+02 -2.435045716034883e+02 -5.000000000000000e+00
3.173413361164939e+02 -2.435045716034884e+02 5.000000000000000e+00
2.946740978224587e+02 -2.261113879175249e+02 5.000000000000000e+00
2.946740978224587e+02 -2.261113879175248e+02 -5.000000000000000e+00
3.216665785485058e+02 -1.857142857142858e+02 -5.000000000000000e+00
3.216665785485059e+02 -1.857142857142856e+02 5.000000000000000e+00
2.969229955832362e+02 -1.714285714285713e+02 5.000000000000000e+00
2.969229955832362e+02 -1.714285714285714e+02 -5.000000000000000e+00
2.946740978224587e+02 -2.261113879175248e+02 -5.000000000000000e+00
2.946740978224587e+02 -2.261113879175249e+02 5.000000000000000e+00
2.720068595284234e+02 -2.087182042315615e+02 5.000000000000000e+00
2.720068595284235e+02 -2.087182042315613e+02 -5.000000000000000e+00
2.969229955832362e+02 -1.714285714285714e+02 -5.000000000000000e+00
2.969229955832362e+02 -1.714285714285713e+02 5.000000000000000e+00
2.721794126179664e+02 -1.571428571428571e+02 5.000000000000000e+00
2.721794126179664e+02 -1.571428571428571e+02 -5.000000000000000e+00
2.720068595284235e+02 -2.087182042315613e+02 -5.000000000000000e+00
2.720068595284234e+02 -2.087182042315615e+02 5.000000000000000e+00
2.493396212343882e+02 -1.913250205455980e+02 5.000000000000000e+00
2.493396212343882e+02 -1.913250205455980e+02 -5.000000000000000e+00
2.721794126179664e+02 -1.571428571428571e+02 -5.000000000000000e+00
2.721794126179664e+02 -1.571428571428571e+02 5.000000000000000e+00
2.474358296526968e+02 -1.428571428571428e+02 5.000000000000000e+00
2.474358296526968e+02 -1.428571428571428e+02 -5.000000000000000e+00
2.493396212343882e+02 -1.913250205455980e+02 -5.000000000000000e+00
2.493396212343882e+02 -1.913250205455980e+02 5.000000000000000e+00
2.266723829403529e+02 -1.739318368596345e+02 5.000000000000000e+00
2.266723829403529e+02 -1.739318368596345e+02 -5.000000000000000e+00
2.474358296526968e+02 -1.428571428571428e+02 -5.000000000000000e+00
2.474358296526968e+02 -1.428571428571428e+02 5.000000000000000e+00
2.226922466874271e+02 -1.285714285714286e+02 5.000000000000000e+00
2.226922466874272e+02 -1.285714285714285e+02 -5.000000000000000e+00
2.266723829403529e+02 -1.739318368596345e+02 -5.000000000000000e+00
2.266723829403529e+02 -1.739318368596345e+02 5.000000000000000e+00
2.040051446463176e+02 -1.565386531736710e+02 5.000000000000000e+00
2.040051446463175e+02 -1.565386531736710e+02 -5.000000000000000e+00
2.226922466874272e+02 -1.285714285714285e+02 -5.000000000000000e+00
2.226922466874271e+02 -1.285714285714286e+02 5.000000000000000e+00
1.979486637221574e+02 -1.142857142857143e+02 5.000000000000000e+00
1.979486637221574e+02 -1.142857142857142e+02 -5.000000000000000e+00
2.040051446463175e+02 -1.565386531736710e+02 -5.000000000000000e+00
2.040051446463176e+02 -1.565386531736710e+02 5.000000000000000e+00
1.813379063522823e+02 -1.391454694877076e+02 5.000000000000000e+00
1.813379063522823e+02 -1.391454694877076e+02 -5.000000000000000e+00
1.979486637221574e+02 -1.142857142857142e+02 -5.000000000000000e+00
1.979486637221574e+02 -1.142857142857143e+02 5.000000000000000e+00
1.732050807568877e+02 -1.000000000000000e+02 5.000000000000000e+00
1.732050807568878e+02 -9.999999999999993e+01 -5.000000000000000e+00
1.813379063522823e+02 -1.391454694877076e+02 -5.000000000000000e+00
1.813379063522823e+02 -1.391454694877076e+02 5.000000000000000e+00
1.586706680582470e+02 -1.217522858017441e+02 5.000000000000000e+00
1.586706680582470e+02 -1.217522858017442e+02 -5.000000000000000e+00
3.173413361164941e+02 -2.435045716034883e+02 -5.000000000000000e+00
3.173413361164939e+02 -2.435045716034884e+02 5.000000000000000e+00
2.946740978224587e+02 -2.261113879175249e+02 5.000000000000000e+00
2.946740978224587e+02 -2.261113879175248e+02 -5.000000000000000e+00
2.828427124746190e+02 -2.828427124746190e+02 -5.000000000000000e+00
2.828427124746189e+02 -2.828427124746191e+02 5.000000000000000e+00
2.626396615835747e+02 -2.626396615835749e+02 5.000000000000000e+00
2.626396615835748e+02 -2.626396615835748e+02 -5.000000000000000e+00
2.946740978224587e+02 -2.261113879175248e+02 -5.000000000000000e+00
2.946740978224587e+02 -2.261113879175249e+02 5.000000000000000e+00
2.720068595284234e+02 -2.087182042315615e+02 5.000000000000000e+00
2.720068595284235e+02 -2.087182042315613e+02 -5.000000000000000e+00
2.626396615835748e+02 -2.626396615835748e+02 -5.000000000000000e+00
2.626396615835747e+02 -2.626396615835749e+02 5.000000000000000e+00
2.424366106925305e+02 -2.424366106925306e+02 5.000000000000000e+00
2.424366106925306e+02 -2.424366106925306e+02 -5.000000000000000e+00
2.720068595284235e+02 -2.087182042315613e+02 -5.000000000000000e+00
2.720068595284234e+02 -2.087182042315615e+02 5.000000000000000e+00
2.493396212343882e+02 -1.913250205455980e+02 5.000000000000000e+00
2.493396212343882e+02 -1.913250205455980e+02 -5.000000000000000e+00
2.424366106925306e+02 -2.424366106925306e+02 -5.000000000000000e+00
2.424366106925305e+02 -2.424366106925306e+02 5.000000000000000e+00
2.222335598014863e+02 -2.222335598014863e+02 5.000000000000000e+00
2.222335598014863e+02 -2.222335598014863e+02 -5.000000000000000e+00
2.493396212343882e+02 -1.913250205455980e+02 -5.000000000000000e+00
2.493396212343882e+02 -1.913250205455980e+02 5.000000000000000e+00
2.266723829403529e+02 -1.739318368596345e+02 5.000000000000000e+00
2.266723829403529e+02 -1.739318368596345e+02 -5.000000000000000e+00
2.222335598014863e+02 -2.222335598014863e+02 -5.000000000000000e+00
2.222335598014863e+02 -2.222335598014863e+02 5.000000000000000e+00
2.020305089104421e+02 -2.020305089104422e+02 5.000000000000000e+00
2.020305089104421e+02 -2.020305089104422e+02 -5.000000000000000e+00
2.266723829403529e+02 -1.739318368596345e+02 -5.000000000000000e+00
2.266723829403529e+02 -1.739318368596345e+02 5.000000000000000e+00
2.040051446463176e+02 -1.565386531736710e+02 5.000000000000000e+00
2.040051446463175e+02 -1.565386531736710e+02 -5.000000000000000e+00
2.020305089104421e+02 -2.020305089104422e+02 -5.000000000000000e+00
2.020305089104421e+02 -2.020305089104422e+02 5.000000000000000e+00
1.818274580193979e+02 -1.818274580193979e+02 5.000000000000000e+00
1.818274580193979e+02 -1.818274580193979e+02 -5.000000000000000e+00
2.040051446463175e+02 -1.565386531736710e+02 -5.000000000000000e+00
2.040051446463176e+02 -1.565386531736710e+02 5.000000000000000e+00
1.813379063522823e+02 -1.391454694877076e+02 5.000000000000000e+00
1.813379063522823e+02 -1.391454694877076e+02 -5.000000000000000e+00
1.818274580193979e+02 -1.818274580193979e+02 -5.000000000000000e+00
1.818274580193979e+02 -1.818274580193979e+02 5.000000000000000e+00
1.616244071283537e+02 -1.616244071283538e+02 5.000000000000000e+00
1.616244071283537e+02 -1.616244071283537e+02 -5.000000000000000e+00
1.813379063522823e+02 -1.391454694877076e+02 -5.000000000000000e+00
1.813379063522823e+02 -1.391454694877076e+02 5.000000000000000e+00
1.586706680582470e+02 -1.217522858017441e+02 5.000000000000000e+00
1.586706680582470e+02 -1.217522858017442e+02 -5.000000000000000e+00
1.616244071283537e+02 -1.616244071283537e+02 -5.000000000000000e+00
1.616244071283537e+02 -1.616244071283538e+02 5.000000000000000e+00
1.414213562373095e+02 -1.414213562373095e+02 5.000000000000000e+00
1.414213562373095e+02 -1.414213562373095e+02 -5.000000000000000e+00
        </DataArray>
      </Points>

      <Cells>
        <DataArray type="Int32" Name="connectivity" format="ascii">
0 1 2 3 4 5 6 7 8 9 10 11 12 13 14 15 16 17 18 19 20 21 22 23 24 25 26 27 28 29 30 31 32 33 34 35 36 37 38 39 40 41 42 43 44 45 46 47 48 49 50 51 52 53 54 55 56 57 58 59 60 61 62 63 64 65 66 67 68 69 70 71 72 73 74 75 76 77 78 79 80 81 82 83 84 85 86 87 88 89 90 91 92 93 94 95 96 97 98 99 100 101 102 103 104 105 106 107 108 109 110 111 112 113 114 115 116 117 118 119 120 121 122 123 124 125 126 127 128 129 130 131 132 133 134 135 136 137 138 139 140 141 142 143 144 145 146 147 148 149 150 151 152 153 154 155 156 157 158 159 160 161 162 163 164 165 166 167 168 169 170 171 172 173 174 175 176 177 178 179 180 181 182 183 184 185 186 187 188 189 190 191 192 193 194 195 196 197 198 199 200 201 202 203 204 205 206 207 208 209 210 211 212 213 214 215 216 217 218 219 220 221 222 223 224 225 226 227 228 229 230 231 232 233 234 235 236 237 238 239 240 241 242 243 244 245 246 247 248 249 250 251 252 253 254 255 256 257 258 259 260 261 262 263 264 265 266 267 268 269 270 271 272 273 274 275 276 277 278 279 280 281 282 283 284 285 286 287 288 289 290 291 292 293 294 295 296 297 298 299 300 301 302 303 304 305 306 307 308 309 310 311 312 313 314 315 316 317 318 319 320 321 322 323 324 325 326 327 328 329 330 331 332 333 334 335 
        </DataArray>
        <DataArray type="Int32" Name="offsets" format="ascii">
8 16 24 32 40 48 56 64 72 80 88 96 104 112 120 128 136 144 152 160 168 176 184 192 200 208 216 224 232 240 248 256 264 272 280 288 296 304 312 320 328 336 
        </DataArray>
        <DataArray type="UInt8" Name="types" format="ascii">
12 12 12 12 12 12 12 12 12 12 12 12 12 12 12 12 12 12 12 12 12 12 12 12 12 12 12 12 12 12 12 12 12 12 12 12 12 12 12 12 12 12 
        </DataArray>
      </Cells>

  <PointData>
        <DataArray type="Float64" Name="accumulated_plastic_strain" format="ascii">
7.202887330707686e-02
7.201170902045122e-02
4.466259298787556e-02
4.469045083632871e-02
3.551648174313129e-02
3.550226662382432e-02
2.116021055403870e-02
2.117089902829044e-02
4.469045083632871e-02
4.466259298787556e-02
5.416036833712359e-02
5.420350991022049e-02
2.117089902829044e-02
2.116021055403870e-02
2.563305476468652e-02
2.563317823944077e-02
5.420350991022049e-02
5.416036833712359e-02
6.312749866436732e-02
6.315423439240081e-02
2.563317823944077e-02
2.563305476468652e-02
3.048529071147696e-02
3.047231990044616e-02
6.315423439240081e-02
6.312749866436732e-02
7.349150459001097e-02
7.348053397066553e-02
3.047231990044616e-02
3.048529071147696e-02
3.615014923084492e-02
3.611203122970780e-02
7.348053397066553e-02
7.349150459001097e-02
9.090327228980509e-02
9.044887626374644e-02
3.611203122970780e-02
3.615014923084492e-02
4.535284231224928e-02
4.509804824802081e-02
9.044887626374644e-02
9.090327228980509e-02
1.305171417043395e-01
1.305541999008218e-01
4.509804824802081e-02
4.535284231224928e-02
6.587994544418972e-02
6.585911105525077e-02
1.305541999008218e-01
1.305171417043395e-01
3.627966767321941e-01
3.643874600739890e-01
6.585911105525077e-02
6.587994544418972e-02
1.837624185966062e-01
1.845410474582663e-01
3.551648174313129e-02
3.550226662382432e-02
2.116021055403870e-02
2.117089902829044e-02
3.362591056831066e-02
3.363203925347496e-02
1.794038565213903e-02
1.793044029854714e-02
2.117089902829044e-02
2.116021055403870e-02
2.563305476468652e-02
2.563317823944077e-02
1.793044029854714e-02
1.794038565213903e-02
2.073836652413077e-02
2.071164384279406e-02
2.563317823944077e-02
2.563305476468652e-02
3.048529071147696e-02
3.047231990044616e-02
2.071164384279406e-02
2.073836652413077e-02
2.570871288158210e-02
2.566348482115899e-02
3.047231990044616e-02
3.048529071147696e-02
3.615014923084492e-02
3.611203122970780e-02
2.566348482115899e-02
2.570871288158210e-02
3.291461713149774e-02
3.283330341073361e-02
3.611203122970780e-02
3.615014923084492e-02
4.535284231224928e-02
4.509804824802081e-02
3.283330341073361e-02
3.291461713149774e-02
4.431904766805061e-02
4.402051354287626e-02
4.509804824802081e-02
4.535284231224928e-02
6.587994544418972e-02
6.585911105525077e-02
4.402051354287626e-02
4.431904766805061e-02
6.668741981954349e-02
6.662523187077223e-02
6.585911105525077e-02
6.587994544418972e-02
1.837624185966062e-01
1.845410474582663e-01
6.662523187077223e-02
6.668741981954349e-02
1.869443766745713e-01
1.877449544525891e-01
3.362591056831066e-02
3.363203925347496e-02
1.794038565213903e-02
1.793044029854714e-02
3.138684262292104e-02
3.140503283660599e-02
1.619181894603991e-02
1.617887092128239e-02
1.793044029854714e-02
1.794038565213903e-02
2.073836652413077e-02
2.071164384279406e-02
1.617887092128239e-02
1.619181894603991e-02
1.788173085017983e-02
1.785977274148555e-02
2.071164384279406e-02
2.073836652413077e-02
2.570871288158210e-02
2.566348482115899e-02
1.785977274148555e-02
1.788173085017983e-02
2.186035509749541e-02
2.182063506322235e-02
2.566348482115899e-02
2.570871288158210e-02
3.291461713149774e-02
3.283330341073361e-02
2.182063506322235e-02
2.186035509749541e-02
2.916411924488093e-02
2.908462970229417e-02
3.283330341073361e-02
3.291461713149774e-02
4.431904766805061e-02
4.402051354287626e-02
2.908462970229417e-02
2.916411924488093e-02
4.213324472111679e-02
4.181769966992750e-02
4.402051354287626e-02
4.431904766805061e-02
6.668741981954349e-02
6.662523187077223e-02
4.181769966992750e-02
4.213324472111679e-02
6.674548476639158e-02
6.666483267408080e-02
6.662523187077223e-02
6.668741981954349e-02
1.869443766745713e-01
1.877449544525891e-01
6.666483267408080e-02
6.674548476639158e-02
1.896767855585274e-01
1.905040326836153e-01
3.138684262292104e-02
3.140503283660599e-02
1.619181894603991e-02
1.617887092128239e-02
2.974867127103970e-02
2.976284484641865e-02
1.584047888685864e-02
1.583590194862090e-02
1.617887092128239e-02
1.619181894603991e-02
1.788173085017983e-02
1.785977274148555e-02
1.583590194862090e-02
1.584047888685864e-02
1.758963991479169e-02
1.758082117676297e-02
1.785977274148555e-02
1.788173085017983e-02
2.186035509749541e-02
2.182063506322235e-02
1.758082117676297e-02
1.758963991479169e-02
2.080003905901757e-02
2.077624416288293e-02
2.182063506322235e-02
2.186035509749541e-02
2.916411924488093e-02
2.908462970229417e-02
2.077624416288293e-02
2.080003905901757e-02
2.690023418977797e-02
2.683139631312446e-02
2.908462970229417e-02
2.916411924488093e-02
4.213324472111679e-02
4.181769966992750e-02
2.683139631312446e-02
2.690023418977797e-02
3.943275342410592e-02
3.910053409723886e-02
4.181769966992750e-02
4.213324472111679e-02
6.674548476639158e-02
6.666483267408080e-02
3.910053409723886e-02
3.943275342410592e-02
6.565785248274184e-02
6.554843330571614e-02
6.666483267408080e-02
6.674548476639158e-02
1.896767855585274e-01
1.905040326836153e-01
6.554843330571614e-02
6.565785248274184e-02
1.920333099425325e-01
1.928791070014498e-01
2.974867127103970e-02
2.976284484641865e-02
1.584047888685864e-02
1.583590194862090e-02
2.846025519159977e-02
2.847292828136141e-02
1.566121883850582e-02
1.565713877799798e-02
1.583590194862090e-02
1.584047888685864e-02
1.758963991479169e-02
1.758082117676297e-02
1.565713877799798e-02
1.566121883850582e-02
1.793343603819670e-02
1.792413810765620e-02
1.758082117676297e-02
1.758963991479169e-02
2.080003905901757e-02
2.077624416288293e-02
1.792413810765620e-02
1.793343603819670e-02
2.127269243518110e-02
2.125374311478534e-02
2.077624416288293e-02
2.080003905901757e-02
2.690023418977797e-02
2.683139631312446e-02
2.125374311478534e-02
2.127269243518110e-02
2.653468617805627e-02
2.647591223815602e-02
2.683139631312446e-02
2.690023418977797e-02
3.943275342410592e-02
3.910053409723886e-02
2.647591223815602e-02
2.653468617805627e-02
3.755877614700512e-02
3.722404642932629e-02
3.910053409723886e-02
3.943275342410592e-02
6.565785248274184e-02
6.554843330571614e-02
3.722404642932629e-02
3.755877614700512e-02
6.405857790136678e-02
6.393839890079761e-02
6.554843330571614e-02
6.565785248274184e-02
1.920333099425325e-01
1.928791070014498e-01
6.393839890079761e-02
6.405857790136678e-02
1.934777026249495e-01
1.943371118867889e-01
2.846025519159977e-02
2.847292828136141e-02
1.566121883850582e-02
1.565713877799798e-02
5.583197882254446e-02
5.586296130955343e-02
3.109284401703927e-02
3.108221323868935e-02
1.565713877799798e-02
1.566121883850582e-02
1.793343603819670e-02
1.792413810765620e-02
3.108221323868935e-02
3.109284401703927e-02
3.609489578818634e-02
3.607466191588975e-02
1.792413810765620e-02
1.793343603819670e-02
2.127269243518110e-02
2.125374311478534e-02
3.607466191588975e-02
3.609489578818634e-02
4.320334173688296e-02
4.316898503235221e-02
2.125374311478534e-02
2.127269243518110e-02
2.653468617805627e-02
2.647591223815602e-02
4.316898503235221e-02
4.320334173688296e-02
5.340853077440845e-02
5.330372336338000e-02
2.647591223815602e-02
2.653468617805627e-02
3.755877614700512e-02
3.722404642932629e-02
5.330372336338000e-02
5.340853077440845e-02
7.398099977621661e-02
7.331629819664681e-02
3.722404642932629e-02
3.755877614700512e-02
6.405857790136678e-02
6.393839890079761e-02
7.331629819664681e-02
7.398099977621661e-02
1.266372954206566e-01
1.263981728401579e-01
6.393839890079761e-02
6.405857790136678e-02
1.934777026249495e-01
1.943371118867889e-01
1.263981728401579e-01
1.266372954206566e-01
3.880165034641568e-01
3.897407932948471e-01
        </DataArray>
        <DataArray type="Float64" Name="displacement" NumberOfComponents="3" format="ascii">
-2.154951146303893e+01 0.000000000000000e+00 0.000000000000000e+00
-2.154039118625760e+01 0.000000000000000e+00 3.927616773455538e-01
-2.283214439205846e+01 0.000000000000000e+00 4.452809870532253e-01
-2.284159872297959e+01 0.000000000000000e+00 0.000000000000000e+00
-2.214830655614996e+01 3.720955808758165e+00 0.000000000000000e+00
-2.214367965629322e+01 3.718434650687135e+00 3.886199298847892e-01
-2.324138697310286e+01 4.354766067261103e+00 4.157131665168820e-01
-2.324465628793058e+01 4.362663837234660e+00 0.000000000000000e+00
-2.284159872297959e+01 0.000000000000000e+00 0.000000000000000e+00
-2.283214439205846e+01 0.000000000000000e+00 4.452809870532253e-01
-2.463452334747669e+01 0.000000000000000e+00 4.868556298350926e-01
-2.463708936457431e+01 0.000000000000000e+00 0.000000000000000e+00
-2.324465628793058e+01 4.362663837234660e+00 0.000000000000000e+00
-2.324138697310286e+01 4.354766067261103e+00 4.157131665168820e-01
-2.481525662905660e+01 4.739595814054994e+00 4.349153131153233e-01
-2.481478236648146e+01 4.752944043939223e+00 0.000000000000000e+00
-2.463708936457431e+01 0.000000000000000e+00 0.000000000000000e+00
-2.463452334747669e+01 0.000000000000000e+00 4.868556298350926e-01
-2.693448600011542e+01 0.000000000000000e+00 4.576280420176140e-01
-2.692420009507859e+01 0.000000000000000e+00 0.000000000000000e+00
-2.481478236648146e+01 4.752944043939223e+00 0.000000000000000e+00
-2.481525662905660e+01 4.739595814054994e+00 4.349153131153233e-01
-2.692409535310894e+01 4.895430551003490e+00 4.183022075969354e-01
-2.691417924134999e+01 4.905493279033969e+00 0.000000000000000e+00
-2.692420009507859e+01 0.000000000000000e+00 0.000000000000000e+00
-2.693448600011542e+01 0.000000000000000e+00 4.576280420176140e-01
-2.983939999809920e+01 0.000000000000000e+00 3.734998459049880e-01
-2.982364054978605e+01 0.000000000000000e+00 0.000000000000000e+00
-2.691417924134999e+01 4.905493279033969e+00 0.000000000000000e+00
-2.692409535310894e+01 4.895430551003490e+00 4.183022075969354e-01
-2.968913923948305e+01 4.921858696691038e+00 3.346320396039352e-01
-2.967268665014549e+01 4.929428881975319e+00 0.000000000000000e+00
-2.982364054978605e+01 0.000000000000000e+00 0.000000000000000e+00
-2.983939999809920e+01 0.000000000000000e+00 3.734998459049880e-01
-3.360810538319755e+01 0.000000000000000e+00 2.399775977595984e-01
-3.357485762324762e+01 0.000000000000000e+00 0.000000000000000e+00
-2.967268665014549e+01 4.929428881975319e+00 0.000000000000000e+00
-2.968913923948305e+01 4.921858696691038e+00 3.346320396039352e-01
-3.334430710920058e+01 4.993981523236678e+00 2.101679095972984e-01
-3.331213109082223e+01 4.996262631012907e+00 0.000000000000000e+00
-3.357485762324762e+01 0.000000000000000e+00 0.000000000000000e+00
-3.360810538319755e+01 0.000000000000000e+00 2.399775977595984e-01
-3.931635479809279e+01 0.000000000000000e+00 -2.394804097707479e-01
-3.919384933187031e+01 0.000000000000000e+00 0.000000000000000e+00
-3.331213109082223e+01 4.996262631012907e+00 0.000000000000000e+00
-3.334430710920058e+01 4.993981523236678e+00 2.101679095972984e-01
-3.894026837861239e+01 5.354643117135714e+00 -2.649423327806100e-01
-3.881791458746610e+01 5.348564055516593e+00 0.000000000000000e+00
-3.919384933187031e+01 0.000000000000000e+00 0.000000000000000e+00
-3.931635479809279e+01 0.000000000000000e+00 -2.394804097707479e-01
-5.000000000000000e+01 0.000000000000000e+00 -1.282800421306659e+00
-5.000000000000000e+01 0.000000000000000e+00 0.000000000000000e+00
-3.881791458746610e+01 5.348564055516593e+00 0.000000000000000e+00
-3.894026837861239e+01 5.354643117135714e+00 -2.649423327806100e-01
-4.957224306869052e+01 6.526309611002580e+00 -1.303862912489515e+00
-4.957224306869052e+01 6.526309611002586e+00 0.000000000000000e+00
-2.214830655614996e+01 3.720955808758165e+00 0.000000000000000e+00
-2.214367965629322e+01 3.718434650687135e+00 3.886199298847892e-01
-2.324138697310286e+01 4.354766067261103e+00 4.157131665168820e-01
-2.324465628793058e+01 4.362663837234660e+00 0.000000000000000e+00
-2.293904563558547e+01 7.513136368946678e+00 0.000000000000000e+00
-2.294344773218289e+01 7.512178455231645e+00 3.722846504540839e-01
-2.372989077132480e+01 8.231258815166990e+00 3.480074965116771e-01
-2.372404719165416e+01 8.234932568898330e+00 0.000000000000000e+00
-2.324465628793058e+01 4.362663837234660e+00 0.000000000000000e+00
-2.324138697310286e+01 4.354766067261103e+00 4.157131665168820e-01
-2.481525662905660e+01 4.739595814054994e+00 4.349153131153233e-01
-2.481478236648146e+01 4.752944043939223e+00 0.000000000000000e+00
-2.372404719165416e+01 8.234932568898330e+00 0.000000000000000e+00
-2.372989077132480e+01 8.231258815166990e+00 3.480074965116771e-01
-2.480679985367442e+01 8.781708401117127e+00 3.260410276848173e-01
-2.480341966906116e+01 8.789942587028499e+00 0.000000000000000e+00
-2.481478236648146e+01 4.752944043939223e+00 0.000000000000000e+00
-2.481525662905660e+01 4.739595814054994e+00 4.349153131153233e-01
-2.692409535310894e+01 4.895430551003490e+00 4.183022075969354e-01
-2.691417924134999e+01 4.905493279033969e+00 0.000000000000000e+00
-2.480341966906116e+01 8.789942587028499e+00 0.000000000000000e+00
-2.480679985367442e+01 8.781708401117127e+00 3.260410276848173e-01
-2.639655649586261e+01 9.131787836683108e+00 3.287310388483665e-01
-2.639141561403543e+01 9.140445011657386e+00 0.000000000000000e+00
-2.691417924134999e+01 4.905493279033969e+00 0.000000000000000e+00
-2.692409535310894e+01 4.895430551003490e+00 4.183022075969354e-01
-2.968913923948305e+01 4.921858696691038e+00 3.346320396039352e-01
-2.967268665014549e+01 4.929428881975319e+00 0.000000000000000e+00
-2.639141561403543e+01 9.140445011657386e+00 0.000000000000000e+00
-2.639655649586261e+01 9.131787836683108e+00 3.287310388483665e-01
-2.875595683301976e+01 9.361948522727713e+00 2.776538567286407e-01
-2.874395275970523e+01 9.366063944650175e+00 0.000000000000000e+00
-2.967268665014549e+01 4.929428881975319e+00 0.000000000000000e+00
-2.968913923948305e+01 4.921858696691038e+00 3.346320396039352e-01
-3.334430710920058e+01 4.993981523236678e+00 2.101679095972984e-01
-3.331213109082223e+01 4.996262631012907e+00 0.000000000000000e+00
-2.874395275970523e+01 9.366063944650175e+00 0.000000000000000e+00
-2.875595683301976e+01 9.361948522727713e+00 2.776538567286407e-01
-3.219715228570553e+01 9.665795852957121e+00 1.803927641470408e-01
-3.216775473571029e+01 9.661824978991183e+00 0.000000000000000e+00
-3.331213109082223e+01 4.996262631012907e+00 0.000000000000000e+00
-3.334430710920058e+01 4.993981523236678e+00 2.101679095972984e-01
-3.894026837861239e+01 5.354643117135714e+00 -2.649423327806100e-01
-3.881791458746610e+01 5.348564055516593e+00 0.000000000000000e+00
-3.216775473571029e+01 9.661824978991183e+00 0.000000000000000e+00
-3.219715228570553e+01 9.665795852957121e+00 1.803927641470408e-01
-3.772892599291270e+01 1.051509542752442e+01 -2.982457471475203e-01
-3.760606615880766e+01 1.049301284875499e+01 0.000000000000000e+00
-3.881791458746610e+01 5.348564055516593e+00 0.000000000000000e+00
-3.894026837861239e+01 5.354643117135714e+00 -2.649423327806100e-01
-4.957224306869052e+01 6.526309611002580e+00 -1.303862912489515e+00
-4.957224306869052e+01 6.526309611002586e+00 0.000000000000000e+00
-3.760606615880766e+01 1.049301284875499e+01 0.000000000000000e+00
-3.772892599291270e+01 1.051509542752442e+01 -2.982457471475203e-01
-4.829629131445342e+01 1.294095225512604e+01 -1.357090274542006e+00
-4.829629131445342e+01 1.294095225512603e+01 0.000000000000000e+00
-2.293904563558547e+01 7.513136368946678e+00 0.000000000000000e+00
-2.294344773218289e+01 7.512178455231645e+00 3.722846504540839e-01
-2.372989077132480e+01 8.231258815166990e+00 3.480074965116771e-01
-2.372404719165416e+01 8.234932568898330e+00 0.000000000000000e+00
-2.288904282318466e+01 1.100445289243184e+01 0.000000000000000e+00
-2.289246789043550e+01 1.100515080430748e+01 3.591494927717667e-01
-2.357332527196804e+01 1.152092440077521e+01 3.369029980082323e-01
-2.356886350562855e+01 1.151804753187478e+01 0.000000000000000e+00
-2.372404719165416e+01 8.234932568898330e+00 0.000000000000000e+00
-2.372989077132480e+01 8.231258815166990e+00 3.480074965116771e-01
-2.480679985367442e+01 8.781708401117127e+00 3.260410276848173e-01
-2.480341966906116e+01 8.789942587028499e+00 0.000000000000000e+00
-2.356886350562855e+01 1.151804753187478e+01 0.000000000000000e+00
-2.357332527196804e+01 1.152092440077521e+01 3.369029980082323e-01
-2.443644112765908e+01 1.205000791932213e+01 3.058224198324344e-01
-2.443336225676174e+01 1.204728125756823e+01 0.000000000000000e+00
-2.480341966906116e+01 8.789942587028499e+00 0.000000000000000e+00
-2.480679985367442e+01 8.781708401117127e+00 3.260410276848173e-01
-2.639655649586261e+01 9.131787836683108e+00 3.287310388483665e-01
-2.639141561403543e+01 9.140445011657386e+00 0.000000000000000e+00
-2.443336225676174e+01 1.204728125756823e+01 0.000000000000000e+00
-2.443644112765908e+01 1.205000791932213e+01 3.058224198324344e-01
-2.564666421569104e+01 1.259220339098874e+01 2.920906810661562e-01
-2.564219063417566e+01 1.259163345873618e+01 0.000000000000000e+00
-2.639141561403543e+01 9.140445011657386e+00 0.000000000000000e+00
-2.639655649586261e+01 9.131787836683108e+00 3.287310388483665e-01
-2.875595683301976e+01 9.361948522727713e+00 2.776538567286407e-01
-2.874395275970523e+01 9.366063944650175e+00 0.000000000000000e+00
-2.564219063417566e+01 1.259163345873618e+01 0.000000000000000e+00
-2.564666421569104e+01 1.259220339098874e+01 2.920906810661562e-01
-2.752783580804858e+01 1.317389024307067e+01 2.468279891971480e-01
-2.751867907252661e+01 1.317357798574971e+01 0.000000000000000e+00
-2.874395275970523e+01 9.366063944650175e+00 0.000000000000000e+00
-2.875595683301976e+01 9.361948522727713e+00 2.776538567286407e-01
-3.219715228570553e+01 9.665795852957121e+00 1.803927641470408e-01
-3.216775473571029e+01 9.661824978991183e+00 0.000000000000000e+00
-2.751867907252661e+01 1.317357798574971e+01 0.000000000000000e+00
-2.752783580804858e+01 1.317389024307067e+01 2.468279891971480e-01
-3.055146319719047e+01 1.393448056232273e+01 1.604286326021233e-01
-3.052354046443633e+01 1.392566076432416e+01 0.000000000000000e+00
-3.216775473571029e+01 9.661824978991183e+00 0.000000000000000e+00
-3.219715228570553e+01 9.665795852957121e+00 1.803927641470408e-01
-3.772892599291270e+01 1.051509542752442e+01 -2.982457471475203e-01
-3.760606615880766e+01 1.049301284875499e+01 0.000000000000000e+00
-3.052354046443633e+01 1.392566076432416e+01 0.000000000000000e+00
-3.055146319719047e+01 1.393448056232273e+01 1.604286326021233e-01
-3.583423655380220e+01 1.541129819231838e+01 -3.325555211496727e-01
-3.571182287052272e+01 1.537326343825056e+01 0.000000000000000e+00
-3.760606615880766e+01 1.049301284875499e+01 0.000000000000000e+00
-3.772892599291270e+01 1.051509542752442e+01 -2.982457471475203e-01
-4.829629131445342e+01 1.294095225512604e+01 -1.357090274542006e+00
-4.829629131445342e+01 1.294095225512603e+01 0.000000000000000e+00
-3.571182287052272e+01 1.537326343825056e+01 0.000000000000000e+00
-3.583423655380220e+01 1.541129819231838e+01 -3.325555211496727e-01
-4.619397662556434e+01 1.913417161825449e+01 -1.421471367326363e+00
-4.619397662556435e+01 1.913417161825447e+01 0.000000000000000e+00
-2.288904282318466e+01 1.100445289243184e+01 0.000000000000000e+00
-2.289246789043550e+01 1.100515080430748e+01 3.591494927717667e-01
-2.357332527196804e+01 1.152092440077521e+01 3.369029980082323e-01
-2.356886350562855e+01 1.151804753187478e+01 0.000000000000000e+00
-2.198800337869761e+01 1.402559100319861e+01 0.000000000000000e+00
-2.198900260995601e+01 1.402522858161026e+01 3.516892509360741e-01
-2.265117483658189e+01 1.444343834473385e+01 3.442881327748683e-01
-2.264901461291842e+01 1.444170036566824e+01 0.000000000000000e+00
-2.356886350562855e+01 1.151804753187478e+01 0.000000000000000e+00
-2.357332527196804e+01 1.152092440077521e+01 3.369029980082323e-01
-2.443644112765908e+01 1.205000791932213e+01 3.058224198324344e-01
-2.443336225676174e+01 1.204728125756823e+01 0.000000000000000e+00
-2.264901461291842e+01 1.444170036566824e+01 0.000000000000000e+00
-2.265117483658189e+01 1.444343834473385e+01 3.442881327748683e-01
-2.349013230618670e+01 1.495454437983365e+01 3.217555866227783e-01
-2.348800758520471e+01 1.495096994458257e+01 0.000000000000000e+00
-2.443336225676174e+01 1.204728125756823e+01 0.000000000000000e+00
-2.443644112765908e+01 1.205000791932213e+01 3.058224198324344e-01
-2.564666421569104e+01 1.259220339098874e+01 2.920906810661562e-01
-2.564219063417566e+01 1.259163345873618e+01 0.000000000000000e+00
-2.348800758520471e+01 1.495096994458257e+01 0.000000000000000e+00
-2.349013230618670e+01 1.495454437983365e+01 3.217555866227783e-01
-2.458245414710721e+01 1.561441004906607e+01 2.977383308215876e-01
-2.457730868426541e+01 1.560887201456383e+01 0.000000000000000e+00
-2.564219063417566e+01 1.259163345873618e+01 0.000000000000000e+00
-2.564666421569104e+01 1.259220339098874e+01 2.920906810661562e-01
-2.752783580804858e+01 1.317389024307067e+01 2.468279891971480e-01
-2.751867907252661e+01 1.317357798574971e+01 0.000000000000000e+00
-2.457730868426541e+01 1.560887201456383e+01 0.000000000000000e+00
-2.458245414710721e+01 1.561441004906607e+01 2.977383308215876e-01
-2.615126034513810e+01 1.650318305030121e+01 2.349101630191134e-01
-2.614237977479279e+01 1.649804193724398e+01 0.000000000000000e+00
-2.751867907252661e+01 1.317357798574971e+01 0.000000000000000e+00
-2.752783580804858e+01 1.317389024307067e+01 2.468279891971480e-01
-3.055146319719047e+01 1.393448056232273e+01 1.604286326021233e-01
-3.052354046443633e+01 1.392566076432416e+01 0.000000000000000e+00
-2.614237977479279e+01 1.649804193724398e+01 0.000000000000000e+00
-2.615126034513810e+01 1.650318305030121e+01 2.349101630191134e-01
-2.866779286638603e+01 1.774881268420039e+01 1.460822528301417e-01
-2.864232756550037e+01 1.773372942684553e+01 0.000000000000000e+00
-3.052354046443633e+01 1.392566076432416e+01 0.000000000000000e+00
-3.055146319719047e+01 1.393448056232273e+01 1.604286326021233e-01
-3.583423655380220e+01 1.541129819231838e+01 -3.325555211496727e-01
-3.571182287052272e+01 1.537326343825056e+01 0.000000000000000e+00
-2.864232756550037e+01 1.773372942684553e+01 0.000000000000000e+00
-2.866779286638603e+01 1.774881268420039e+01 1.460822528301417e-01
-3.340896260233953e+01 1.992203581682207e+01 -3.627670461582190e-01
-3.328927698789228e+01 1.986373280998085e+01 0.000000000000000e+00
-3.571182287052272e+01 1.537326343825056e+01 0.000000000000000e+00
-3.583423655380220e+01 1.541129819231838e+01 -3.325555211496727e-01
-4.619397662556434e+01 1.913417161825449e+01 -1.421471367326363e+00
-4.619397662556435e+01 1.913417161825447e+01 0.000000000000000e+00
-3.328927698789228e+01 1.986373280998085e+01 0.000000000000000e+00
-3.340896260233953e+01 1.992203581682207e+01 -3.627670461582190e-01
-4.330127018922193e+01 2.500000000000000e+01 -1.522659996898273e+00
-4.330127018922195e+01 2.499999999999999e+01 0.000000000000000e+00
-2.198800337869761e+01 1.402559100319861e+01 0.000000000000000e+00
-2.198900260995601e+01 1.402522858161026e+01 3.516892509360741e-01
-2.265117483658189e+01 1.444343834473385e+01 3.442881327748683e-01
-2.264901461291842e+01 1.444170036566824e+01 0.000000000000000e+00
-2.051744928198251e+01 1.660158362732621e+01 0.000000000000000e+00
-2.051740034320682e+01 1.660034841327525e+01 3.407116885486499e-01
-2.112531555367668e+01 1.703510911898387e+01 3.424910739925165e-01
-2.112444397267622e+01 1.703495492572368e+01 0.000000000000000e+00
-2.264901461291842e+01 1.444170036566824e+01 0.000000000000000e+00
-2.265117483658189e+01 1.444343834473385e+01 3.442881327748683e-01
-2.349013230618670e+01 1.495454437983365e+01 3.217555866227783e-01
-2.348800758520471e+01 1.495096994458257e+01 0.000000000000000e+00
-2.112444397267622e+01 1.703495492572368e+01 0.000000000000000e+00
-2.112531555367668e+01 1.703510911898387e+01 3.424910739925165e-01
-2.192296010053474e+01 1.760632842274370e+01 3.325485035762517e-01
-2.192200630302949e+01 1.760477721788846e+01 0.000000000000000e+00
-2.348800758520471e+01 1.495096994458257e+01 0.000000000000000e+00
-2.349013230618670e+01 1.495454437983365e+01 3.217555866227783e-01
-2.458245414710721e+01 1.561441004906607e+01 2.977383308215876e-01
-2.457730868426541e+01 1.560887201456383e+01 0.000000000000000e+00
-2.192200630302949e+01 1.760477721788846e+01 0.000000000000000e+00
-2.192296010053474e+01 1.760632842274370e+01 3.325485035762517e-01
-2.297440384091192e+01 1.838928196167758e+01 3.148261530721735e-01
-2.296954647467109e+01 1.838327325800062e+01 0.000000000000000e+00
-2.457730868426541e+01 1.560887201456383e+01 0.000000000000000e+00
-2.458245414710721e+01 1.561441004906607e+01 2.977383308215876e-01
-2.615126034513810e+01 1.650318305030121e+01 2.349101630191134e-01
-2.614237977479279e+01 1.649804193724398e+01 0.000000000000000e+00
-2.296954647467109e+01 1.838327325800062e+01 0.000000000000000e+00
-2.297440384091192e+01 1.838928196167758e+01 3.148261530721735e-01
-2.441605747030873e+01 1.950714051735710e+01 2.444835394204174e-01
-2.440782909922753e+01 1.949877416621278e+01 0.000000000000000e+00
-2.614237977479279e+01 1.649804193724398e+01 0.000000000000000e+00
-2.615126034513810e+01 1.650318305030121e+01 2.349101630191134e-01
-2.866779286638603e+01 1.774881268420039e+01 1.460822528301417e-01
-2.864232756550037e+01 1.773372942684553e+01 0.000000000000000e+00
-2.440782909922753e+01 1.949877416621278e+01 0.000000000000000e+00
-2.441605747030873e+01 1.950714051735710e+01 2.444835394204174e-01
-2.656292306742901e+01 2.112820464127482e+01 1.503701112781488e-01
-2.654000648385311e+01 2.110781265019705e+01 0.000000000000000e+00
-2.864232756550037e+01 1.773372942684553e+01 0.000000000000000e+00
-2.866779286638603e+01 1.774881268420039e+01 1.460822528301417e-01
-3.340896260233953e+01 1.992203581682207e+01 -3.627670461582190e-01
-3.328927698789228e+01 1.986373280998085e+01 0.000000000000000e+00
-2.654000648385311e+01 2.110781265019705e+01 0.000000000000000e+00
-2.656292306742901e+01 2.112820464127482e+01 1.503701112781488e-01
-3.061570296210204e+01 2.394695630991205e+01 -3.728520096834892e-01
-3.050321308667726e+01 2.386581664069140e+01 0.000000000000000e+00
-3.328927698789228e+01 1.986373280998085e+01 0.000000000000000e+00
-3.340896260233953e+01 1.992203581682207e+01 -3.627670461582190e-01
-4.330127018922193e+01 2.500000000000000e+01 -1.522659996898273e+00
-4.330127018922195e+01 2.499999999999999e+01 0.000000000000000e+00
-3.050321308667726e+01 2.386581664069140e+01 0.000000000000000e+00
-3.061570296210204e+01 2.394695630991205e+01 -3.728520096834892e-01
-3.966766701456176e+01 3.043807145043603e+01 -1.619689597247218e+00
-3.966766701456174e+01 3.043807145043605e+01 0.000000000000000e+00
-2.051744928198251e+01 1.660158362732621e+01 0.000000000000000e+00
-2.051740034320682e+01 1.660034841327525e+01 3.407116885486499e-01
-2.112531555367668e+01 1.703510911898387e+01 3.424910739925165e-01
-2.112444397267622e+01 1.703495492572368e+01 0.000000000000000e+00
-1.866188317445209e+01 1.877678336404345e+01 0.000000000000000e+00
-1.866106603513404e+01 1.877584507481986e+01 3.352060030679475e-01
-1.918968717372107e+01 1.928271449346988e+01 3.397174618796156e-01
-1.918940627290200e+01 1.928259127440518e+01 0.000000000000000e+00
-2.112444397267622e+01 1.703495492572368e+01 0.000000000000000e+00
-2.112531555367668e+01 1.703510911898387e+01 3.424910739925165e-01
-2.192296010053474e+01 1.760632842274370e+01 3.325485035762517e-01
-2.192200630302949e+01 1.760477721788846e+01 0.000000000000000e+00
-1.918940627290200e+01 1.928259127440518e+01 0.000000000000000e+00
-1.918968717372107e+01 1.928271449346988e+01 3.397174618796156e-01
-1.989059815667349e+01 1.996223946804059e+01 3.331592598892286e-01
-1.988984766158746e+01 1.996167595286828e+01 0.000000000000000e+00
-2.192200630302949e+01 1.760477721788846e+01 0.000000000000000e+00
-2.192296010053474e+01 1.760632842274370e+01 3.325485035762517e-01
-2.297440384091192e+01 1.838928196167758e+01 3.148261530721735e-01
-2.296954647467109e+01 1.838327325800062e+01 0.000000000000000e+00
-1.988984766158746e+01 1.996167595286828e+01 0.000000000000000e+00
-1.989059815667349e+01 1.996223946804059e+01 3.331592598892286e-01
-2.083806773275259e+01 2.088772738154305e+01 3.197463942981262e-01
-2.083302190140834e+01 2.088289705463686e+01 0.000000000000000e+00
-2.296954647467109e+01 1.838327325800062e+01 0.000000000000000e+00
-2.297440384091192e+01 1.838928196167758e+01 3.148261530721735e-01
-2.441605747030873e+01 1.950714051735710e+01 2.444835394204174e-01
-2.440782909922753e+01 1.949877416621278e+01 0.000000000000000e+00
-2.083302190140834e+01 2.088289705463686e+01 0.000000000000000e+00
-2.083806773275259e+01 2.088772738154305e+01 3.197463942981262e-01
-2.216165267856373e+01 2.218861727378643e+01 2.498721898293994e-01
-2.215326849482170e+01 2.218052006160066e+01 0.000000000000000e+00
-2.440782909922753e+01 1.949877416621278e+01 0.000000000000000e+00
-2.441605747030873e+01 1.950714051735710e+01 2.444835394204174e-01
-2.656292306742901e+01 2.112820464127482e+01 1.503701112781488e-01
-2.654000648385311e+01 2.110781265019705e+01 0.000000000000000e+00
-2.215326849482170e+01 2.218052006160066e+01 0.000000000000000e+00
-2.216165267856373e+01 2.218861727378643e+01 2.498721898293994e-01
-2.406728928358417e+01 2.407185324636800e+01 1.549149050366726e-01
-2.404544556626031e+01 2.405013297077995e+01 0.000000000000000e+00
-2.654000648385311e+01 2.110781265019705e+01 0.000000000000000e+00
-2.656292306742901e+01 2.112820464127482e+01 1.503701112781488e-01
-3.061570296210204e+01 2.394695630991205e+01 -3.728520096834892e-01
-3.050321308667726e+01 2.386581664069140e+01 0.000000000000000e+00
-2.404544556626031e+01 2.405013297077995e+01 0.000000000000000e+00
-2.406728928358417e+01 2.407185324636800e+01 1.549149050366726e-01
-2.749043766415757e+01 2.747910919920814e+01 -3.739342398581402e-01
-2.739003909514733e+01 2.737957864462058e+01 0.000000000000000e+00
-3.050321308667726e+01 2.386581664069140e+01 0.000000000000000e+00
-3.061570296210204e+01 2.394695630991205e+01 -3.728520096834892e-01
-3.966766701456176e+01 3.043807145043603e+01 -1.619689597247218e+00
-3.966766701456174e+01 3.043807145043605e+01 0.000000000000000e+00
-2.739003909514733e+01 2.737957864462058e+01 0.000000000000000e+00
-2.749043766415757e+01 2.747910919920814e+01 -3.739342398581402e-01
-3.535533905932737e+01 3.535533905932737e+01 -1.665225600508041e+00
-3.535533905932736e+01 3.535533905932738e+01 0.000000000000000e+00
        </DataArray>
        <DataArray type="Float64" Name="kinematic_plastic_strain" NumberOfComponents="9" format="ascii">
-3.998798801324628e-02 -8.247379429588822e-03 -4.251953127500296e-04 -8.247379429588824e-03 7.362878457923913e-02 -1.156065936774534e-05 -4.251953127500296e-04 -1.156065936774532e-05 -3.364079656599282e-02
-3.993476642601658e-02 -8.349936569469592e-03 4.327609098230544e-04 -8.349936569469595e-03 7.356640079455692e-02 -7.375208318819858e-05 4.327609098230541e-04 -7.375208318819861e-05 -3.363163436854032e-02
-2.562090828856755e-02 -2.542742533470733e-03 1.629491360623969e-04 -2.542742533470733e-03 4.597334685486768e-02 -1.807611938444527e-04 1.629491360623969e-04 -1.807611938444526e-04 -2.035243856630016e-02
-2.562723265489551e-02 -2.439765663828786e-03 -2.304646497452797e-04 -2.439765663828786e-03 4.602422907189447e-02 2.769799808126748e-06 -2.304646497452797e-04 2.769799808126748e-06 -2.039699641699894e-02
-1.570247074676389e-02 1.138756874615113e-02 -9.666321388618075e-05 1.138756874615112e-02 3.273143130205394e-02 6.340079531903617e-05 -9.666321388618077e-05 6.340079531903617e-05 -1.702896055529009e-02
-1.576384428008836e-02 1.128518346782385e-02 9.642783678090119e-05 1.128518346782385e-02 3.278490004807710e-02 -3.482197809145639e-05 9.642783678090122e-05 -3.482197809145636e-05 -1.702105576798876e-02
-9.261161867360663e-03 7.556840233838558e-03 2.492664282853931e-05 7.556840233838558e-03 1.879026767415199e-02 -5.362002175826880e-05 2.492664282853930e-05 -5.362002175826880e-05 -9.529105806791331e-03
-9.216329920725285e-03 7.615338047771788e-03 -2.236665452646799e-05 7.615338047771786e-03 1.875571438044722e-02 8.908680864344842e-05 -2.236665452646799e-05 8.908680864344842e-05 -9.539384459721925e-03
-2.562723265489551e-02 -2.439765663828786e-03 -2.304646497452797e-04 -2.439765663828786e-03 4.602422907189447e-02 2.769799808126748e-06 -2.304646497452797e-04 2.769799808126748e-06 -2.039699641699894e-02
-2.562090828856755e-02 -2.542742533470733e-03 1.629491360623969e-04 -2.542742533470733e-03 4.597334685486768e-02 -1.807611938444527e-04 1.629491360623969e-04 -1.807611938444526e-04 -2.035243856630016e-02
-3.309747476920565e-02 3.047100397917957e-03 -2.886945269784056e-05 3.047100397917957e-03 5.501605563217035e-02 -3.091273664730198e-04 -2.886945269784056e-05 -3.091273664730198e-04 -2.191858086296469e-02
-3.303701309873344e-02 3.129577526986583e-03 -7.580864426177167e-05 3.129577526986579e-03 5.506063257085238e-02 8.770589606515836e-06 -7.580864426177166e-05 8.770589606515850e-06 -2.202361947211896e-02
-9.216329920725285e-03 7.615338047771788e-03 -2.236665452646799e-05 7.615338047771786e-03 1.875571438044722e-02 8.908680864344842e-05 -2.236665452646799e-05 8.908680864344842e-05 -9.539384459721925e-03
-9.261161867360663e-03 7.556840233838558e-03 2.492664282853931e-05 7.556840233838558e-03 1.879026767415199e-02 -5.362002175826880e-05 2.492664282853930e-05 -5.362002175826880e-05 -9.529105806791331e-03
-1.120839899805633e-02 1.051640813762439e-02 -4.072649763590997e-05 1.051640813762439e-02 2.106354222891830e-02 -6.890603080638313e-05 -4.072649763590996e-05 -6.890603080638310e-05 -9.855143230861944e-03
-1.117231898178074e-02 1.053477029316566e-02 4.136739175314750e-05 1.053477029316566e-02 2.105340853209469e-02 1.389336349833812e-04 4.136739175314749e-05 1.389336349833812e-04 -9.881089550313957e-03
-3.303701309873344e-02 3.129577526986583e-03 -7.580864426177167e-05 3.129577526986579e-03 5.506063257085238e-02 8.770589606515836e-06 -7.580864426177166e-05 8.770589606515850e-06 -2.202361947211896e-02
-3.309747476920565e-02 3.047100397917957e-03 -2.886945269784056e-05 3.047100397917957e-03 5.501605563217035e-02 -3.091273664730198e-04 -2.886945269784056e-05 -3.091273664730198e-04 -2.191858086296469e-02
-3.857911775386573e-02 1.302045793655465e-02 -2.344987296602322e-04 1.302045793655465e-02 5.924688305659315e-02 -1.908981675564991e-04 -2.344987296602322e-04 -1.908981675564989e-04 -2.066776530272742e-02
-3.853107640483719e-02 1.301805729879346e-02 2.306948807602652e-04 1.301805729879348e-02 5.929310189197167e-02 -3.615331790691296e-05 2.306948807602652e-04 -3.615331790691296e-05 -2.076202548713448e-02
-1.117231898178074e-02 1.053477029316566e-02 4.136739175314750e-05 1.053477029316566e-02 2.105340853209469e-02 1.389336349833812e-04 4.136739175314749e-05 1.389336349833812e-04 -9.881089550313957e-03
-1.120839899805633e-02 1.051640813762439e-02 -4.072649763590997e-05 1.051640813762439e-02 2.106354222891830e-02 -6.890603080638313e-05 -4.072649763590996e-05 -6.890603080638310e-05 -9.855143230861944e-03
-1.273310818502078e-02 1.423923439110840e-02 -1.191654779918230e-04 1.423923439110840e-02 2.213970786441566e-02 -2.805178705523556e-05 -1.191654779918230e-04 -2.805178705523555e-05 -9.406599679394870e-03
-1.272336310332403e-02 1.422127085531478e-02 1.416861599994147e-04 1.422127085531478e-02 2.216089289712546e-02 7.258482106669590e-05 1.416861599994147e-04 7.258482106669591e-05 -9.437529793801434e-03
-3.853107640483719e-02 1.301805729879346e-02 2.306948807602652e-04 1.301805729879348e-02 5.929310189197167e-02 -3.615331790691296e-05 2.306948807602652e-04 -3.615331790691296e-05 -2.076202548713448e-02
-3.857911775386573e-02 1.302045793655465e-02 -2.344987296602322e-04 1.302045793655465e-02 5.924688305659315e-02 -1.908981675564991e-04 -2.344987296602322e-04 -1.908981675564989e-04 -2.066776530272742e-02
-4.205582211660153e-02 2.536941234646172e-02 -5.165426756513748e-04 2.536941234646173e-02 5.883378228021283e-02 -7.414658350201232e-05 -5.165426756513747e-04 -7.414658350201234e-05 -1.677796016361133e-02
-4.199592069855299e-02 2.536038471465736e-02 3.796839299625665e-04 2.536038471465736e-02 5.886729830102141e-02 -9.825594765235375e-05 3.796839299625667e-04 -9.825594765235375e-05 -1.687137760246842e-02
-1.272336310332403e-02 1.422127085531478e-02 1.416861599994147e-04 1.422127085531478e-02 2.216089289712546e-02 7.258482106669590e-05 1.416861599994147e-04 7.258482106669591e-05 -9.437529793801434e-03
-1.273310818502078e-02 1.423923439110840e-02 -1.191654779918230e-04 1.423923439110840e-02 2.213970786441566e-02 -2.805178705523556e-05 -1.191654779918230e-04 -2.805178705523555e-05 -9.406599679394870e-03
-1.426507152533545e-02 1.899416931119418e-02 -2.212199933976520e-04 1.899416931119418e-02 2.186339810538210e-02 4.650749347187829e-05 -2.212199933976520e-04 4.650749347187830e-05 -7.598326580046645e-03
-1.425230708159313e-02 1.895797469942245e-02 2.164645726464874e-04 1.895797469942245e-02 2.188381295555843e-02 9.712381052591585e-06 2.164645726464874e-04 9.712381052591585e-06 -7.631505873965318e-03
-4.199592069855299e-02 2.536038471465736e-02 3.796839299625665e-04 2.536038471465736e-02 5.886729830102141e-02 -9.825594765235375e-05 3.796839299625667e-04 -9.825594765235375e-05 -1.687137760246842e-02
-4.205582211660153e-02 2.536941234646172e-02 -5.165426756513748e-04 2.536941234646173e-02 5.883378228021283e-02 -7.414658350201232e-05 -5.165426756513747e-04 -7.414658350201234e-05 -1.677796016361133e-02
-4.620252562972386e-02 4.219527741563200e-02 -1.336071786203090e-03 4.219527741563200e-02 5.538515023740422e-02 5.590092159747453e-04 -1.336071786203090e-03 5.590092159747453e-04 -9.182624607680358e-03
-4.603210552145005e-02 4.186662672060806e-02 7.713600485154354e-04 4.186662672060804e-02 5.546413791150826e-02 -3.163891978844106e-04 7.713600485154354e-04 -3.163891978844107e-04 -9.432032390058276e-03
-1.425230708159313e-02 1.895797469942245e-02 2.164645726464874e-04 1.895797469942245e-02 2.188381295555843e-02 9.712381052591585e-06 2.164645726464874e-04 9.712381052591585e-06 -7.631505873965318e-03
-1.426507152533545e-02 1.899416931119418e-02 -2.212199933976520e-04 1.899416931119418e-02 2.186339810538210e-02 4.650749347187829e-05 -2.212199933976520e-04 4.650749347187830e-05 -7.598326580046645e-03
-1.626337207422544e-02 2.662902792805909e-02 -5.911824294549048e-04 2.662902792805909e-02 2.032903085903698e-02 3.179009654888719e-04 -5.911824294549050e-04 3.179009654888719e-04 -4.065658784811541e-03
-1.618457132227111e-02 2.644971799600183e-02 3.625328467238503e-04 2.644971799600182e-02 2.036796443886841e-02 -1.279875906883394e-04 3.625328467238504e-04 -1.279875906883393e-04 -4.183393116597307e-03
-4.603210552145005e-02 4.186662672060806e-02 7.713600485154354e-04 4.186662672060804e-02 5.546413791150826e-02 -3.163891978844106e-04 7.713600485154354e-04 -3.163891978844107e-04 -9.432032390058276e-03
-4.620252562972386e-02 4.219527741563200e-02 -1.336071786203090e-03 4.219527741563200e-02 5.538515023740422e-02 5.590092159747453e-04 -1.336071786203090e-03 5.590092159747453e-04 -9.182624607680358e-03
-5.752783693844414e-02 7.357585595701217e-02 -1.694312215786540e-03 7.357585595701220e-02 4.371778888341326e-02 1.166232955413463e-03 -1.694312215786539e-03 1.166232955413463e-03 1.381004805503088e-02
-5.750420868437506e-02 7.358596037752520e-02 2.968040425758558e-03 7.358596037752520e-02 4.367168906423895e-02 -1.887964524113392e-03 2.968040425758557e-03 -1.887964524113392e-03 1.383251962013620e-02
-1.618457132227111e-02 2.644971799600183e-02 3.625328467238503e-04 2.644971799600182e-02 2.036796443886841e-02 -1.279875906883394e-04 3.625328467238504e-04 -1.279875906883393e-04 -4.183393116597307e-03
-1.626337207422544e-02 2.662902792805909e-02 -5.911824294549048e-04 2.662902792805909e-02 2.032903085903698e-02 3.179009654888719e-04 -5.911824294549050e-04 3.179009654888719e-04 -4.065658784811541e-03
-2.184444693775807e-02 4.254835746652372e-02 -7.090910228128868e-04 4.254835746652372e-02 1.446199512925800e-02 4.997635029307058e-04 -7.090910228128866e-04 4.997635029307058e-04 7.382451808500074e-03
-2.185584210653974e-02 4.251468056299296e-02 1.319535801664817e-03 4.251468056299296e-02 1.444546414723808e-02 -8.359151106316594e-04 1.319535801664816e-03 -8.359151106316593e-04 7.410377959301649e-03
-5.750420868437506e-02 7.358596037752520e-02 2.968040425758558e-03 7.358596037752520e-02 4.367168906423895e-02 -1.887964524113392e-03 2.968040425758557e-03 -1.887964524113392e-03 1.383251962013620e-02
-5.752783693844414e-02 7.357585595701217e-02 -1.694312215786540e-03 7.357585595701220e-02 4.371778888341326e-02 1.166232955413463e-03 -1.694312215786539e-03 1.166232955413463e-03 1.381004805503088e-02
-1.467869107753813e-01 2.151155426282953e-01 -1.288499525684601e-02 2.151155426282953e-01 6.190791868889627e-02 9.774810292269594e-03 -1.288499525684601e-02 9.774810292269591e-03 8.487899208648524e-02
-1.471065214207569e-01 2.166910742696173e-01 1.643086733184675e-04 2.166910742696172e-01 6.102641466660812e-02 -1.803995239527209e-04 1.643086733184674e-04 -1.803995239527202e-04 8.608010675414862e-02
-2.185584210653974e-02 4.251468056299296e-02 1.319535801664817e-03 4.251468056299296e-02 1.444546414723808e-02 -8.359151106316594e-04 1.319535801664816e-03 -8.359151106316593e-04 7.410377959301649e-03
-2.184444693775807e-02 4.254835746652372e-02 -7.090910228128868e-04 4.254835746652372e-02 1.446199512925800e-02 4.997635029307058e-04 -7.090910228128866e-04 4.997635029307058e-04 7.382451808500074e-03
-5.862744436302079e-02 1.208801339449123e-01 -5.546394112890019e-03 1.208801339449124e-01 1.512649741735741e-02 4.051810523842491e-03 -5.546394112890018e-03 4.051810523842491e-03 4.350094694566334e-02
-5.884262038218872e-02 1.215331384680153e-01 5.805096646916701e-05 1.215331384680153e-01 1.484724575911570e-02 -6.563437227141044e-05 5.805096646916739e-05 -6.563437227141046e-05 4.399537462307306e-02
-1.570247074676389e-02 1.138756874615113e-02 -9.666321388618075e-05 1.138756874615112e-02 3.273143130205394e-02 6.340079531903617e-05 -9.666321388618077e-05 6.340079531903617e-05 -1.702896055529009e-02
-1.576384428008836e-02 1.128518346782385e-02 9.642783678090119e-05 1.128518346782385e-02 3.278490004807710e-02 -3.482197809145639e-05 9.642783678090122e-05 -3.482197809145636e-05 -1.702105576798876e-02
-9.261161867360663e-03 7.556840233838558e-03 2.492664282853931e-05 7.556840233838558e-03 1.879026767415199e-02 -5.362002175826880e-05 2.492664282853930e-05 -5.362002175826880e-05 -9.529105806791331e-03
-9.216329920725285e-03 7.615338047771788e-03 -2.236665452646799e-05 7.615338047771786e-03 1.875571438044722e-02 8.908680864344842e-05 -2.236665452646799e-05 8.908680864344842e-05 -9.539384459721925e-03
-9.237822398988000e-03 1.532259143375109e-02 1.014427514098749e-04 1.532259143375108e-02 2.622226095973586e-02 1.799066178146816e-05 1.014427514098749e-04 1.799066178146815e-05 -1.698443856074785e-02
-9.280179120114782e-03 1.529157356720371e-02 -1.037434253950318e-04 1.529157356720371e-02 2.626060912354537e-02 1.552875444672541e-05 -1.037434253950318e-04 1.552875444672541e-05 -1.698043000343055e-02
-5.289110075225137e-03 8.656331452088219e-03 -5.640862577985153e-05 8.656331452088219e-03 1.353240821201860e-02 -2.613454196194135e-05 -5.640862577985151e-05 -2.613454196194135e-05 -8.243298136793474e-03
-5.268455953411933e-03 8.672811656306042e-03 7.267862772782172e-05 8.672811656306042e-03 1.350218052987930e-02 3.439339929338726e-05 7.267862772782172e-05 3.439339929338725e-05 -8.233724576467373e-03
-9.216329920725285e-03 7.615338047771788e-03 -2.236665452646799e-05 7.615338047771786e-03 1.875571438044722e-02 8.908680864344842e-05 -2.236665452646799e-05 8.908680864344842e-05 -9.539384459721925e-03
-9.261161867360663e-03 7.556840233838558e-03 2.492664282853931e-05 7.556840233838558e-03 1.879026767415199e-02 -5.362002175826880e-05 2.492664282853930e-05 -5.362002175826880e-05 -9.529105806791331e-03
-1.120839899805633e-02 1.051640813762439e-02 -4.072649763590997e-05 1.051640813762439e-02 2.106354222891830e-02 -6.890603080638313e-05 -4.072649763590996e-05 -6.890603080638310e-05 -9.855143230861944e-03
-1.117231898178074e-02 1.053477029316566e-02 4.136739175314750e-05 1.053477029316566e-02 2.105340853209469e-02 1.389336349833812e-04 4.136739175314749e-05 1.389336349833812e-04 -9.881089550313957e-03
-5.268455953411933e-03 8.672811656306042e-03 7.267862772782172e-05 8.672811656306042e-03 1.350218052987930e-02 3.439339929338726e-05 7.267862772782172e-05 3.439339929338725e-05 -8.233724576467373e-03
-5.289110075225137e-03 8.656331452088219e-03 -5.640862577985153e-05 8.656331452088219e-03 1.353240821201860e-02 -2.613454196194135e-05 -5.640862577985151e-05 -2.613454196194135e-05 -8.243298136793474e-03
-6.568205762653686e-03 1.090732465696620e-02 -6.799807090041389e-05 1.090732465696620e-02 1.439781712127998e-02 -6.427375719884053e-05 -6.799807090041389e-05 -6.427375719884056e-05 -7.829611358626294e-03
-6.555748905116640e-03 1.090355723439238e-02 6.201946141581137e-05 1.090355723439237e-02 1.436934131607756e-02 8.369592117372812e-05 6.201946141581138e-05 8.369592117372813e-05 -7.813592410960916e-03
-1.117231898178074e-02 1.053477029316566e-02 4.136739175314750e-05 1.053477029316566e-02 2.105340853209469e-02 1.389336349833812e-04 4.136739175314749e-05 1.389336349833812e-04 -9.881089550313957e-03
-1.120839899805633e-02 1.051640813762439e-02 -4.072649763590997e-05 1.051640813762439e-02 2.106354222891830e-02 -6.890603080638313e-05 -4.072649763590996e-05 -6.890603080638310e-05 -9.855143230861944e-03
-1.273310818502078e-02 1.423923439110840e-02 -1.191654779918230e-04 1.423923439110840e-02 2.213970786441566e-02 -2.805178705523556e-05 -1.191654779918230e-04 -2.805178705523555e-05 -9.406599679394870e-03
-1.272336310332403e-02 1.422127085531478e-02 1.416861599994147e-04 1.422127085531478e-02 2.216089289712546e-02 7.258482106669590e-05 1.416861599994147e-04 7.258482106669591e-05 -9.437529793801434e-03
-6.555748905116640e-03 1.090355723439238e-02 6.201946141581137e-05 1.090355723439237e-02 1.436934131607756e-02 8.369592117372812e-05 6.201946141581138e-05 8.369592117372813e-05 -7.813592410960916e-03
-6.568205762653686e-03 1.090732465696620e-02 -6.799807090041389e-05 1.090732465696620e-02 1.439781712127998e-02 -6.427375719884053e-05 -6.799807090041389e-05 -6.427375719884056e-05 -7.829611358626294e-03
-7.606528347037866e-03 1.487492610492374e-02 -1.001980881424259e-04 1.487492610492373e-02 1.522767960606534e-02 -4.421053009885581e-05 -1.001980881424259e-04 -4.421053009885581e-05 -7.621151259027467e-03
-7.606749211232425e-03 1.483744103856820e-02 8.675682564950990e-05 1.483744103856820e-02 1.522703677122409e-02 7.645199615267720e-05 8.675682564950990e-05 7.645199615267718e-05 -7.620287559991667e-03
-1.272336310332403e-02 1.422127085531478e-02 1.416861599994147e-04 1.422127085531478e-02 2.216089289712546e-02 7.258482106669590e-05 1.416861599994147e-04 7.258482106669591e-05 -9.437529793801434e-03
-1.273310818502078e-02 1.423923439110840e-02 -1.191654779918230e-04 1.423923439110840e-02 2.213970786441566e-02 -2.805178705523556e-05 -1.191654779918230e-04 -2.805178705523555e-05 -9.406599679394870e-03
-1.426507152533545e-02 1.899416931119418e-02 -2.212199933976520e-04 1.899416931119418e-02 2.186339810538210e-02 4.650749347187829e-05 -2.212199933976520e-04 4.650749347187830e-05 -7.598326580046645e-03
-1.425230708159313e-02 1.895797469942245e-02 2.164645726464874e-04 1.895797469942245e-02 2.188381295555843e-02 9.712381052591585e-06 2.164645726464874e-04 9.712381052591585e-06 -7.631505873965318e-03
-7.606749211232425e-03 1.483744103856820e-02 8.675682564950990e-05 1.483744103856820e-02 1.522703677122409e-02 7.645199615267720e-05 8.675682564950990e-05 7.645199615267718e-05 -7.620287559991667e-03
-7.606528347037866e-03 1.487492610492374e-02 -1.001980881424259e-04 1.487492610492373e-02 1.522767960606534e-02 -4.421053009885581e-05 -1.001980881424259e-04 -4.421053009885581e-05 -7.621151259027467e-03
-8.643972496542435e-03 2.082760937665243e-02 -1.728106224282220e-04 2.082760937665242e-02 1.499017942712299e-02 2.280711160269254e-05 -1.728106224282220e-04 2.280711160269252e-05 -6.346206930580549e-03
-8.642373022508818e-03 2.075410678954110e-02 1.495085253936429e-04 2.075410678954110e-02 1.500909676444254e-02 -1.604115721328526e-06 1.495085253936429e-04 -1.604115721328516e-06 -6.366723741933734e-03
-1.425230708159313e-02 1.895797469942245e-02 2.164645726464874e-04 1.895797469942245e-02 2.188381295555843e-02 9.712381052591585e-06 2.164645726464874e-04 9.712381052591585e-06 -7.631505873965318e-03
-1.426507152533545e-02 1.899416931119418e-02 -2.212199933976520e-04 1.899416931119418e-02 2.186339810538210e-02 4.650749347187829e-05 -2.212199933976520e-04 4.650749347187830e-05 -7.598326580046645e-03
-1.626337207422544e-02 2.662902792805909e-02 -5.911824294549048e-04 2.662902792805909e-02 2.032903085903698e-02 3.179009654888719e-04 -5.911824294549050e-04 3.179009654888719e-04 -4.065658784811541e-03
-1.618457132227111e-02 2.644971799600183e-02 3.625328467238503e-04 2.644971799600182e-02 2.036796443886841e-02 -1.279875906883394e-04 3.625328467238504e-04 -1.279875906883393e-04 -4.183393116597307e-03
-8.642373022508818e-03 2.075410678954110e-02 1.495085253936429e-04 2.075410678954110e-02 1.500909676444254e-02 -1.604115721328526e-06 1.495085253936429e-04 -1.604115721328516e-06 -6.366723741933734e-03
-8.643972496542435e-03 2.082760937665243e-02 -1.728106224282220e-04 2.082760937665242e-02 1.499017942712299e-02 2.280711160269254e-05 -1.728106224282220e-04 2.280711160269252e-05 -6.346206930580549e-03
-1.020464711700459e-02 3.004174512242189e-02 -5.391064805830588e-04 3.004174512242188e-02 1.347569669325695e-02 3.061962796918029e-04 -5.391064805830589e-04 3.061962796918030e-04 -3.271049576252362e-03
-1.013681152599934e-02 2.982193079496512e-02 2.939667083755248e-04 2.982193079496512e-02 1.352672364487491e-02 -1.443044284411455e-04 2.939667083755249e-04 -1.443044284411455e-04 -3.389912118875571e-03
-1.618457132227111e-02 2.644971799600183e-02 3.625328467238503e-04 2.644971799600182e-02 2.036796443886841e-02 -1.279875906883394e-04 3.625328467238504e-04 -1.279875906883393e-04 -4.183393116597307e-03
-1.626337207422544e-02 2.662902792805909e-02 -5.911824294549048e-04 2.662902792805909e-02 2.032903085903698e-02 3.179009654888719e-04 -5.911824294549050e-04 3.179009654888719e-04 -4.065658784811541e-03
-2.184444693775807e-02 4.254835746652372e-02 -7.090910228128868e-04 4.254835746652372e-02 1.446199512925800e-02 4.997635029307058e-04 -7.090910228128866e-04 4.997635029307058e-04 7.382451808500074e-03
-2.185584210653974e-02 4.251468056299296e-02 1.319535801664817e-03 4.251468056299296e-02 1.444546414723808e-02 -8.359151106316594e-04 1.319535801664816e-03 -8.359151106316593e-04 7.410377959301649e-03
-1.013681152599934e-02 2.982193079496512e-02 2.939667083755248e-04 2.982193079496512e-02 1.352672364487491e-02 -1.443044284411455e-04 2.939667083755249e-04 -1.443044284411455e-04 -3.389912118875571e-03
-1.020464711700459e-02 3.004174512242189e-02 -5.391064805830588e-04 3.004174512242188e-02 1.347569669325695e-02 3.061962796918029e-04 -5.391064805830589e-04 3.061962796918030e-04 -3.271049576252362e-03
-1.599821652425330e-02 4.707709085809215e-02 -6.487194888887223e-04 4.707709085809217e-02 7.664711693802977e-03 4.564603774252782e-04 -6.487194888887228e-04 4.564603774252781e-04 8.333504830450318e-03
-1.602001090613436e-02 4.701684708912340e-02 1.213389611034254e-03 4.701684708912340e-02 7.640405165463075e-03 -8.027128400418951e-04 1.213389611034254e-03 -8.027128400418951e-04 8.379605740671276e-03
-2.185584210653974e-02 4.251468056299296e-02 1.319535801664817e-03 4.251468056299296e-02 1.444546414723808e-02 -8.359151106316594e-04 1.319535801664816e-03 -8.359151106316593e-04 7.410377959301649e-03
-2.184444693775807e-02 4.254835746652372e-02 -7.090910228128868e-04 4.254835746652372e-02 1.446199512925800e-02 4.997635029307058e-04 -7.090910228128866e-04 4.997635029307058e-04 7.382451808500074e-03
-5.862744436302079e-02 1.208801339449123e-01 -5.546394112890019e-03 1.208801339449124e-01 1.512649741735741e-02 4.051810523842491e-03 -5.546394112890018e-03 4.051810523842491e-03 4.350094694566334e-02
-5.884262038218872e-02 1.215331384680153e-01 5.805096646916701e-05 1.215331384680153e-01 1.484724575911570e-02 -6.563437227141044e-05 5.805096646916739e-05 -6.563437227141046e-05 4.399537462307306e-02
-1.602001090613436e-02 4.701684708912340e-02 1.213389611034254e-03 4.701684708912340e-02 7.640405165463075e-03 -8.027128400418951e-04 1.213389611034254e-03 -8.027128400418951e-04 8.379605740671276e-03
-1.599821652425330e-02 4.707709085809215e-02 -6.487194888887223e-04 4.707709085809217e-02 7.664711693802977e-03 4.564603774252782e-04 -6.487194888887228e-04 4.564603774252781e-04 8.333504830450318e-03
-4.757102772800635e-02 1.309459061979036e-01 -5.348648739051835e-03 1.309459061979036e-01 1.155064200241829e-03 3.834219757349918e-03 -5.348648739051831e-03 3.834219757349918e-03 4.641596352776454e-02
-4.774338662884403e-02 1.316325560713143e-01 4.410964622183846e-05 1.316325560713143e-01 8.586780080391365e-04 -5.314509584957474e-05 4.410964622183824e-05 -5.314509584957464e-05 4.688470862080491e-02
-9.237822398988000e-03 1.532259143375109e-02 1.014427514098749e-04 1.532259143375108e-02 2.622226095973586e-02 1.799066178146816e-05 1.014427514098749e-04 1.799066178146815e-05 -1.698443856074785e-02
-9.280179120114782e-03 1.529157356720371e-02 -1.037434253950318e-04 1.529157356720371e-02 2.626060912354537e-02 1.552875444672541e-05 -1.037434253950318e-04 1.552875444672541e-05 -1.698043000343055e-02
-5.289110075225137e-03 8.656331452088219e-03 -5.640862577985153e-05 8.656331452088219e-03 1.353240821201860e-02 -2.613454196194135e-05 -5.640862577985151e-05 -2.613454196194135e-05 -8.243298136793474e-03
-5.268455953411933e-03 8.672811656306042e-03 7.267862772782172e-05 8.672811656306042e-03 1.350218052987930e-02 3.439339929338726e-05 7.267862772782172e-05 3.439339929338725e-05 -8.233724576467373e-03
-4.214338822439330e-03 1.708731392315027e-02 8.574481415626775e-05 1.708731392315027e-02 2.050771670540456e-02 -1.491567094771495e-06 8.574481415626770e-05 -1.491567094771500e-06 -1.629337788296523e-02
-4.208005945336215e-03 1.710899112341181e-02 -1.144232093224572e-04 1.710899112341181e-02 2.049527412832394e-02 3.028482491111269e-06 -1.144232093224572e-04 3.028482491111286e-06 -1.628726818298772e-02
-2.390896261694526e-03 9.196016356075891e-03 -5.150562505318566e-05 9.196016356075891e-03 1.013927793047979e-02 1.608781489540956e-06 -5.150562505318565e-05 1.608781489540953e-06 -7.748381668785263e-03
-2.394986088594700e-03 9.186724564796130e-03 5.023444859120600e-05 9.186724564796130e-03 1.013807024588511e-02 -2.328582254016153e-05 5.023444859120600e-05 -2.328582254016153e-05 -7.743084157290407e-03
-5.268455953411933e-03 8.672811656306042e-03 7.267862772782172e-05 8.672811656306042e-03 1.350218052987930e-02 3.439339929338726e-05 7.267862772782172e-05 3.439339929338725e-05 -8.233724576467373e-03
-5.289110075225137e-03 8.656331452088219e-03 -5.640862577985153e-05 8.656331452088219e-03 1.353240821201860e-02 -2.613454196194135e-05 -5.640862577985151e-05 -2.613454196194135e-05 -8.243298136793474e-03
-6.568205762653686e-03 1.090732465696620e-02 -6.799807090041389e-05 1.090732465696620e-02 1.439781712127998e-02 -6.427375719884053e-05 -6.799807090041389e-05 -6.427375719884056e-05 -7.829611358626294e-03
-6.555748905116640e-03 1.090355723439238e-02 6.201946141581137e-05 1.090355723439237e-02 1.436934131607756e-02 8.369592117372812e-05 6.201946141581138e-05 8.369592117372813e-05 -7.813592410960916e-03
-2.394986088594700e-03 9.186724564796130e-03 5.023444859120600e-05 9.186724564796130e-03 1.013807024588511e-02 -2.328582254016153e-05 5.023444859120600e-05 -2.328582254016153e-05 -7.743084157290407e-03
-2.390896261694526e-03 9.196016356075891e-03 -5.150562505318566e-05 9.196016356075891e-03 1.013927793047979e-02 1.608781489540956e-06 -5.150562505318565e-05 1.608781489540953e-06 -7.748381668785263e-03
-3.130067925549949e-03 1.080670202398067e-02 -4.955447259505039e-05 1.080670202398067e-02 1.024175550990179e-02 -2.622622212183450e-06 -4.955447259505041e-05 -2.622622212183450e-06 -7.111687584351847e-03
-3.127271742571023e-03 1.079525209794887e-02 2.973951684101285e-05 1.079525209794887e-02 1.022617974348024e-02 -2.183243589223236e-05 2.973951684101287e-05 -2.183243589223237e-05 -7.098908000909210e-03
-6.555748905116640e-03 1.090355723439238e-02 6.201946141581137e-05 1.090355723439237e-02 1.436934131607756e-02 8.369592117372812e-05 6.201946141581138e-05 8.369592117372813e-05 -7.813592410960916e-03
-6.568205762653686e-03 1.090732465696620e-02 -6.799807090041389e-05 1.090732465696620e-02 1.439781712127998e-02 -6.427375719884053e-05 -6.799807090041389e-05 -6.427375719884056e-05 -7.829611358626294e-03
-7.606528347037866e-03 1.487492610492374e-02 -1.001980881424259e-04 1.487492610492373e-02 1.522767960606534e-02 -4.421053009885581e-05 -1.001980881424259e-04 -4.421053009885581e-05 -7.621151259027467e-03
-7.606749211232425e-03 1.483744103856820e-02 8.675682564950990e-05 1.483744103856820e-02 1.522703677122409e-02 7.645199615267720e-05 8.675682564950990e-05 7.645199615267718e-05 -7.620287559991667e-03
-3.127271742571023e-03 1.079525209794887e-02 2.973951684101285e-05 1.079525209794887e-02 1.022617974348024e-02 -2.183243589223236e-05 2.973951684101287e-05 -2.183243589223237e-05 -7.098908000909210e-03
-3.130067925549949e-03 1.080670202398067e-02 -4.955447259505039e-05 1.080670202398067e-02 1.024175550990179e-02 -2.622622212183450e-06 -4.955447259505041e-05 -2.622622212183450e-06 -7.111687584351847e-03
-3.956213632889392e-03 1.408491794377777e-02 -6.960662951122785e-05 1.408491794377777e-02 1.065352033423826e-02 3.163129317727527e-06 -6.960662951122784e-05 3.163129317727523e-06 -6.697306701348870e-03
-3.946149889399608e-03 1.405665845068376e-02 4.334682028175332e-05 1.405665845068376e-02 1.063511314021793e-02 -7.812670225153778e-06 4.334682028175332e-05 -7.812670225153777e-06 -6.688963250818320e-03
-7.606749211232425e-03 1.483744103856820e-02 8.675682564950990e-05 1.483744103856820e-02 1.522703677122409e-02 7.645199615267720e-05 8.675682564950990e-05 7.645199615267718e-05 -7.620287559991667e-03
-7.606528347037866e-03 1.487492610492374e-02 -1.001980881424259e-04 1.487492610492373e-02 1.522767960606534e-02 -4.421053009885581e-05 -1.001980881424259e-04 -4.421053009885581e-05 -7.621151259027467e-03
-8.643972496542435e-03 2.082760937665243e-02 -1.728106224282220e-04 2.082760937665242e-02 1.499017942712299e-02 2.280711160269254e-05 -1.728106224282220e-04 2.280711160269252e-05 -6.346206930580549e-03
-8.642373022508818e-03 2.075410678954110e-02 1.495085253936429e-04 2.075410678954110e-02 1.500909676444254e-02 -1.604115721328526e-06 1.495085253936429e-04 -1.604115721328516e-06 -6.366723741933734e-03
-3.946149889399608e-03 1.405665845068376e-02 4.334682028175332e-05 1.405665845068376e-02 1.063511314021793e-02 -7.812670225153778e-06 4.334682028175332e-05 -7.812670225153777e-06 -6.688963250818320e-03
-3.956213632889392e-03 1.408491794377777e-02 -6.960662951122785e-05 1.408491794377777e-02 1.065352033423826e-02 3.163129317727527e-06 -6.960662951122784e-05 3.163129317727523e-06 -6.697306701348870e-03
-4.992769361693725e-03 2.002045873171508e-02 -1.376746638365997e-04 2.002045873171510e-02 1.056830327507922e-02 5.010643653975976e-05 -1.376746638365997e-04 5.010643653975976e-05 -5.575533913385496e-03
-4.979856567813112e-03 1.995306119131636e-02 9.807164402936368e-05 1.995306119131635e-02 1.057449883990623e-02 -2.452688436679465e-05 9.807164402936372e-05 -2.452688436679465e-05 -5.594642272093122e-03
-8.642373022508818e-03 2.075410678954110e-02 1.495085253936429e-04 2.075410678954110e-02 1.500909676444254e-02 -1.604115721328526e-06 1.495085253936429e-04 -1.604115721328516e-06 -6.366723741933734e-03
-8.643972496542435e-03 2.082760937665243e-02 -1.728106224282220e-04 2.082760937665242e-02 1.499017942712299e-02 2.280711160269254e-05 -1.728106224282220e-04 2.280711160269252e-05 -6.346206930580549e-03
-1.020464711700459e-02 3.004174512242189e-02 -5.391064805830588e-04 3.004174512242188e-02 1.347569669325695e-02 3.061962796918029e-04 -5.391064805830589e-04 3.061962796918030e-04 -3.271049576252362e-03
-1.013681152599934e-02 2.982193079496512e-02 2.939667083755248e-04 2.982193079496512e-02 1.352672364487491e-02 -1.443044284411455e-04 2.939667083755249e-04 -1.443044284411455e-04 -3.389912118875571e-03
-4.979856567813112e-03 1.995306119131636e-02 9.807164402936368e-05 1.995306119131635e-02 1.057449883990623e-02 -2.452688436679465e-05 9.807164402936372e-05 -2.452688436679465e-05 -5.594642272093122e-03
-4.992769361693725e-03 2.002045873171508e-02 -1.376746638365997e-04 2.002045873171510e-02 1.056830327507922e-02 5.010643653975976e-05 -1.376746638365997e-04 5.010643653975976e-05 -5.575533913385496e-03
-6.535343650776353e-03 3.032048430973215e-02 -5.104939788634925e-04 3.032048430973214e-02 9.232786379117366e-03 3.244619236309445e-04 -5.104939788634925e-04 3.244619236309444e-04 -2.697442728341010e-03
-6.462215051248768e-03 3.008759262548265e-02 2.690876902433875e-04 3.008759262548266e-02 9.289374251484210e-03 -1.493903639378849e-04 2.690876902433874e-04 -1.493903639378849e-04 -2.827159200235438e-03
-1.013681152599934e-02 2.982193079496512e-02 2.939667083755248e-04 2.982193079496512e-02 1.352672364487491e-02 -1.443044284411455e-04 2.939667083755249e-04 -1.443044284411455e-04 -3.389912118875571e-03
-1.020464711700459e-02 3.004174512242189e-02 -5.391064805830588e-04 3.004174512242188e-02 1.347569669325695e-02 3.061962796918029e-04 -5.391064805830589e-04 3.061962796918030e-04 -3.271049576252362e-03
-1.599821652425330e-02 4.707709085809215e-02 -6.487194888887223e-04 4.707709085809217e-02 7.664711693802977e-03 4.564603774252782e-04 -6.487194888887228e-04 4.564603774252781e-04 8.333504830450318e-03
-1.602001090613436e-02 4.701684708912340e-02 1.213389611034254e-03 4.701684708912340e-02 7.640405165463075e-03 -8.027128400418951e-04 1.213389611034254e-03 -8.027128400418951e-04 8.379605740671276e-03
-6.462215051248768e-03 3.008759262548265e-02 2.690876902433875e-04 3.008759262548266e-02 9.289374251484210e-03 -1.493903639378849e-04 2.690876902433874e-04 -1.493903639378849e-04 -2.827159200235438e-03
-6.535343650776353e-03 3.032048430973215e-02 -5.104939788634925e-04 3.032048430973214e-02 9.232786379117366e-03 3.244619236309445e-04 -5.104939788634925e-04 3.244619236309444e-04 -2.697442728341010e-03
-1.258726144774765e-02 4.890015242275063e-02 -5.985142602462950e-04 4.890015242275061e-02 3.258160502785567e-03 4.521568789678816e-04 -5.985142602462953e-04 4.521568789678815e-04 9.329100944962081e-03
-1.261790213985377e-02 4.882123835941918e-02 1.200748974533345e-03 4.882123835941919e-02 3.236206164079200e-03 -7.989854247139227e-04 1.200748974533345e-03 -7.989854247139227e-04 9.381695975774576e-03
-1.602001090613436e-02 4.701684708912340e-02 1.213389611034254e-03 4.701684708912340e-02 7.640405165463075e-03 -8.027128400418951e-04 1.213389611034254e-03 -8.027128400418951e-04 8.379605740671276e-03
-1.599821652425330e-02 4.707709085809215e-02 -6.487194888887223e-04 4.707709085809217e-02 7.664711693802977e-03 4.564603774252782e-04 -6.487194888887228e-04 4.564603774252781e-04 8.333504830450318e-03
-4.757102772800635e-02 1.309459061979036e-01 -5.348648739051835e-03 1.309459061979036e-01 1.155064200241829e-03 3.834219757349918e-03 -5.348648739051831e-03 3.834219757349918e-03 4.641596352776454e-02
-4.774338662884403e-02 1.316325560713143e-01 4.410964622183846e-05 1.316325560713143e-01 8.586780080391365e-04 -5.314509584957474e-05 4.410964622183824e-05 -5.314509584957464e-05 4.688470862080491e-02
-1.261790213985377e-02 4.882123835941918e-02 1.200748974533345e-03 4.882123835941919e-02 3.236206164079200e-03 -7.989854247139227e-04 1.200748974533345e-03 -7.989854247139227e-04 9.381695975774576e-03
-1.258726144774765e-02 4.890015242275063e-02 -5.985142602462950e-04 4.890015242275061e-02 3.258160502785567e-03 4.521568789678816e-04 -5.985142602462953e-04 4.521568789678815e-04 9.329100944962081e-03
-4.151067250631557e-02 1.364367031282321e-01 -5.527222525976393e-03 1.364367031282321e-01 -8.436494865996522e-03 3.824074049985934e-03 -5.527222525976394e-03 3.824074049985934e-03 4.994716737231207e-02
-4.167127120423894e-02 1.371523865810666e-01 4.204307548420975e-05 1.371523865810665e-01 -8.743894507081646e-03 -5.107298713096409e-05 4.204307548420967e-05 -5.107298713096409e-05 5.041516571132061e-02
-4.214338822439330e-03 1.708731392315027e-02 8.574481415626775e-05 1.708731392315027e-02 2.050771670540456e-02 -1.491567094771495e-06 8.574481415626770e-05 -1.491567094771500e-06 -1.629337788296523e-02
-4.208005945336215e-03 1.710899112341181e-02 -1.144232093224572e-04 1.710899112341181e-02 2.049527412832394e-02 3.028482491111269e-06 -1.144232093224572e-04 3.028482491111286e-06 -1.628726818298772e-02
-2.390896261694526e-03 9.196016356075891e-03 -5.150562505318566e-05 9.196016356075891e-03 1.013927793047979e-02 1.608781489540956e-06 -5.150562505318565e-05 1.608781489540953e-06 -7.748381668785263e-03
-2.394986088594700e-03 9.186724564796130e-03 5.023444859120600e-05 9.186724564796130e-03 1.013807024588511e-02 -2.328582254016153e-05 5.023444859120600e-05 -2.328582254016153e-05 -7.743084157290407e-03
5.366837359734825e-05 1.806446482896924e-02 3.172324085683051e-05 1.806446482896924e-02 1.547911114983880e-02 1.863830174133564e-05 3.172324085683053e-05 1.863830174133564e-05 -1.553277952343615e-02
6.079432373304924e-05 1.808579993357919e-02 -6.098016956339157e-05 1.808579993357919e-02 1.546269476414757e-02 -1.298977058787601e-05 -6.098016956339156e-05 -1.298977058787602e-05 -1.552348908788063e-02
-7.947002606427706e-05 9.931691023983618e-03 -2.526131464350784e-05 9.931691023983620e-03 7.788146930171135e-03 8.924663255120648e-06 -2.526131464350785e-05 8.924663255120643e-06 -7.708676904106857e-03
-8.475517141129032e-05 9.923867568084960e-03 2.685141579673887e-05 9.923867568084960e-03 7.796816316048437e-03 -1.285726629870535e-05 2.685141579673887e-05 -1.285726629870535e-05 -7.712061144637147e-03
-2.394986088594700e-03 9.186724564796130e-03 5.023444859120600e-05 9.186724564796130e-03 1.013807024588511e-02 -2.328582254016153e-05 5.023444859120600e-05 -2.328582254016153e-05 -7.743084157290407e-03
-2.390896261694526e-03 9.196016356075891e-03 -5.150562505318566e-05 9.196016356075891e-03 1.013927793047979e-02 1.608781489540956e-06 -5.150562505318565e-05 1.608781489540953e-06 -7.748381668785263e-03
-3.130067925549949e-03 1.080670202398067e-02 -4.955447259505039e-05 1.080670202398067e-02 1.024175550990179e-02 -2.622622212183450e-06 -4.955447259505041e-05 -2.622622212183450e-06 -7.111687584351847e-03
-3.127271742571023e-03 1.079525209794887e-02 2.973951684101285e-05 1.079525209794887e-02 1.022617974348024e-02 -2.183243589223236e-05 2.973951684101287e-05 -2.183243589223237e-05 -7.098908000909210e-03
-8.475517141129032e-05 9.923867568084960e-03 2.685141579673887e-05 9.923867568084960e-03 7.796816316048437e-03 -1.285726629870535e-05 2.685141579673887e-05 -1.285726629870535e-05 -7.712061144637147e-03
-7.947002606427706e-05 9.931691023983618e-03 -2.526131464350784e-05 9.931691023983620e-03 7.788146930171135e-03 8.924663255120648e-06 -2.526131464350785e-05 8.924663255120643e-06 -7.708676904106857e-03
-5.023652609271193e-04 1.160138749465588e-02 -3.272073489427465e-05 1.160138749465588e-02 7.726466818752027e-03 3.034122869731043e-05 -3.272073489427464e-05 3.034122869731043e-05 -7.224101557824908e-03
-5.035026070497867e-04 1.159129672327828e-02 2.060343848696344e-05 1.159129672327828e-02 7.731853395151934e-03 -3.294288538456026e-05 2.060343848696344e-05 -3.294288538456027e-05 -7.228350788102142e-03
-3.127271742571023e-03 1.079525209794887e-02 2.973951684101285e-05 1.079525209794887e-02 1.022617974348024e-02 -2.183243589223236e-05 2.973951684101287e-05 -2.183243589223237e-05 -7.098908000909210e-03
-3.130067925549949e-03 1.080670202398067e-02 -4.955447259505039e-05 1.080670202398067e-02 1.024175550990179e-02 -2.622622212183450e-06 -4.955447259505041e-05 -2.622622212183450e-06 -7.111687584351847e-03
-3.956213632889392e-03 1.408491794377777e-02 -6.960662951122785e-05 1.408491794377777e-02 1.065352033423826e-02 3.163129317727527e-06 -6.960662951122784e-05 3.163129317727523e-06 -6.697306701348870e-03
-3.946149889399608e-03 1.405665845068376e-02 4.334682028175332e-05 1.405665845068376e-02 1.063511314021793e-02 -7.812670225153778e-06 4.334682028175332e-05 -7.812670225153777e-06 -6.688963250818320e-03
-5.035026070497867e-04 1.159129672327828e-02 2.060343848696344e-05 1.159129672327828e-02 7.731853395151934e-03 -3.294288538456026e-05 2.060343848696344e-05 -3.294288538456027e-05 -7.228350788102142e-03
-5.023652609271193e-04 1.160138749465588e-02 -3.272073489427465e-05 1.160138749465588e-02 7.726466818752027e-03 3.034122869731043e-05 -3.272073489427464e-05 3.034122869731043e-05 -7.224101557824908e-03
-1.055077120166139e-03 1.438055713005807e-02 -5.916738841919911e-05 1.438055713005807e-02 7.696497440498501e-03 4.809737115599785e-05 -5.916738841919909e-05 4.809737115599785e-05 -6.641420320332355e-03
-1.047238754018867e-03 1.436091088809508e-02 4.606250334459796e-05 1.436091088809509e-02 7.691852554026147e-03 -5.501973141288310e-05 4.606250334459798e-05 -5.501973141288308e-05 -6.644613800007280e-03
-3.946149889399608e-03 1.405665845068376e-02 4.334682028175332e-05 1.405665845068376e-02 1.063511314021793e-02 -7.812670225153778e-06 4.334682028175332e-05 -7.812670225153777e-06 -6.688963250818320e-03
-3.956213632889392e-03 1.408491794377777e-02 -6.960662951122785e-05 1.408491794377777e-02 1.065352033423826e-02 3.163129317727527e-06 -6.960662951122784e-05 3.163129317727523e-06 -6.697306701348870e-03
-4.992769361693725e-03 2.002045873171508e-02 -1.376746638365997e-04 2.002045873171510e-02 1.056830327507922e-02 5.010643653975976e-05 -1.376746638365997e-04 5.010643653975976e-05 -5.575533913385496e-03
-4.979856567813112e-03 1.995306119131636e-02 9.807164402936368e-05 1.995306119131635e-02 1.057449883990623e-02 -2.452688436679465e-05 9.807164402936372e-05 -2.452688436679465e-05 -5.594642272093122e-03
-1.047238754018867e-03 1.436091088809508e-02 4.606250334459796e-05 1.436091088809509e-02 7.691852554026147e-03 -5.501973141288310e-05 4.606250334459798e-05 -5.501973141288308e-05 -6.644613800007280e-03
-1.055077120166139e-03 1.438055713005807e-02 -5.916738841919911e-05 1.438055713005807e-02 7.696497440498501e-03 4.809737115599785e-05 -5.916738841919909e-05 4.809737115599785e-05 -6.641420320332355e-03
-2.053910276144335e-03 1.944515768437270e-02 -1.308395897073473e-04 1.944515768437270e-02 7.309579553596670e-03 8.288436278030439e-05 -1.308395897073474e-04 8.288436278030439e-05 -5.255669277452338e-03
-2.038454570123475e-03 1.938866605069271e-02 8.754840090039220e-05 1.938866605069272e-02 7.313917955117331e-03 -5.853984968504534e-05 8.754840090039221e-05 -5.853984968504535e-05 -5.275463384993856e-03
-4.979856567813112e-03 1.995306119131636e-02 9.807164402936368e-05 1.995306119131635e-02 1.057449883990623e-02 -2.452688436679465e-05 9.807164402936372e-05 -2.452688436679465e-05 -5.594642272093122e-03
-4.992769361693725e-03 2.002045873171508e-02 -1.376746638365997e-04 2.002045873171510e-02 1.056830327507922e-02 5.010643653975976e-05 -1.376746638365997e-04 5.010643653975976e-05 -5.575533913385496e-03
-6.535343650776353e-03 3.032048430973215e-02 -5.104939788634925e-04 3.032048430973214e-02 9.232786379117366e-03 3.244619236309445e-04 -5.104939788634925e-04 3.244619236309444e-04 -2.697442728341010e-03
-6.462215051248768e-03 3.008759262548265e-02 2.690876902433875e-04 3.008759262548266e-02 9.289374251484210e-03 -1.493903639378849e-04 2.690876902433874e-04 -1.493903639378849e-04 -2.827159200235438e-03
-2.038454570123475e-03 1.938866605069271e-02 8.754840090039220e-05 1.938866605069272e-02 7.313917955117331e-03 -5.853984968504534e-05 8.754840090039221e-05 -5.853984968504535e-05 -5.275463384993856e-03
-2.053910276144335e-03 1.944515768437270e-02 -1.308395897073473e-04 1.944515768437270e-02 7.309579553596670e-03 8.288436278030439e-05 -1.308395897073474e-04 8.288436278030439e-05 -5.255669277452338e-03
-3.722434025394940e-03 2.935931726145292e-02 -5.093717956305536e-04 2.935931726145292e-02 6.005128810564558e-03 3.478643397982289e-04 -5.093717956305536e-04 3.478643397982290e-04 -2.282694785169617e-03
-3.643915557368180e-03 2.911398303582028e-02 2.450792126932171e-04 2.911398303582028e-02 6.064541384227582e-03 -1.660725154464062e-04 2.450792126932170e-04 -1.660725154464061e-04 -2.420625826859404e-03
-6.462215051248768e-03 3.008759262548265e-02 2.690876902433875e-04 3.008759262548266e-02 9.289374251484210e-03 -1.493903639378849e-04 2.690876902433874e-04 -1.493903639378849e-04 -2.827159200235438e-03
-6.535343650776353e-03 3.032048430973215e-02 -5.104939788634925e-04 3.032048430973214e-02 9.232786379117366e-03 3.244619236309445e-04 -5.104939788634925e-04 3.244619236309444e-04 -2.697442728341010e-03
-1.258726144774765e-02 4.890015242275063e-02 -5.985142602462950e-04 4.890015242275061e-02 3.258160502785567e-03 4.521568789678816e-04 -5.985142602462953e-04 4.521568789678815e-04 9.329100944962081e-03
-1.261790213985377e-02 4.882123835941918e-02 1.200748974533345e-03 4.882123835941919e-02 3.236206164079200e-03 -7.989854247139227e-04 1.200748974533345e-03 -7.989854247139227e-04 9.381695975774576e-03
-3.643915557368180e-03 2.911398303582028e-02 2.450792126932171e-04 2.911398303582028e-02 6.064541384227582e-03 -1.660725154464062e-04 2.450792126932170e-04 -1.660725154464061e-04 -2.420625826859404e-03
-3.722434025394940e-03 2.935931726145292e-02 -5.093717956305536e-04 2.935931726145292e-02 6.005128810564558e-03 3.478643397982289e-04 -5.093717956305536e-04 3.478643397982290e-04 -2.282694785169617e-03
-1.012104563747421e-02 4.898515895748518e-02 -5.751960381657649e-04 4.898515895748519e-02 -1.691245892866304e-04 4.793612025591836e-04 -5.751960381657648e-04 4.793612025591836e-04 1.029017022676084e-02
-1.015965980140505e-02 4.887696966428508e-02 1.172731125671737e-03 4.887696966428507e-02 -1.942507067001371e-04 -8.148059616537716e-04 1.172731125671737e-03 -8.148059616537718e-04 1.035391050810519e-02
-1.261790213985377e-02 4.882123835941918e-02 1.200748974533345e-03 4.882123835941919e-02 3.236206164079200e-03 -7.989854247139227e-04 1.200748974533345e-03 -7.989854247139227e-04 9.381695975774576e-03
-1.258726144774765e-02 4.890015242275063e-02 -5.985142602462950e-04 4.890015242275061e-02 3.258160502785567e-03 4.521568789678816e-04 -5.985142602462953e-04 4.521568789678815e-04 9.329100944962081e-03
-4.151067250631557e-02 1.364367031282321e-01 -5.527222525976393e-03 1.364367031282321e-01 -8.436494865996522e-03 3.824074049985934e-03 -5.527222525976394e-03 3.824074049985934e-03 4.994716737231207e-02
-4.167127120423894e-02 1.371523865810666e-01 4.204307548420975e-05 1.371523865810665e-01 -8.743894507081646e-03 -5.107298713096409e-05 4.204307548420967e-05 -5.107298713096409e-05 5.041516571132061e-02
-1.015965980140505e-02 4.887696966428508e-02 1.172731125671737e-03 4.887696966428507e-02 -1.942507067001371e-04 -8.148059616537716e-04 1.172731125671737e-03 -8.148059616537718e-04 1.035391050810519e-02
-1.012104563747421e-02 4.898515895748518e-02 -5.751960381657649e-04 4.898515895748519e-02 -1.691245892866304e-04 4.793612025591836e-04 -5.751960381657648e-04 4.793612025591836e-04 1.029017022676084e-02
-3.799575964871905e-02 1.395658370574271e-01 -5.729715823870096e-03 1.395658370574270e-01 -1.665058642638387e-02 3.918060203582879e-03 -5.729715823870096e-03 3.918060203582879e-03 5.464634607510291e-02
-3.814139846090897e-02 1.403076220577111e-01 4.131211051688186e-05 1.403076220577111e-01 -1.696354916004534e-02 -5.324010726583583e-05 4.131211051688205e-05 -5.324010726583589e-05 5.510494762095430e-02
5.366837359734825e-05 1.806446482896924e-02 3.172324085683051e-05 1.806446482896924e-02 1.547911114983880e-02 1.863830174133564e-05 3.172324085683053e-05 1.863830174133564e-05 -1.553277952343615e-02
6.079432373304924e-05 1.808579993357919e-02 -6.098016956339157e-05 1.808579993357919e-02 1.546269476414757e-02 -1.298977058787601e-05 -6.098016956339156e-05 -1.298977058787602e-05 -1.552348908788063e-02
-7.947002606427706e-05 9.931691023983618e-03 -2.526131464350784e-05 9.931691023983620e-03 7.788146930171135e-03 8.924663255120648e-06 -2.526131464350785e-05 8.924663255120643e-06 -7.708676904106857e-03
-8.475517141129032e-05 9.923867568084960e-03 2.685141579673887e-05 9.923867568084960e-03 7.796816316048437e-03 -1.285726629870535e-05 2.685141579673887e-05 -1.285726629870535e-05 -7.712061144637147e-03
3.781786768887734e-03 1.830540025647018e-02 1.654870808960513e-06 1.830540025647018e-02 1.107743979509813e-02 3.182067918079364e-05 1.654870808960520e-06 3.182067918079364e-05 -1.485922656398587e-02
3.783570414713669e-03 1.832060265876966e-02 -1.648218681168193e-05 1.832060265876966e-02 1.106980356812552e-02 -1.928008268008760e-05 -1.648218681168195e-05 -1.928008268008760e-05 -1.485337398283919e-02
1.936810678959413e-03 1.033127851562504e-02 -6.546390711953632e-06 1.033127851562504e-02 5.698206790006113e-03 -4.795080433639187e-07 -6.546390711953632e-06 -4.795080433639123e-07 -7.635017468965527e-03
1.934780075935884e-03 1.032573993207826e-02 1.068514506803720e-05 1.032573993207826e-02 5.703076431144876e-03 2.002538822771040e-06 1.068514506803720e-05 2.002538822771037e-06 -7.637856507080755e-03
-8.475517141129032e-05 9.923867568084960e-03 2.685141579673887e-05 9.923867568084960e-03 7.796816316048437e-03 -1.285726629870535e-05 2.685141579673887e-05 -1.285726629870535e-05 -7.712061144637147e-03
-7.947002606427706e-05 9.931691023983618e-03 -2.526131464350784e-05 9.931691023983620e-03 7.788146930171135e-03 8.924663255120648e-06 -2.526131464350785e-05 8.924663255120643e-06 -7.708676904106857e-03
-5.023652609271193e-04 1.160138749465588e-02 -3.272073489427465e-05 1.160138749465588e-02 7.726466818752027e-03 3.034122869731043e-05 -3.272073489427464e-05 3.034122869731043e-05 -7.224101557824908e-03
-5.035026070497867e-04 1.159129672327828e-02 2.060343848696344e-05 1.159129672327828e-02 7.731853395151934e-03 -3.294288538456026e-05 2.060343848696344e-05 -3.294288538456027e-05 -7.228350788102142e-03
1.934780075935884e-03 1.032573993207826e-02 1.068514506803720e-05 1.032573993207826e-02 5.703076431144876e-03 2.002538822771040e-06 1.068514506803720e-05 2.002538822771037e-06 -7.637856507080755e-03
1.936810678959413e-03 1.033127851562504e-02 -6.546390711953632e-06 1.033127851562504e-02 5.698206790006113e-03 -4.795080433639187e-07 -6.546390711953632e-06 -4.795080433639123e-07 -7.635017468965527e-03
1.735451806347520e-03 1.236465647856067e-02 -2.171879608466464e-05 1.236465647856067e-02 5.670316590986360e-03 2.117002183522558e-05 -2.171879608466465e-05 2.117002183522558e-05 -7.405768397333885e-03
1.735974740019147e-03 1.235316109688219e-02 9.380300418257245e-06 1.235316109688218e-02 5.679265654993290e-03 -1.392451639501936e-05 9.380300418257240e-06 -1.392451639501937e-05 -7.415240395012439e-03
-5.035026070497867e-04 1.159129672327828e-02 2.060343848696344e-05 1.159129672327828e-02 7.731853395151934e-03 -3.294288538456026e-05 2.060343848696344e-05 -3.294288538456027e-05 -7.228350788102142e-03
-5.023652609271193e-04 1.160138749465588e-02 -3.272073489427465e-05 1.160138749465588e-02 7.726466818752027e-03 3.034122869731043e-05 -3.272073489427464e-05 3.034122869731043e-05 -7.224101557824908e-03
-1.055077120166139e-03 1.438055713005807e-02 -5.916738841919911e-05 1.438055713005807e-02 7.696497440498501e-03 4.809737115599785e-05 -5.916738841919909e-05 4.809737115599785e-05 -6.641420320332355e-03
-1.047238754018867e-03 1.436091088809508e-02 4.606250334459796e-05 1.436091088809509e-02 7.691852554026147e-03 -5.501973141288310e-05 4.606250334459798e-05 -5.501973141288308e-05 -6.644613800007280e-03
1.735974740019147e-03 1.235316109688219e-02 9.380300418257245e-06 1.235316109688218e-02 5.679265654993290e-03 -1.392451639501936e-05 9.380300418257240e-06 -1.392451639501937e-05 -7.415240395012439e-03
1.735451806347520e-03 1.236465647856067e-02 -2.171879608466464e-05 1.236465647856067e-02 5.670316590986360e-03 2.117002183522558e-05 -2.171879608466465e-05 2.117002183522558e-05 -7.405768397333885e-03
1.406883673977739e-03 1.525431505568617e-02 -5.636389623014650e-05 1.525431505568617e-02 5.510005993432938e-03 4.932204014782988e-05 -5.636389623014649e-05 4.932204014782988e-05 -6.916889667410678e-03
1.412245620740987e-03 1.523535380798362e-02 5.247854210859029e-05 1.523535380798362e-02 5.517814305112351e-03 -5.500916808279999e-05 5.247854210859028e-05 -5.500916808279999e-05 -6.930059925853337e-03
-1.047238754018867e-03 1.436091088809508e-02 4.606250334459796e-05 1.436091088809509e-02 7.691852554026147e-03 -5.501973141288310e-05 4.606250334459798e-05 -5.501973141288308e-05 -6.644613800007280e-03
-1.055077120166139e-03 1.438055713005807e-02 -5.916738841919911e-05 1.438055713005807e-02 7.696497440498501e-03 4.809737115599785e-05 -5.916738841919909e-05 4.809737115599785e-05 -6.641420320332355e-03
-2.053910276144335e-03 1.944515768437270e-02 -1.308395897073473e-04 1.944515768437270e-02 7.309579553596670e-03 8.288436278030439e-05 -1.308395897073474e-04 8.288436278030439e-05 -5.255669277452338e-03
-2.038454570123475e-03 1.938866605069271e-02 8.754840090039220e-05 1.938866605069272e-02 7.313917955117331e-03 -5.853984968504534e-05 8.754840090039221e-05 -5.853984968504535e-05 -5.275463384993856e-03
1.412245620740987e-03 1.523535380798362e-02 5.247854210859029e-05 1.523535380798362e-02 5.517814305112351e-03 -5.500916808279999e-05 5.247854210859028e-05 -5.500916808279999e-05 -6.930059925853337e-03
1.406883673977739e-03 1.525431505568617e-02 -5.636389623014650e-05 1.525431505568617e-02 5.510005993432938e-03 4.932204014782988e-05 -5.636389623014649e-05 4.932204014782988e-05 -6.916889667410678e-03
5.251751232282022e-04 1.973202943610518e-02 -1.319038051511991e-04 1.973202943610517e-02 4.852914086026658e-03 9.053585747007557e-05 -1.319038051511990e-04 9.053585747007556e-05 -5.378089209254857e-03
5.395634759886917e-04 1.968279845566148e-02 8.948367023694159e-05 1.968279845566148e-02 4.864814243196501e-03 -7.611250735395521e-05 8.948367023694159e-05 -7.611250735395521e-05 -5.404377719185192e-03
-2.038454570123475e-03 1.938866605069271e-02 8.754840090039220e-05 1.938866605069272e-02 7.313917955117331e-03 -5.853984968504534e-05 8.754840090039221e-05 -5.853984968504535e-05 -5.275463384993856e-03
-2.053910276144335e-03 1.944515768437270e-02 -1.308395897073473e-04 1.944515768437270e-02 7.309579553596670e-03 8.288436278030439e-05 -1.308395897073474e-04 8.288436278030439e-05 -5.255669277452338e-03
-3.722434025394940e-03 2.935931726145292e-02 -5.093717956305536e-04 2.935931726145292e-02 6.005128810564558e-03 3.478643397982289e-04 -5.093717956305536e-04 3.478643397982290e-04 -2.282694785169617e-03
-3.643915557368180e-03 2.911398303582028e-02 2.450792126932171e-04 2.911398303582028e-02 6.064541384227582e-03 -1.660725154464062e-04 2.450792126932170e-04 -1.660725154464061e-04 -2.420625826859404e-03
5.395634759886917e-04 1.968279845566148e-02 8.948367023694159e-05 1.968279845566148e-02 4.864814243196501e-03 -7.611250735395521e-05 8.948367023694159e-05 -7.611250735395521e-05 -5.404377719185192e-03
5.251751232282022e-04 1.973202943610518e-02 -1.319038051511991e-04 1.973202943610517e-02 4.852914086026658e-03 9.053585747007557e-05 -1.319038051511990e-04 9.053585747007556e-05 -5.378089209254857e-03
-1.196283854950623e-03 2.850522269862692e-02 -5.156345564561028e-04 2.850522269862690e-02 3.425598330462994e-03 3.560178253027818e-04 -5.156345564561028e-04 3.560178253027818e-04 -2.229314475512373e-03
-1.109898876293332e-03 2.825750701774726e-02 2.385859815831778e-04 2.825750701774726e-02 3.493505687136147e-03 -1.757169759909469e-04 2.385859815831779e-04 -1.757169759909469e-04 -2.383606810842813e-03
-3.643915557368180e-03 2.911398303582028e-02 2.450792126932171e-04 2.911398303582028e-02 6.064541384227582e-03 -1.660725154464062e-04 2.450792126932170e-04 -1.660725154464061e-04 -2.420625826859404e-03
-3.722434025394940e-03 2.935931726145292e-02 -5.093717956305536e-04 2.935931726145292e-02 6.005128810564558e-03 3.478643397982289e-04 -5.093717956305536e-04 3.478643397982290e-04 -2.282694785169617e-03
-1.012104563747421e-02 4.898515895748518e-02 -5.751960381657649e-04 4.898515895748519e-02 -1.691245892866304e-04 4.793612025591836e-04 -5.751960381657648e-04 4.793612025591836e-04 1.029017022676084e-02
-1.015965980140505e-02 4.887696966428508e-02 1.172731125671737e-03 4.887696966428507e-02 -1.942507067001371e-04 -8.148059616537716e-04 1.172731125671737e-03 -8.148059616537718e-04 1.035391050810519e-02
-1.109898876293332e-03 2.825750701774726e-02 2.385859815831778e-04 2.825750701774726e-02 3.493505687136147e-03 -1.757169759909469e-04 2.385859815831779e-04 -1.757169759909469e-04 -2.383606810842813e-03
-1.196283854950623e-03 2.850522269862692e-02 -5.156345564561028e-04 2.850522269862690e-02 3.425598330462994e-03 3.560178253027818e-04 -5.156345564561028e-04 3.560178253027818e-04 -2.229314475512373e-03
-7.915246624025613e-03 4.819667825044863e-02 -5.966993637253413e-04 4.819667825044865e-02 -2.956596151238961e-03 5.102784935952686e-04 -5.966993637253410e-04 5.102784935952685e-04 1.087184277526458e-02
-7.955600627312992e-03 4.807649419975796e-02 1.115830094697355e-03 4.807649419975795e-02 -2.983310799706107e-03 -8.196925202770505e-04 1.115830094697354e-03 -8.196925202770503e-04 1.093891142701910e-02
-1.015965980140505e-02 4.887696966428508e-02 1.172731125671737e-03 4.887696966428507e-02 -1.942507067001371e-04 -8.148059616537716e-04 1.172731125671737e-03 -8.148059616537718e-04 1.035391050810519e-02
-1.012104563747421e-02 4.898515895748518e-02 -5.751960381657649e-04 4.898515895748519e-02 -1.691245892866304e-04 4.793612025591836e-04 -5.751960381657648e-04 4.793612025591836e-04 1.029017022676084e-02
-3.799575964871905e-02 1.395658370574271e-01 -5.729715823870096e-03 1.395658370574270e-01 -1.665058642638387e-02 3.918060203582879e-03 -5.729715823870096e-03 3.918060203582879e-03 5.464634607510291e-02
-3.814139846090897e-02 1.403076220577111e-01 4.131211051688186e-05 1.403076220577111e-01 -1.696354916004534e-02 -5.324010726583583e-05 4.131211051688205e-05 -5.324010726583589e-05 5.510494762095430e-02
-7.955600627312992e-03 4.807649419975796e-02 1.115830094697355e-03 4.807649419975795e-02 -2.983310799706107e-03 -8.196925202770505e-04 1.115830094697354e-03 -8.196925202770503e-04 1.093891142701910e-02
-7.915246624025613e-03 4.819667825044863e-02 -5.966993637253413e-04 4.819667825044865e-02 -2.956596151238961e-03 5.102784935952686e-04 -5.966993637253410e-04 5.102784935952685e-04 1.087184277526458e-02
-3.504261623360005e-02 1.409552429937727e-01 -5.273038936892037e-03 1.409552429937726e-01 -2.371277214463227e-02 3.866927434563037e-03 -5.273038936892037e-03 3.866927434563037e-03 5.875538837823228e-02
-3.516666977478271e-02 1.417027270721705e-01 3.610180894837007e-05 1.417027270721706e-01 -2.399740973219222e-02 -5.460118489935479e-05 3.610180894836990e-05 -5.460118489935496e-05 5.916407950697491e-02
3.781786768887734e-03 1.830540025647018e-02 1.654870808960513e-06 1.830540025647018e-02 1.107743979509813e-02 3.182067918079364e-05 1.654870808960520e-06 3.182067918079364e-05 -1.485922656398587e-02
3.783570414713669e-03 1.832060265876966e-02 -1.648218681168193e-05 1.832060265876966e-02 1.106980356812552e-02 -1.928008268008760e-05 -1.648218681168195e-05 -1.928008268008760e-05 -1.485337398283919e-02
1.936810678959413e-03 1.033127851562504e-02 -6.546390711953632e-06 1.033127851562504e-02 5.698206790006113e-03 -4.795080433639187e-07 -6.546390711953632e-06 -4.795080433639123e-07 -7.635017468965527e-03
1.934780075935884e-03 1.032573993207826e-02 1.068514506803720e-05 1.032573993207826e-02 5.703076431144876e-03 2.002538822771040e-06 1.068514506803720e-05 2.002538822771037e-06 -7.637856507080755e-03
1.280227391098484e-02 3.656845919412202e-02 -4.614033786638479e-05 3.656845919412202e-02 1.632486441615153e-02 3.788261742248901e-05 -4.614033786638479e-05 3.788261742248900e-05 -2.912713832713638e-02
1.279974918069627e-02 3.659956166675155e-02 -1.949168226425979e-05 3.659956166675153e-02 1.631915488978184e-02 -5.358087557812706e-05 -1.949168226425978e-05 -5.358087557812704e-05 -2.911890407047807e-02
6.673742133534997e-03 2.083243866716355e-02 -6.838997177494726e-06 2.083243866716355e-02 8.472457100082008e-03 -1.231879091019253e-05 -6.838997177494719e-06 -1.231879091019253e-05 -1.514619923361701e-02
6.674511444362636e-03 2.082187288121572e-02 3.760972024956706e-06 2.082187288121572e-02 8.475052837396753e-03 1.576341687949579e-06 3.760972024956707e-06 1.576341687949582e-06 -1.514956428175940e-02
1.934780075935884e-03 1.032573993207826e-02 1.068514506803720e-05 1.032573993207826e-02 5.703076431144876e-03 2.002538822771040e-06 1.068514506803720e-05 2.002538822771037e-06 -7.637856507080755e-03
1.936810678959413e-03 1.033127851562504e-02 -6.546390711953632e-06 1.033127851562504e-02 5.698206790006113e-03 -4.795080433639187e-07 -6.546390711953632e-06 -4.795080433639123e-07 -7.635017468965527e-03
1.735451806347520e-03 1.236465647856067e-02 -2.171879608466464e-05 1.236465647856067e-02 5.670316590986360e-03 2.117002183522558e-05 -2.171879608466465e-05 2.117002183522558e-05 -7.405768397333885e-03
1.735974740019147e-03 1.235316109688219e-02 9.380300418257245e-06 1.235316109688218e-02 5.679265654993290e-03 -1.392451639501936e-05 9.380300418257240e-06 -1.392451639501937e-05 -7.415240395012439e-03
6.674511444362636e-03 2.082187288121572e-02 3.760972024956706e-06 2.082187288121572e-02 8.475052837396753e-03 1.576341687949579e-06 3.760972024956707e-06 1.576341687949582e-06 -1.514956428175940e-02
6.673742133534997e-03 2.083243866716355e-02 -6.838997177494726e-06 2.083243866716355e-02 8.472457100082008e-03 -1.231879091019253e-05 -6.838997177494719e-06 -1.231879091019253e-05 -1.514619923361701e-02
6.460607651139766e-03 2.522475424369235e-02 -3.931963024903399e-05 2.522475424369235e-02 8.407467750451769e-03 2.919838216714749e-05 -3.931963024903397e-05 2.919838216714749e-05 -1.486807540159153e-02
6.468182140764216e-03 2.520228198228499e-02 1.368488831150424e-05 2.520228198228499e-02 8.418664831184756e-03 -7.377776665588842e-06 1.368488831150422e-05 -7.377776665588842e-06 -1.488684697194897e-02
1.735974740019147e-03 1.235316109688219e-02 9.380300418257245e-06 1.235316109688218e-02 5.679265654993290e-03 -1.392451639501936e-05 9.380300418257240e-06 -1.392451639501937e-05 -7.415240395012439e-03
1.735451806347520e-03 1.236465647856067e-02 -2.171879608466464e-05 1.236465647856067e-02 5.670316590986360e-03 2.117002183522558e-05 -2.171879608466465e-05 2.117002183522558e-05 -7.405768397333885e-03
1.406883673977739e-03 1.525431505568617e-02 -5.636389623014650e-05 1.525431505568617e-02 5.510005993432938e-03 4.932204014782988e-05 -5.636389623014649e-05 4.932204014782988e-05 -6.916889667410678e-03
1.412245620740987e-03 1.523535380798362e-02 5.247854210859029e-05 1.523535380798362e-02 5.517814305112351e-03 -5.500916808279999e-05 5.247854210859028e-05 -5.500916808279999e-05 -6.930059925853337e-03
6.468182140764216e-03 2.520228198228499e-02 1.368488831150424e-05 2.520228198228499e-02 8.418664831184756e-03 -7.377776665588842e-06 1.368488831150422e-05 -7.377776665588842e-06 -1.488684697194897e-02
6.460607651139766e-03 2.522475424369235e-02 -3.931963024903399e-05 2.522475424369235e-02 8.407467750451769e-03 2.919838216714749e-05 -3.931963024903397e-05 2.919838216714749e-05 -1.486807540159153e-02
5.907089661186042e-03 3.131986699513548e-02 -1.104337381352555e-04 3.131986699513547e-02 8.141313298086830e-03 9.082927052366533e-05 -1.104337381352556e-04 9.082927052366531e-05 -1.404840295927288e-02
5.921838324589151e-03 3.128388135286601e-02 1.232167427883868e-04 3.128388135286603e-02 8.158948051288447e-03 -7.591293290227586e-05 1.232167427883868e-04 -7.591293290227586e-05 -1.408078637587760e-02
1.412245620740987e-03 1.523535380798362e-02 5.247854210859029e-05 1.523535380798362e-02 5.517814305112351e-03 -5.500916808279999e-05 5.247854210859028e-05 -5.500916808279999e-05 -6.930059925853337e-03
1.406883673977739e-03 1.525431505568617e-02 -5.636389623014650e-05 1.525431505568617e-02 5.510005993432938e-03 4.932204014782988e-05 -5.636389623014649e-05 4.932204014782988e-05 -6.916889667410678e-03
5.251751232282022e-04 1.973202943610518e-02 -1.319038051511991e-04 1.973202943610517e-02 4.852914086026658e-03 9.053585747007557e-05 -1.319038051511990e-04 9.053585747007556e-05 -5.378089209254857e-03
5.395634759886917e-04 1.968279845566148e-02 8.948367023694159e-05 1.968279845566148e-02 4.864814243196501e-03 -7.611250735395521e-05 8.948367023694159e-05 -7.611250735395521e-05 -5.404377719185192e-03
5.921838324589151e-03 3.128388135286601e-02 1.232167427883868e-04 3.128388135286603e-02 8.158948051288447e-03 -7.591293290227586e-05 1.232167427883868e-04 -7.591293290227586e-05 -1.408078637587760e-02
5.907089661186042e-03 3.131986699513548e-02 -1.104337381352555e-04 3.131986699513547e-02 8.141313298086830e-03 9.082927052366533e-05 -1.104337381352556e-04 9.082927052366531e-05 -1.404840295927288e-02
4.129303247935144e-03 4.005846337366891e-02 -2.661223065558629e-04 4.005846337366890e-02 6.821381334899734e-03 1.759261114428790e-04 -2.661223065558630e-04 1.759261114428790e-04 -1.095068458283487e-02
4.160694617820555e-03 3.996892845762756e-02 2.041282828689450e-04 3.996892845762756e-02 6.851875535543747e-03 -1.281490407019525e-04 2.041282828689450e-04 -1.281490407019525e-04 -1.101257015336430e-02
5.395634759886917e-04 1.968279845566148e-02 8.948367023694159e-05 1.968279845566148e-02 4.864814243196501e-03 -7.611250735395521e-05 8.948367023694159e-05 -7.611250735395521e-05 -5.404377719185192e-03
5.251751232282022e-04 1.973202943610518e-02 -1.319038051511991e-04 1.973202943610517e-02 4.852914086026658e-03 9.053585747007557e-05 -1.319038051511990e-04 9.053585747007556e-05 -5.378089209254857e-03
-1.196283854950623e-03 2.850522269862692e-02 -5.156345564561028e-04 2.850522269862690e-02 3.425598330462994e-03 3.560178253027818e-04 -5.156345564561028e-04 3.560178253027818e-04 -2.229314475512373e-03
-1.109898876293332e-03 2.825750701774726e-02 2.385859815831778e-04 2.825750701774726e-02 3.493505687136147e-03 -1.757169759909469e-04 2.385859815831779e-04 -1.757169759909469e-04 -2.383606810842813e-03
4.160694617820555e-03 3.996892845762756e-02 2.041282828689450e-04 3.996892845762756e-02 6.851875535543747e-03 -1.281490407019525e-04 2.041282828689450e-04 -1.281490407019525e-04 -1.101257015336430e-02
4.129303247935144e-03 4.005846337366891e-02 -2.661223065558629e-04 4.005846337366890e-02 6.821381334899734e-03 1.759261114428790e-04 -2.661223065558630e-04 1.759261114428790e-04 -1.095068458283487e-02
7.056006126726988e-04 5.649941049539636e-02 -1.080645659523886e-03 5.649941049539640e-02 3.806642420752360e-03 6.692581528754690e-04 -1.080645659523886e-03 6.692581528754690e-04 -4.512243033425056e-03
8.878662406807377e-04 5.600746606173289e-02 5.047238028791921e-04 5.600746606173284e-02 3.954169660375207e-03 -3.240738109017123e-04 5.047238028791919e-04 -3.240738109017122e-04 -4.842035901055947e-03
-1.109898876293332e-03 2.825750701774726e-02 2.385859815831778e-04 2.825750701774726e-02 3.493505687136147e-03 -1.757169759909469e-04 2.385859815831779e-04 -1.757169759909469e-04 -2.383606810842813e-03
-1.196283854950623e-03 2.850522269862692e-02 -5.156345564561028e-04 2.850522269862690e-02 3.425598330462994e-03 3.560178253027818e-04 -5.156345564561028e-04 3.560178253027818e-04 -2.229314475512373e-03
-7.915246624025613e-03 4.819667825044863e-02 -5.966993637253413e-04 4.819667825044865e-02 -2.956596151238961e-03 5.102784935952686e-04 -5.966993637253410e-04 5.102784935952685e-04 1.087184277526458e-02
-7.955600627312992e-03 4.807649419975796e-02 1.115830094697355e-03 4.807649419975795e-02 -2.983310799706107e-03 -8.196925202770505e-04 1.115830094697354e-03 -8.196925202770503e-04 1.093891142701910e-02
8.878662406807377e-04 5.600746606173289e-02 5.047238028791921e-04 5.600746606173284e-02 3.954169660375207e-03 -3.240738109017123e-04 5.047238028791919e-04 -3.240738109017122e-04 -4.842035901055947e-03
7.056006126726988e-04 5.649941049539636e-02 -1.080645659523886e-03 5.649941049539640e-02 3.806642420752360e-03 6.692581528754690e-04 -1.080645659523886e-03 6.692581528754690e-04 -4.512243033425056e-03
-1.292907762056478e-02 9.551290928792208e-02 -1.568127412723984e-03 9.551290928792207e-02 -9.216728200964447e-03 9.777173926887725e-04 -1.568127412723984e-03 9.777173926887727e-04 2.214580582152922e-02
-1.300809582118365e-02 9.527839299033100e-02 2.062314215391358e-03 9.527839299033100e-02 -9.273972162985495e-03 -1.608664866738628e-03 2.062314215391358e-03 -1.608664866738628e-03 2.228206798416914e-02
-7.955600627312992e-03 4.807649419975796e-02 1.115830094697355e-03 4.807649419975795e-02 -2.983310799706107e-03 -8.196925202770505e-04 1.115830094697354e-03 -8.196925202770503e-04 1.093891142701910e-02
-7.915246624025613e-03 4.819667825044863e-02 -5.966993637253413e-04 4.819667825044865e-02 -2.956596151238961e-03 5.102784935952686e-04 -5.966993637253410e-04 5.102784935952685e-04 1.087184277526458e-02
-3.504261623360005e-02 1.409552429937727e-01 -5.273038936892037e-03 1.409552429937726e-01 -2.371277214463227e-02 3.866927434563037e-03 -5.273038936892037e-03 3.866927434563037e-03 5.875538837823228e-02
-3.516666977478271e-02 1.417027270721705e-01 3.610180894837007e-05 1.417027270721706e-01 -2.399740973219222e-02 -5.460118489935479e-05 3.610180894836990e-05 -5.460118489935496e-05 5.916407950697491e-02
-1.300809582118365e-02 9.527839299033100e-02 2.062314215391358e-03 9.527839299033100e-02 -9.273972162985495e-03 -1.608664866738628e-03 2.062314215391358e-03 -1.608664866738628e-03 2.228206798416914e-02
-1.292907762056478e-02 9.551290928792208e-02 -1.568127412723984e-03 9.551290928792207e-02 -9.216728200964447e-03 9.777173926887725e-04 -1.568127412723984e-03 9.777173926887727e-04 2.214580582152922e-02
-6.582700775655957e-02 2.826105791422483e-01 -1.051576551845003e-02 2.826105791422484e-01 -5.536028427025620e-02 7.494059856647938e-03 -1.051576551845003e-02 7.494059856647942e-03 1.211872920268157e-01
-6.606669100606177e-02 2.841079373387927e-01 4.686509452966718e-05 2.841079373387928e-01 -5.587003067012176e-02 -9.727854944788488e-05 4.686509452966761e-05 -9.727854944788575e-05 1.219367216761835e-01
        </DataArray>
        <DataArray type="Float64" Name="nodal_cauchy_stresses_xyz" NumberOfComponents="6" format="ascii">
7.541659393989272e-03 -2.756253412162169e-01 -1.779779504564835e-03 2.303272067228031e-02 -1.577936259735478e-05 1.077406191221278e-03
7.747131851126974e-03 -2.756380897951202e-01 -1.968612943458827e-03 2.326084005227128e-02 1.185547020526833e-03 -7.270357924003374e-04
1.282751539390057e-02 -2.716873817288523e-01 1.577761318396195e-03 6.840435913907005e-03 1.115970640891724e-03 -2.530871081122335e-04
1.266803383929475e-02 -2.717357903062172e-01 1.761705857218645e-03 6.501763387460616e-03 1.943465802542537e-05 4.481601760372737e-04
9.377386955923007e-03 -2.803864850825848e-01 -1.319579240524061e-03 -4.798833830906645e-02 -8.181902272920753e-04 6.674808443095954e-04
9.415537131438981e-03 -2.803895099660981e-01 -1.350994846840118e-03 -4.753387943983280e-02 -1.847851833517772e-04 -7.951722018444965e-04
2.595060681411384e-02 -2.791453100917957e-01 -1.105454971551037e-03 -4.712900665955688e-02 8.297776483527506e-07 -6.474184300920695e-04
2.597755520212084e-02 -2.791852034671683e-01 -1.102439554902805e-03 -4.730796985921443e-02 -1.317354698075152e-03 2.118427859885387e-04
1.266803383929475e-02 -2.717357903062172e-01 1.761705857218645e-03 6.501763387460616e-03 1.943465802542537e-05 4.481601760372737e-04
1.282751539390057e-02 -2.716873817288523e-01 1.577761318396195e-03 6.840435913907005e-03 1.115970640891724e-03 -2.530871081122335e-04
3.977885714263572e-02 -2.626946349587597e-01 2.268167320600315e-03 -1.353373224985893e-02 4.846268453816752e-04 5.218645473754058e-04
3.967011436734437e-02 -2.628636836763530e-01 2.498902608127251e-03 -1.352425134228719e-02 6.597391694103521e-06 -2.916509442811581e-04
2.597755520212084e-02 -2.791852034671683e-01 -1.102439554902805e-03 -4.730796985921443e-02 -1.317354698075152e-03 2.118427859885387e-04
2.595060681411384e-02 -2.791453100917957e-01 -1.105454971551037e-03 -4.712900665955688e-02 8.297776483527506e-07 -6.474184300920695e-04
5.799368465509530e-02 -2.710968970571779e-01 -1.059275928509327e-03 -4.333499984819440e-02 -1.097359307187368e-04 -7.848623563122716e-05
5.790668325269174e-02 -2.712121495968203e-01 -8.799537890076831e-04 -4.302339830469155e-02 -1.185750123689620e-03 8.492471630646388e-05
3.967011436734437e-02 -2.628636836763530e-01 2.498902608127251e-03 -1.352425134228719e-02 6.597391694103521e-06 -2.916509442811581e-04
3.977885714263572e-02 -2.626946349587597e-01 2.268167320600315e-03 -1.353373224985893e-02 4.846268453816752e-04 5.218645473754058e-04
8.462795370583090e-02 -2.544408911958919e-01 5.361653914657263e-04 -1.954387213968603e-02 -3.523118782744686e-04 9.473384378930088e-04
8.452645614824739e-02 -2.545001024684975e-01 6.631020533551332e-04 -1.948249018982725e-02 -1.262594094077795e-04 -1.028074609865354e-03
5.790668325269174e-02 -2.712121495968203e-01 -8.799537890076831e-04 -4.302339830469155e-02 -1.185750123689620e-03 8.492471630646388e-05
5.799368465509530e-02 -2.710968970571779e-01 -1.059275928509327e-03 -4.333499984819440e-02 -1.097359307187368e-04 -7.848623563122716e-05
8.920309854468220e-02 -2.554681295704253e-01 1.211924541019402e-04 -4.397433285330498e-02 -4.012102068949062e-04 6.092949893155541e-04
8.913118390355323e-02 -2.556095322278682e-01 3.125209183139922e-04 -4.364287515807511e-02 -1.755648469519327e-04 -7.646490505646990e-04
8.452645614824739e-02 -2.545001024684975e-01 6.631020533551332e-04 -1.948249018982725e-02 -1.262594094077795e-04 -1.028074609865354e-03
8.462795370583090e-02 -2.544408911958919e-01 5.361653914657263e-04 -1.954387213968603e-02 -3.523118782744686e-04 9.473384378930088e-04
1.357529722809013e-01 -2.312479439971344e-01 -8.202825970386512e-04 -1.294925900514097e-02 -2.620265127458498e-05 1.893407116840615e-03
1.356245391282709e-01 -2.314077658888791e-01 -5.484743609987282e-04 -1.297523550429623e-02 -1.371652112136307e-04 -7.215041366172960e-04
8.913118390355323e-02 -2.556095322278682e-01 3.125209183139922e-04 -4.364287515807511e-02 -1.755648469519327e-04 -7.646490505646990e-04
8.920309854468220e-02 -2.554681295704253e-01 1.211924541019402e-04 -4.397433285330498e-02 -4.012102068949062e-04 6.092949893155541e-04
1.314778768281565e-01 -2.274450440484929e-01 -8.050521373663456e-04 -4.728503219546749e-02 -4.501659535610083e-04 1.779596708310964e-03
1.313376310108739e-01 -2.275912387028562e-01 -5.303219650369359e-04 -4.724699168199834e-02 -6.338055641106749e-06 -7.507050221030881e-04
1.356245391282709e-01 -2.314077658888791e-01 -5.484743609987282e-04 -1.297523550429623e-02 -1.371652112136307e-04 -7.215041366172960e-04
1.357529722809013e-01 -2.312479439971344e-01 -8.202825970386512e-04 -1.294925900514097e-02 -2.620265127458498e-05 1.893407116840615e-03
1.884259615219409e-01 -1.905488580671832e-01 3.635608756534357e-03 -8.954007929827368e-03 -2.244600217722464e-04 5.703335607340349e-03
1.883479607753539e-01 -1.910815306117076e-01 4.265480339927375e-03 -8.928410833022617e-03 -3.205275107126851e-04 -2.379413646079828e-03
1.313376310108739e-01 -2.275912387028562e-01 -5.303219650369359e-04 -4.724699168199834e-02 -6.338055641106749e-06 -7.507050221030881e-04
1.314778768281565e-01 -2.274450440484929e-01 -8.050521373663456e-04 -4.728503219546749e-02 -4.501659535610083e-04 1.779596708310964e-03
1.812561606696648e-01 -1.862804747858056e-01 3.995533206464450e-03 -4.790255416292116e-02 -6.133941412733849e-04 5.676194320446257e-03
1.811795159788469e-01 -1.868179361444013e-01 4.628193134213645e-03 -4.786879922709646e-02 1.355722565789675e-04 -2.304496986310499e-03
1.883479607753539e-01 -1.910815306117076e-01 4.265480339927375e-03 -8.928410833022617e-03 -3.205275107126851e-04 -2.379413646079828e-03
1.884259615219409e-01 -1.905488580671832e-01 3.635608756534357e-03 -8.954007929827368e-03 -2.244600217722464e-04 5.703335607340349e-03
2.660691845277936e-01 -1.112038682867828e-01 -1.902353991616208e-05 -1.015208201217335e-02 -9.093598963743252e-04 8.102863953847479e-03
2.662214428677264e-01 -1.109910778935661e-01 -4.884121909742457e-04 -1.012670075337611e-02 -8.590560921235071e-04 -5.830771777548545e-03
1.811795159788469e-01 -1.868179361444013e-01 4.628193134213645e-03 -4.786879922709646e-02 1.355722565789675e-04 -2.304496986310499e-03
1.812561606696648e-01 -1.862804747858056e-01 3.995533206464450e-03 -4.790255416292116e-02 -6.133941412733849e-04 5.676194320446257e-03
2.598950248229775e-01 -1.065814536735187e-01 -6.614713305370078e-05 -4.636501473256199e-02 -1.016801237398764e-03 8.036286445552073e-03
2.600372470163136e-01 -1.064092978188772e-01 -4.954507022367017e-04 -4.627991046168765e-02 4.140866406550461e-04 -5.830872685018674e-03
2.662214428677264e-01 -1.109910778935661e-01 -4.884121909742457e-04 -1.012670075337611e-02 -8.590560921235071e-04 -5.830771777548545e-03
2.660691845277936e-01 -1.112038682867828e-01 -1.902353991616208e-05 -1.015208201217335e-02 -9.093598963743252e-04 8.102863953847479e-03
3.281996268345242e-01 -4.832755039916794e-02 -8.612242218887413e-03 -1.210565449272299e-02 -1.543940650969840e-04 1.452594769469018e-02
3.286056483284475e-01 -4.864646231332603e-02 -8.980495825269608e-03 -1.208138819977081e-02 -4.605182958999697e-05 4.605770594452957e-05
2.600372470163136e-01 -1.064092978188772e-01 -4.954507022367017e-04 -4.627991046168765e-02 4.140866406550461e-04 -5.830872685018674e-03
2.598950248229775e-01 -1.065814536735187e-01 -6.614713305370078e-05 -4.636501473256199e-02 -1.016801237398764e-03 8.036286445552073e-03
3.227791901339239e-01 -4.357528079676949e-02 -8.190136331923371e-03 -4.665540333598120e-02 -1.617210710769674e-03 1.436877834861382e-02
3.231599382842211e-01 -4.385984802029709e-02 -8.567183430060479e-03 -4.676112762656109e-02 -4.531698912190269e-05 4.023955439529797e-05
9.377386955923007e-03 -2.803864850825848e-01 -1.319579240524061e-03 -4.798833830906645e-02 -8.181902272920753e-04 6.674808443095954e-04
9.415537131438981e-03 -2.803895099660981e-01 -1.350994846840118e-03 -4.753387943983280e-02 -1.847851833517772e-04 -7.951722018444965e-04
2.595060681411384e-02 -2.791453100917957e-01 -1.105454971551037e-03 -4.712900665955688e-02 8.297776483527506e-07 -6.474184300920695e-04
2.597755520212084e-02 -2.791852034671683e-01 -1.102439554902805e-03 -4.730796985921443e-02 -1.317354698075152e-03 2.118427859885387e-04
-1.319872405300834e-02 -2.700001633040263e-01 1.177926385458029e-03 -8.332129057407714e-02 1.080813194976678e-03 -3.353508784093971e-04
-1.319875347927070e-02 -2.700368921339984e-01 1.215723974939937e-03 -8.315073689007894e-02 -9.518766213592493e-04 2.622906650813638e-04
6.517940035337939e-03 -2.663914214866580e-01 -6.853207575830667e-04 -8.368207883124426e-02 -8.065334689468899e-04 -1.955509789520052e-04
6.663248201767461e-03 -2.662884674173204e-01 -9.215744959289258e-04 -8.394946605787393e-02 6.613284876838216e-04 -1.643277503408276e-04
2.597755520212084e-02 -2.791852034671683e-01 -1.102439554902805e-03 -4.730796985921443e-02 -1.317354698075152e-03 2.118427859885387e-04
2.595060681411384e-02 -2.791453100917957e-01 -1.105454971551037e-03 -4.712900665955688e-02 8.297776483527506e-07 -6.474184300920695e-04
5.799368465509530e-02 -2.710968970571779e-01 -1.059275928509327e-03 -4.333499984819440e-02 -1.097359307187368e-04 -7.848623563122716e-05
5.790668325269174e-02 -2.712121495968203e-01 -8.799537890076831e-04 -4.302339830469155e-02 -1.185750123689620e-03 8.492471630646388e-05
6.663248201767461e-03 -2.662884674173204e-01 -9.215744959289258e-04 -8.394946605787393e-02 6.613284876838216e-04 -1.643277503408276e-04
6.517940035337939e-03 -2.663914214866580e-01 -6.853207575830667e-04 -8.368207883124426e-02 -8.065334689468899e-04 -1.955509789520052e-04
4.013141020508049e-02 -2.543746309679254e-01 -1.552541959992309e-03 -8.502517578835717e-02 -6.034176754853589e-04 -5.680151556197268e-04
4.018305374498399e-02 -2.542789349256666e-01 -1.683698017137411e-03 -8.520946776760407e-02 -1.003506955245195e-04 9.517481712967176e-04
5.790668325269174e-02 -2.712121495968203e-01 -8.799537890076831e-04 -4.302339830469155e-02 -1.185750123689620e-03 8.492471630646388e-05
5.799368465509530e-02 -2.710968970571779e-01 -1.059275928509327e-03 -4.333499984819440e-02 -1.097359307187368e-04 -7.848623563122716e-05
8.920309854468220e-02 -2.554681295704253e-01 1.211924541019402e-04 -4.397433285330498e-02 -4.012102068949062e-04 6.092949893155541e-04
8.913118390355323e-02 -2.556095322278682e-01 3.125209183139922e-04 -4.364287515807511e-02 -1.755648469519327e-04 -7.646490505646990e-04
4.018305374498399e-02 -2.542789349256666e-01 -1.683698017137411e-03 -8.520946776760407e-02 -1.003506955245195e-04 9.517481712967176e-04
4.013141020508049e-02 -2.543746309679254e-01 -1.552541959992309e-03 -8.502517578835717e-02 -6.034176754853589e-04 -5.680151556197268e-04
7.130221108606238e-02 -2.377605899357727e-01 4.669442600841703e-04 -8.719482974066936e-02 -5.856870578461655e-04 -9.250759812092125e-05
7.116092277515110e-02 -2.378130847826642e-01 6.616757998868572e-04 -8.715212761607380e-02 -1.229594357225261e-04 1.490702457122566e-04
8.913118390355323e-02 -2.556095322278682e-01 3.125209183139922e-04 -4.364287515807511e-02 -1.755648469519327e-04 -7.646490505646990e-04
8.920309854468220e-02 -2.554681295704253e-01 1.211924541019402e-04 -4.397433285330498e-02 -4.012102068949062e-04 6.092949893155541e-04
1.314778768281565e-01 -2.274450440484929e-01 -8.050521373663456e-04 -4.728503219546749e-02 -4.501659535610083e-04 1.779596708310964e-03
1.313376310108739e-01 -2.275912387028562e-01 -5.303219650369359e-04 -4.724699168199834e-02 -6.338055641106749e-06 -7.507050221030881e-04
7.116092277515110e-02 -2.378130847826642e-01 6.616757998868572e-04 -8.715212761607380e-02 -1.229594357225261e-04 1.490702457122566e-04
7.130221108606238e-02 -2.377605899357727e-01 4.669442600841703e-04 -8.719482974066936e-02 -5.856870578461655e-04 -9.250759812092125e-05
1.119457017691314e-01 -2.100517318763891e-01 -5.155994078203518e-04 -9.141382157762329e-02 -5.846858582444359e-04 1.245873706685884e-03
1.117238991020772e-01 -2.101855766860379e-01 -1.670578581112577e-04 -9.138632540353106e-02 1.956524219204861e-04 -6.980347485622209e-04
1.313376310108739e-01 -2.275912387028562e-01 -5.303219650369359e-04 -4.724699168199834e-02 -6.338055641106749e-06 -7.507050221030881e-04
1.314778768281565e-01 -2.274450440484929e-01 -8.050521373663456e-04 -4.728503219546749e-02 -4.501659535610083e-04 1.779596708310964e-03
1.812561606696648e-01 -1.862804747858056e-01 3.995533206464450e-03 -4.790255416292116e-02 -6.133941412733849e-04 5.676194320446257e-03
1.811795159788469e-01 -1.868179361444013e-01 4.628193134213645e-03 -4.786879922709646e-02 1.355722565789675e-04 -2.304496986310499e-03
1.117238991020772e-01 -2.101855766860379e-01 -1.670578581112577e-04 -9.138632540353106e-02 1.956524219204861e-04 -6.980347485622209e-04
1.119457017691314e-01 -2.100517318763891e-01 -5.155994078203518e-04 -9.141382157762329e-02 -5.846858582444359e-04 1.245873706685884e-03
1.601999568581711e-01 -1.702943130939027e-01 3.898109439630767e-03 -9.313674174028690e-02 -1.342824329026138e-03 5.357718678725478e-03
1.601084147273536e-01 -1.708266821934581e-01 4.537844453176339e-03 -9.311983501992688e-02 4.562030918264158e-04 -2.229295192960119e-03
1.811795159788469e-01 -1.868179361444013e-01 4.628193134213645e-03 -4.786879922709646e-02 1.355722565789675e-04 -2.304496986310499e-03
1.812561606696648e-01 -1.862804747858056e-01 3.995533206464450e-03 -4.790255416292116e-02 -6.133941412733849e-04 5.676194320446257e-03
2.598950248229775e-01 -1.065814536735187e-01 -6.614713305370078e-05 -4.636501473256199e-02 -1.016801237398764e-03 8.036286445552073e-03
2.600372470163136e-01 -1.064092978188772e-01 -4.954507022367017e-04 -4.627991046168765e-02 4.140866406550461e-04 -5.830872685018674e-03
1.601084147273536e-01 -1.708266821934581e-01 4.537844453176339e-03 -9.311983501992688e-02 4.562030918264158e-04 -2.229295192960119e-03
1.601999568581711e-01 -1.702943130939027e-01 3.898109439630767e-03 -9.313674174028690e-02 -1.342824329026138e-03 5.357718678725478e-03
2.403759753597718e-01 -9.162451822594067e-02 -3.732629207575788e-04 -9.112113159118171e-02 -2.147676512283328e-03 7.878603392462024e-03
2.405650992984912e-01 -9.156858832164054e-02 -7.437941402457984e-04 -9.094616393574914e-02 1.467676275242107e-03 -5.533186644653910e-03
2.600372470163136e-01 -1.064092978188772e-01 -4.954507022367017e-04 -4.627991046168765e-02 4.140866406550461e-04 -5.830872685018674e-03
2.598950248229775e-01 -1.065814536735187e-01 -6.614713305370078e-05 -4.636501473256199e-02 -1.016801237398764e-03 8.036286445552073e-03
3.227791901339239e-01 -4.357528079676949e-02 -8.190136331923371e-03 -4.665540333598120e-02 -1.617210710769674e-03 1.436877834861382e-02
3.231599382842211e-01 -4.385984802029709e-02 -8.567183430060479e-03 -4.676112762656109e-02 -4.531698912190269e-05 4.023955439529797e-05
2.405650992984912e-01 -9.156858832164054e-02 -7.437941402457984e-04 -9.094616393574914e-02 1.467676275242107e-03 -5.533186644653910e-03
2.403759753597718e-01 -9.162451822594067e-02 -3.732629207575788e-04 -9.112113159118171e-02 -2.147676512283328e-03 7.878603392462024e-03
3.046072508579234e-01 -2.872362442351328e-02 -8.090298619822064e-03 -9.172336779702771e-02 -4.118723111609697e-03 1.393932748010399e-02
3.049318949286206e-01 -2.893649541374451e-02 -8.484594106236042e-03 -9.195158520942923e-02 -4.224554481413613e-05 3.379910397744877e-05
-1.319872405300834e-02 -2.700001633040263e-01 1.177926385458029e-03 -8.332129057407714e-02 1.080813194976678e-03 -3.353508784093971e-04
-1.319875347927070e-02 -2.700368921339984e-01 1.215723974939937e-03 -8.315073689007894e-02 -9.518766213592493e-04 2.622906650813638e-04
6.517940035337939e-03 -2.663914214866580e-01 -6.853207575830667e-04 -8.368207883124426e-02 -8.065334689468899e-04 -1.955509789520052e-04
6.663248201767461e-03 -2.662884674173204e-01 -9.215744959289258e-04 -8.394946605787393e-02 6.613284876838216e-04 -1.643277503408276e-04
-4.038327241433410e-02 -2.501847665864301e-01 7.484481399764100e-04 -1.139273737087125e-01 1.564426673073662e-03 9.397304897102006e-04
-4.047329622242467e-02 -2.499503700634725e-01 6.084428449175173e-04 -1.142307023405220e-01 -1.071329325319165e-03 -4.091008562261758e-04
-2.720697418888150e-02 -2.448407435175536e-01 7.263338911185098e-04 -1.155840064653426e-01 -1.122251666602709e-03 -3.979814019753358e-04
-2.717847446341403e-02 -2.449364161566162e-01 7.985575042350684e-04 -1.154242066064165e-01 2.033538460156236e-03 7.258687313446705e-04
6.663248201767461e-03 -2.662884674173204e-01 -9.215744959289258e-04 -8.394946605787393e-02 6.613284876838216e-04 -1.643277503408276e-04
6.517940035337939e-03 -2.663914214866580e-01 -6.853207575830667e-04 -8.368207883124426e-02 -8.065334689468899e-04 -1.955509789520052e-04
4.013141020508049e-02 -2.543746309679254e-01 -1.552541959992309e-03 -8.502517578835717e-02 -6.034176754853589e-04 -5.680151556197268e-04
4.018305374498399e-02 -2.542789349256666e-01 -1.683698017137411e-03 -8.520946776760407e-02 -1.003506955245195e-04 9.517481712967176e-04
-2.717847446341403e-02 -2.449364161566162e-01 7.985575042350684e-04 -1.154242066064165e-01 2.033538460156236e-03 7.258687313446705e-04
-2.720697418888150e-02 -2.448407435175536e-01 7.263338911185098e-04 -1.155840064653426e-01 -1.122251666602709e-03 -3.979814019753358e-04
1.621505832473065e-03 -2.292357162361908e-01 2.236573841005046e-04 -1.213019718223887e-01 -1.000283803929634e-03 -1.299362830476604e-05
1.332536321894754e-03 -2.290316105188024e-01 3.200455727946361e-04 -1.214683500008887e-01 1.743293098609531e-03 5.800960723541174e-04
4.018305374498399e-02 -2.542789349256666e-01 -1.683698017137411e-03 -8.520946776760407e-02 -1.003506955245195e-04 9.517481712967176e-04
4.013141020508049e-02 -2.543746309679254e-01 -1.552541959992309e-03 -8.502517578835717e-02 -6.034176754853589e-04 -5.680151556197268e-04
7.130221108606238e-02 -2.377605899357727e-01 4.669442600841703e-04 -8.719482974066936e-02 -5.856870578461655e-04 -9.250759812092125e-05
7.116092277515110e-02 -2.378130847826642e-01 6.616757998868572e-04 -8.715212761607380e-02 -1.229594357225261e-04 1.490702457122566e-04
1.332536321894754e-03 -2.290316105188024e-01 3.200455727946361e-04 -1.214683500008887e-01 1.743293098609531e-03 5.800960723541174e-04
1.621505832473065e-03 -2.292357162361908e-01 2.236573841005046e-04 -1.213019718223887e-01 -1.000283803929634e-03 -1.299362830476604e-05
3.671248354083205e-02 -2.098143702817834e-01 3.104926692050166e-04 -1.253228618118593e-01 -7.763382133966892e-04 5.158155028839114e-04
3.630086596163658e-02 -2.095055689661977e-01 4.194010481462527e-04 -1.256186375456221e-01 8.707246006269025e-04 -4.354543913750082e-04
7.116092277515110e-02 -2.378130847826642e-01 6.616757998868572e-04 -8.715212761607380e-02 -1.229594357225261e-04 1.490702457122566e-04
7.130221108606238e-02 -2.377605899357727e-01 4.669442600841703e-04 -8.719482974066936e-02 -5.856870578461655e-04 -9.250759812092125e-05
1.119457017691314e-01 -2.100517318763891e-01 -5.155994078203518e-04 -9.141382157762329e-02 -5.846858582444359e-04 1.245873706685884e-03
1.117238991020772e-01 -2.101855766860379e-01 -1.670578581112577e-04 -9.138632540353106e-02 1.956524219204861e-04 -6.980347485622209e-04
3.630086596163658e-02 -2.095055689661977e-01 4.194010481462527e-04 -1.256186375456221e-01 8.707246006269025e-04 -4.354543913750082e-04
3.671248354083205e-02 -2.098143702817834e-01 3.104926692050166e-04 -1.253228618118593e-01 -7.763382133966892e-04 5.158155028839114e-04
7.990958131638447e-02 -1.816823082763566e-01 -6.088801163525504e-04 -1.292678157846160e-01 -7.666706250893547e-04 1.411856387134828e-03
7.963599174637001e-02 -1.816315003972001e-01 -3.912076359666411e-04 -1.293905827988096e-01 3.258260626666678e-04 -8.379246517576366e-04
1.117238991020772e-01 -2.101855766860379e-01 -1.670578581112577e-04 -9.138632540353106e-02 1.956524219204861e-04 -6.980347485622209e-04
1.119457017691314e-01 -2.100517318763891e-01 -5.155994078203518e-04 -9.141382157762329e-02 -5.846858582444359e-04 1.245873706685884e-03
1.601999568581711e-01 -1.702943130939027e-01 3.898109439630767e-03 -9.313674174028690e-02 -1.342824329026138e-03 5.357718678725478e-03
1.601084147273536e-01 -1.708266821934581e-01 4.537844453176339e-03 -9.311983501992688e-02 4.562030918264158e-04 -2.229295192960119e-03
7.963599174637001e-02 -1.816315003972001e-01 -3.912076359666411e-04 -1.293905827988096e-01 3.258260626666678e-04 -8.379246517576366e-04
7.990958131638447e-02 -1.816823082763566e-01 -6.088801163525504e-04 -1.292678157846160e-01 -7.666706250893547e-04 1.411856387134828e-03
1.280879917098681e-01 -1.428337846884815e-01 3.714414232836227e-03 -1.318545524792799e-01 -1.974056113911056e-03 4.965411931730775e-03
1.280144871303660e-01 -1.433176855188590e-01 4.284811535362466e-03 -1.318777891084480e-01 6.452556144715511e-04 -2.044988476334346e-03
1.601084147273536e-01 -1.708266821934581e-01 4.537844453176339e-03 -9.311983501992688e-02 4.562030918264158e-04 -2.229295192960119e-03
1.601999568581711e-01 -1.702943130939027e-01 3.898109439630767e-03 -9.313674174028690e-02 -1.342824329026138e-03 5.357718678725478e-03
2.403759753597718e-01 -9.162451822594067e-02 -3.732629207575788e-04 -9.112113159118171e-02 -2.147676512283328e-03 7.878603392462024e-03
2.405650992984912e-01 -9.156858832164054e-02 -7.437941402457984e-04 -9.094616393574914e-02 1.467676275242107e-03 -5.533186644653910e-03
1.280144871303660e-01 -1.433176855188590e-01 4.284811535362466e-03 -1.318777891084480e-01 6.452556144715511e-04 -2.044988476334346e-03
1.280879917098681e-01 -1.428337846884815e-01 3.714414232836227e-03 -1.318545524792799e-01 -1.974056113911056e-03 4.965411931730775e-03
2.088061695397671e-01 -6.597159271447334e-02 -4.852512503138780e-04 -1.307698494647276e-01 -3.185619391759687e-03 7.506205396661757e-03
2.090613444076713e-01 -6.604565191384786e-02 -7.959601741859956e-04 -1.305850000575481e-01 2.105600814159101e-03 -5.014784643846564e-03
2.405650992984912e-01 -9.156858832164054e-02 -7.437941402457984e-04 -9.094616393574914e-02 1.467676275242107e-03 -5.533186644653910e-03
2.403759753597718e-01 -9.162451822594067e-02 -3.732629207575788e-04 -9.112113159118171e-02 -2.147676512283328e-03 7.878603392462024e-03
3.046072508579234e-01 -2.872362442351328e-02 -8.090298619822064e-03 -9.172336779702771e-02 -4.118723111609697e-03 1.393932748010399e-02
3.049318949286206e-01 -2.893649541374451e-02 -8.484594106236042e-03 -9.195158520942923e-02 -4.224554481413613e-05 3.379910397744877e-05
2.090613444076713e-01 -6.604565191384786e-02 -7.959601741859956e-04 -1.305850000575481e-01 2.105600814159101e-03 -5.014784643846564e-03
2.088061695397671e-01 -6.597159271447334e-02 -4.852512503138780e-04 -1.307698494647276e-01 -3.185619391759687e-03 7.506205396661757e-03
2.738176543260730e-01 -3.759297264771964e-03 -7.655071868849530e-03 -1.325591784294925e-01 -5.965450670834686e-03 1.313765932585845e-02
2.740672470235310e-01 -3.896720041967681e-03 -8.050428925061453e-03 -1.328354243799367e-01 -4.206326914021018e-05 2.457639837660059e-05
-4.038327241433410e-02 -2.501847665864301e-01 7.484481399764100e-04 -1.139273737087125e-01 1.564426673073662e-03 9.397304897102006e-04
-4.047329622242467e-02 -2.499503700634725e-01 6.084428449175173e-04 -1.142307023405220e-01 -1.071329325319165e-03 -4.091008562261758e-04
-2.720697418888150e-02 -2.448407435175536e-01 7.263338911185098e-04 -1.155840064653426e-01 -1.122251666602709e-03 -3.979814019753358e-04
-2.717847446341403e-02 -2.449364161566162e-01 7.985575042350684e-04 -1.154242066064165e-01 2.033538460156236e-03 7.258687313446705e-04
-7.067870731033184e-02 -2.197594613235909e-01 2.077958232597674e-04 -1.371035069077870e-01 4.716662791017222e-04 7.758700912013062e-04
-7.061909602342546e-02 -2.196783667895584e-01 7.389534522643225e-05 -1.371977467098756e-01 -7.392303367858907e-04 -5.630127122810591e-04
-5.884775208774498e-02 -2.138821600997419e-01 2.894563090517647e-04 -1.395415201072774e-01 -8.280235140017072e-04 -3.955743609210669e-04
-5.889023999567690e-02 -2.139705603545490e-01 4.150231828438260e-04 -1.394558868413692e-01 6.471515202799884e-04 3.315538826798696e-04
-2.717847446341403e-02 -2.449364161566162e-01 7.985575042350684e-04 -1.154242066064165e-01 2.033538460156236e-03 7.258687313446705e-04
-2.720697418888150e-02 -2.448407435175536e-01 7.263338911185098e-04 -1.155840064653426e-01 -1.122251666602709e-03 -3.979814019753358e-04
1.621505832473065e-03 -2.292357162361908e-01 2.236573841005046e-04 -1.213019718223887e-01 -1.000283803929634e-03 -1.299362830476604e-05
1.332536321894754e-03 -2.290316105188024e-01 3.200455727946361e-04 -1.214683500008887e-01 1.743293098609531e-03 5.800960723541174e-04
-5.889023999567690e-02 -2.139705603545490e-01 4.150231828438260e-04 -1.394558868413692e-01 6.471515202799884e-04 3.315538826798696e-04
-5.884775208774498e-02 -2.138821600997419e-01 2.894563090517647e-04 -1.395415201072774e-01 -8.280235140017072e-04 -3.955743609210669e-04
-3.446565118396814e-02 -1.964768775327777e-01 2.051972214710709e-04 -1.461364394782889e-01 -9.513658935993577e-04 2.492915266991234e-04
-3.460491468147720e-02 -1.965764867057856e-01 4.385067644938485e-04 -1.460387313907224e-01 8.346133714674406e-04 1.179831511012060e-07
1.332536321894754e-03 -2.290316105188024e-01 3.200455727946361e-04 -1.214683500008887e-01 1.743293098609531e-03 5.800960723541174e-04
1.621505832473065e-03 -2.292357162361908e-01 2.236573841005046e-04 -1.213019718223887e-01 -1.000283803929634e-03 -1.299362830476604e-05
3.671248354083205e-02 -2.098143702817834e-01 3.104926692050166e-04 -1.253228618118593e-01 -7.763382133966892e-04 5.158155028839114e-04
3.630086596163658e-02 -2.095055689661977e-01 4.194010481462527e-04 -1.256186375456221e-01 8.707246006269025e-04 -4.354543913750082e-04
-3.460491468147720e-02 -1.965764867057856e-01 4.385067644938485e-04 -1.460387313907224e-01 8.346133714674406e-04 1.179831511012060e-07
-3.446565118396814e-02 -1.964768775327777e-01 2.051972214710709e-04 -1.461364394782889e-01 -9.513658935993577e-04 2.492915266991234e-04
-4.264179760494949e-03 -1.744799535399143e-01 6.037071058443301e-04 -1.524315219481396e-01 -9.548279805951160e-04 8.999311845857018e-04
-4.488176229598174e-03 -1.744304509524293e-01 7.748756048619861e-04 -1.524375553365000e-01 1.186913770619849e-03 -8.706656123958929e-04
3.630086596163658e-02 -2.095055689661977e-01 4.194010481462527e-04 -1.256186375456221e-01 8.707246006269025e-04 -4.354543913750082e-04
3.671248354083205e-02 -2.098143702817834e-01 3.104926692050166e-04 -1.253228618118593e-01 -7.763382133966892e-04 5.158155028839114e-04
7.990958131638447e-02 -1.816823082763566e-01 -6.088801163525504e-04 -1.292678157846160e-01 -7.666706250893547e-04 1.411856387134828e-03
7.963599174637001e-02 -1.816315003972001e-01 -3.912076359666411e-04 -1.293905827988096e-01 3.258260626666678e-04 -8.379246517576366e-04
-4.488176229598174e-03 -1.744304509524293e-01 7.748756048619861e-04 -1.524375553365000e-01 1.186913770619849e-03 -8.706656123958929e-04
-4.264179760494949e-03 -1.744799535399143e-01 6.037071058443301e-04 -1.524315219481396e-01 -9.548279805951160e-04 8.999311845857018e-04
3.751624903663275e-02 -1.443247392817800e-01 -7.412096602236772e-04 -1.585339332880825e-01 -1.081680823197250e-03 1.667903706738711e-03
3.730858200251277e-02 -1.442785458361348e-01 -5.852167096240642e-04 -1.585882013939438e-01 8.251693167819091e-04 -9.747629037507395e-04
7.963599174637001e-02 -1.816315003972001e-01 -3.912076359666411e-04 -1.293905827988096e-01 3.258260626666678e-04 -8.379246517576366e-04
7.990958131638447e-02 -1.816823082763566e-01 -6.088801163525504e-04 -1.292678157846160e-01 -7.666706250893547e-04 1.411856387134828e-03
1.280879917098681e-01 -1.428337846884815e-01 3.714414232836227e-03 -1.318545524792799e-01 -1.974056113911056e-03 4.965411931730775e-03
1.280144871303660e-01 -1.433176855188590e-01 4.284811535362466e-03 -1.318777891084480e-01 6.452556144715511e-04 -2.044988476334346e-03
3.730858200251277e-02 -1.442785458361348e-01 -5.852167096240642e-04 -1.585882013939438e-01 8.251693167819091e-04 -9.747629037507395e-04
3.751624903663275e-02 -1.443247392817800e-01 -7.412096602236772e-04 -1.585339332880825e-01 -1.081680823197250e-03 1.667903706738711e-03
8.616905175797825e-02 -1.057016685928182e-01 3.502792436838514e-03 -1.618425255869974e-01 -2.606559353435481e-03 4.698381883087972e-03
8.604304886750624e-02 -1.060593326513515e-01 3.997929324817998e-03 -1.619529597867794e-01 1.117400549386032e-03 -1.824824177472953e-03
1.280144871303660e-01 -1.433176855188590e-01 4.284811535362466e-03 -1.318777891084480e-01 6.452556144715511e-04 -2.044988476334346e-03
1.280879917098681e-01 -1.428337846884815e-01 3.714414232836227e-03 -1.318545524792799e-01 -1.974056113911056e-03 4.965411931730775e-03
2.088061695397671e-01 -6.597159271447334e-02 -4.852512503138780e-04 -1.307698494647276e-01 -3.185619391759687e-03 7.506205396661757e-03
2.090613444076713e-01 -6.604565191384786e-02 -7.959601741859956e-04 -1.305850000575481e-01 2.105600814159101e-03 -5.014784643846564e-03
8.604304886750624e-02 -1.060593326513515e-01 3.997929324817998e-03 -1.619529597867794e-01 1.117400549386032e-03 -1.824824177472953e-03
8.616905175797825e-02 -1.057016685928182e-01 3.502792436838514e-03 -1.618425255869974e-01 -2.606559353435481e-03 4.698381883087972e-03
1.673074345367870e-01 -2.940726329320414e-02 -5.843619580094637e-04 -1.620442848518100e-01 -4.265626590489069e-03 7.155800329839455e-03
1.675398000000621e-01 -2.947126493041423e-02 -8.910790743886250e-04 -1.619460524961787e-01 2.532586568986988e-03 -4.447453032605782e-03
2.090613444076713e-01 -6.604565191384786e-02 -7.959601741859956e-04 -1.305850000575481e-01 2.105600814159101e-03 -5.014784643846564e-03
2.088061695397671e-01 -6.597159271447334e-02 -4.852512503138780e-04 -1.307698494647276e-01 -3.185619391759687e-03 7.506205396661757e-03
2.738176543260730e-01 -3.759297264771964e-03 -7.655071868849530e-03 -1.325591784294925e-01 -5.965450670834686e-03 1.313765932585845e-02
2.740672470235310e-01 -3.896720041967681e-03 -8.050428925061453e-03 -1.328354243799367e-01 -4.206326914021018e-05 2.457639837660059e-05
1.675398000000621e-01 -2.947126493041423e-02 -8.910790743886250e-04 -1.619460524961787e-01 2.532586568986988e-03 -4.447453032605782e-03
1.673074345367870e-01 -2.940726329320414e-02 -5.843619580094637e-04 -1.620442848518100e-01 -4.265626590489069e-03 7.155800329839455e-03
2.333231993999219e-01 3.287337098968552e-02 -7.341648249498325e-03 -1.656340648152098e-01 -7.192533826527493e-03 1.243427522101433e-02
2.335036239987209e-01 3.279494504468007e-02 -7.734028769800845e-03 -1.659240792416772e-01 -3.574272872547255e-05 1.545448263830663e-05
-7.067870731033184e-02 -2.197594613235909e-01 2.077958232597674e-04 -1.371035069077870e-01 4.716662791017222e-04 7.758700912013062e-04
-7.061909602342546e-02 -2.196783667895584e-01 7.389534522643225e-05 -1.371977467098756e-01 -7.392303367858907e-04 -5.630127122810591e-04
-5.884775208774498e-02 -2.138821600997419e-01 2.894563090517647e-04 -1.395415201072774e-01 -8.280235140017072e-04 -3.955743609210669e-04
-5.889023999567690e-02 -2.139705603545490e-01 4.150231828438260e-04 -1.394558868413692e-01 6.471515202799884e-04 3.315538826798696e-04
-1.065748557797158e-01 -1.838960046203046e-01 4.218050469402437e-04 -1.512122365902738e-01 1.201855342338031e-04 3.070238268244415e-04
-1.064577779610932e-01 -1.838833704211238e-01 2.967191963640409e-04 -1.512728866470100e-01 -3.567587307636444e-04 -1.587509353405464e-04
-9.536930726296851e-02 -1.762565602263721e-01 9.811898062536583e-05 -1.550213633797130e-01 -3.499694773851668e-04 -2.784332295505186e-05
-9.546131537731467e-02 -1.762590837913609e-01 1.885707170194825e-04 -1.549850774377895e-01 2.764559552985189e-04 -9.873902720242454e-05
-5.889023999567690e-02 -2.139705603545490e-01 4.150231828438260e-04 -1.394558868413692e-01 6.471515202799884e-04 3.315538826798696e-04
-5.884775208774498e-02 -2.138821600997419e-01 2.894563090517647e-04 -1.395415201072774e-01 -8.280235140017072e-04 -3.955743609210669e-04
-3.446565118396814e-02 -1.964768775327777e-01 2.051972214710709e-04 -1.461364394782889e-01 -9.513658935993577e-04 2.492915266991234e-04
-3.460491468147720e-02 -1.965764867057856e-01 4.385067644938485e-04 -1.460387313907224e-01 8.346133714674406e-04 1.179831511012060e-07
-9.546131537731467e-02 -1.762590837913609e-01 1.885707170194825e-04 -1.549850774377895e-01 2.764559552985189e-04 -9.873902720242454e-05
-9.536930726296851e-02 -1.762565602263721e-01 9.811898062536583e-05 -1.550213633797130e-01 -3.499694773851668e-04 -2.784332295505186e-05
-7.232596749224701e-02 -1.569636595624321e-01 -1.716894333930340e-04 -1.623592796888850e-01 -5.547456146822127e-04 4.216885558498687e-04
-7.241754761207377e-02 -1.570605592902578e-01 7.302411222593458e-06 -1.622888236755841e-01 3.211150512779269e-04 -2.916213486710701e-04
-3.460491468147720e-02 -1.965764867057856e-01 4.385067644938485e-04 -1.460387313907224e-01 8.346133714674406e-04 1.179831511012060e-07
-3.446565118396814e-02 -1.964768775327777e-01 2.051972214710709e-04 -1.461364394782889e-01 -9.513658935993577e-04 2.492915266991234e-04
-4.264179760494949e-03 -1.744799535399143e-01 6.037071058443301e-04 -1.524315219481396e-01 -9.548279805951160e-04 8.999311845857018e-04
-4.488176229598174e-03 -1.744304509524293e-01 7.748756048619861e-04 -1.524375553365000e-01 1.186913770619849e-03 -8.706656123958929e-04
-7.241754761207377e-02 -1.570605592902578e-01 7.302411222593458e-06 -1.622888236755841e-01 3.211150512779269e-04 -2.916213486710701e-04
-7.232596749224701e-02 -1.569636595624321e-01 -1.716894333930340e-04 -1.623592796888850e-01 -5.547456146822127e-04 4.216885558498687e-04
-4.588030658955654e-02 -1.335607955044402e-01 5.260301460351030e-04 -1.691120396369496e-01 -8.416386203276014e-04 8.802936158582837e-04
-4.593471562742662e-02 -1.336884434737391e-01 6.974101958655462e-04 -1.690468292549573e-01 8.750959288101835e-04 -9.578001286691649e-04
-4.488176229598174e-03 -1.744304509524293e-01 7.748756048619861e-04 -1.524375553365000e-01 1.186913770619849e-03 -8.706656123958929e-04
-4.264179760494949e-03 -1.744799535399143e-01 6.037071058443301e-04 -1.524315219481396e-01 -9.548279805951160e-04 8.999311845857018e-04
3.751624903663275e-02 -1.443247392817800e-01 -7.412096602236772e-04 -1.585339332880825e-01 -1.081680823197250e-03 1.667903706738711e-03
3.730858200251277e-02 -1.442785458361348e-01 -5.852167096240642e-04 -1.585882013939438e-01 8.251693167819091e-04 -9.747629037507395e-04
-4.593471562742662e-02 -1.336884434737391e-01 6.974101958655462e-04 -1.690468292549573e-01 8.750959288101835e-04 -9.578001286691649e-04
-4.588030658955654e-02 -1.335607955044402e-01 5.260301460351030e-04 -1.691120396369496e-01 -8.416386203276014e-04 8.802936158582837e-04
-9.071344292972867e-03 -1.015750080301526e-01 -6.314189784389016e-04 -1.762854362441579e-01 -1.262449040145299e-03 1.580067083329304e-03
-9.148742064437778e-03 -1.017023662384414e-01 -4.360284851779594e-04 -1.762578402317954e-01 9.340012602391542e-04 -9.324250406928642e-04
3.730858200251277e-02 -1.442785458361348e-01 -5.852167096240642e-04 -1.585882013939438e-01 8.251693167819091e-04 -9.747629037507395e-04
3.751624903663275e-02 -1.443247392817800e-01 -7.412096602236772e-04 -1.585339332880825e-01 -1.081680823197250e-03 1.667903706738711e-03
8.616905175797825e-02 -1.057016685928182e-01 3.502792436838514e-03 -1.618425255869974e-01 -2.606559353435481e-03 4.698381883087972e-03
8.604304886750624e-02 -1.060593326513515e-01 3.997929324817998e-03 -1.619529597867794e-01 1.117400549386032e-03 -1.824824177472953e-03
-9.148742064437778e-03 -1.017023662384414e-01 -4.360284851779594e-04 -1.762578402317954e-01 9.340012602391542e-04 -9.324250406928642e-04
-9.071344292972867e-03 -1.015750080301526e-01 -6.314189784389016e-04 -1.762854362441579e-01 -1.262449040145299e-03 1.580067083329304e-03
3.734826588105085e-02 -6.170660490658191e-02 3.398455919560804e-03 -1.806904400285289e-01 -3.209737796334778e-03 4.377699327190504e-03
3.715096075032674e-02 -6.202965374713754e-02 3.927909629763604e-03 -1.808355805061869e-01 1.502261384447583e-03 -1.678842342845165e-03
8.604304886750624e-02 -1.060593326513515e-01 3.997929324817998e-03 -1.619529597867794e-01 1.117400549386032e-03 -1.824824177472953e-03
8.616905175797825e-02 -1.057016685928182e-01 3.502792436838514e-03 -1.618425255869974e-01 -2.606559353435481e-03 4.698381883087972e-03
1.673074345367870e-01 -2.940726329320414e-02 -5.843619580094637e-04 -1.620442848518100e-01 -4.265626590489069e-03 7.155800329839455e-03
1.675398000000621e-01 -2.947126493041423e-02 -8.910790743886250e-04 -1.619460524961787e-01 2.532586568986988e-03 -4.447453032605782e-03
3.715096075032674e-02 -6.202965374713754e-02 3.927909629763604e-03 -1.808355805061869e-01 1.502261384447583e-03 -1.678842342845165e-03
3.734826588105085e-02 -6.170660490658191e-02 3.398455919560804e-03 -1.806904400285289e-01 -3.209737796334778e-03 4.377699327190504e-03
1.185631977252679e-01 1.610175886520196e-02 -7.694986752099196e-04 -1.819346711561702e-01 -5.324782319547714e-03 6.836018065051233e-03
1.187165652021837e-01 1.611834759257916e-02 -1.083065065330653e-03 -1.819247199369123e-01 2.975514178561920e-03 -3.955377961268117e-03
1.675398000000621e-01 -2.947126493041423e-02 -8.910790743886250e-04 -1.619460524961787e-01 2.532586568986988e-03 -4.447453032605782e-03
1.673074345367870e-01 -2.940726329320414e-02 -5.843619580094637e-04 -1.620442848518100e-01 -4.265626590489069e-03 7.155800329839455e-03
2.333231993999219e-01 3.287337098968552e-02 -7.341648249498325e-03 -1.656340648152098e-01 -7.192533826527493e-03 1.243427522101433e-02
2.335036239987209e-01 3.279494504468007e-02 -7.734028769800845e-03 -1.659240792416772e-01 -3.574272872547255e-05 1.545448263830663e-05
1.187165652021837e-01 1.611834759257916e-02 -1.083065065330653e-03 -1.819247199369123e-01 2.975514178561920e-03 -3.955377961268117e-03
1.185631977252679e-01 1.610175886520196e-02 -7.694986752099196e-04 -1.819346711561702e-01 -5.324782319547714e-03 6.836018065051233e-03
1.855210172868823e-01 8.019861100972167e-02 -7.314467160972405e-03 -1.873918817961415e-01 -8.624548497528188e-03 1.174216968173234e-02
1.856337506986399e-01 8.018441129050637e-02 -7.715403699609467e-03 -1.877017165491259e-01 -2.725107207002340e-05 1.228223835232330e-05
-1.065748557797158e-01 -1.838960046203046e-01 4.218050469402437e-04 -1.512122365902738e-01 1.201855342338031e-04 3.070238268244415e-04
-1.064577779610932e-01 -1.838833704211238e-01 2.967191963640409e-04 -1.512728866470100e-01 -3.567587307636444e-04 -1.587509353405464e-04
-9.536930726296851e-02 -1.762565602263721e-01 9.811898062536583e-05 -1.550213633797130e-01 -3.499694773851668e-04 -2.784332295505186e-05
-9.546131537731467e-02 -1.762590837913609e-01 1.885707170194825e-04 -1.549850774377895e-01 2.764559552985189e-04 -9.873902720242454e-05
-1.452309987509376e-01 -1.454152980499115e-01 5.358319103559053e-04 -1.559683316967962e-01 -4.481431352921698e-05 5.057872127010418e-05
-1.451596023362610e-01 -1.453460515452197e-01 3.988215996374168e-04 -1.560500309116649e-01 -1.395870727997116e-04 1.650628740176078e-04
-1.356280974698928e-01 -1.358341112653088e-01 1.569447326874651e-04 -1.602609392226378e-01 -1.889165806229035e-04 2.228687881813672e-04
-1.356750774555740e-01 -1.358791942498860e-01 2.463305403078018e-04 -1.602122495121498e-01 2.302788726505385e-04 -2.848880445608601e-04
-9.546131537731467e-02 -1.762590837913609e-01 1.885707170194825e-04 -1.549850774377895e-01 2.764559552985189e-04 -9.873902720242454e-05
-9.536930726296851e-02 -1.762565602263721e-01 9.811898062536583e-05 -1.550213633797130e-01 -3.499694773851668e-04 -2.784332295505186e-05
-7.232596749224701e-02 -1.569636595624321e-01 -1.716894333930340e-04 -1.623592796888850e-01 -5.547456146822127e-04 4.216885558498687e-04
-7.241754761207377e-02 -1.570605592902578e-01 7.302411222593458e-06 -1.622888236755841e-01 3.211150512779269e-04 -2.916213486710701e-04
-1.356750774555740e-01 -1.358791942498860e-01 2.463305403078018e-04 -1.602122495121498e-01 2.302788726505385e-04 -2.848880445608601e-04
-1.356280974698928e-01 -1.358341112653088e-01 1.569447326874651e-04 -1.602609392226378e-01 -1.889165806229035e-04 2.228687881813672e-04
-1.141500679020903e-01 -1.143218525257731e-01 -2.547476234174320e-04 -1.680322071673654e-01 -4.608467264512212e-04 5.482145076255362e-04
-1.142307325623399e-01 -1.143981397599642e-01 -1.066936539682043e-04 -1.679778794298786e-01 3.009215696158155e-04 -3.703096181825350e-04
-7.241754761207377e-02 -1.570605592902578e-01 7.302411222593458e-06 -1.622888236755841e-01 3.211150512779269e-04 -2.916213486710701e-04
-7.232596749224701e-02 -1.569636595624321e-01 -1.716894333930340e-04 -1.623592796888850e-01 -5.547456146822127e-04 4.216885558498687e-04
-4.588030658955654e-02 -1.335607955044402e-01 5.260301460351030e-04 -1.691120396369496e-01 -8.416386203276014e-04 8.802936158582837e-04
-4.593471562742662e-02 -1.336884434737391e-01 6.974101958655462e-04 -1.690468292549573e-01 8.750959288101835e-04 -9.578001286691649e-04
-1.142307325623399e-01 -1.143981397599642e-01 -1.066936539682043e-04 -1.679778794298786e-01 3.009215696158155e-04 -3.703096181825350e-04
-1.141500679020903e-01 -1.143218525257731e-01 -2.547476234174320e-04 -1.680322071673654e-01 -4.608467264512212e-04 5.482145076255362e-04
-8.930571463642673e-02 -8.944771161121892e-02 3.463349761567373e-04 -1.749772834529036e-01 -7.769814419358292e-04 8.949760155982774e-04
-8.938538342143690e-02 -8.952045868084574e-02 4.863323397983470e-04 -1.749358797033121e-01 7.938748982026609e-04 -9.408745587777937e-04
-4.593471562742662e-02 -1.336884434737391e-01 6.974101958655462e-04 -1.690468292549573e-01 8.750959288101835e-04 -9.578001286691649e-04
-4.588030658955654e-02 -1.335607955044402e-01 5.260301460351030e-04 -1.691120396369496e-01 -8.416386203276014e-04 8.802936158582837e-04
-9.071344292972867e-03 -1.015750080301526e-01 -6.314189784389016e-04 -1.762854362441579e-01 -1.262449040145299e-03 1.580067083329304e-03
-9.148742064437778e-03 -1.017023662384414e-01 -4.360284851779594e-04 -1.762578402317954e-01 9.340012602391542e-04 -9.324250406928642e-04
-8.938538342143690e-02 -8.952045868084574e-02 4.863323397983470e-04 -1.749358797033121e-01 7.938748982026609e-04 -9.408745587777937e-04
-8.930571463642673e-02 -8.944771161121892e-02 3.463349761567373e-04 -1.749772834529036e-01 -7.769814419358292e-04 8.949760155982774e-04
-5.575954660990375e-02 -5.583233591228355e-02 -6.686386306854009e-04 -1.822519264475267e-01 -1.330783530654157e-03 1.467783602662217e-03
-5.586685850576480e-02 -5.594452606469417e-02 -4.609255390632127e-04 -1.822316751293895e-01 8.066521697032336e-04 -9.384435928404974e-04
-9.148742064437778e-03 -1.017023662384414e-01 -4.360284851779594e-04 -1.762578402317954e-01 9.340012602391542e-04 -9.324250406928642e-04
-9.071344292972867e-03 -1.015750080301526e-01 -6.314189784389016e-04 -1.762854362441579e-01 -1.262449040145299e-03 1.580067083329304e-03
3.734826588105085e-02 -6.170660490658191e-02 3.398455919560804e-03 -1.806904400285289e-01 -3.209737796334778e-03 4.377699327190504e-03
3.715096075032674e-02 -6.202965374713754e-02 3.927909629763604e-03 -1.808355805061869e-01 1.502261384447583e-03 -1.678842342845165e-03
-5.586685850576480e-02 -5.594452606469417e-02 -4.609255390632127e-04 -1.822316751293895e-01 8.066521697032336e-04 -9.384435928404974e-04
-5.575954660990375e-02 -5.583233591228355e-02 -6.686386306854009e-04 -1.822519264475267e-01 -1.330783530654157e-03 1.467783602662217e-03
-1.333956149168287e-02 -1.317618194892208e-02 3.428418886410082e-03 -1.870686826985566e-01 -3.715933354169098e-03 3.960171724439790e-03
-1.361670302032673e-02 -1.345900174371357e-02 3.995985150034641e-03 -1.872280922423309e-01 1.541571683325302e-03 -1.696565626308448e-03
3.715096075032674e-02 -6.202965374713754e-02 3.927909629763604e-03 -1.808355805061869e-01 1.502261384447583e-03 -1.678842342845165e-03
3.734826588105085e-02 -6.170660490658191e-02 3.398455919560804e-03 -1.806904400285289e-01 -3.209737796334778e-03 4.377699327190504e-03
1.185631977252679e-01 1.610175886520196e-02 -7.694986752099196e-04 -1.819346711561702e-01 -5.324782319547714e-03 6.836018065051233e-03
1.187165652021837e-01 1.611834759257916e-02 -1.083065065330653e-03 -1.819247199369123e-01 2.975514178561920e-03 -3.955377961268117e-03
-1.361670302032673e-02 -1.345900174371357e-02 3.995985150034641e-03 -1.872280922423309e-01 1.541571683325302e-03 -1.696565626308448e-03
-1.333956149168287e-02 -1.317618194892208e-02 3.428418886410082e-03 -1.870686826985566e-01 -3.715933354169098e-03 3.960171724439790e-03
6.652928781284007e-02 6.700879347147784e-02 -8.610804710454251e-04 -1.886916856570076e-01 -6.199683382134168e-03 6.328899137628180e-03
6.660895363745178e-02 6.709220029679658e-02 -1.168589502188712e-03 -1.887164884769305e-01 3.327210799056981e-03 -3.631105117473602e-03
1.187165652021837e-01 1.611834759257916e-02 -1.083065065330653e-03 -1.819247199369123e-01 2.975514178561920e-03 -3.955377961268117e-03
1.185631977252679e-01 1.610175886520196e-02 -7.694986752099196e-04 -1.819346711561702e-01 -5.324782319547714e-03 6.836018065051233e-03
1.855210172868823e-01 8.019861100972167e-02 -7.314467160972405e-03 -1.873918817961415e-01 -8.624548497528188e-03 1.174216968173234e-02
1.856337506986399e-01 8.018441129050637e-02 -7.715403699609467e-03 -1.877017165491259e-01 -2.725107207002340e-05 1.228223835232330e-05
6.660895363745178e-02 6.709220029679658e-02 -1.168589502188712e-03 -1.887164884769305e-01 3.327210799056981e-03 -3.631105117473602e-03
6.652928781284007e-02 6.700879347147784e-02 -8.610804710454251e-04 -1.886916856570076e-01 -6.199683382134168e-03 6.328899137628180e-03
1.329109444032452e-01 1.335732304100298e-01 -7.433127095256821e-03 -1.949670924953895e-01 -1.035089814914615e-02 1.050168315895955e-02
1.329720221973658e-01 1.336124663212411e-01 -7.842343261104268e-03 -1.952887939964597e-01 -2.522392077214679e-05 1.223855025716419e-05
        </DataArray>
        <DataArray type="Float64" Name="plastic_strain_incr" format="ascii">
2.732182544901776e-03
2.731549285388714e-03
1.612110394678538e-03
1.614167118128149e-03
1.307878667679510e-03
1.308711088294510e-03
7.835604244763780e-04
7.834074302052406e-04
1.614167118128149e-03
1.612110394678538e-03
1.867533109605290e-03
1.870209301815218e-03
7.834074302052406e-04
7.835604244763780e-04
9.722351582634883e-04
9.713113150731740e-04
1.870209301815218e-03
1.867533109605290e-03
2.299236541550715e-03
2.297889966311684e-03
9.713113150731740e-04
9.722351582634883e-04
1.219051718612289e-03
1.217662978078420e-03
2.297889966311684e-03
2.299236541550715e-03
3.151044676867511e-03
3.141315050353210e-03
1.217662978078420e-03
1.219051718612289e-03
1.633780893122956e-03
1.628815096471821e-03
3.141315050353210e-03
3.151044676867511e-03
5.186283318109284e-03
5.125207129803104e-03
1.628815096471821e-03
1.633780893122956e-03
2.598165332449287e-03
2.568469321460553e-03
5.125207129803104e-03
5.186283318109284e-03
1.052613879148498e-02
1.048517621945711e-02
2.568469321460553e-03
2.598165332449287e-03
5.207127450190027e-03
5.187100096418281e-03
1.048517621945711e-02
1.052613879148498e-02
3.523507295916561e-02
3.530519348633066e-02
5.187100096418281e-03
5.207127450190027e-03
1.749698527987076e-02
1.753118673966596e-02
1.307878667679510e-03
1.308711088294510e-03
7.835604244763780e-04
7.834074302052406e-04
1.351373186134774e-03
1.354188305298092e-03
7.300748029014951e-04
7.283498036313997e-04
7.834074302052406e-04
7.835604244763780e-04
9.722351582634883e-04
9.713113150731740e-04
7.283498036313997e-04
7.300748029014951e-04
9.180694209588525e-04
9.154657827189557e-04
9.713113150731740e-04
9.722351582634883e-04
1.219051718612289e-03
1.217662978078420e-03
9.154657827189557e-04
9.180694209588525e-04
1.266115399279950e-03
1.262913276783158e-03
1.217662978078420e-03
1.219051718612289e-03
1.633780893122956e-03
1.628815096471821e-03
1.262913276783158e-03
1.266115399279950e-03
1.751302302864832e-03
1.745570343136988e-03
1.628815096471821e-03
1.633780893122956e-03
2.598165332449287e-03
2.568469321460553e-03
1.745570343136988e-03
1.751302302864832e-03
2.643059037493859e-03
2.615418767548527e-03
2.568469321460553e-03
2.598165332449287e-03
5.207127450190027e-03
5.187100096418281e-03
2.615418767548527e-03
2.643059037493859e-03
5.089935263418266e-03
5.071591719658519e-03
5.187100096418281e-03
5.207127450190027e-03
1.749698527987076e-02
1.753118673966596e-02
5.071591719658519e-03
5.089935263418266e-03
1.721892218735396e-02
1.724922257317922e-02
1.351373186134774e-03
1.354188305298092e-03
7.300748029014951e-04
7.283498036313997e-04
1.733995189275409e-03
1.734979830003953e-03
9.427226328059330e-04
9.422208397856621e-04
7.283498036313997e-04
7.300748029014951e-04
9.180694209588525e-04
9.154657827189557e-04
9.422208397856621e-04
9.427226328059330e-04
1.086632207401230e-03
1.085321545092146e-03
9.154657827189557e-04
9.180694209588525e-04
1.266115399279950e-03
1.262913276783158e-03
1.085321545092146e-03
1.086632207401230e-03
1.360004917589129e-03
1.357644909617609e-03
1.262913276783158e-03
1.266115399279950e-03
1.751302302864832e-03
1.745570343136988e-03
1.357644909617609e-03
1.360004917589129e-03
1.805979837338059e-03
1.801273200284104e-03
1.745570343136988e-03
1.751302302864832e-03
2.643059037493859e-03
2.615418767548527e-03
1.801273200284104e-03
1.805979837338059e-03
2.645521792368381e-03
2.619657010062013e-03
2.615418767548527e-03
2.643059037493859e-03
5.089935263418266e-03
5.071591719658519e-03
2.619657010062013e-03
2.645521792368381e-03
4.962825882525308e-03
4.946030722755039e-03
5.071591719658519e-03
5.089935263418266e-03
1.721892218735396e-02
1.724922257317922e-02
4.946030722755039e-03
4.962825882525308e-03
1.687732552779022e-02
1.690266233619899e-02
1.733995189275409e-03
1.734979830003953e-03
9.427226328059330e-04
9.422208397856621e-04
2.115746067880580e-03
2.115037645798979e-03
1.173101155493047e-03
1.173837279407629e-03
9.422208397856621e-04
9.427226328059330e-04
1.086632207401230e-03
1.085321545092146e-03
1.173837279407629e-03
1.173101155493047e-03
1.323566556468604e-03
1.323587327593395e-03
1.085321545092146e-03
1.086632207401230e-03
1.360004917589129e-03
1.357644909617609e-03
1.323587327593395e-03
1.323566556468604e-03
1.524010658140931e-03
1.522869714321947e-03
1.357644909617609e-03
1.360004917589129e-03
1.805979837338059e-03
1.801273200284104e-03
1.522869714321947e-03
1.524010658140931e-03
1.852379991326500e-03
1.848606056995410e-03
1.801273200284104e-03
1.805979837338059e-03
2.645521792368381e-03
2.619657010062013e-03
1.848606056995410e-03
1.852379991326500e-03
2.599491679418844e-03
2.575675748867437e-03
2.619657010062013e-03
2.645521792368381e-03
4.962825882525308e-03
4.946030722755039e-03
2.575675748867437e-03
2.599491679418844e-03
4.840623890459106e-03
4.824257349077271e-03
4.946030722755039e-03
4.962825882525308e-03
1.687732552779022e-02
1.690266233619899e-02
4.824257349077271e-03
4.840623890459106e-03
1.659894805214775e-02
1.661801505576507e-02
2.115746067880580e-03
2.115037645798979e-03
1.173101155493047e-03
1.173837279407629e-03
2.326526017796763e-03
2.326465562992189e-03
1.279606527338368e-03
1.279738237344721e-03
1.173837279407629e-03
1.173101155493047e-03
1.323566556468604e-03
1.323587327593395e-03
1.279738237344721e-03
1.279606527338368e-03
1.442782487781228e-03
1.442219200365503e-03
1.323587327593395e-03
1.323566556468604e-03
1.524010658140931e-03
1.522869714321947e-03
1.442219200365503e-03
1.442782487781228e-03
1.653601271710658e-03
1.652646884106367e-03
1.522869714321947e-03
1.524010658140931e-03
1.852379991326500e-03
1.848606056995410e-03
1.652646884106367e-03
1.653601271710658e-03
1.938213309542738e-03
1.935142807658455e-03
1.848606056995410e-03
1.852379991326500e-03
2.599491679418844e-03
2.575675748867437e-03
1.935142807658455e-03
1.938213309542738e-03
2.576560287038570e-03
2.555217435829470e-03
2.575675748867437e-03
2.599491679418844e-03
4.840623890459106e-03
4.824257349077271e-03
2.555217435829470e-03
2.576560287038570e-03
4.732506534291351e-03
4.716436686879402e-03
4.824257349077271e-03
4.840623890459106e-03
1.659894805214775e-02
1.661801505576507e-02
4.716436686879402e-03
4.732506534291351e-03
1.642240140317317e-02
1.643603094537631e-02
2.326526017796763e-03
2.326465562992189e-03
1.279606527338368e-03
1.279738237344721e-03
4.783291930157316e-03
4.783980424823328e-03
2.613287497774689e-03
2.612941407804670e-03
1.279738237344721e-03
1.279606527338368e-03
1.442782487781228e-03
1.442219200365503e-03
2.612941407804670e-03
2.613287497774689e-03
2.936570448616995e-03
2.934648184358619e-03
1.442219200365503e-03
1.442782487781228e-03
1.653601271710658e-03
1.652646884106367e-03
2.934648184358619e-03
2.936570448616995e-03
3.384566374312690e-03
3.382330098700552e-03
1.652646884106367e-03
1.653601271710658e-03
1.938213309542738e-03
1.935142807658455e-03
3.382330098700552e-03
3.384566374312690e-03
3.966042751609303e-03
3.960436482359187e-03
1.935142807658455e-03
1.938213309542738e-03
2.576560287038570e-03
2.555217435829470e-03
3.960436482359187e-03
3.966042751609303e-03
5.158006817359109e-03
5.117634656155740e-03
2.555217435829470e-03
2.576560287038570e-03
4.732506534291351e-03
4.716436686879402e-03
5.117634656155740e-03
5.158006817359109e-03
9.375182521277430e-03
9.343634391460690e-03
4.716436686879402e-03
4.732506534291351e-03
1.642240140317317e-02
1.643603094537631e-02
9.343634391460690e-03
9.375182521277430e-03
3.273316116972466e-02
3.275545540055437e-02
        </DataArray>
        <DataArray type="Float64" Name="plastic_zone" format="ascii">
2.000000000000000e+00
2.000000000000000e+00
1.000000000000000e+00
1.000000000000000e+00
1.000000000000000e+00
1.000000000000000e+00
5.000000000000000e-01
5.000000000000000e-01
1.000000000000000e+00
1.000000000000000e+00
1.000000000000000e+00
1.000000000000000e+00
5.000000000000000e-01
5.000000000000000e-01
5.000000000000000e-01
5.000000000000000e-01
1.000000000000000e+00
1.000000000000000e+00
1.000000000000000e+00
1.000000000000000e+00
5.000000000000000e-01
5.000000000000000e-01
5.000000000000000e-01
5.000000000000000e-01
1.000000000000000e+00
1.000000000000000e+00
1.000000000000000e+00
1.000000000000000e+00
5.000000000000000e-01
5.000000000000000e-01
5.000000000000000e-01
5.000000000000000e-01
1.000000000000000e+00
1.000000000000000e+00
1.000000000000000e+00
1.000000000000000e+00
5.000000000000000e-01
5.000000000000000e-01
5.000000000000000e-01
5.000000000000000e-01
1.000000000000000e+00
1.000000000000000e+00
1.000000000000000e+00
1.000000000000000e+00
5.000000000000000e-01
5.000000000000000e-01
5.000000000000000e-01
5.000000000000000e-01
1.000000000000000e+00
1.000000000000000e+00
2.000000000000000e+00
2.000000000000000e+00
5.000000000000000e-01
5.000000000000000e-01
1.000000000000000e+00
1.000000000000000e+00
1.000000000000000e+00
1.000000000000000e+00
5.000000000000000e-01
5.000000000000000e-01
1.000000000000000e+00
1.000000000000000e+00
5.000000000000000e-01
5.000000000000000e-01
5.000000000000000e-01
5.000000000000000e-01
5.000000000000000e-01
5.000000000000000e-01
5.000000000000000e-01
5.000000000000000e-01
5.000000000000000e-01
5.000000000000000e-01
5.000000000000000e-01
5.000000000000000e-01
5.000000000000000e-01
5.000000000000000e-01
5.000000000000000e-01
5.000000000000000e-01
5.000000000000000e-01
5.000000000000000e-01
5.000000000000000e-01
5.000000000000000e-01
5.000000000000000e-01
5.000000000000000e-01
5.000000000000000e-01
5.000000000000000e-01
5.000000000000000e-01
5.000000000000000e-01
5.000000000000000e-01
5.000000000000000e-01
5.000000000000000e-01
5.000000000000000e-01
5.000000000000000e-01
5.000000000000000e-01
5.000000000000000e-01
5.000000000000000e-01
5.000000000000000e-01
5.000000000000000e-01
5.000000000000000e-01
5.000000000000000e-01
5.000000000000000e-01
5.000000000000000e-01
5.000000000000000e-01
5.000000000000000e-01
5.000000000000000e-01
5.000000000000000e-01
1.000000000000000e+00
1.000000000000000e+00
5.000000000000000e-01
5.000000000000000e-01
1.000000000000000e+00
1.000000000000000e+00
1.000000000000000e+00
1.000000000000000e+00
5.000000000000000e-01
5.000000000000000e-01
1.000000000000000e+00
1.000000000000000e+00
5.000000000000000e-01
5.000000000000000e-01
5.000000000000000e-01
5.000000000000000e-01
5.000000000000000e-01
5.000000000000000e-01
5.000000000000000e-01
5.000000000000000e-01
5.000000000000000e-01
5.000000000000000e-01
5.000000000000000e-01
5.000000000000000e-01
5.000000000000000e-01
5.000000000000000e-01
5.000000000000000e-01
5.000000000000000e-01
5.000000000000000e-01
5.000000000000000e-01
5.000000000000000e-01
5.000000000000000e-01
5.000000000000000e-01
5.000000000000000e-01
5.000000000000000e-01
5.000000000000000e-01
5.000000000000000e-01
5.000000000000000e-01
5.000000000000000e-01
5.000000000000000e-01
5.000000000000000e-01
5.000000000000000e-01
5.000000000000000e-01
5.000000000000000e-01
5.000000000000000e-01
5.000000000000000e-01
5.000000000000000e-01
5.000000000000000e-01
5.000000000000000e-01
5.000000000000000e-01
5.000000000000000e-01
5.000000000000000e-01
5.000000000000000e-01
5.000000000000000e-01
5.000000000000000e-01
5.000000000000000e-01
1.000000000000000e+00
1.000000000000000e+00
5.000000000000000e-01
5.000000000000000e-01
1.000000000000000e+00
1.000000000000000e+00
1.000000000000000e+00
1.000000000000000e+00
5.000000000000000e-01
5.000000000000000e-01
1.000000000000000e+00
1.000000000000000e+00
5.000000000000000e-01
5.000000000000000e-01
5.000000000000000e-01
5.000000000000000e-01
5.000000000000000e-01
5.000000000000000e-01
5.000000000000000e-01
5.000000000000000e-01
5.000000000000000e-01
5.000000000000000e-01
5.000000000000000e-01
5.000000000000000e-01
5.000000000000000e-01
5.000000000000000e-01
5.000000000000000e-01
5.000000000000000e-01
5.000000000000000e-01
5.000000000000000e-01
5.000000000000000e-01
5.000000000000000e-01
5.000000000000000e-01
5.000000000000000e-01
5.000000000000000e-01
5.000000000000000e-01
5.000000000000000e-01
5.000000000000000e-01
5.000000000000000e-01
5.000000000000000e-01
5.000000000000000e-01
5.000000000000000e-01
5.000000000000000e-01
5.000000000000000e-01
5.000000000000000e-01
5.000000000000000e-01
5.000000000000000e-01
5.000000000000000e-01
5.000000000000000e-01
5.000000000000000e-01
5.000000000000000e-01
5.000000000000000e-01
5.000000000000000e-01
5.000000000000000e-01
5.000000000000000e-01
5.000000000000000e-01
1.000000000000000e+00
1.000000000000000e+00
5.000000000000000e-01
5.000000000000000e-01
1.000000000000000e+00
1.000000000000000e+00
1.000000000000000e+00
1.000000000000000e+00
5.000000000000000e-01
5.000000000000000e-01
1.000000000000000e+00
1.000000000000000e+00
5.000000000000000e-01
5.000000000000000e-01
5.000000000000000e-01
5.000000000000000e-01
5.000000000000000e-01
5.000000000000000e-01
5.000000000000000e-01
5.000000000000000e-01
5.000000000000000e-01
5.000000000000000e-01
5.000000000000000e-01
5.000000000000000e-01
5.000000000000000e-01
5.000000000000000e-01
5.000000000000000e-01
5.000000000000000e-01
5.000000000000000e-01
5.000000000000000e-01
5.000000000000000e-01
5.000000000000000e-01
5.000000000000000e-01
5.000000000000000e-01
5.000000000000000e-01
5.000000000000000e-01
5.000000000000000e-01
5.000000000000000e-01
5.000000000000000e-01
5.000000000000000e-01
5.000000000000000e-01
5.000000000000000e-01
5.000000000000000e-01
5.000000000000000e-01
5.000000000000000e-01
5.000000000000000e-01
5.000000000000000e-01
5.000000000000000e-01
5.000000000000000e-01
5.000000000000000e-01
5.000000000000000e-01
5.000000000000000e-01
5.000000000000000e-01
5.000000000000000e-01
5.000000000000000e-01
5.000000000000000e-01
1.000000000000000e+00
1.000000000000000e+00
5.000000000000000e-01
5.000000000000000e-01
1.000000000000000e+00
1.000000000000000e+00
1.000000000000000e+00
1.000000000000000e+00
5.000000000000000e-01
5.000000000000000e-01
2.000000000000000e+00
2.000000000000000e+00
1.000000000000000e+00
1.000000000000000e+00
5.000000000000000e-01
5.000000000000000e-01
5.000000000000000e-01
5.000000000000000e-01
1.000000000000000e+00
1.000000000000000e+00
1.000000000000000e+00
1.000000000000000e+00
5.000000000000000e-01
5.000000000000000e-01
5.000000000000000e-01
5.000000000000000e-01
1.000000000000000e+00
1.000000000000000e+00
1.000000000000000e+00
1.000000000000000e+00
5.000000000000000e-01
5.000000000000000e-01
5.000000000000000e-01
5.000000000000000e-01
1.000000000000000e+00
1.000000000000000e+00
1.000000000000000e+00
1.000000000000000e+00
5.000000000000000e-01
5.000000000000000e-01
5.000000000000000e-01
5.000000000000000e-01
1.000000000000000e+00
1.000000000000000e+00
1.000000000000000e+00
1.000000000000000e+00
5.000000000000000e-01
5.000000000000000e-01
5.000000000000000e-01
5.000000000000000e-01
1.000000000000000e+00
1.000000000000000e+00
1.000000000000000e+00
1.000000000000000e+00
5.000000000000000e-01
5.000000000000000e-01
1.000000000000000e+00
1.000000000000000e+00
1.000000000000000e+00
1.000000000000000e+00
2.000000000000000e+00
2.000000000000000e+00
        </DataArray>
  </PointData>
  <CellData>
        <DataArray type="Float64" Name="element_cauchy_stresses_xyz" NumberOfComponents="6" format="ascii">
8.835243841613587e-03 -2.803241761274654e-01 7.685983445871328e-04 -1.528132059216560e-02 6.538469730687601e-05 -1.092994503240945e-04
3.347234443020786e-02 -2.753644068542886e-01 -2.332994583254628e-03 -1.981333660520155e-02 -1.984064489830173e-04 -1.159049881534534e-05
6.681061854399750e-02 -2.650302684940899e-01 5.072571736125710e-04 -2.459660204706237e-02 -3.062073898840045e-04 -1.887616001103098e-04
1.089560596498722e-01 -2.483071701721655e-01 -1.902452004300800e-03 -2.572583749958714e-02 -1.505334079183045e-04 5.006081185680112e-04
1.592600360898125e-01 -2.139623055788680e-01 3.340296824683568e-03 -2.533850822723383e-02 -1.014370566371861e-04 -4.465765327684779e-04
2.221988576859754e-01 -1.574447080374576e-01 -9.295263384501123e-03 -2.410562726070909e-02 -1.747195097974970e-04 1.486387377053714e-03
3.129916536062549e-01 -5.732477667738609e-02 6.677174145656332e-03 -2.232539218392676e-02 -1.910950338406340e-04 5.840556654708259e-03
3.041087828668173e-03 -2.789024404391929e-01 5.790637435233241e-04 -6.232622709914434e-02 2.187902653133959e-04 1.486617572912715e-04
3.671133587351123e-02 -2.670671891176433e-01 2.621337689120927e-03 -6.237134942881001e-02 2.614610775255155e-04 2.493925915094254e-04
6.613642161963448e-02 -2.554504964743800e-01 1.332392038867692e-03 -6.559542544218579e-02 4.945272065476190e-05 -3.703746418485456e-04
9.984770233237139e-02 -2.365246144007446e-01 -1.763090702770412e-03 -6.985900419065258e-02 -3.029815704657690e-04 5.008587018055327e-04
1.445194879895013e-01 -2.033073977725755e-01 2.990191337632036e-03 -7.247218700610947e-02 -1.980379633295253e-04 -5.163763589989544e-04
2.071632065341538e-01 -1.481716253425364e-01 -9.311847697277126e-03 -7.196613107635356e-02 -3.594601315670361e-04 1.380122483967068e-03
3.020633457906751e-01 -4.756842336782571e-02 7.017465191582315e-03 -6.678401685740654e-02 -1.123777168179690e-03 5.776715891644985e-03
-2.540003522550712e-02 -2.630142413836717e-01 -8.040908043564761e-04 -1.005718531354647e-01 -4.540480136058611e-04 -2.013275931571821e-04
3.218645717720871e-03 -2.523053012500888e-01 -3.863972063352404e-04 -1.016396266551757e-01 -5.896715646551979e-04 -8.450084484597434e-06
3.856111493166516e-02 -2.361951995879343e-01 5.157760613747269e-04 -1.034653212620062e-01 -2.058580010994948e-04 -4.846205625392498e-04
7.575271543675371e-02 -2.141163749862485e-01 -1.820212646975935e-03 -1.081635054053811e-01 -2.018143948827856e-04 4.494391902895484e-04
1.185559015984991e-01 -1.808479755386763e-01 2.820366484382041e-03 -1.130765486686796e-01 3.114948530690374e-05 -4.280791715025252e-04
1.793422315184292e-01 -1.274834368509937e-01 -8.888439563610932e-03 -1.152730244997784e-01 -4.668220130965377e-04 1.264148035911874e-03
2.776562034868955e-01 -2.836690157633681e-02 6.445212090191146e-03 -1.092369640382077e-01 -2.010001264172593e-03 5.595221344256745e-03
-5.322994134391085e-02 -2.373390348612023e-01 -1.230637245334945e-04 -1.259725574781929e-01 7.894933559907913e-05 -8.239410161164671e-05
-3.082318476245122e-02 -2.241608164972955e-01 -7.520271786187050e-04 -1.317269797597232e-01 -3.428240747663987e-06 1.265124115096828e-04
-1.031427032172909e-03 -2.060472633421736e-01 3.778758740341922e-04 -1.370002181840528e-01 6.561227750209512e-05 -2.279355460299724e-04
3.713915830385959e-02 -1.822529008078705e-01 -1.753818030719796e-03 -1.423810401651890e-01 -2.212638932508951e-04 4.099016405743770e-04
8.236866184382549e-02 -1.477594868734485e-01 3.048873771663459e-03 -1.469975366197506e-01 1.188837977235577e-04 -3.964026029670711e-04
1.417629568416197e-01 -9.603355000168969e-02 -8.794410626560846e-03 -1.503148009386064e-01 -6.185033419029721e-04 1.222970671314603e-03
2.419319909185340e-01 2.318525320034284e-03 6.358604193299969e-03 -1.459850244995680e-01 -2.657415111334536e-03 5.374826982123335e-03
-8.624686194321826e-02 -2.039684603486836e-01 -6.543276436775187e-05 -1.451348265355593e-01 5.899053100988547e-05 -5.482931213249139e-05
-6.521116404030451e-02 -1.878476786698390e-01 -2.840827466142455e-04 -1.522114305058197e-01 8.363555624610829e-07 1.495516441168354e-04
-4.027149983879975e-02 -1.673891092780086e-01 3.925633358900732e-04 -1.592105898292960e-01 1.703186168625458e-04 -1.493899619727613e-04
-8.068022203187347e-03 -1.419070854019235e-01 -1.844725620049574e-03 -1.664225941363086e-01 -2.528981139455827e-04 4.581595903980957e-04
3.560139928162597e-02 -1.071278386318350e-01 2.930270376364597e-03 -1.717524942760714e-01 1.988385057712197e-04 -3.861098044497185e-04
9.610948088884616e-02 -5.544488955778522e-02 -8.639386382106668e-03 -1.755046839797121e-01 -8.440284287018410e-04 1.206656526090991e-03
1.973740446747763e-01 4.400668493023898e-02 6.160143830029299e-03 -1.729722424486486e-01 -3.323187728087526e-03 5.139003978722901e-03
-1.248144888652085e-01 -1.653667308688407e-01 -1.837721751532532e-04 -1.555555254444524e-01 3.928884188845406e-05 -7.534734166624125e-05
-1.048801899570839e-01 -1.471897968582556e-01 -2.506815444218314e-04 -1.630747273881764e-01 -7.476248634165624e-05 1.180604022421545e-04
-8.107348987632422e-02 -1.246796875999542e-01 6.130017432636951e-04 -1.704422868594088e-01 1.842432081152361e-04 -1.755162874277136e-04
-5.258715551147084e-02 -9.753498517871695e-02 -1.713242463814245e-03 -1.781100242460102e-01 -2.991057317502716e-04 4.479053181888591e-04
-1.394059862625252e-02 -6.163722274582591e-02 3.005073053467795e-03 -1.841880925356532e-01 2.740200721525495e-04 -3.524553587403678e-04
4.402064930006534e-02 -8.023372649343262e-03 -8.816643614122660e-03 -1.890637517396106e-01 -1.037980793527119e-03 1.146858102922005e-03
1.471479245691962e-01 9.458231663360014e-02 6.418907876404143e-03 -1.873418087068044e-01 -4.057449380399556e-03 4.771643487463247e-03
        </DataArray>
        <DataArray type="Float64" Name="element_owner" format="ascii">
0.000000000000000e+00
0.000000000000000e+00
0.000000000000000e+00
0.000000000000000e+00
0.000000000000000e+00
0.000000000000000e+00
0.000000000000000e+00
0.000000000000000e+00
0.000000000000000e+00
0.000000000000000e+00
0.000000000000000e+00
0.000000000000000e+00
0.000000000000000e+00
0.000000000000000e+00
0.000000000000000e+00
0.000000000000000e+00
0.000000000000000e+00
0.000000000000000e+00
0.000000000000000e+00
0.000000000000000e+00
0.000000000000000e+00
0.000000000000000e+00
0.000000000000000e+00
0.000000000000000e+00
0.000000000000000e+00
0.000000000000000e+00
0.000000000000000e+00
0.000000000000000e+00
0.000000000000000e+00
0.000000000000000e+00
0.000000000000000e+00
0.000000000000000e+00
0.000000000000000e+00
0.000000000000000e+00
0.000000000000000e+00
0.000000000000000e+00
0.000000000000000e+00
0.000000000000000e+00
0.000000000000000e+00
0.000000000000000e+00
0.000000000000000e+00
0.000000000000000e+00
        </DataArray>
      </CellData>

    </Piece>
  </UnstructuredGrid>
</VTKFile>
