<?xml version="1.0" ?> 
<!-- 
# vtk DataFile Version 3.0
-->
<VTKFile type="UnstructuredGrid" version="0.1" compressor="vtkZLibDataCompressor" byte_order="LittleEndian">
  <UnstructuredGrid>
    <FieldData>
      <DataArray type="Float64" Name="TIME" NumberOfTuples="1" format="ascii">
5.000000000000000e-01 
      </DataArray>
    </FieldData>

    <Piece NumberOfPoints="336" NumberOfCells="42" >
      <Points>
        <DataArray type="Float64" NumberOfComponents="3" format="ascii">
4.000000000000000e+02 0.000000000000000e+00 -5.000000000000000e+00
4.000000000000000e+02 0.000000000000000e+00 5.000000000000000e+00
3.714285714285714e+02 0.000000000000000e+00 5.000000000000000e+00
3.714285714285714e+02 0.000000000000000e+00 -5.000000000000000e+00
3.965779445495241e+02 -5.221047688802063e+01 -5.000000000000000e+00
3.965779445495241e+02 -5.221047688802067e+01 5.000000000000000e+00
3.682509485102725e+02 -4.848115711030491e+01 5.000000000000000e+00
3.682509485102725e+02 -4.848115711030487e+01 -5.000000000000000e+00
3.714285714285714e+02 0.000000000000000e+00 -5.000000000000000e+00
3.714285714285714e+02 0.000000000000000e+00 5.000000000000000e+00
3.428571428571428e+02 0.000000000000000e+00 5.000000000000000e+00
3.428571428571429e+02 0.000000000000000e+00 -5.000000000000000e+00
3.682509485102725e+02 -4.848115711030487e+01 -5.000000000000000e+00
3.682509485102725e+02 -4.848115711030491e+01 5.000000000000000e+00
3.399239524710206e+02 -4.475183733258914e+01 5.000000000000000e+00
3.399239524710206e+02 -4.475183733258911e+01 -5.000000000000000e+00
3.428571428571429e+02 0.000000000000000e+00 -5.000000000000000e+00
3.428571428571428e+02 0.000000000000000e+00 5.000000000000000e+00
3.142857142857143e+02 0.000000000000000e+00 5.000000000000000e+00
3.142857142857143e+02 0.000000000000000e+00 -5.000000000000000e+00
3.399239524710206e+02 -4.475183733258911e+01 -5.000000000000000e+00
3.399239524710206e+02 -4.475183733258914e+01 5.000000000000000e+00
3.115969564317688e+02 -4.102251755487337e+01 5.000000000000000e+00
3.115969564317689e+02 -4.102251755487335e+01 -5.000000000000000e+00
3.142857142857143e+02 0.000000000000000e+00 -5.000000000000000e+00
3.142857142857143e+02 0.000000000000000e+00 5.000000000000000e+00
2.857142857142857e+02 0.000000000000000e+00 5.000000000000000e+00
2.857142857142857e+02 0.000000000000000e+00 -5.000000000000000e+00
3.115969564317689e+02 -4.102251755487335e+01 -5.000000000000000e+00
3.115969564317688e+02 -4.102251755487337e+01 5.000000000000000e+00
2.832699603925173e+02 -3.729319777715760e+01 5.000000000000000e+00
2.832699603925172e+02 -3.729319777715761e+01 -5.000000000000000e+00
2.857142857142857e+02 0.000000000000000e+00 -5.000000000000000e+00
2.857142857142857e+02 0.000000000000000e+00 5.000000000000000e+00
2.571428571428571e+02 0.000000000000000e+00 5.000000000000000e+00
2.571428571428572e+02 0.000000000000000e+00 -5.000000000000000e+00
2.832699603925172e+02 -3.729319777715761e+01 -5.000000000000000e+00
2.832699603925173e+02 -3.729319777715760e+01 5.000000000000000e+00
2.549429643532654e+02 -3.356387799944184e+01 5.000000000000000e+00
2.549429643532656e+02 -3.356387799944184e+01 -5.000000000000000e+00
2.571428571428572e+02 0.000000000000000e+00 -5.000000000000000e+00
2.571428571428571e+02 0.000000000000000e+00 5.000000000000000e+00
2.285714285714286e+02 0.000000000000000e+00 5.000000000000000e+00
2.285714285714286e+02 0.000000000000000e+00 -5.000000000000000e+00
2.549429643532656e+02 -3.356387799944184e+01 -5.000000000000000e+00
2.549429643532654e+02 -3.356387799944184e+01 5.000000000000000e+00
2.266159683140137e+02 -2.983455822172607e+01 5.000000000000000e+00
2.266159683140138e+02 -2.983455822172609e+01 -5.000000000000000e+00
2.285714285714286e+02 0.000000000000000e+00 -5.000000000000000e+00
2.285714285714286e+02 0.000000000000000e+00 5.000000000000000e+00
2.000000000000000e+02 0.000000000000000e+00 5.000000000000000e+00
2.000000000000000e+02 0.000000000000000e+00 -5.000000000000000e+00
2.266159683140138e+02 -2.983455822172609e+01 -5.000000000000000e+00
2.266159683140137e+02 -2.983455822172607e+01 5.000000000000000e+00
1.982889722747620e+02 -2.610523844401031e+01 5.000000000000000e+00
1.982889722747620e+02 -2.610523844401034e+01 -5.000000000000000e+00
3.965779445495241e+02 -5.221047688802063e+01 -5.000000000000000e+00
3.965779445495241e+02 -5.221047688802067e+01 5.000000000000000e+00
3.682509485102725e+02 -4.848115711030491e+01 5.000000000000000e+00
3.682509485102725e+02 -4.848115711030487e+01 -5.000000000000000e+00
3.863703305156273e+02 -1.035276180410083e+02 -5.000000000000000e+00
3.863703305156273e+02 -1.035276180410083e+02 5.000000000000000e+00
3.587724497645111e+02 -9.613278818093622e+01 5.000000000000000e+00
3.587724497645111e+02 -9.613278818093627e+01 -5.000000000000000e+00
3.682509485102725e+02 -4.848115711030487e+01 -5.000000000000000e+00
3.682509485102725e+02 -4.848115711030491e+01 5.000000000000000e+00
3.399239524710206e+02 -4.475183733258914e+01 5.000000000000000e+00
3.399239524710206e+02 -4.475183733258911e+01 -5.000000000000000e+00
3.587724497645111e+02 -9.613278818093627e+01 -5.000000000000000e+00
3.587724497645111e+02 -9.613278818093622e+01 5.000000000000000e+00
3.311745690133948e+02 -8.873795832086424e+01 5.000000000000000e+00
3.311745690133949e+02 -8.873795832086424e+01 -5.000000000000000e+00
3.399239524710206e+02 -4.475183733258911e+01 -5.000000000000000e+00
3.399239524710206e+02 -4.475183733258914e+01 5.000000000000000e+00
3.115969564317688e+02 -4.102251755487337e+01 5.000000000000000e+00
3.115969564317689e+02 -4.102251755487335e+01 -5.000000000000000e+00
3.311745690133949e+02 -8.873795832086424e+01 -5.000000000000000e+00
3.311745690133948e+02 -8.873795832086424e+01 5.000000000000000e+00
3.035766882622786e+02 -8.134312846079223e+01 5.000000000000000e+00
3.035766882622786e+02 -8.134312846079223e+01 -5.000000000000000e+00
3.115969564317689e+02 -4.102251755487335e+01 -5.000000000000000e+00
3.115969564317688e+02 -4.102251755487337e+01 5.000000000000000e+00
2.832699603925173e+02 -3.729319777715760e+01 5.000000000000000e+00
2.832699603925172e+02 -3.729319777715761e+01 -5.000000000000000e+00
3.035766882622786e+02 -8.134312846079223e+01 -5.000000000000000e+00
3.035766882622786e+02 -8.134312846079223e+01 5.000000000000000e+00
2.759788075111623e+02 -7.394829860072021e+01 5.000000000000000e+00
2.759788075111623e+02 -7.394829860072022e+01 -5.000000000000000e+00
2.832699603925172e+02 -3.729319777715761e+01 -5.000000000000000e+00
2.832699603925173e+02 -3.729319777715760e+01 5.000000000000000e+00
2.549429643532654e+02 -3.356387799944184e+01 5.000000000000000e+00
2.549429643532656e+02 -3.356387799944184e+01 -5.000000000000000e+00
2.759788075111623e+02 -7.394829860072022e+01 -5.000000000000000e+00
2.759788075111623e+02 -7.394829860072021e+01 5.000000000000000e+00
2.483809267600461e+02 -6.655346874064817e+01 5.000000000000000e+00
2.483809267600461e+02 -6.655346874064817e+01 -5.000000000000000e+00
2.549429643532656e+02 -3.356387799944184e+01 -5.000000000000000e+00
2.549429643532654e+02 -3.356387799944184e+01 5.000000000000000e+00
2.266159683140137e+02 -2.983455822172607e+01 5.000000000000000e+00
2.266159683140138e+02 -2.983455822172609e+01 -5.000000000000000e+00
2.483809267600461e+02 -6.655346874064817e+01 -5.000000000000000e+00
2.483809267600461e+02 -6.655346874064817e+01 5.000000000000000e+00
2.207830460089299e+02 -5.915863888057616e+01 5.000000000000000e+00
2.207830460089299e+02 -5.915863888057613e+01 -5.000000000000000e+00
2.266159683140138e+02 -2.983455822172609e+01 -5.000000000000000e+00
2.266159683140137e+02 -2.983455822172607e+01 5.000000000000000e+00
1.982889722747620e+02 -2.610523844401031e+01 5.000000000000000e+00
1.982889722747620e+02 -2.610523844401034e+01 -5.000000000000000e+00
2.207830460089299e+02 -5.915863888057613e+01 -5.000000000000000e+00
2.207830460089299e+02 -5.915863888057616e+01 5.000000000000000e+00
1.931851652578137e+02 -5.176380902050415e+01 5.000000000000000e+00
1.931851652578137e+02 -5.176380902050413e+01 -5.000000000000000e+00
3.863703305156273e+02 -1.035276180410083e+02 -5.000000000000000e+00
3.863703305156273e+02 -1.035276180410083e+02 5.000000000000000e+00
3.587724497645111e+02 -9.613278818093622e+01 5.000000000000000e+00
3.587724497645111e+02 -9.613278818093627e+01 -5.000000000000000e+00
3.695518130045147e+02 -1.530733729460359e+02 -5.000000000000000e+00
3.695518130045147e+02 -1.530733729460358e+02 5.000000000000000e+00
3.431552549327637e+02 -1.421395605927476e+02 5.000000000000000e+00
3.431552549327638e+02 -1.421395605927476e+02 -5.000000000000000e+00
3.587724497645111e+02 -9.613278818093627e+01 -5.000000000000000e+00
3.587724497645111e+02 -9.613278818093622e+01 5.000000000000000e+00
3.311745690133948e+02 -8.873795832086424e+01 5.000000000000000e+00
3.311745690133949e+02 -8.873795832086424e+01 -5.000000000000000e+00
3.431552549327638e+02 -1.421395605927476e+02 -5.000000000000000e+00
3.431552549327637e+02 -1.421395605927476e+02 5.000000000000000e+00
3.167586968610125e+02 -1.312057482394593e+02 5.000000000000000e+00
3.167586968610127e+02 -1.312057482394593e+02 -5.000000000000000e+00
3.311745690133949e+02 -8.873795832086424e+01 -5.000000000000000e+00
3.311745690133948e+02 -8.873795832086424e+01 5.000000000000000e+00
3.035766882622786e+02 -8.134312846079223e+01 5.000000000000000e+00
3.035766882622786e+02 -8.134312846079223e+01 -5.000000000000000e+00
3.167586968610127e+02 -1.312057482394593e+02 -5.000000000000000e+00
3.167586968610125e+02 -1.312057482394593e+02 5.000000000000000e+00
2.903621387892615e+02 -1.202719358861710e+02 5.000000000000000e+00
2.903621387892615e+02 -1.202719358861710e+02 -5.000000000000000e+00
3.035766882622786e+02 -8.134312846079223e+01 -5.000000000000000e+00
3.035766882622786e+02 -8.134312846079223e+01 5.000000000000000e+00
2.759788075111623e+02 -7.394829860072021e+01 5.000000000000000e+00
2.759788075111623e+02 -7.394829860072022e+01 -5.000000000000000e+00
2.903621387892615e+02 -1.202719358861710e+02 -5.000000000000000e+00
2.903621387892615e+02 -1.202719358861710e+02 5.000000000000000e+00
2.639655807175105e+02 -1.093381235328828e+02 5.000000000000000e+00
2.639655807175105e+02 -1.093381235328827e+02 -5.000000000000000e+00
2.759788075111623e+02 -7.394829860072022e+01 -5.000000000000000e+00
2.759788075111623e+02 -7.394829860072021e+01 5.000000000000000e+00
2.483809267600461e+02 -6.655346874064817e+01 5.000000000000000e+00
2.483809267600461e+02 -6.655346874064817e+01 -5.000000000000000e+00
2.639655807175105e+02 -1.093381235328827e+02 -5.000000000000000e+00
2.639655807175105e+02 -1.093381235328828e+02 5.000000000000000e+00
2.375690226457594e+02 -9.840431117959449e+01 5.000000000000000e+00
2.375690226457594e+02 -9.840431117959449e+01 -5.000000000000000e+00
2.483809267600461e+02 -6.655346874064817e+01 -5.000000000000000e+00
2.483809267600461e+02 -6.655346874064817e+01 5.000000000000000e+00
2.207830460089299e+02 -5.915863888057616e+01 5.000000000000000e+00
2.207830460089299e+02 -5.915863888057613e+01 -5.000000000000000e+00
2.375690226457594e+02 -9.840431117959449e+01 -5.000000000000000e+00
2.375690226457594e+02 -9.840431117959449e+01 5.000000000000000e+00
2.111724645740084e+02 -8.747049882630620e+01 5.000000000000000e+00
2.111724645740084e+02 -8.747049882630618e+01 -5.000000000000000e+00
2.207830460089299e+02 -5.915863888057613e+01 -5.000000000000000e+00
2.207830460089299e+02 -5.915863888057616e+01 5.000000000000000e+00
1.931851652578137e+02 -5.176380902050415e+01 5.000000000000000e+00
1.931851652578137e+02 -5.176380902050413e+01 -5.000000000000000e+00
2.111724645740084e+02 -8.747049882630618e+01 -5.000000000000000e+00
2.111724645740084e+02 -8.747049882630620e+01 5.000000000000000e+00
1.847759065022574e+02 -7.653668647301795e+01 5.000000000000000e+00
1.847759065022574e+02 -7.653668647301789e+01 -5.000000000000000e+00
3.695518130045147e+02 -1.530733729460359e+02 -5.000000000000000e+00
3.695518130045147e+02 -1.530733729460358e+02 5.000000000000000e+00
3.431552549327637e+02 -1.421395605927476e+02 5.000000000000000e+00
3.431552549327638e+02 -1.421395605927476e+02 -5.000000000000000e+00
3.464101615137754e+02 -2.000000000000000e+02 -5.000000000000000e+00
3.464101615137755e+02 -1.999999999999999e+02 5.000000000000000e+00
3.216665785485059e+02 -1.857142857142856e+02 5.000000000000000e+00
3.216665785485058e+02 -1.857142857142858e+02 -5.000000000000000e+00
3.431552549327638e+02 -1.421395605927476e+02 -5.000000000000000e+00
3.431552549327637e+02 -1.421395605927476e+02 5.000000000000000e+00
3.167586968610125e+02 -1.312057482394593e+02 5.000000000000000e+00
3.167586968610127e+02 -1.312057482394593e+02 -5.000000000000000e+00
3.216665785485058e+02 -1.857142857142858e+02 -5.000000000000000e+00
3.216665785485059e+02 -1.857142857142856e+02 5.000000000000000e+00
2.969229955832362e+02 -1.714285714285713e+02 5.000000000000000e+00
2.969229955832362e+02 -1.714285714285714e+02 -5.000000000000000e+00
3.167586968610127e+02 -1.312057482394593e+02 -5.000000000000000e+00
3.167586968610125e+02 -1.312057482394593e+02 5.000000000000000e+00
2.903621387892615e+02 -1.202719358861710e+02 5.000000000000000e+00
2.903621387892615e+02 -1.202719358861710e+02 -5.000000000000000e+00
2.969229955832362e+02 -1.714285714285714e+02 -5.000000000000000e+00
2.969229955832362e+02 -1.714285714285713e+02 5.000000000000000e+00
2.721794126179664e+02 -1.571428571428571e+02 5.000000000000000e+00
2.721794126179664e+02 -1.571428571428571e+02 -5.000000000000000e+00
2.903621387892615e+02 -1.202719358861710e+02 -5.000000000000000e+00
2.903621387892615e+02 -1.202719358861710e+02 5.000000000000000e+00
2.639655807175105e+02 -1.093381235328828e+02 5.000000000000000e+00
2.639655807175105e+02 -1.093381235328827e+02 -5.000000000000000e+00
2.721794126179664e+02 -1.571428571428571e+02 -5.000000000000000e+00
2.721794126179664e+02 -1.571428571428571e+02 5.000000000000000e+00
2.474358296526968e+02 -1.428571428571428e+02 5.000000000000000e+00
2.474358296526968e+02 -1.428571428571428e+02 -5.000000000000000e+00
2.639655807175105e+02 -1.093381235328827e+02 -5.000000000000000e+00
2.639655807175105e+02 -1.093381235328828e+02 5.000000000000000e+00
2.375690226457594e+02 -9.840431117959449e+01 5.000000000000000e+00
2.375690226457594e+02 -9.840431117959449e+01 -5.000000000000000e+00
2.474358296526968e+02 -1.428571428571428e+02 -5.000000000000000e+00
2.474358296526968e+02 -1.428571428571428e+02 5.000000000000000e+00
2.226922466874271e+02 -1.285714285714286e+02 5.000000000000000e+00
2.226922466874272e+02 -1.285714285714285e+02 -5.000000000000000e+00
2.375690226457594e+02 -9.840431117959449e+01 -5.000000000000000e+00
2.375690226457594e+02 -9.840431117959449e+01 5.000000000000000e+00
2.111724645740084e+02 -8.747049882630620e+01 5.000000000000000e+00
2.111724645740084e+02 -8.747049882630618e+01 -5.000000000000000e+00
2.226922466874272e+02 -1.285714285714285e+02 -5.000000000000000e+00
2.226922466874271e+02 -1.285714285714286e+02 5.000000000000000e+00
1.979486637221574e+02 -1.142857142857143e+02 5.000000000000000e+00
1.979486637221574e+02 -1.142857142857142e+02 -5.000000000000000e+00
2.111724645740084e+02 -8.747049882630618e+01 -5.000000000000000e+00
2.111724645740084e+02 -8.747049882630620e+01 5.000000000000000e+00
1.847759065022574e+02 -7.653668647301795e+01 5.000000000000000e+00
1.847759065022574e+02 -7.653668647301789e+01 -5.000000000000000e+00
1.979486637221574e+02 -1.142857142857142e+02 -5.000000000000000e+00
1.979486637221574e+02 -1.142857142857143e+02 5.000000000000000e+00
1.732050807568877e+02 -1.000000000000000e+02 5.000000000000000e+00
1.732050807568878e+02 -9.999999999999993e+01 -5.000000000000000e+00
3.464101615137754e+02 -2.000000000000000e+02 -5.000000000000000e+00
3.464101615137755e+02 -1.999999999999999e+02 5.000000000000000e+00
3.216665785485059e+02 -1.857142857142856e+02 5.000000000000000e+00
3.216665785485058e+02 -1.857142857142858e+02 -5.000000000000000e+00
3.173413361164941e+02 -2.435045716034883e+02 -5.000000000000000e+00
3.173413361164939e+02 -2.435045716034884e+02 5.000000000000000e+00
2.946740978224587e+02 -2.261113879175249e+02 5.000000000000000e+00
2.946740978224587e+02 -2.261113879175248e+02 -5.000000000000000e+00
3.216665785485058e+02 -1.857142857142858e+02 -5.000000000000000e+00
3.216665785485059e+02 -1.857142857142856e+02 5.000000000000000e+00
2.969229955832362e+02 -1.714285714285713e+02 5.000000000000000e+00
2.969229955832362e+02 -1.714285714285714e+02 -5.000000000000000e+00
2.946740978224587e+02 -2.261113879175248e+02 -5.000000000000000e+00
2.946740978224587e+02 -2.261113879175249e+02 5.000000000000000e+00
2.720068595284234e+02 -2.087182042315615e+02 5.000000000000000e+00
2.720068595284235e+02 -2.087182042315613e+02 -5.000000000000000e+00
2.969229955832362e+02 -1.714285714285714e+02 -5.000000000000000e+00
2.969229955832362e+02 -1.714285714285713e+02 5.000000000000000e+00
2.721794126179664e+02 -1.571428571428571e+02 5.000000000000000e+00
2.721794126179664e+02 -1.571428571428571e+02 -5.000000000000000e+00
2.720068595284235e+02 -2.087182042315613e+02 -5.000000000000000e+00
2.720068595284234e+02 -2.087182042315615e+02 5.000000000000000e+00
2.493396212343882e+02 -1.913250205455980e+02 5.000000000000000e+00
2.493396212343882e+02 -1.913250205455980e+02 -5.000000000000000e+00
2.721794126179664e+02 -1.571428571428571e+02 -5.000000000000000e+00
2.721794126179664e+02 -1.571428571428571e+02 5.000000000000000e+00
2.474358296526968e+02 -1.428571428571428e+02 5.000000000000000e+00
2.474358296526968e+02 -1.428571428571428e+02 -5.000000000000000e+00
2.493396212343882e+02 -1.913250205455980e+02 -5.000000000000000e+00
2.493396212343882e+02 -1.913250205455980e+02 5.000000000000000e+00
2.266723829403529e+02 -1.739318368596345e+02 5.000000000000000e+00
2.266723829403529e+02 -1.739318368596345e+02 -5.000000000000000e+00
2.474358296526968e+02 -1.428571428571428e+02 -5.000000000000000e+00
2.474358296526968e+02 -1.428571428571428e+02 5.000000000000000e+00
2.226922466874271e+02 -1.285714285714286e+02 5.000000000000000e+00
2.226922466874272e+02 -1.285714285714285e+02 -5.000000000000000e+00
2.266723829403529e+02 -1.739318368596345e+02 -5.000000000000000e+00
2.266723829403529e+02 -1.739318368596345e+02 5.000000000000000e+00
2.040051446463176e+02 -1.565386531736710e+02 5.000000000000000e+00
2.040051446463175e+02 -1.565386531736710e+02 -5.000000000000000e+00
2.226922466874272e+02 -1.285714285714285e+02 -5.000000000000000e+00
2.226922466874271e+02 -1.285714285714286e+02 5.000000000000000e+00
1.979486637221574e+02 -1.142857142857143e+02 5.000000000000000e+00
1.979486637221574e+02 -1.142857142857142e+02 -5.000000000000000e+00
2.040051446463175e+02 -1.565386531736710e+02 -5.000000000000000e+00
2.040051446463176e+02 -1.565386531736710e+02 5.000000000000000e+00
1.813379063522823e+02 -1.391454694877076e+02 5.000000000000000e+00
1.813379063522823e+02 -1.391454694877076e+02 -5.000000000000000e+00
1.979486637221574e+02 -1.142857142857142e+02 -5.000000000000000e+00
1.979486637221574e+02 -1.142857142857143e+02 5.000000000000000e+00
1.732050807568877e+02 -1.000000000000000e+02 5.000000000000000e+00
1.732050807568878e+02 -9.999999999999993e+01 -5.000000000000000e+00
1.813379063522823e+02 -1.391454694877076e+02 -5.000000000000000e+00
1.813379063522823e+02 -1.391454694877076e+02 5.000000000000000e+00
1.586706680582470e+02 -1.217522858017441e+02 5.000000000000000e+00
1.586706680582470e+02 -1.217522858017442e+02 -5.000000000000000e+00
3.173413361164941e+02 -2.435045716034883e+02 -5.000000000000000e+00
3.173413361164939e+02 -2.435045716034884e+02 5.000000000000000e+00
2.946740978224587e+02 -2.261113879175249e+02 5.000000000000000e+00
2.946740978224587e+02 -2.261113879175248e+02 -5.000000000000000e+00
2.828427124746190e+02 -2.828427124746190e+02 -5.000000000000000e+00
2.828427124746189e+02 -2.828427124746191e+02 5.000000000000000e+00
2.626396615835747e+02 -2.626396615835749e+02 5.000000000000000e+00
2.626396615835748e+02 -2.626396615835748e+02 -5.000000000000000e+00
2.946740978224587e+02 -2.261113879175248e+02 -5.000000000000000e+00
2.946740978224587e+02 -2.261113879175249e+02 5.000000000000000e+00
2.720068595284234e+02 -2.087182042315615e+02 5.000000000000000e+00
2.720068595284235e+02 -2.087182042315613e+02 -5.000000000000000e+00
2.626396615835748e+02 -2.626396615835748e+02 -5.000000000000000e+00
2.626396615835747e+02 -2.626396615835749e+02 5.000000000000000e+00
2.424366106925305e+02 -2.424366106925306e+02 5.000000000000000e+00
2.424366106925306e+02 -2.424366106925306e+02 -5.000000000000000e+00
2.720068595284235e+02 -2.087182042315613e+02 -5.000000000000000e+00
2.720068595284234e+02 -2.087182042315615e+02 5.000000000000000e+00
2.493396212343882e+02 -1.913250205455980e+02 5.000000000000000e+00
2.493396212343882e+02 -1.913250205455980e+02 -5.000000000000000e+00
2.424366106925306e+02 -2.424366106925306e+02 -5.000000000000000e+00
2.424366106925305e+02 -2.424366106925306e+02 5.000000000000000e+00
2.222335598014863e+02 -2.222335598014863e+02 5.000000000000000e+00
2.222335598014863e+02 -2.222335598014863e+02 -5.000000000000000e+00
2.493396212343882e+02 -1.913250205455980e+02 -5.000000000000000e+00
2.493396212343882e+02 -1.913250205455980e+02 5.000000000000000e+00
2.266723829403529e+02 -1.739318368596345e+02 5.000000000000000e+00
2.266723829403529e+02 -1.739318368596345e+02 -5.000000000000000e+00
2.222335598014863e+02 -2.222335598014863e+02 -5.000000000000000e+00
2.222335598014863e+02 -2.222335598014863e+02 5.000000000000000e+00
2.020305089104421e+02 -2.020305089104422e+02 5.000000000000000e+00
2.020305089104421e+02 -2.020305089104422e+02 -5.000000000000000e+00
2.266723829403529e+02 -1.739318368596345e+02 -5.000000000000000e+00
2.266723829403529e+02 -1.739318368596345e+02 5.000000000000000e+00
2.040051446463176e+02 -1.565386531736710e+02 5.000000000000000e+00
2.040051446463175e+02 -1.565386531736710e+02 -5.000000000000000e+00
2.020305089104421e+02 -2.020305089104422e+02 -5.000000000000000e+00
2.020305089104421e+02 -2.020305089104422e+02 5.000000000000000e+00
1.818274580193979e+02 -1.818274580193979e+02 5.000000000000000e+00
1.818274580193979e+02 -1.818274580193979e+02 -5.000000000000000e+00
2.040051446463175e+02 -1.565386531736710e+02 -5.000000000000000e+00
2.040051446463176e+02 -1.565386531736710e+02 5.000000000000000e+00
1.813379063522823e+02 -1.391454694877076e+02 5.000000000000000e+00
1.813379063522823e+02 -1.391454694877076e+02 -5.000000000000000e+00
1.818274580193979e+02 -1.818274580193979e+02 -5.000000000000000e+00
1.818274580193979e+02 -1.818274580193979e+02 5.000000000000000e+00
1.616244071283537e+02 -1.616244071283538e+02 5.000000000000000e+00
1.616244071283537e+02 -1.616244071283537e+02 -5.000000000000000e+00
1.813379063522823e+02 -1.391454694877076e+02 -5.000000000000000e+00
1.813379063522823e+02 -1.391454694877076e+02 5.000000000000000e+00
1.586706680582470e+02 -1.217522858017441e+02 5.000000000000000e+00
1.586706680582470e+02 -1.217522858017442e+02 -5.000000000000000e+00
1.616244071283537e+02 -1.616244071283537e+02 -5.000000000000000e+00
1.616244071283537e+02 -1.616244071283538e+02 5.000000000000000e+00
1.414213562373095e+02 -1.414213562373095e+02 5.000000000000000e+00
1.414213562373095e+02 -1.414213562373095e+02 -5.000000000000000e+00
        </DataArray>
      </Points>

      <Cells>
        <DataArray type="Int32" Name="connectivity" format="ascii">
0 1 2 3 4 5 6 7 8 9 10 11 12 13 14 15 16 17 18 19 20 21 22 23 24 25 26 27 28 29 30 31 32 33 34 35 36 37 38 39 40 41 42 43 44 45 46 47 48 49 50 51 52 53 54 55 56 57 58 59 60 61 62 63 64 65 66 67 68 69 70 71 72 73 74 75 76 77 78 79 80 81 82 83 84 85 86 87 88 89 90 91 92 93 94 95 96 97 98 99 100 101 102 103 104 105 106 107 108 109 110 111 112 113 114 115 116 117 118 119 120 121 122 123 124 125 126 127 128 129 130 131 132 133 134 135 136 137 138 139 140 141 142 143 144 145 146 147 148 149 150 151 152 153 154 155 156 157 158 159 160 161 162 163 164 165 166 167 168 169 170 171 172 173 174 175 176 177 178 179 180 181 182 183 184 185 186 187 188 189 190 191 192 193 194 195 196 197 198 199 200 201 202 203 204 205 206 207 208 209 210 211 212 213 214 215 216 217 218 219 220 221 222 223 224 225 226 227 228 229 230 231 232 233 234 235 236 237 238 239 240 241 242 243 244 245 246 247 248 249 250 251 252 253 254 255 256 257 258 259 260 261 262 263 264 265 266 267 268 269 270 271 272 273 274 275 276 277 278 279 280 281 282 283 284 285 286 287 288 289 290 291 292 293 294 295 296 297 298 299 300 301 302 303 304 305 306 307 308 309 310 311 312 313 314 315 316 317 318 319 320 321 322 323 324 325 326 327 328 329 330 331 332 333 334 335 
        </DataArray>
        <DataArray type="Int32" Name="offsets" format="ascii">
8 16 24 32 40 48 56 64 72 80 88 96 104 112 120 128 136 144 152 160 168 176 184 192 200 208 216 224 232 240 248 256 264 272 280 288 296 304 312 320 328 336 
        </DataArray>
        <DataArray type="UInt8" Name="types" format="ascii">
12 12 12 12 12 12 12 12 12 12 12 12 12 12 12 12 12 12 12 12 12 12 12 12 12 12 12 12 12 12 12 12 12 12 12 12 12 12 12 12 12 12 
        </DataArray>
      </Cells>

  <PointData>
        <DataArray type="Float64" Name="accumulated_plastic_strain" format="ascii">
3.916589879292819e-02
3.915773949327748e-02
2.451254698290809e-02
2.452011145178375e-02
1.964886259782619e-02
1.963947950652089e-02
1.177537300176330e-02
1.178050199874422e-02
2.452011145178375e-02
2.451254698290809e-02
3.040069073677224e-02
3.040937205352955e-02
1.178050199874422e-02
1.177537300176330e-02
1.427061926610029e-02
1.427156354756199e-02
3.040937205352955e-02
3.040069073677224e-02
3.580377458052213e-02
3.581406691863603e-02
1.427156354756199e-02
1.427061926610029e-02
1.686461157989742e-02
1.686005231444720e-02
3.581406691863603e-02
3.580377458052213e-02
4.077297858011569e-02
4.079120554562329e-02
1.686005231444720e-02
1.686461157989742e-02
1.954750819533006e-02
1.953812587822119e-02
4.079120554562329e-02
4.077297858011569e-02
4.616645693388666e-02
4.609306184056636e-02
1.953812587822119e-02
1.954750819533006e-02
2.271264346174903e-02
2.264991786566580e-02
4.609306184056636e-02
4.616645693388666e-02
5.520075796448887e-02
5.535777547608248e-02
2.264991786566580e-02
2.271264346174903e-02
2.814067828673666e-02
2.818464156021811e-02
5.535777547608248e-02
5.520075796448887e-02
1.345163194497475e-01
1.351217837780155e-01
2.818464156021811e-02
2.814067828673666e-02
6.986802094331392e-02
7.017220662718171e-02
1.964886259782619e-02
1.963947950652089e-02
1.177537300176330e-02
1.178050199874422e-02
1.874746021360746e-02
1.873911976024576e-02
1.021841935190076e-02
1.022030026361411e-02
1.178050199874422e-02
1.177537300176330e-02
1.427061926610029e-02
1.427156354756199e-02
1.022030026361411e-02
1.021841935190076e-02
1.165870521398799e-02
1.165272390090362e-02
1.427156354756199e-02
1.427061926610029e-02
1.686461157989742e-02
1.686005231444720e-02
1.165272390090362e-02
1.165870521398799e-02
1.380774189707177e-02
1.379181845938250e-02
1.686005231444720e-02
1.686461157989742e-02
1.954750819533006e-02
1.953812587822119e-02
1.379181845938250e-02
1.380774189707177e-02
1.679231700551189e-02
1.676121830992252e-02
1.953812587822119e-02
1.954750819533006e-02
2.271264346174903e-02
2.264991786566580e-02
1.676121830992252e-02
1.679231700551189e-02
2.120818692484639e-02
2.110382584843903e-02
2.264991786566580e-02
2.271264346174903e-02
2.814067828673666e-02
2.818464156021811e-02
2.110382584843903e-02
2.120818692484639e-02
2.865288944421514e-02
2.865587794906528e-02
2.818464156021811e-02
2.814067828673666e-02
6.986802094331392e-02
7.017220662718171e-02
2.865587794906528e-02
2.865288944421514e-02
7.348062477843856e-02
7.383682986780127e-02
1.874746021360746e-02
1.873911976024576e-02
1.021841935190076e-02
1.022030026361411e-02
1.604581647379488e-02
1.604920907216717e-02
8.225092357208690e-03
8.221299840964506e-03
1.022030026361411e-02
1.021841935190076e-02
1.165870521398799e-02
1.165272390090362e-02
8.221299840964506e-03
8.225092357208690e-03
8.949281539872777e-03
8.941526509781358e-03
1.165272390090362e-02
1.165870521398799e-02
1.380774189707177e-02
1.379181845938250e-02
8.941526509781358e-03
8.949281539872777e-03
1.063148281044685e-02
1.061637884722569e-02
1.379181845938250e-02
1.380774189707177e-02
1.679231700551189e-02
1.676121830992252e-02
1.061637884722569e-02
1.063148281044685e-02
1.375061091460037e-02
1.371747846503749e-02
1.676121830992252e-02
1.679231700551189e-02
2.120818692484639e-02
2.110382584843903e-02
1.371747846503749e-02
1.375061091460037e-02
1.928613121868360e-02
1.915692675334545e-02
2.110382584843903e-02
2.120818692484639e-02
2.865288944421514e-02
2.865587794906528e-02
1.915692675334545e-02
1.928613121868360e-02
2.876211845372386e-02
2.875090053605259e-02
2.865587794906528e-02
2.865288944421514e-02
7.348062477843856e-02
7.383682986780127e-02
2.875090053605259e-02
2.876211845372386e-02
7.665751270138155e-02
7.708463567279988e-02
1.604581647379488e-02
1.604920907216717e-02
8.225092357208690e-03
8.221299840964506e-03
1.290856172097136e-02
1.292057235615133e-02
6.625601782687315e-03
6.619889556932197e-03
8.221299840964506e-03
8.225092357208690e-03
8.949281539872777e-03
8.941526509781358e-03
6.619889556932197e-03
6.625601782687315e-03
7.209997024446802e-03
7.203685679732699e-03
8.941526509781358e-03
8.949281539872777e-03
1.063148281044685e-02
1.061637884722569e-02
7.203685679732699e-03
7.209997024446802e-03
8.626031538009633e-03
8.614257914275860e-03
1.061637884722569e-02
1.063148281044685e-02
1.375061091460037e-02
1.371747846503749e-02
8.614257914275860e-03
8.626031538009633e-03
1.153203791577777e-02
1.150005921526282e-02
1.371747846503749e-02
1.375061091460037e-02
1.928613121868360e-02
1.915692675334545e-02
1.150005921526282e-02
1.153203791577777e-02
1.738727646266347e-02
1.723224516408123e-02
1.915692675334545e-02
1.928613121868360e-02
2.876211845372386e-02
2.875090053605259e-02
1.723224516408123e-02
1.738727646266347e-02
2.842494482351101e-02
2.839526552804447e-02
2.875090053605259e-02
2.876211845372386e-02
7.665751270138155e-02
7.708463567279988e-02
2.839526552804447e-02
2.842494482351101e-02
7.947100833759410e-02
7.996137266504627e-02
1.290856172097136e-02
1.292057235615133e-02
6.625601782687315e-03
6.619889556932197e-03
1.063242587880593e-02
1.064590864936506e-02
5.655734729436264e-03
5.650343153045829e-03
6.619889556932197e-03
6.625601782687315e-03
7.209997024446802e-03
7.203685679732699e-03
5.650343153045829e-03
5.655734729436264e-03
6.392492361594499e-03
6.386801954488275e-03
7.203685679732699e-03
7.209997024446802e-03
8.626031538009633e-03
8.614257914275860e-03
6.386801954488275e-03
6.392492361594499e-03
7.783073591233877e-03
7.772882951842466e-03
8.614257914275860e-03
8.626031538009633e-03
1.153203791577777e-02
1.150005921526282e-02
7.772882951842466e-03
7.783073591233877e-03
1.037802415814220e-02
1.034733449485342e-02
1.150005921526282e-02
1.153203791577777e-02
1.738727646266347e-02
1.723224516408123e-02
1.034733449485342e-02
1.037802415814220e-02
1.597908728626110e-02
1.580448365972227e-02
1.723224516408123e-02
1.738727646266347e-02
2.842494482351101e-02
2.839526552804447e-02
1.580448365972227e-02
1.597908728626110e-02
2.792704431634431e-02
2.788497985362467e-02
2.839526552804447e-02
2.842494482351101e-02
7.947100833759410e-02
7.996137266504627e-02
2.788497985362467e-02
2.792704431634431e-02
8.155484992672149e-02
8.209346404612229e-02
1.063242587880593e-02
1.064590864936506e-02
5.655734729436264e-03
5.650343153045829e-03
1.960511553347982e-02
1.963269154377785e-02
1.065289561509980e-02
1.064235098790193e-02
5.650343153045829e-03
5.655734729436264e-03
6.392492361594499e-03
6.386801954488275e-03
1.064235098790193e-02
1.065289561509980e-02
1.231620915539002e-02
1.230538910091327e-02
6.386801954488275e-03
6.392492361594499e-03
7.783073591233877e-03
7.772882951842466e-03
1.230538910091327e-02
1.231620915539002e-02
1.516237334210096e-02
1.514371849501357e-02
7.772882951842466e-03
7.783073591233877e-03
1.037802415814220e-02
1.034733449485342e-02
1.514371849501357e-02
1.516237334210096e-02
2.011291601255706e-02
2.005419824287101e-02
1.034733449485342e-02
1.037802415814220e-02
1.597908728626110e-02
1.580448365972227e-02
2.005419824287101e-02
2.011291601255706e-02
3.094499970875584e-02
3.058423814089986e-02
1.580448365972227e-02
1.597908728626110e-02
2.792704431634431e-02
2.788497985362467e-02
3.058423814089986e-02
3.094499970875584e-02
5.541587680655841e-02
5.532601891306040e-02
2.788497985362467e-02
2.792704431634431e-02
8.155484992672149e-02
8.209346404612229e-02
5.532601891306040e-02
5.541587680655841e-02
1.647734849641272e-01
1.658859287286961e-01
        </DataArray>
        <DataArray type="Float64" Name="displacement" NumberOfComponents="3" format="ascii">
-1.112491452372920e+01 0.000000000000000e+00 0.000000000000000e+00
-1.111974697201850e+01 0.000000000000000e+00 2.284528704751697e-01
-1.187786816525406e+01 0.000000000000000e+00 2.599541377146222e-01
-1.188412684593773e+01 0.000000000000000e+00 0.000000000000000e+00
-1.144589596096049e+01 2.270844523910738e+00 0.000000000000000e+00
-1.144283929833165e+01 2.270595675226614e+00 2.340748557825945e-01
-1.211930052241433e+01 2.684416567255228e+00 2.513414287214895e-01
-1.212196407225499e+01 2.687299725889154e+00 0.000000000000000e+00
-1.188412684593773e+01 0.000000000000000e+00 0.000000000000000e+00
-1.187786816525406e+01 0.000000000000000e+00 2.599541377146222e-01
-1.295937857884573e+01 0.000000000000000e+00 2.928367563070894e-01
-1.296248260622215e+01 0.000000000000000e+00 0.000000000000000e+00
-1.212196407225499e+01 2.687299725889154e+00 0.000000000000000e+00
-1.211930052241433e+01 2.684416567255228e+00 2.513414287214895e-01
-1.308035599003426e+01 2.986488312638519e+00 2.647952299334712e-01
-1.308027299354409e+01 2.993063462181245e+00 0.000000000000000e+00
-1.296248260622215e+01 0.000000000000000e+00 0.000000000000000e+00
-1.295937857884573e+01 0.000000000000000e+00 2.928367563070894e-01
-1.437874902847243e+01 0.000000000000000e+00 2.849088855723252e-01
-1.437431088839704e+01 0.000000000000000e+00 0.000000000000000e+00
-1.308027299354409e+01 2.993063462181245e+00 0.000000000000000e+00
-1.308035599003426e+01 2.986488312638519e+00 2.647952299334712e-01
-1.436789135695446e+01 3.140178133078311e+00 2.539403235916251e-01
-1.436249024473956e+01 3.147063791170675e+00 0.000000000000000e+00
-1.437431088839704e+01 0.000000000000000e+00 0.000000000000000e+00
-1.437874902847243e+01 0.000000000000000e+00 2.849088855723252e-01
-1.616061044565175e+01 0.000000000000000e+00 2.445444256277737e-01
-1.615157417256462e+01 0.000000000000000e+00 0.000000000000000e+00
-1.436249024473956e+01 3.147063791170675e+00 0.000000000000000e+00
-1.436789135695446e+01 3.140178133078311e+00 2.539403235916251e-01
-1.603428894371750e+01 3.137312521893337e+00 2.124085224509875e-01
-1.602449032039398e+01 3.144065150604592e+00 0.000000000000000e+00
-1.615157417256462e+01 0.000000000000000e+00 0.000000000000000e+00
-1.616061044565175e+01 0.000000000000000e+00 2.445444256277737e-01
-1.833165054865427e+01 0.000000000000000e+00 1.732009050552389e-01
-1.831670929932445e+01 0.000000000000000e+00 0.000000000000000e+00
-1.602449032039398e+01 3.144065150604592e+00 0.000000000000000e+00
-1.603428894371750e+01 3.137312521893337e+00 2.124085224509875e-01
-1.812402996240070e+01 3.029152243764581e+00 1.444039658840601e-01
-1.810905150600952e+01 3.033479698089491e+00 0.000000000000000e+00
-1.831670929932445e+01 0.000000000000000e+00 0.000000000000000e+00
-1.833165054865427e+01 0.000000000000000e+00 1.732009050552389e-01
-2.108340052735746e+01 0.000000000000000e+00 2.404358684191614e-02
-2.104374258405431e+01 0.000000000000000e+00 0.000000000000000e+00
-1.810905150600952e+01 3.033479698089491e+00 0.000000000000000e+00
-1.812402996240070e+01 3.029152243764581e+00 1.444039658840601e-01
-2.083542880516305e+01 2.946950216065242e+00 -7.201235189003128e-03
-2.079358804873770e+01 2.953551516744061e+00 0.000000000000000e+00
-2.104374258405431e+01 0.000000000000000e+00 0.000000000000000e+00
-2.108340052735746e+01 0.000000000000000e+00 2.404358684191614e-02
-2.500000000000000e+01 0.000000000000000e+00 -2.261579169916874e-01
-2.500000000000000e+01 0.000000000000000e+00 0.000000000000000e+00
-2.079358804873770e+01 2.953551516744061e+00 0.000000000000000e+00
-2.083542880516305e+01 2.946950216065242e+00 -7.201235189003128e-03
-2.478612153434526e+01 3.263154805501290e+00 -2.644030101168240e-01
-2.478612153434526e+01 3.263154805501293e+00 0.000000000000000e+00
-1.144589596096049e+01 2.270844523910738e+00 0.000000000000000e+00
-1.144283929833165e+01 2.270595675226614e+00 2.340748557825945e-01
-1.211930052241433e+01 2.684416567255228e+00 2.513414287214895e-01
-1.212196407225499e+01 2.687299725889154e+00 0.000000000000000e+00
-1.200093219813683e+01 4.660977043226755e+00 0.000000000000000e+00
-1.200288956163590e+01 4.659084505467020e+00 2.278046851620934e-01
-1.249390879774146e+01 5.180266165492264e+00 2.180242875644452e-01
-1.249057025163922e+01 5.183875905042856e+00 0.000000000000000e+00
-1.212196407225499e+01 2.687299725889154e+00 0.000000000000000e+00
-1.211930052241433e+01 2.684416567255228e+00 2.513414287214895e-01
-1.308035599003426e+01 2.986488312638519e+00 2.647952299334712e-01
-1.308027299354409e+01 2.993063462181245e+00 0.000000000000000e+00
-1.249057025163922e+01 5.183875905042856e+00 0.000000000000000e+00
-1.249390879774146e+01 5.180266165492264e+00 2.180242875644452e-01
-1.317338898585948e+01 5.574521484517164e+00 2.032037357009316e-01
-1.316956133533801e+01 5.580468854864412e+00 0.000000000000000e+00
-1.308027299354409e+01 2.993063462181245e+00 0.000000000000000e+00
-1.308035599003426e+01 2.986488312638519e+00 2.647952299334712e-01
-1.436789135695446e+01 3.140178133078311e+00 2.539403235916251e-01
-1.436249024473956e+01 3.147063791170675e+00 0.000000000000000e+00
-1.316956133533801e+01 5.580468854864412e+00 0.000000000000000e+00
-1.317338898585948e+01 5.574521484517164e+00 2.032037357009316e-01
-1.413311195189892e+01 5.794950737751452e+00 1.915504374344837e-01
-1.412806480723649e+01 5.801032758882143e+00 0.000000000000000e+00
-1.436249024473956e+01 3.147063791170675e+00 0.000000000000000e+00
-1.436789135695446e+01 3.140178133078311e+00 2.539403235916251e-01
-1.603428894371750e+01 3.137312521893337e+00 2.124085224509875e-01
-1.602449032039398e+01 3.144065150604592e+00 0.000000000000000e+00
-1.412806480723649e+01 5.801032758882143e+00 0.000000000000000e+00
-1.413311195189892e+01 5.794950737751452e+00 1.915504374344837e-01
-1.548806538806194e+01 5.824605701644102e+00 1.596368346172376e-01
-1.548026230901108e+01 5.828999630721495e+00 0.000000000000000e+00
-1.602449032039398e+01 3.144065150604592e+00 0.000000000000000e+00
-1.603428894371750e+01 3.137312521893337e+00 2.124085224509875e-01
-1.812402996240070e+01 3.029152243764581e+00 1.444039658840601e-01
-1.810905150600952e+01 3.033479698089491e+00 0.000000000000000e+00
-1.548026230901108e+01 5.828999630721495e+00 0.000000000000000e+00
-1.548806538806194e+01 5.824605701644102e+00 1.596368346172376e-01
-1.736846588204214e+01 5.720476642065146e+00 1.093860126554485e-01
-1.735528850602751e+01 5.720622356371329e+00 0.000000000000000e+00
-1.810905150600952e+01 3.033479698089491e+00 0.000000000000000e+00
-1.812402996240070e+01 3.029152243764581e+00 1.444039658840601e-01
-2.083542880516305e+01 2.946950216065242e+00 -7.201235189003128e-03
-2.079358804873770e+01 2.953551516744061e+00 0.000000000000000e+00
-1.735528850602751e+01 5.720622356371329e+00 0.000000000000000e+00
-1.736846588204214e+01 5.720476642065146e+00 1.093860126554485e-01
-2.006888984714645e+01 5.725110838408284e+00 -5.369610554222416e-02
-2.002119660390098e+01 5.725562182658426e+00 0.000000000000000e+00
-2.079358804873770e+01 2.953551516744061e+00 0.000000000000000e+00
-2.083542880516305e+01 2.946950216065242e+00 -7.201235189003128e-03
-2.478612153434526e+01 3.263154805501290e+00 -2.644030101168240e-01
-2.478612153434526e+01 3.263154805501293e+00 0.000000000000000e+00
-2.002119660390098e+01 5.725562182658426e+00 0.000000000000000e+00
-2.006888984714645e+01 5.725110838408284e+00 -5.369610554222416e-02
-2.414814565722671e+01 6.470476127563020e+00 -3.491049478740451e-01
-2.414814565722671e+01 6.470476127563017e+00 0.000000000000000e+00
-1.200093219813683e+01 4.660977043226755e+00 0.000000000000000e+00
-1.200288956163590e+01 4.659084505467020e+00 2.278046851620934e-01
-1.249390879774146e+01 5.180266165492264e+00 2.180242875644452e-01
-1.249057025163922e+01 5.183875905042856e+00 0.000000000000000e+00
-1.219957534524746e+01 6.851735381538719e+00 0.000000000000000e+00
-1.220331508449200e+01 6.849332858084076e+00 1.956324524223214e-01
-1.254778458662131e+01 7.237472493804331e+00 1.796887199468430e-01
-1.254322740221049e+01 7.239479451826196e+00 0.000000000000000e+00
-1.249057025163922e+01 5.183875905042856e+00 0.000000000000000e+00
-1.249390879774146e+01 5.180266165492264e+00 2.180242875644452e-01
-1.317338898585948e+01 5.574521484517164e+00 2.032037357009316e-01
-1.316956133533801e+01 5.580468854864412e+00 0.000000000000000e+00
-1.254322740221049e+01 7.239479451826196e+00 0.000000000000000e+00
-1.254778458662131e+01 7.237472493804331e+00 1.796887199468430e-01
-1.301417525484952e+01 7.557240408413512e+00 1.596380215620813e-01
-1.301038982434276e+01 7.559538266345156e+00 0.000000000000000e+00
-1.316956133533801e+01 5.580468854864412e+00 0.000000000000000e+00
-1.317338898585948e+01 5.574521484517164e+00 2.032037357009316e-01
-1.413311195189892e+01 5.794950737751452e+00 1.915504374344837e-01
-1.412806480723649e+01 5.801032758882143e+00 0.000000000000000e+00
-1.301038982434276e+01 7.559538266345156e+00 0.000000000000000e+00
-1.301417525484952e+01 7.557240408413512e+00 1.596380215620813e-01
-1.369050911575711e+01 7.786233988202169e+00 1.502889774610805e-01
-1.368712536372267e+01 7.788758108501251e+00 0.000000000000000e+00
-1.412806480723649e+01 5.801032758882143e+00 0.000000000000000e+00
-1.413311195189892e+01 5.794950737751452e+00 1.915504374344837e-01
-1.548806538806194e+01 5.824605701644102e+00 1.596368346172376e-01
-1.548026230901108e+01 5.828999630721495e+00 0.000000000000000e+00
-1.368712536372267e+01 7.788758108501251e+00 0.000000000000000e+00
-1.369050911575711e+01 7.786233988202169e+00 1.502889774610805e-01
-1.472567243041830e+01 7.914207664743078e+00 1.301394647973371e-01
-1.472064120875675e+01 7.915733325780095e+00 0.000000000000000e+00
-1.548026230901108e+01 5.828999630721495e+00 0.000000000000000e+00
-1.548806538806194e+01 5.824605701644102e+00 1.596368346172376e-01
-1.736846588204214e+01 5.720476642065146e+00 1.093860126554485e-01
-1.735528850602751e+01 5.720622356371329e+00 0.000000000000000e+00
-1.472064120875675e+01 7.915733325780095e+00 0.000000000000000e+00
-1.472567243041830e+01 7.914207664743078e+00 1.301394647973371e-01
-1.633975121315259e+01 7.997449124743997e+00 9.118363746921780e-02
-1.632717901255860e+01 7.994450789965173e+00 0.000000000000000e+00
-1.735528850602751e+01 5.720622356371329e+00 0.000000000000000e+00
-1.736846588204214e+01 5.720476642065146e+00 1.093860126554485e-01
-2.006888984714645e+01 5.725110838408284e+00 -5.369610554222416e-02
-2.002119660390098e+01 5.725562182658426e+00 0.000000000000000e+00
-1.632717901255860e+01 7.994450789965173e+00 0.000000000000000e+00
-1.633975121315259e+01 7.997449124743997e+00 9.118363746921780e-02
-1.894384623548983e+01 8.302666578286317e+00 -9.829849475479836e-02
-1.888909499102573e+01 8.293956113160998e+00 0.000000000000000e+00
-2.002119660390098e+01 5.725562182658426e+00 0.000000000000000e+00
-2.006888984714645e+01 5.725110838408284e+00 -5.369610554222416e-02
-2.414814565722671e+01 6.470476127563020e+00 -3.491049478740451e-01
-2.414814565722671e+01 6.470476127563017e+00 0.000000000000000e+00
-1.888909499102573e+01 8.293956113160998e+00 0.000000000000000e+00
-1.894384623548983e+01 8.302666578286317e+00 -9.829849475479836e-02
-2.309698831278217e+01 9.567085809127244e+00 -4.499723376067716e-01
-2.309698831278217e+01 9.567085809127237e+00 0.000000000000000e+00
-1.219957534524746e+01 6.851735381538719e+00 0.000000000000000e+00
-1.220331508449200e+01 6.849332858084076e+00 1.956324524223214e-01
-1.254778458662131e+01 7.237472493804331e+00 1.796887199468430e-01
-1.254322740221049e+01 7.239479451826196e+00 0.000000000000000e+00
-1.193485254758222e+01 8.561115504976367e+00 0.000000000000000e+00
-1.193750261120977e+01 8.559331408135991e+00 1.619695499795359e-01
-1.221437156431590e+01 8.808742759106838e+00 1.528215067016736e-01
-1.221133185910977e+01 8.809583963237987e+00 0.000000000000000e+00
-1.254322740221049e+01 7.239479451826196e+00 0.000000000000000e+00
-1.254778458662131e+01 7.237472493804331e+00 1.796887199468430e-01
-1.301417525484952e+01 7.557240408413512e+00 1.596380215620813e-01
-1.301038982434276e+01 7.559538266345156e+00 0.000000000000000e+00
-1.221133185910977e+01 8.809583963237987e+00 0.000000000000000e+00
-1.221437156431590e+01 8.808742759106838e+00 1.528215067016736e-01
-1.258633982474786e+01 9.046789822584667e+00 1.390614124884061e-01
-1.258403733842832e+01 9.047090510897412e+00 0.000000000000000e+00
-1.301038982434276e+01 7.559538266345156e+00 0.000000000000000e+00
-1.301417525484952e+01 7.557240408413512e+00 1.596380215620813e-01
-1.369050911575711e+01 7.786233988202169e+00 1.502889774610805e-01
-1.368712536372267e+01 7.788758108501251e+00 0.000000000000000e+00
-1.258403733842832e+01 9.047090510897412e+00 0.000000000000000e+00
-1.258633982474786e+01 9.046789822584667e+00 1.390614124884061e-01
-1.310914679231943e+01 9.285216068130110e+00 1.314219777544579e-01
-1.310676567478813e+01 9.285221993772321e+00 0.000000000000000e+00
-1.368712536372267e+01 7.788758108501251e+00 0.000000000000000e+00
-1.369050911575711e+01 7.786233988202169e+00 1.502889774610805e-01
-1.472567243041830e+01 7.914207664743078e+00 1.301394647973371e-01
-1.472064120875675e+01 7.915733325780095e+00 0.000000000000000e+00
-1.310676567478813e+01 9.285221993772321e+00 0.000000000000000e+00
-1.310914679231943e+01 9.285216068130110e+00 1.314219777544579e-01
-1.390870859966259e+01 9.548966818017922e+00 1.118655057873947e-01
-1.390459332026122e+01 9.548682034494837e+00 0.000000000000000e+00
-1.472064120875675e+01 7.915733325780095e+00 0.000000000000000e+00
-1.472567243041830e+01 7.914207664743078e+00 1.301394647973371e-01
-1.633975121315259e+01 7.997449124743997e+00 9.118363746921780e-02
-1.632717901255860e+01 7.994450789965173e+00 0.000000000000000e+00
-1.390459332026122e+01 9.548682034494837e+00 0.000000000000000e+00
-1.390870859966259e+01 9.548966818017922e+00 1.118655057873947e-01
-1.522102218885549e+01 9.902479232735210e+00 7.452499881218062e-02
-1.520902960981683e+01 9.896938295532353e+00 0.000000000000000e+00
-1.632717901255860e+01 7.994450789965173e+00 0.000000000000000e+00
-1.633975121315259e+01 7.997449124743997e+00 9.118363746921780e-02
-1.894384623548983e+01 8.302666578286317e+00 -9.829849475479836e-02
-1.888909499102573e+01 8.293956113160998e+00 0.000000000000000e+00
-1.520902960981683e+01 9.896938295532353e+00 0.000000000000000e+00
-1.522102218885549e+01 9.902479232735210e+00 7.452499881218062e-02
-1.756748066345746e+01 1.061519776162421e+01 -1.381286739359852e-01
-1.750828969234420e+01 1.059305723591659e+01 0.000000000000000e+00
-1.888909499102573e+01 8.293956113160998e+00 0.000000000000000e+00
-1.894384623548983e+01 8.302666578286317e+00 -9.829849475479836e-02
-2.309698831278217e+01 9.567085809127244e+00 -4.499723376067716e-01
-2.309698831278217e+01 9.567085809127237e+00 0.000000000000000e+00
-1.750828969234420e+01 1.059305723591659e+01 0.000000000000000e+00
-1.756748066345746e+01 1.061519776162421e+01 -1.381286739359852e-01
-2.165063509461097e+01 1.250000000000000e+01 -5.633440986054270e-01
-2.165063509461097e+01 1.249999999999999e+01 0.000000000000000e+00
-1.193485254758222e+01 8.561115504976367e+00 0.000000000000000e+00
-1.193750261120977e+01 8.559331408135991e+00 1.619695499795359e-01
-1.221437156431590e+01 8.808742759106838e+00 1.528215067016736e-01
-1.221133185910977e+01 8.809583963237987e+00 0.000000000000000e+00
-1.136387577282371e+01 9.807266188596209e+00 0.000000000000000e+00
-1.136499475588135e+01 9.806134885501658e+00 1.385188464298299e-01
-1.160397479277238e+01 9.995241938199204e+00 1.367392209071456e-01
-1.160273973202133e+01 9.995721374448339e+00 0.000000000000000e+00
-1.221133185910977e+01 8.809583963237987e+00 0.000000000000000e+00
-1.221437156431590e+01 8.808742759106838e+00 1.528215067016736e-01
-1.258633982474786e+01 9.046789822584667e+00 1.390614124884061e-01
-1.258403733842832e+01 9.047090510897412e+00 0.000000000000000e+00
-1.160273973202133e+01 9.995721374448339e+00 0.000000000000000e+00
-1.160397479277238e+01 9.995241938199204e+00 1.367392209071456e-01
-1.192771825757598e+01 1.021651493601049e+01 1.319551189114942e-01
-1.192702570929619e+01 1.021648957950790e+01 0.000000000000000e+00
-1.258403733842832e+01 9.047090510897412e+00 0.000000000000000e+00
-1.258633982474786e+01 9.046789822584667e+00 1.390614124884061e-01
-1.310914679231943e+01 9.285216068130110e+00 1.314219777544579e-01
-1.310676567478813e+01 9.285221993772321e+00 0.000000000000000e+00
-1.192702570929619e+01 1.021648957950790e+01 0.000000000000000e+00
-1.192771825757598e+01 1.021651493601049e+01 1.319551189114942e-01
-1.237389467386445e+01 1.050038621140256e+01 1.279661765606513e-01
-1.237224221229074e+01 1.049912963821952e+01 0.000000000000000e+00
-1.310676567478813e+01 9.285221993772321e+00 0.000000000000000e+00
-1.310914679231943e+01 9.285216068130110e+00 1.314219777544579e-01
-1.390870859966259e+01 9.548966818017922e+00 1.118655057873947e-01
-1.390459332026122e+01 9.548682034494837e+00 0.000000000000000e+00
-1.237224221229074e+01 1.049912963821952e+01 0.000000000000000e+00
-1.237389467386445e+01 1.050038621140256e+01 1.279661765606513e-01
-1.302608620128760e+01 1.089856441527941e+01 1.061155291038991e-01
-1.302265594062963e+01 1.089634835864589e+01 0.000000000000000e+00
-1.390459332026122e+01 9.548682034494837e+00 0.000000000000000e+00
-1.390870859966259e+01 9.548966818017922e+00 1.118655057873947e-01
-1.522102218885549e+01 9.902479232735210e+00 7.452499881218062e-02
-1.520902960981683e+01 9.896938295532353e+00 0.000000000000000e+00
-1.302265594062963e+01 1.089634835864589e+01 0.000000000000000e+00
-1.302608620128760e+01 1.089856441527941e+01 1.061155291038991e-01
-1.406836016879216e+01 1.149838625240768e+01 6.866984010305323e-02
-1.405783220740932e+01 1.149020706821096e+01 0.000000000000000e+00
-1.520902960981683e+01 9.896938295532353e+00 0.000000000000000e+00
-1.522102218885549e+01 9.902479232735210e+00 7.452499881218062e-02
-1.756748066345746e+01 1.061519776162421e+01 -1.381286739359852e-01
-1.750828969234420e+01 1.059305723591659e+01 0.000000000000000e+00
-1.405783220740932e+01 1.149020706821096e+01 0.000000000000000e+00
-1.406836016879216e+01 1.149838625240768e+01 6.866984010305323e-02
-1.604256031792301e+01 1.263722124898627e+01 -1.598677075120501e-01
-1.598408204935609e+01 1.259918935300663e+01 0.000000000000000e+00
-1.750828969234420e+01 1.059305723591659e+01 0.000000000000000e+00
-1.756748066345746e+01 1.061519776162421e+01 -1.381286739359852e-01
-2.165063509461097e+01 1.250000000000000e+01 -5.633440986054270e-01
-2.165063509461097e+01 1.249999999999999e+01 0.000000000000000e+00
-1.598408204935609e+01 1.259918935300663e+01 0.000000000000000e+00
-1.604256031792301e+01 1.263722124898627e+01 -1.598677075120501e-01
-1.983383350728088e+01 1.521903572521802e+01 -6.572868029517658e-01
-1.983383350728087e+01 1.521903572521802e+01 0.000000000000000e+00
-1.136387577282371e+01 9.807266188596209e+00 0.000000000000000e+00
-1.136499475588135e+01 9.806134885501658e+00 1.385188464298299e-01
-1.160397479277238e+01 9.995241938199204e+00 1.367392209071456e-01
-1.160273973202133e+01 9.995721374448339e+00 0.000000000000000e+00
-1.061144185103225e+01 1.073068201605530e+01 0.000000000000000e+00
-1.061127440718893e+01 1.073043160314151e+01 1.296815231204059e-01
-1.082066716470511e+01 1.092310141326915e+01 1.308846510190739e-01
-1.082054827424607e+01 1.092309109595944e+01 0.000000000000000e+00
-1.160273973202133e+01 9.995721374448339e+00 0.000000000000000e+00
-1.160397479277238e+01 9.995241938199204e+00 1.367392209071456e-01
-1.192771825757598e+01 1.021651493601049e+01 1.319551189114942e-01
-1.192702570929619e+01 1.021648957950790e+01 0.000000000000000e+00
-1.082054827424607e+01 1.092309109595944e+01 0.000000000000000e+00
-1.082066716470511e+01 1.092310141326915e+01 1.308846510190739e-01
-1.109604166275995e+01 1.118093214759366e+01 1.296584069027687e-01
-1.109597341981577e+01 1.118098771294723e+01 0.000000000000000e+00
-1.192702570929619e+01 1.021648957950790e+01 0.000000000000000e+00
-1.192771825757598e+01 1.021651493601049e+01 1.319551189114942e-01
-1.237389467386445e+01 1.050038621140256e+01 1.279661765606513e-01
-1.237224221229074e+01 1.049912963821952e+01 0.000000000000000e+00
-1.109597341981577e+01 1.118098771294723e+01 0.000000000000000e+00
-1.109604166275995e+01 1.118093214759366e+01 1.296584069027687e-01
-1.147149327752402e+01 1.153784034285658e+01 1.275673011881849e-01
-1.147003706170785e+01 1.153651806899266e+01 0.000000000000000e+00
-1.237224221229074e+01 1.049912963821952e+01 0.000000000000000e+00
-1.237389467386445e+01 1.050038621140256e+01 1.279661765606513e-01
-1.302608620128760e+01 1.089856441527941e+01 1.061155291038991e-01
-1.302265594062963e+01 1.089634835864589e+01 0.000000000000000e+00
-1.147003706170785e+01 1.153651806899266e+01 0.000000000000000e+00
-1.147149327752402e+01 1.153784034285658e+01 1.275673011881849e-01
-1.201079982490174e+01 1.205814544967247e+01 1.051686260080037e-01
-1.200776354962490e+01 1.205525634765667e+01 0.000000000000000e+00
-1.302265594062963e+01 1.089634835864589e+01 0.000000000000000e+00
-1.302608620128760e+01 1.089856441527941e+01 1.061155291038991e-01
-1.406836016879216e+01 1.149838625240768e+01 6.866984010305323e-02
-1.405783220740932e+01 1.149020706821096e+01 0.000000000000000e+00
-1.200776354962490e+01 1.205525634765667e+01 0.000000000000000e+00
-1.201079982490174e+01 1.205814544967247e+01 1.051686260080037e-01
-1.283799609891020e+01 1.286690876911657e+01 6.721570607641376e-02
-1.282848863303157e+01 1.285752036714497e+01 0.000000000000000e+00
-1.405783220740932e+01 1.149020706821096e+01 0.000000000000000e+00
-1.406836016879216e+01 1.149838625240768e+01 6.866984010305323e-02
-1.604256031792301e+01 1.263722124898627e+01 -1.598677075120501e-01
-1.598408204935609e+01 1.259918935300663e+01 0.000000000000000e+00
-1.282848863303157e+01 1.285752036714497e+01 0.000000000000000e+00
-1.283799609891020e+01 1.286690876911657e+01 6.721570607641376e-02
-1.440712167025115e+01 1.441947861447248e+01 -1.674473892962021e-01
-1.435564903840286e+01 1.436851850376951e+01 0.000000000000000e+00
-1.598408204935609e+01 1.259918935300663e+01 0.000000000000000e+00
-1.604256031792301e+01 1.263722124898627e+01 -1.598677075120501e-01
-1.983383350728088e+01 1.521903572521802e+01 -6.572868029517658e-01
-1.983383350728087e+01 1.521903572521802e+01 0.000000000000000e+00
-1.435564903840286e+01 1.436851850376951e+01 0.000000000000000e+00
-1.440712167025115e+01 1.441947861447248e+01 -1.674473892962021e-01
-1.767766952966369e+01 1.767766952966369e+01 -6.959445123755331e-01
-1.767766952966368e+01 1.767766952966369e+01 0.000000000000000e+00
        </DataArray>
        <DataArray type="Float64" Name="kinematic_plastic_strain" NumberOfComponents="9" format="ascii">
-2.152612018507088e-02 -2.489765042878379e-03 -2.038255527570512e-04 -2.489765042878378e-03 3.974869023359906e-02 -2.343058025541980e-06 -2.038255527570512e-04 -2.343058025541980e-06 -1.822257004852819e-02
-2.150097039040628e-02 -2.513511709401753e-03 2.309419605577702e-04 -2.513511709401755e-03 3.973325325084097e-02 1.843047774507754e-05 2.309419605577701e-04 1.843047774507754e-05 -1.823228286043470e-02
-1.380759934293587e-02 -7.931273129737381e-04 1.003483662346385e-04 -7.931273129737377e-04 2.482225516979647e-02 -4.826846616177710e-05 1.003483662346385e-04 -4.826846616177710e-05 -1.101465582686062e-02
-1.380874531463023e-02 -7.705514088062733e-04 -1.267416410149433e-04 -7.705514088062744e-04 2.483557122405248e-02 2.552992776113263e-07 -1.267416410149433e-04 2.552992776113263e-07 -1.102682590942225e-02
-9.526790246024089e-03 4.734730977536454e-03 -6.461872937730756e-05 4.734730977536451e-03 1.888698042163621e-02 7.284334171686710e-06 -6.461872937730756e-05 7.284334171686709e-06 -9.360190175612118e-03
-9.537900448010589e-03 4.696106692077774e-03 6.197161420959908e-05 4.696106692077781e-03 1.889444637352100e-02 -1.658226090431706e-05 6.197161420959908e-05 -1.658226090431706e-05 -9.356545925510404e-03
-5.879429934671818e-03 3.020269994197175e-03 1.993909402847526e-05 3.020269994197174e-03 1.118878179062766e-02 -2.523479400008920e-05 1.993909402847526e-05 -2.523479400008920e-05 -5.309351855955844e-03
-5.865887240618893e-03 3.045956362836128e-03 -2.790618133289722e-05 3.045956362836128e-03 1.118165688038813e-02 2.835777647698053e-05 -2.790618133289722e-05 2.835777647698053e-05 -5.315769639769243e-03
-1.380874531463023e-02 -7.705514088062733e-04 -1.267416410149433e-04 -7.705514088062744e-04 2.483557122405248e-02 2.552992776113263e-07 -1.267416410149433e-04 2.552992776113263e-07 -1.102682590942225e-02
-1.380759934293587e-02 -7.931273129737381e-04 1.003483662346385e-04 -7.931273129737377e-04 2.482225516979647e-02 -4.826846616177710e-05 1.003483662346385e-04 -4.826846616177710e-05 -1.101465582686062e-02
-1.845011537824200e-02 5.243291306608791e-04 2.385742097378126e-05 5.243291306608801e-04 3.056206356150319e-02 -1.339586108970101e-04 2.385742097378124e-05 -1.339586108970101e-04 -1.211194818326118e-02
-1.842206775487258e-02 5.471716658198237e-04 -6.874615684493759e-05 5.471716658198208e-04 3.057868682828533e-02 2.784700988850326e-06 -6.874615684493759e-05 2.784700988850327e-06 -1.215661907341274e-02
-5.865887240618893e-03 3.045956362836128e-03 -2.790618133289722e-05 3.045956362836128e-03 1.118165688038813e-02 2.835777647698053e-05 -2.790618133289722e-05 2.835777647698053e-05 -5.315769639769243e-03
-5.879429934671818e-03 3.020269994197175e-03 1.993909402847526e-05 3.020269994197174e-03 1.118878179062766e-02 -2.523479400008920e-05 1.993909402847526e-05 -2.523479400008920e-05 -5.309351855955844e-03
-7.680720722603006e-03 4.034443676302410e-03 -1.388813768119357e-05 4.034443676302409e-03 1.323505050776049e-02 -3.980251379848964e-05 -1.388813768119357e-05 -3.980251379848964e-05 -5.554329785157483e-03
-7.659040421723242e-03 4.050783071242118e-03 6.070053722399150e-06 4.050783071242119e-03 1.322818494225889e-02 6.110542846725868e-05 6.070053722399148e-06 6.110542846725868e-05 -5.569144520535637e-03
-1.842206775487258e-02 5.471716658198237e-04 -6.874615684493759e-05 5.471716658198208e-04 3.057868682828533e-02 2.784700988850326e-06 -6.874615684493759e-05 2.784700988850327e-06 -1.215661907341274e-02
-1.845011537824200e-02 5.243291306608791e-04 2.385742097378126e-05 5.243291306608801e-04 3.056206356150319e-02 -1.339586108970101e-04 2.385742097378124e-05 -1.339586108970101e-04 -1.211194818326118e-02
-2.343334174057581e-02 2.925228033625499e-03 -8.685369781318216e-05 2.925228033625496e-03 3.525690520302832e-02 -1.498837796328192e-04 -8.685369781318215e-05 -1.498837796328192e-04 -1.182356346245251e-02
-2.340058135078750e-02 2.930462560814713e-03 8.472078775954920e-05 2.930462560814715e-03 3.527701747196035e-02 -2.384880015311518e-06 8.472078775954920e-05 -2.384880015311528e-06 -1.187643612117288e-02
-7.659040421723242e-03 4.050783071242118e-03 6.070053722399150e-06 4.050783071242119e-03 1.322818494225889e-02 6.110542846725868e-05 6.070053722399148e-06 6.110542846725868e-05 -5.569144520535637e-03
-7.680720722603006e-03 4.034443676302410e-03 -1.388813768119357e-05 4.034443676302409e-03 1.323505050776049e-02 -3.980251379848964e-05 -1.388813768119357e-05 -3.980251379848964e-05 -5.554329785157483e-03
-9.604572370025224e-03 5.417656021552935e-03 -6.021075074550837e-05 5.417656021552938e-03 1.493069956715338e-02 -3.317809621263358e-05 -6.021075074550837e-05 -3.317809621263360e-05 -5.326127197128145e-03
-9.587557303342721e-03 5.416248915365294e-03 6.617519447991925e-05 5.416248915365292e-03 1.493105326243068e-02 5.717546278934404e-05 6.617519447991927e-05 5.717546278934406e-05 -5.343495959087965e-03
-2.340058135078750e-02 2.930462560814713e-03 8.472078775954920e-05 2.930462560814715e-03 3.527701747196035e-02 -2.384880015311518e-06 8.472078775954920e-05 -2.384880015311528e-06 -1.187643612117288e-02
-2.343334174057581e-02 2.925228033625499e-03 -8.685369781318216e-05 2.925228033625496e-03 3.525690520302832e-02 -1.498837796328192e-04 -8.685369781318215e-05 -1.498837796328192e-04 -1.182356346245251e-02
-2.825276874948561e-02 6.432183505247200e-03 -2.323715396360600e-04 6.432183505247201e-03 3.846300958923868e-02 -1.474744440940901e-04 -2.323715396360600e-04 -1.474744440940901e-04 -1.021024083975306e-02
-2.822862346620186e-02 6.444530789566837e-03 1.919940502546888e-04 6.444530789566840e-03 3.849181559345991e-02 -1.768399081899032e-05 1.919940502546888e-04 -1.768399081899032e-05 -1.026319212725805e-02
-9.587557303342721e-03 5.416248915365294e-03 6.617519447991925e-05 5.416248915365292e-03 1.493105326243068e-02 5.717546278934404e-05 6.617519447991927e-05 5.717546278934406e-05 -5.343495959087965e-03
-9.604572370025224e-03 5.417656021552935e-03 -6.021075074550837e-05 5.417656021552938e-03 1.493069956715338e-02 -3.317809621263358e-05 -6.021075074550837e-05 -3.317809621263360e-05 -5.326127197128145e-03
-1.151801826322815e-02 7.218158584494320e-03 -1.157853690031913e-04 7.218158584494318e-03 1.602197236189147e-02 -1.070683184972801e-05 -1.157853690031913e-04 -1.070683184972800e-05 -4.503954098663322e-03
-1.150652405996135e-02 7.209359738166579e-03 1.205918457887206e-04 7.209359738166580e-03 1.602700856405954e-02 4.517552844399004e-05 1.205918457887205e-04 4.517552844399004e-05 -4.520484504098195e-03
-2.822862346620186e-02 6.444530789566837e-03 1.919940502546888e-04 6.444530789566840e-03 3.849181559345991e-02 -1.768399081899032e-05 1.919940502546888e-04 -1.768399081899032e-05 -1.026319212725805e-02
-2.825276874948561e-02 6.432183505247200e-03 -2.323715396360600e-04 6.432183505247201e-03 3.846300958923868e-02 -1.474744440940901e-04 -2.323715396360600e-04 -1.474744440940901e-04 -1.021024083975306e-02
-3.327693156376647e-02 1.095705822441660e-02 -5.072998819760182e-04 1.095705822441660e-02 4.031212839785463e-02 -6.951718406736368e-05 -5.072998819760182e-04 -6.951718406736368e-05 -7.035196834088178e-03
-3.318713315022561e-02 1.091591684798088e-02 3.428962998281202e-04 1.091591684798088e-02 4.030653414715387e-02 -5.258996469281906e-05 3.428962998281203e-04 -5.258996469281908e-05 -7.119400996928243e-03
-1.150652405996135e-02 7.209359738166579e-03 1.205918457887206e-04 7.209359738166580e-03 1.602700856405954e-02 4.517552844399004e-05 1.205918457887205e-04 4.517552844399004e-05 -4.520484504098195e-03
-1.151801826322815e-02 7.218158584494320e-03 -1.157853690031913e-04 7.218158584494318e-03 1.602197236189147e-02 -1.070683184972801e-05 -1.157853690031913e-04 -1.070683184972800e-05 -4.503954098663322e-03
-1.345714125402976e-02 9.707123593556424e-03 -2.397885572823398e-04 9.707123593556423e-03 1.643229503184358e-02 4.720533420741828e-05 -2.397885572823398e-04 4.720533420741828e-05 -2.975153777813807e-03
-1.341329040655306e-02 9.670591010286528e-03 1.811165599355189e-04 9.670591010286528e-03 1.642216181971063e-02 1.758245881497239e-06 1.811165599355190e-04 1.758245881497242e-06 -3.008871413157562e-03
-3.318713315022561e-02 1.091591684798088e-02 3.428962998281202e-04 1.091591684798088e-02 4.030653414715387e-02 -5.258996469281906e-05 3.428962998281203e-04 -5.258996469281908e-05 -7.119400996928243e-03
-3.327693156376647e-02 1.095705822441660e-02 -5.072998819760182e-04 1.095705822441660e-02 4.031212839785463e-02 -6.951718406736368e-05 -5.072998819760182e-04 -6.951718406736368e-05 -7.035196834088178e-03
-4.051199024599408e-02 1.816260462093053e-02 -6.112211346673677e-04 1.816260462093052e-02 4.112835118089588e-02 -1.050876297945731e-06 -6.112211346673674e-04 -1.050876297945772e-06 -6.163609349017856e-04
-4.051994290351212e-02 1.830308593085661e-02 9.703394901122320e-04 1.830308593085662e-02 4.115302990266458e-02 -2.666552699939350e-04 9.703394901122316e-04 -2.666552699939350e-04 -6.330869991524369e-04
-1.341329040655306e-02 9.670591010286528e-03 1.811165599355189e-04 9.670591010286528e-03 1.642216181971063e-02 1.758245881497239e-06 1.811165599355190e-04 1.758245881497242e-06 -3.008871413157562e-03
-1.345714125402976e-02 9.707123593556424e-03 -2.397885572823398e-04 9.707123593556423e-03 1.643229503184358e-02 4.720533420741828e-05 -2.397885572823398e-04 4.720533420741828e-05 -2.975153777813807e-03
-1.596912189481647e-02 1.430213525346262e-02 -2.512194413929758e-04 1.430213525346262e-02 1.568450798470517e-02 1.009473042475089e-04 -2.512194413929758e-04 1.009473042475089e-04 2.846139101113004e-04
-1.596652758357515e-02 1.433842568129716e-02 5.039492469988007e-04 1.433842568129716e-02 1.567508975687315e-02 -1.094834637980444e-04 5.039492469988008e-04 -1.094834637980444e-04 2.914378267020033e-04
-4.051994290351212e-02 1.830308593085661e-02 9.703394901122320e-04 1.830308593085662e-02 4.115302990266458e-02 -2.666552699939350e-04 9.703394901122316e-04 -2.666552699939350e-04 -6.330869991524369e-04
-4.051199024599408e-02 1.816260462093053e-02 -6.112211346673677e-04 1.816260462093052e-02 4.112835118089588e-02 -1.050876297945731e-06 -6.112211346673674e-04 -1.050876297945772e-06 -6.163609349017856e-04
-9.590100785838279e-02 5.151001291137874e-02 -4.243637291560923e-03 5.151001291137875e-02 8.730379963202380e-02 9.369953931685379e-04 -4.243637291560924e-03 9.369953931685376e-04 8.597208226359064e-03
-9.629426763593754e-02 5.202668400014500e-02 2.691839904670965e-05 5.202668400014499e-02 8.727217422320829e-02 -2.186358078752651e-05 2.691839904670986e-05 -2.186358078752653e-05 9.022093412729228e-03
-1.596652758357515e-02 1.433842568129716e-02 5.039492469988007e-04 1.433842568129716e-02 1.567508975687315e-02 -1.094834637980444e-04 5.039492469988008e-04 -1.094834637980444e-04 2.914378267020033e-04
-1.596912189481647e-02 1.430213525346262e-02 -2.512194413929758e-04 1.430213525346262e-02 1.568450798470517e-02 1.009473042475089e-04 -2.512194413929758e-04 1.009473042475089e-04 2.846139101113004e-04
-3.673762459365622e-02 3.874738708193035e-02 -2.081444060658720e-03 3.874738708193035e-02 3.097506428022104e-02 5.632368437350859e-04 -2.081444060658721e-03 5.632368437350858e-04 5.762560313435174e-03
-3.694975301052904e-02 3.894996786269517e-02 9.589286879999688e-06 3.894996786269519e-02 3.098073811156224e-02 -1.053826245825572e-05 9.589286879999783e-06 -1.053826245825569e-05 5.969014898966784e-03
-9.526790246024089e-03 4.734730977536454e-03 -6.461872937730756e-05 4.734730977536451e-03 1.888698042163621e-02 7.284334171686710e-06 -6.461872937730756e-05 7.284334171686709e-06 -9.360190175612118e-03
-9.537900448010589e-03 4.696106692077774e-03 6.197161420959908e-05 4.696106692077781e-03 1.889444637352100e-02 -1.658226090431706e-05 6.197161420959908e-05 -1.658226090431706e-05 -9.356545925510404e-03
-5.879429934671818e-03 3.020269994197175e-03 1.993909402847526e-05 3.020269994197174e-03 1.118878179062766e-02 -2.523479400008920e-05 1.993909402847526e-05 -2.523479400008920e-05 -5.309351855955844e-03
-5.865887240618893e-03 3.045956362836128e-03 -2.790618133289722e-05 3.045956362836128e-03 1.118165688038813e-02 2.835777647698053e-05 -2.790618133289722e-05 2.835777647698053e-05 -5.315769639769243e-03
-6.593976145583921e-03 7.450469625820150e-03 3.267007495492478e-05 7.450469625820150e-03 1.594708287922952e-02 3.512406125970942e-05 3.267007495492478e-05 3.512406125970942e-05 -9.353106733645601e-03
-6.616716507757317e-03 7.425265160011324e-03 -4.100254268158573e-05 7.425265160011324e-03 1.595940506438735e-02 -1.643378734242746e-05 -4.100254268158574e-05 -1.643378734242747e-05 -9.342688556630036e-03
-3.852838500482247e-03 4.246596869203056e-03 -2.863150489205412e-05 4.246596869203056e-03 8.546228750338643e-03 -2.540515520948867e-05 -2.863150489205412e-05 -2.540515520948867e-05 -4.693390249856395e-03
-3.839309814129529e-03 4.260687531943128e-03 3.257345817132574e-05 4.260687531943127e-03 8.535599833937814e-03 3.306833482661143e-05 3.257345817132574e-05 3.306833482661142e-05 -4.696290019808287e-03
-5.865887240618893e-03 3.045956362836128e-03 -2.790618133289722e-05 3.045956362836128e-03 1.118165688038813e-02 2.835777647698053e-05 -2.790618133289722e-05 2.835777647698053e-05 -5.315769639769243e-03
-5.879429934671818e-03 3.020269994197175e-03 1.993909402847526e-05 3.020269994197174e-03 1.118878179062766e-02 -2.523479400008920e-05 1.993909402847526e-05 -2.523479400008920e-05 -5.309351855955844e-03
-7.680720722603006e-03 4.034443676302410e-03 -1.388813768119357e-05 4.034443676302409e-03 1.323505050776049e-02 -3.980251379848964e-05 -1.388813768119357e-05 -3.980251379848964e-05 -5.554329785157483e-03
-7.659040421723242e-03 4.050783071242118e-03 6.070053722399150e-06 4.050783071242119e-03 1.322818494225889e-02 6.110542846725868e-05 6.070053722399148e-06 6.110542846725868e-05 -5.569144520535637e-03
-3.839309814129529e-03 4.260687531943128e-03 3.257345817132574e-05 4.260687531943127e-03 8.535599833937814e-03 3.306833482661143e-05 3.257345817132574e-05 3.306833482661142e-05 -4.696290019808287e-03
-3.852838500482247e-03 4.246596869203056e-03 -2.863150489205412e-05 4.246596869203056e-03 8.546228750338643e-03 -2.540515520948867e-05 -2.863150489205412e-05 -2.540515520948867e-05 -4.693390249856395e-03
-4.981697414403172e-03 5.141138074702780e-03 -4.606935384638762e-05 5.141138074702779e-03 9.452876614368100e-03 -4.404689948849784e-05 -4.606935384638762e-05 -4.404689948849784e-05 -4.471179199964926e-03
-4.969462928624262e-03 5.145680315904423e-03 4.629135569679784e-05 5.145680315904424e-03 9.441248090636983e-03 5.422454477577021e-05 4.629135569679786e-05 5.422454477577022e-05 -4.471785162012720e-03
-7.659040421723242e-03 4.050783071242118e-03 6.070053722399150e-06 4.050783071242119e-03 1.322818494225889e-02 6.110542846725868e-05 6.070053722399148e-06 6.110542846725868e-05 -5.569144520535637e-03
-7.680720722603006e-03 4.034443676302410e-03 -1.388813768119357e-05 4.034443676302409e-03 1.323505050776049e-02 -3.980251379848964e-05 -1.388813768119357e-05 -3.980251379848964e-05 -5.554329785157483e-03
-9.604572370025224e-03 5.417656021552935e-03 -6.021075074550837e-05 5.417656021552938e-03 1.493069956715338e-02 -3.317809621263358e-05 -6.021075074550837e-05 -3.317809621263360e-05 -5.326127197128145e-03
-9.587557303342721e-03 5.416248915365294e-03 6.617519447991925e-05 5.416248915365292e-03 1.493105326243068e-02 5.717546278934404e-05 6.617519447991927e-05 5.717546278934406e-05 -5.343495959087965e-03
-4.969462928624262e-03 5.145680315904423e-03 4.629135569679784e-05 5.145680315904424e-03 9.441248090636983e-03 5.422454477577021e-05 4.629135569679786e-05 5.422454477577022e-05 -4.471785162012720e-03
-4.981697414403172e-03 5.141138074702780e-03 -4.606935384638762e-05 5.141138074702779e-03 9.452876614368100e-03 -4.404689948849784e-05 -4.606935384638762e-05 -4.404689948849784e-05 -4.471179199964926e-03
-6.302403476059492e-03 6.610925728619382e-03 -7.023597258076551e-05 6.610925728619377e-03 1.048730889414573e-02 -4.018978043290733e-05 -7.023597258076551e-05 -4.018978043290732e-05 -4.184905418086245e-03
-6.295969564924086e-03 6.598067529542808e-03 6.671739988690254e-05 6.598067529542813e-03 1.048313676842771e-02 5.056220922717163e-05 6.671739988690253e-05 5.056220922717163e-05 -4.187167203503622e-03
-9.587557303342721e-03 5.416248915365294e-03 6.617519447991925e-05 5.416248915365292e-03 1.493105326243068e-02 5.717546278934404e-05 6.617519447991927e-05 5.717546278934406e-05 -5.343495959087965e-03
-9.604572370025224e-03 5.417656021552935e-03 -6.021075074550837e-05 5.417656021552938e-03 1.493069956715338e-02 -3.317809621263358e-05 -6.021075074550837e-05 -3.317809621263360e-05 -5.326127197128145e-03
-1.151801826322815e-02 7.218158584494320e-03 -1.157853690031913e-04 7.218158584494318e-03 1.602197236189147e-02 -1.070683184972801e-05 -1.157853690031913e-04 -1.070683184972800e-05 -4.503954098663322e-03
-1.150652405996135e-02 7.209359738166579e-03 1.205918457887206e-04 7.209359738166580e-03 1.602700856405954e-02 4.517552844399004e-05 1.205918457887205e-04 4.517552844399004e-05 -4.520484504098195e-03
-6.295969564924086e-03 6.598067529542808e-03 6.671739988690254e-05 6.598067529542813e-03 1.048313676842771e-02 5.056220922717163e-05 6.671739988690253e-05 5.056220922717163e-05 -4.187167203503622e-03
-6.302403476059492e-03 6.610925728619382e-03 -7.023597258076551e-05 6.610925728619377e-03 1.048730889414573e-02 -4.018978043290733e-05 -7.023597258076551e-05 -4.018978043290732e-05 -4.184905418086245e-03
-7.787782301822214e-03 8.893973253211460e-03 -1.033412429476448e-04 8.893973253211462e-03 1.127378909544953e-02 -1.586679185468085e-05 -1.033412429476448e-04 -1.586679185468085e-05 -3.486006793627313e-03
-7.785964586639734e-03 8.863475360223302e-03 9.857017058779855e-05 8.863475360223302e-03 1.127683099257111e-02 2.529138589862801e-05 9.857017058779854e-05 2.529138589862801e-05 -3.490866405931375e-03
-1.150652405996135e-02 7.209359738166579e-03 1.205918457887206e-04 7.209359738166580e-03 1.602700856405954e-02 4.517552844399004e-05 1.205918457887205e-04 4.517552844399004e-05 -4.520484504098195e-03
-1.151801826322815e-02 7.218158584494320e-03 -1.157853690031913e-04 7.218158584494318e-03 1.602197236189147e-02 -1.070683184972801e-05 -1.157853690031913e-04 -1.070683184972800e-05 -4.503954098663322e-03
-1.345714125402976e-02 9.707123593556424e-03 -2.397885572823398e-04 9.707123593556423e-03 1.643229503184358e-02 4.720533420741828e-05 -2.397885572823398e-04 4.720533420741828e-05 -2.975153777813807e-03
-1.341329040655306e-02 9.670591010286528e-03 1.811165599355189e-04 9.670591010286528e-03 1.642216181971063e-02 1.758245881497239e-06 1.811165599355190e-04 1.758245881497242e-06 -3.008871413157562e-03
-7.785964586639734e-03 8.863475360223302e-03 9.857017058779855e-05 8.863475360223302e-03 1.127683099257111e-02 2.529138589862801e-05 9.857017058779854e-05 2.529138589862801e-05 -3.490866405931375e-03
-7.787782301822214e-03 8.893973253211460e-03 -1.033412429476448e-04 8.893973253211462e-03 1.127378909544953e-02 -1.586679185468085e-05 -1.033412429476448e-04 -1.586679185468085e-05 -3.486006793627313e-03
-9.327775300021027e-03 1.244896758709133e-02 -2.338722582071028e-04 1.244896758709133e-02 1.149581063934039e-02 7.548587471340368e-05 -2.338722582071028e-04 7.548587471340371e-05 -2.168035339319362e-03
-9.287530237485117e-03 1.237368598316111e-02 1.419255610607787e-04 1.237368598316111e-02 1.148972151726906e-02 -3.655681472426575e-05 1.419255610607787e-04 -3.655681472426576e-05 -2.202191279783943e-03
-1.341329040655306e-02 9.670591010286528e-03 1.811165599355189e-04 9.670591010286528e-03 1.642216181971063e-02 1.758245881497239e-06 1.811165599355190e-04 1.758245881497242e-06 -3.008871413157562e-03
-1.345714125402976e-02 9.707123593556424e-03 -2.397885572823398e-04 9.707123593556423e-03 1.643229503184358e-02 4.720533420741828e-05 -2.397885572823398e-04 4.720533420741828e-05 -2.975153777813807e-03
-1.596912189481647e-02 1.430213525346262e-02 -2.512194413929758e-04 1.430213525346262e-02 1.568450798470517e-02 1.009473042475089e-04 -2.512194413929758e-04 1.009473042475089e-04 2.846139101113004e-04
-1.596652758357515e-02 1.433842568129716e-02 5.039492469988007e-04 1.433842568129716e-02 1.567508975687315e-02 -1.094834637980444e-04 5.039492469988008e-04 -1.094834637980444e-04 2.914378267020033e-04
-9.287530237485117e-03 1.237368598316111e-02 1.419255610607787e-04 1.237368598316111e-02 1.148972151726906e-02 -3.655681472426575e-05 1.419255610607787e-04 -3.655681472426576e-05 -2.202191279783943e-03
-9.327775300021027e-03 1.244896758709133e-02 -2.338722582071028e-04 1.244896758709133e-02 1.149581063934039e-02 7.548587471340368e-05 -2.338722582071028e-04 7.548587471340371e-05 -2.168035339319362e-03
-1.153476169609428e-02 1.845829909131393e-02 -2.543842041018856e-04 1.845829909131393e-02 1.016736392621225e-02 1.215379298809890e-04 -2.543842041018856e-04 1.215379298809890e-04 1.367397769882034e-03
-1.152238361540010e-02 1.846487956943994e-02 5.195427627633033e-04 1.846487956943994e-02 1.013146086142731e-02 -1.924879394413886e-04 5.195427627633034e-04 -1.924879394413886e-04 1.390922753972785e-03
-1.596652758357515e-02 1.433842568129716e-02 5.039492469988007e-04 1.433842568129716e-02 1.567508975687315e-02 -1.094834637980444e-04 5.039492469988008e-04 -1.094834637980444e-04 2.914378267020033e-04
-1.596912189481647e-02 1.430213525346262e-02 -2.512194413929758e-04 1.430213525346262e-02 1.568450798470517e-02 1.009473042475089e-04 -2.512194413929758e-04 1.009473042475089e-04 2.846139101113004e-04
-3.673762459365622e-02 3.874738708193035e-02 -2.081444060658720e-03 3.874738708193035e-02 3.097506428022104e-02 5.632368437350859e-04 -2.081444060658721e-03 5.632368437350858e-04 5.762560313435174e-03
-3.694975301052904e-02 3.894996786269517e-02 9.589286879999688e-06 3.894996786269519e-02 3.098073811156224e-02 -1.053826245825572e-05 9.589286879999783e-06 -1.053826245825569e-05 5.969014898966784e-03
-1.152238361540010e-02 1.846487956943994e-02 5.195427627633033e-04 1.846487956943994e-02 1.013146086142731e-02 -1.924879394413886e-04 5.195427627633034e-04 -1.924879394413886e-04 1.390922753972785e-03
-1.153476169609428e-02 1.845829909131393e-02 -2.543842041018856e-04 1.845829909131393e-02 1.016736392621225e-02 1.215379298809890e-04 -2.543842041018856e-04 1.215379298809890e-04 1.367397769882034e-03
-2.756961366212596e-02 4.886287839262470e-02 -2.381318224688438e-03 4.886287839262467e-02 1.823742976397263e-02 7.440868439162541e-04 -2.381318224688437e-03 7.440868439162539e-04 9.332183898153341e-03
-2.773506812858332e-02 4.914658597346708e-02 7.442537582723631e-06 4.914658597346708e-02 1.817124837928823e-02 -9.354092822016240e-06 7.442537582723482e-06 -9.354092822016185e-06 9.563819749295103e-03
-6.593976145583921e-03 7.450469625820150e-03 3.267007495492478e-05 7.450469625820150e-03 1.594708287922952e-02 3.512406125970942e-05 3.267007495492478e-05 3.512406125970942e-05 -9.353106733645601e-03
-6.616716507757317e-03 7.425265160011324e-03 -4.100254268158573e-05 7.425265160011324e-03 1.595940506438735e-02 -1.643378734242746e-05 -4.100254268158574e-05 -1.643378734242747e-05 -9.342688556630036e-03
-3.852838500482247e-03 4.246596869203056e-03 -2.863150489205412e-05 4.246596869203056e-03 8.546228750338643e-03 -2.540515520948867e-05 -2.863150489205412e-05 -2.540515520948867e-05 -4.693390249856395e-03
-3.839309814129529e-03 4.260687531943128e-03 3.257345817132574e-05 4.260687531943127e-03 8.535599833937814e-03 3.306833482661143e-05 3.257345817132574e-05 3.306833482661142e-05 -4.696290019808287e-03
-3.595799381904447e-03 7.967689808951078e-03 7.933604776091970e-05 7.967689808951085e-03 1.185696166100936e-02 5.045670680435590e-05 7.933604776091970e-05 5.045670680435589e-05 -8.261162279104912e-03
-3.604037061421942e-03 7.968991571046658e-03 -8.356012836713953e-05 7.968991571046653e-03 1.185955653882358e-02 -2.996972536252177e-05 -8.356012836713953e-05 -2.996972536252176e-05 -8.255519477401638e-03
-2.030337095195225e-03 4.264751533692411e-03 -4.335765565764728e-05 4.264751533692412e-03 5.917727930212228e-03 -2.126196257613329e-05 -4.335765565764728e-05 -2.126196257613329e-05 -3.887390835017002e-03
-2.027885499679084e-03 4.264247015640290e-03 4.909929108261079e-05 4.264247015640288e-03 5.914124626340953e-03 2.221309842286158e-05 4.909929108261077e-05 2.221309842286159e-05 -3.886239126661872e-03
-3.839309814129529e-03 4.260687531943128e-03 3.257345817132574e-05 4.260687531943127e-03 8.535599833937814e-03 3.306833482661143e-05 3.257345817132574e-05 3.306833482661142e-05 -4.696290019808287e-03
-3.852838500482247e-03 4.246596869203056e-03 -2.863150489205412e-05 4.246596869203056e-03 8.546228750338643e-03 -2.540515520948867e-05 -2.863150489205412e-05 -2.540515520948867e-05 -4.693390249856395e-03
-4.981697414403172e-03 5.141138074702780e-03 -4.606935384638762e-05 5.141138074702779e-03 9.452876614368100e-03 -4.404689948849784e-05 -4.606935384638762e-05 -4.404689948849784e-05 -4.471179199964926e-03
-4.969462928624262e-03 5.145680315904423e-03 4.629135569679784e-05 5.145680315904424e-03 9.441248090636983e-03 5.422454477577021e-05 4.629135569679786e-05 5.422454477577022e-05 -4.471785162012720e-03
-2.027885499679084e-03 4.264247015640290e-03 4.909929108261079e-05 4.264247015640288e-03 5.914124626340953e-03 2.221309842286158e-05 4.909929108261077e-05 2.221309842286159e-05 -3.886239126661872e-03
-2.030337095195225e-03 4.264751533692411e-03 -4.335765565764728e-05 4.264751533692412e-03 5.917727930212228e-03 -2.126196257613329e-05 -4.335765565764728e-05 -2.126196257613329e-05 -3.887390835017002e-03
-2.693276957760215e-03 4.873845221310527e-03 -4.534535655197545e-05 4.873845221310527e-03 6.211321340461305e-03 -2.772047627493863e-05 -4.534535655197544e-05 -2.772047627493864e-05 -3.518044382701091e-03
-2.692769610179053e-03 4.870815414905461e-03 4.415971007983759e-05 4.870815414905460e-03 6.205508499547547e-03 2.574517787239463e-05 4.415971007983760e-05 2.574517787239463e-05 -3.512738889368490e-03
-4.969462928624262e-03 5.145680315904423e-03 4.629135569679784e-05 5.145680315904424e-03 9.441248090636983e-03 5.422454477577021e-05 4.629135569679786e-05 5.422454477577022e-05 -4.471785162012720e-03
-4.981697414403172e-03 5.141138074702780e-03 -4.606935384638762e-05 5.141138074702779e-03 9.452876614368100e-03 -4.404689948849784e-05 -4.606935384638762e-05 -4.404689948849784e-05 -4.471179199964926e-03
-6.302403476059492e-03 6.610925728619382e-03 -7.023597258076551e-05 6.610925728619377e-03 1.048730889414573e-02 -4.018978043290733e-05 -7.023597258076551e-05 -4.018978043290732e-05 -4.184905418086245e-03
-6.295969564924086e-03 6.598067529542808e-03 6.671739988690254e-05 6.598067529542813e-03 1.048313676842771e-02 5.056220922717163e-05 6.671739988690253e-05 5.056220922717163e-05 -4.187167203503622e-03
-2.692769610179053e-03 4.870815414905461e-03 4.415971007983759e-05 4.870815414905460e-03 6.205508499547547e-03 2.574517787239463e-05 4.415971007983760e-05 2.574517787239463e-05 -3.512738889368490e-03
-2.693276957760215e-03 4.873845221310527e-03 -4.534535655197545e-05 4.873845221310527e-03 6.211321340461305e-03 -2.772047627493863e-05 -4.534535655197544e-05 -2.772047627493864e-05 -3.518044382701091e-03
-3.590378391386869e-03 6.131811395376268e-03 -5.196798504096636e-05 6.131811395376265e-03 6.852419136766655e-03 -2.457273181319550e-05 -5.196798504096637e-05 -2.457273181319551e-05 -3.262040745379789e-03
-3.589538224684054e-03 6.120074589707081e-03 4.307886378767634e-05 6.120074589707081e-03 6.848021359586008e-03 2.556592908201536e-05 4.307886378767635e-05 2.556592908201537e-05 -3.258483134901955e-03
-6.295969564924086e-03 6.598067529542808e-03 6.671739988690254e-05 6.598067529542813e-03 1.048313676842771e-02 5.056220922717163e-05 6.671739988690253e-05 5.056220922717163e-05 -4.187167203503622e-03
-6.302403476059492e-03 6.610925728619382e-03 -7.023597258076551e-05 6.610925728619377e-03 1.048730889414573e-02 -4.018978043290733e-05 -7.023597258076551e-05 -4.018978043290732e-05 -4.184905418086245e-03
-7.787782301822214e-03 8.893973253211460e-03 -1.033412429476448e-04 8.893973253211462e-03 1.127378909544953e-02 -1.586679185468085e-05 -1.033412429476448e-04 -1.586679185468085e-05 -3.486006793627313e-03
-7.785964586639734e-03 8.863475360223302e-03 9.857017058779855e-05 8.863475360223302e-03 1.127683099257111e-02 2.529138589862801e-05 9.857017058779854e-05 2.529138589862801e-05 -3.490866405931375e-03
-3.589538224684054e-03 6.120074589707081e-03 4.307886378767634e-05 6.120074589707081e-03 6.848021359586008e-03 2.556592908201536e-05 4.307886378767635e-05 2.556592908201537e-05 -3.258483134901955e-03
-3.590378391386869e-03 6.131811395376268e-03 -5.196798504096636e-05 6.131811395376265e-03 6.852419136766655e-03 -2.457273181319550e-05 -5.196798504096637e-05 -2.457273181319551e-05 -3.262040745379789e-03
-4.816263954101252e-03 8.532372837837391e-03 -7.560749759082493e-05 8.532372837837393e-03 7.570939494080484e-03 2.528934046407016e-07 -7.560749759082492e-05 2.528934046407033e-07 -2.754675539979230e-03
-4.812498758240825e-03 8.501951487856351e-03 5.983662518634570e-05 8.501951487856346e-03 7.573458399793793e-03 8.537665254603837e-06 5.983662518634570e-05 8.537665254603835e-06 -2.760959641552965e-03
-7.785964586639734e-03 8.863475360223302e-03 9.857017058779855e-05 8.863475360223302e-03 1.127683099257111e-02 2.529138589862801e-05 9.857017058779854e-05 2.529138589862801e-05 -3.490866405931375e-03
-7.787782301822214e-03 8.893973253211460e-03 -1.033412429476448e-04 8.893973253211462e-03 1.127378909544953e-02 -1.586679185468085e-05 -1.033412429476448e-04 -1.586679185468085e-05 -3.486006793627313e-03
-9.327775300021027e-03 1.244896758709133e-02 -2.338722582071028e-04 1.244896758709133e-02 1.149581063934039e-02 7.548587471340368e-05 -2.338722582071028e-04 7.548587471340371e-05 -2.168035339319362e-03
-9.287530237485117e-03 1.237368598316111e-02 1.419255610607787e-04 1.237368598316111e-02 1.148972151726906e-02 -3.655681472426575e-05 1.419255610607787e-04 -3.655681472426576e-05 -2.202191279783943e-03
-4.812498758240825e-03 8.501951487856351e-03 5.983662518634570e-05 8.501951487856346e-03 7.573458399793793e-03 8.537665254603837e-06 5.983662518634570e-05 8.537665254603835e-06 -2.760959641552965e-03
-4.816263954101252e-03 8.532372837837391e-03 -7.560749759082493e-05 8.532372837837393e-03 7.570939494080484e-03 2.528934046407016e-07 -7.560749759082492e-05 2.528934046407033e-07 -2.754675539979230e-03
-6.264369195924587e-03 1.288825931468809e-02 -2.314048595965602e-04 1.288825931468809e-02 7.867325218205642e-03 1.182766499239888e-04 -2.314048595965601e-04 1.182766499239888e-04 -1.602956022281051e-03
-6.215980884711246e-03 1.279421883333567e-02 1.214773270500131e-04 1.279421883333567e-02 7.870045499601092e-03 -5.624694617381970e-05 1.214773270500131e-04 -5.624694617381971e-05 -1.654064614889852e-03
-9.287530237485117e-03 1.237368598316111e-02 1.419255610607787e-04 1.237368598316111e-02 1.148972151726906e-02 -3.655681472426575e-05 1.419255610607787e-04 -3.655681472426576e-05 -2.202191279783943e-03
-9.327775300021027e-03 1.244896758709133e-02 -2.338722582071028e-04 1.244896758709133e-02 1.149581063934039e-02 7.548587471340368e-05 -2.338722582071028e-04 7.548587471340371e-05 -2.168035339319362e-03
-1.153476169609428e-02 1.845829909131393e-02 -2.543842041018856e-04 1.845829909131393e-02 1.016736392621225e-02 1.215379298809890e-04 -2.543842041018856e-04 1.215379298809890e-04 1.367397769882034e-03
-1.152238361540010e-02 1.846487956943994e-02 5.195427627633033e-04 1.846487956943994e-02 1.013146086142731e-02 -1.924879394413886e-04 5.195427627633034e-04 -1.924879394413886e-04 1.390922753972785e-03
-6.215980884711246e-03 1.279421883333567e-02 1.214773270500131e-04 1.279421883333567e-02 7.870045499601092e-03 -5.624694617381970e-05 1.214773270500131e-04 -5.624694617381971e-05 -1.654064614889852e-03
-6.264369195924587e-03 1.288825931468809e-02 -2.314048595965602e-04 1.288825931468809e-02 7.867325218205642e-03 1.182766499239888e-04 -2.314048595965601e-04 1.182766499239888e-04 -1.602956022281051e-03
-8.688786508089330e-03 2.028600199818120e-02 -2.653927048981060e-04 2.028600199818119e-02 6.233457268211030e-03 1.675541522555062e-04 -2.653927048981059e-04 1.675541522555062e-04 2.455329239878296e-03
-8.680798640286334e-03 2.027546366934832e-02 5.703761498279461e-04 2.027546366934832e-02 6.197056727253402e-03 -2.716432713403763e-04 5.703761498279461e-04 -2.716432713403763e-04 2.483741913032932e-03
-1.152238361540010e-02 1.846487956943994e-02 5.195427627633033e-04 1.846487956943994e-02 1.013146086142731e-02 -1.924879394413886e-04 5.195427627633034e-04 -1.924879394413886e-04 1.390922753972785e-03
-1.153476169609428e-02 1.845829909131393e-02 -2.543842041018856e-04 1.845829909131393e-02 1.016736392621225e-02 1.215379298809890e-04 -2.543842041018856e-04 1.215379298809890e-04 1.367397769882034e-03
-2.756961366212596e-02 4.886287839262470e-02 -2.381318224688438e-03 4.886287839262467e-02 1.823742976397263e-02 7.440868439162541e-04 -2.381318224688437e-03 7.440868439162539e-04 9.332183898153341e-03
-2.773506812858332e-02 4.914658597346708e-02 7.442537582723631e-06 4.914658597346708e-02 1.817124837928823e-02 -9.354092822016240e-06 7.442537582723482e-06 -9.354092822016185e-06 9.563819749295103e-03
-8.680798640286334e-03 2.027546366934832e-02 5.703761498279461e-04 2.027546366934832e-02 6.197056727253402e-03 -2.716432713403763e-04 5.703761498279461e-04 -2.716432713403763e-04 2.483741913032932e-03
-8.688786508089330e-03 2.028600199818120e-02 -2.653927048981060e-04 2.028600199818119e-02 6.233457268211030e-03 1.675541522555062e-04 -2.653927048981059e-04 1.675541522555062e-04 2.455329239878296e-03
-2.254999969183130e-02 5.447111116190708e-02 -2.729286804788199e-03 5.447111116190707e-02 9.039095960455820e-03 1.058297423675317e-03 -2.729286804788200e-03 1.058297423675318e-03 1.351090373137547e-02
-2.270206653926737e-02 5.482776091423863e-02 8.117131113522902e-06 5.482776091423863e-02 8.922298534656979e-03 -1.068748090417173e-05 8.117131113522942e-06 -1.068748090417173e-05 1.377976800461041e-02
-3.595799381904447e-03 7.967689808951078e-03 7.933604776091970e-05 7.967689808951085e-03 1.185696166100936e-02 5.045670680435590e-05 7.933604776091970e-05 5.045670680435589e-05 -8.261162279104912e-03
-3.604037061421942e-03 7.968991571046658e-03 -8.356012836713953e-05 7.968991571046653e-03 1.185955653882358e-02 -2.996972536252177e-05 -8.356012836713953e-05 -2.996972536252176e-05 -8.255519477401638e-03
-2.030337095195225e-03 4.264751533692411e-03 -4.335765565764728e-05 4.264751533692412e-03 5.917727930212228e-03 -2.126196257613329e-05 -4.335765565764728e-05 -2.126196257613329e-05 -3.887390835017002e-03
-2.027885499679084e-03 4.264247015640290e-03 4.909929108261079e-05 4.264247015640288e-03 5.914124626340953e-03 2.221309842286158e-05 4.909929108261077e-05 2.221309842286159e-05 -3.886239126661872e-03
-1.139071820092841e-03 7.409599804378155e-03 6.514760212245054e-05 7.409599804378155e-03 7.873442207840671e-03 4.324761834293111e-05 6.514760212245052e-05 4.324761834293111e-05 -6.734370387747834e-03
-1.137555943333524e-03 7.421821616692734e-03 -7.102041598025994e-05 7.421821616692734e-03 7.871642476899959e-03 -3.510541346494350e-05 -7.102041598025994e-05 -3.510541346494350e-05 -6.734086533566433e-03
-6.758563410644146e-04 3.946436458208727e-03 -3.321427757777774e-05 3.946436458208728e-03 3.876274397037305e-03 -1.508499243773477e-05 -3.321427757777775e-05 -1.508499243773477e-05 -3.200418055972890e-03
-6.789669412451055e-04 3.941237353487016e-03 3.688869258491373e-05 3.941237353487016e-03 3.877346612307850e-03 1.322089089679736e-05 3.688869258491373e-05 1.322089089679737e-05 -3.198379671062743e-03
-2.027885499679084e-03 4.264247015640290e-03 4.909929108261079e-05 4.264247015640288e-03 5.914124626340953e-03 2.221309842286158e-05 4.909929108261077e-05 2.221309842286159e-05 -3.886239126661872e-03
-2.030337095195225e-03 4.264751533692411e-03 -4.335765565764728e-05 4.264751533692412e-03 5.917727930212228e-03 -2.126196257613329e-05 -4.335765565764728e-05 -2.126196257613329e-05 -3.887390835017002e-03
-2.693276957760215e-03 4.873845221310527e-03 -4.534535655197545e-05 4.873845221310527e-03 6.211321340461305e-03 -2.772047627493863e-05 -4.534535655197544e-05 -2.772047627493864e-05 -3.518044382701091e-03
-2.692769610179053e-03 4.870815414905461e-03 4.415971007983759e-05 4.870815414905460e-03 6.205508499547547e-03 2.574517787239463e-05 4.415971007983760e-05 2.574517787239463e-05 -3.512738889368490e-03
-6.789669412451055e-04 3.941237353487016e-03 3.688869258491373e-05 3.941237353487016e-03 3.877346612307850e-03 1.322089089679736e-05 3.688869258491373e-05 1.322089089679737e-05 -3.198379671062743e-03
-6.758563410644146e-04 3.946436458208727e-03 -3.321427757777774e-05 3.946436458208728e-03 3.876274397037305e-03 -1.508499243773477e-05 -3.321427757777775e-05 -1.508499243773477e-05 -3.200418055972890e-03
-1.064857848242939e-03 4.504522811862231e-03 -3.071838884929434e-05 4.504522811862231e-03 3.987551590059050e-03 -1.107254309949131e-05 -3.071838884929434e-05 -1.107254309949131e-05 -2.922693741816110e-03
-1.068393779311862e-03 4.499634432323947e-03 2.847325433559668e-05 4.499634432323947e-03 3.987402192459777e-03 8.773855577448018e-06 2.847325433559668e-05 8.773855577448018e-06 -2.919008413147915e-03
-2.692769610179053e-03 4.870815414905461e-03 4.415971007983759e-05 4.870815414905460e-03 6.205508499547547e-03 2.574517787239463e-05 4.415971007983760e-05 2.574517787239463e-05 -3.512738889368490e-03
-2.693276957760215e-03 4.873845221310527e-03 -4.534535655197545e-05 4.873845221310527e-03 6.211321340461305e-03 -2.772047627493863e-05 -4.534535655197544e-05 -2.772047627493864e-05 -3.518044382701091e-03
-3.590378391386869e-03 6.131811395376268e-03 -5.196798504096636e-05 6.131811395376265e-03 6.852419136766655e-03 -2.457273181319550e-05 -5.196798504096637e-05 -2.457273181319551e-05 -3.262040745379789e-03
-3.589538224684054e-03 6.120074589707081e-03 4.307886378767634e-05 6.120074589707081e-03 6.848021359586008e-03 2.556592908201536e-05 4.307886378767635e-05 2.556592908201537e-05 -3.258483134901955e-03
-1.068393779311862e-03 4.499634432323947e-03 2.847325433559668e-05 4.499634432323947e-03 3.987402192459777e-03 8.773855577448018e-06 2.847325433559668e-05 8.773855577448018e-06 -2.919008413147915e-03
-1.064857848242939e-03 4.504522811862231e-03 -3.071838884929434e-05 4.504522811862231e-03 3.987551590059050e-03 -1.107254309949131e-05 -3.071838884929434e-05 -1.107254309949131e-05 -2.922693741816110e-03
-1.612575577233235e-03 5.648444672380779e-03 -3.486186821331154e-05 5.648444672380780e-03 4.335901053556052e-03 -4.356362195122590e-06 -3.486186821331155e-05 -4.356362195122587e-06 -2.723325476322818e-03
-1.611082261097750e-03 5.639439024122781e-03 2.705994153061320e-05 5.639439024122781e-03 4.332482554998931e-03 4.865525388532679e-06 2.705994153061320e-05 4.865525388532676e-06 -2.721400293901182e-03
-3.589538224684054e-03 6.120074589707081e-03 4.307886378767634e-05 6.120074589707081e-03 6.848021359586008e-03 2.556592908201536e-05 4.307886378767635e-05 2.556592908201537e-05 -3.258483134901955e-03
-3.590378391386869e-03 6.131811395376268e-03 -5.196798504096636e-05 6.131811395376265e-03 6.852419136766655e-03 -2.457273181319550e-05 -5.196798504096637e-05 -2.457273181319551e-05 -3.262040745379789e-03
-4.816263954101252e-03 8.532372837837391e-03 -7.560749759082493e-05 8.532372837837393e-03 7.570939494080484e-03 2.528934046407016e-07 -7.560749759082492e-05 2.528934046407033e-07 -2.754675539979230e-03
-4.812498758240825e-03 8.501951487856351e-03 5.983662518634570e-05 8.501951487856346e-03 7.573458399793793e-03 8.537665254603837e-06 5.983662518634570e-05 8.537665254603835e-06 -2.760959641552965e-03
-1.611082261097750e-03 5.639439024122781e-03 2.705994153061320e-05 5.639439024122781e-03 4.332482554998931e-03 4.865525388532679e-06 2.705994153061320e-05 4.865525388532676e-06 -2.721400293901182e-03
-1.612575577233235e-03 5.648444672380779e-03 -3.486186821331154e-05 5.648444672380780e-03 4.335901053556052e-03 -4.356362195122590e-06 -3.486186821331155e-05 -4.356362195122587e-06 -2.723325476322818e-03
-2.504021811370575e-03 7.947422965686235e-03 -6.079949414575194e-05 7.947422965686233e-03 4.780147047598141e-03 1.867912665201517e-05 -6.079949414575194e-05 1.867912665201517e-05 -2.276125236227563e-03
-2.495636081540549e-03 7.920443298347608e-03 4.361940649919626e-05 7.920443298347610e-03 4.780687155720892e-03 -3.487901691501789e-06 4.361940649919627e-05 -3.487901691501787e-06 -2.285051074180344e-03
-4.812498758240825e-03 8.501951487856351e-03 5.983662518634570e-05 8.501951487856346e-03 7.573458399793793e-03 8.537665254603837e-06 5.983662518634570e-05 8.537665254603835e-06 -2.760959641552965e-03
-4.816263954101252e-03 8.532372837837391e-03 -7.560749759082493e-05 8.532372837837393e-03 7.570939494080484e-03 2.528934046407016e-07 -7.560749759082492e-05 2.528934046407033e-07 -2.754675539979230e-03
-6.264369195924587e-03 1.288825931468809e-02 -2.314048595965602e-04 1.288825931468809e-02 7.867325218205642e-03 1.182766499239888e-04 -2.314048595965601e-04 1.182766499239888e-04 -1.602956022281051e-03
-6.215980884711246e-03 1.279421883333567e-02 1.214773270500131e-04 1.279421883333567e-02 7.870045499601092e-03 -5.624694617381970e-05 1.214773270500131e-04 -5.624694617381971e-05 -1.654064614889852e-03
-2.495636081540549e-03 7.920443298347608e-03 4.361940649919626e-05 7.920443298347610e-03 4.780687155720892e-03 -3.487901691501789e-06 4.361940649919627e-05 -3.487901691501787e-06 -2.285051074180344e-03
-2.504021811370575e-03 7.947422965686235e-03 -6.079949414575194e-05 7.947422965686233e-03 4.780147047598141e-03 1.867912665201517e-05 -6.079949414575194e-05 1.867912665201517e-05 -2.276125236227563e-03
-3.789098241902408e-03 1.252876374738539e-02 -2.401068940603528e-04 1.252876374738539e-02 4.919162945048242e-03 1.557488221489724e-04 -2.401068940603528e-04 1.557488221489724e-04 -1.130064703145836e-03
-3.737938345824764e-03 1.241531169746307e-02 1.141606293551556e-04 1.241531169746307e-02 4.932679530742513e-03 -6.759993508673768e-05 1.141606293551556e-04 -6.759993508673767e-05 -1.194741184917749e-03
-6.215980884711246e-03 1.279421883333567e-02 1.214773270500131e-04 1.279421883333567e-02 7.870045499601092e-03 -5.624694617381970e-05 1.214773270500131e-04 -5.624694617381971e-05 -1.654064614889852e-03
-6.264369195924587e-03 1.288825931468809e-02 -2.314048595965602e-04 1.288825931468809e-02 7.867325218205642e-03 1.182766499239888e-04 -2.314048595965601e-04 1.182766499239888e-04 -1.602956022281051e-03
-8.688786508089330e-03 2.028600199818120e-02 -2.653927048981060e-04 2.028600199818119e-02 6.233457268211030e-03 1.675541522555062e-04 -2.653927048981059e-04 1.675541522555062e-04 2.455329239878296e-03
-8.680798640286334e-03 2.027546366934832e-02 5.703761498279461e-04 2.027546366934832e-02 6.197056727253402e-03 -2.716432713403763e-04 5.703761498279461e-04 -2.716432713403763e-04 2.483741913032932e-03
-3.737938345824764e-03 1.241531169746307e-02 1.141606293551556e-04 1.241531169746307e-02 4.932679530742513e-03 -6.759993508673768e-05 1.141606293551556e-04 -6.759993508673767e-05 -1.194741184917749e-03
-3.789098241902408e-03 1.252876374738539e-02 -2.401068940603528e-04 1.252876374738539e-02 4.919162945048242e-03 1.557488221489724e-04 -2.401068940603528e-04 1.557488221489724e-04 -1.130064703145836e-03
-6.502902182760549e-03 2.093768088463243e-02 -2.853835934229630e-04 2.093768088463243e-02 2.995885867935780e-03 2.207715010581088e-04 -2.853835934229630e-04 2.207715010581088e-04 3.507016314824770e-03
-6.506273202097380e-03 2.090491338541382e-02 6.022841437937651e-04 2.090491338541381e-02 2.961620187272979e-03 -3.544192690913293e-04 6.022841437937653e-04 -3.544192690913293e-04 3.544653014824396e-03
-8.680798640286334e-03 2.027546366934832e-02 5.703761498279461e-04 2.027546366934832e-02 6.197056727253402e-03 -2.716432713403763e-04 5.703761498279461e-04 -2.716432713403763e-04 2.483741913032932e-03
-8.688786508089330e-03 2.028600199818120e-02 -2.653927048981060e-04 2.028600199818119e-02 6.233457268211030e-03 1.675541522555062e-04 -2.653927048981059e-04 1.675541522555062e-04 2.455329239878296e-03
-2.254999969183130e-02 5.447111116190708e-02 -2.729286804788199e-03 5.447111116190707e-02 9.039095960455820e-03 1.058297423675317e-03 -2.729286804788200e-03 1.058297423675318e-03 1.351090373137547e-02
-2.270206653926737e-02 5.482776091423863e-02 8.117131113522902e-06 5.482776091423863e-02 8.922298534656979e-03 -1.068748090417173e-05 8.117131113522942e-06 -1.068748090417173e-05 1.377976800461041e-02
-6.506273202097380e-03 2.090491338541382e-02 6.022841437937651e-04 2.090491338541381e-02 2.961620187272979e-03 -3.544192690913293e-04 6.022841437937653e-04 -3.544192690913293e-04 3.544653014824396e-03
-6.502902182760549e-03 2.093768088463243e-02 -2.853835934229630e-04 2.093768088463243e-02 2.995885867935780e-03 2.207715010581088e-04 -2.853835934229630e-04 2.207715010581088e-04 3.507016314824770e-03
-1.927453166182195e-02 5.796984654246536e-02 -2.983040807525532e-03 5.796984654246534e-02 1.284170291760915e-03 1.452029931509786e-03 -2.983040807525532e-03 1.452029931509786e-03 1.799036137006103e-02
-1.941248923264977e-02 5.838901879364748e-02 9.904106869304779e-06 5.838901879364750e-02 1.124302728694394e-03 -1.298483711258127e-05 9.904106869304617e-06 -1.298483711258125e-05 1.828818650395538e-02
-1.139071820092841e-03 7.409599804378155e-03 6.514760212245054e-05 7.409599804378155e-03 7.873442207840671e-03 4.324761834293111e-05 6.514760212245052e-05 4.324761834293111e-05 -6.734370387747834e-03
-1.137555943333524e-03 7.421821616692734e-03 -7.102041598025994e-05 7.421821616692734e-03 7.871642476899959e-03 -3.510541346494350e-05 -7.102041598025994e-05 -3.510541346494350e-05 -6.734086533566433e-03
-6.758563410644146e-04 3.946436458208727e-03 -3.321427757777774e-05 3.946436458208728e-03 3.876274397037305e-03 -1.508499243773477e-05 -3.321427757777775e-05 -1.508499243773477e-05 -3.200418055972890e-03
-6.789669412451055e-04 3.941237353487016e-03 3.688869258491373e-05 3.941237353487016e-03 3.877346612307850e-03 1.322089089679736e-05 3.688869258491373e-05 1.322089089679737e-05 -3.198379671062743e-03
7.774413706520304e-04 6.701656309923764e-03 3.409207185477050e-05 6.701656309923762e-03 4.783383704686877e-03 2.607126088392206e-05 3.409207185477050e-05 2.607126088392205e-05 -5.560825075338908e-03
7.813965862390460e-04 6.713238807186547e-03 -3.802102200642414e-05 6.713238807186548e-03 4.782086330172778e-03 -2.356421191150772e-05 -3.802102200642415e-05 -2.356421191150772e-05 -5.563482916411821e-03
3.552854320161671e-04 3.669175688164897e-03 -1.639124848409219e-05 3.669175688164897e-03 2.400400841054591e-03 -9.219603172019841e-06 -1.639124848409219e-05 -9.219603172019839e-06 -2.755686273070757e-03
3.516822174813481e-04 3.664778441419889e-03 1.857297262317690e-05 3.664778441419889e-03 2.401805555945528e-03 7.131735755490120e-06 1.857297262317690e-05 7.131735755490119e-06 -2.753487773426876e-03
-6.789669412451055e-04 3.941237353487016e-03 3.688869258491373e-05 3.941237353487016e-03 3.877346612307850e-03 1.322089089679736e-05 3.688869258491373e-05 1.322089089679737e-05 -3.198379671062743e-03
-6.758563410644146e-04 3.946436458208727e-03 -3.321427757777774e-05 3.946436458208728e-03 3.876274397037305e-03 -1.508499243773477e-05 -3.321427757777775e-05 -1.508499243773477e-05 -3.200418055972890e-03
-1.064857848242939e-03 4.504522811862231e-03 -3.071838884929434e-05 4.504522811862231e-03 3.987551590059050e-03 -1.107254309949131e-05 -3.071838884929434e-05 -1.107254309949131e-05 -2.922693741816110e-03
-1.068393779311862e-03 4.499634432323947e-03 2.847325433559668e-05 4.499634432323947e-03 3.987402192459777e-03 8.773855577448018e-06 2.847325433559668e-05 8.773855577448018e-06 -2.919008413147915e-03
3.516822174813481e-04 3.664778441419889e-03 1.857297262317690e-05 3.664778441419889e-03 2.401805555945528e-03 7.131735755490120e-06 1.857297262317690e-05 7.131735755490119e-06 -2.753487773426876e-03
3.552854320161671e-04 3.669175688164897e-03 -1.639124848409219e-05 3.669175688164897e-03 2.400400841054591e-03 -9.219603172019841e-06 -1.639124848409219e-05 -9.219603172019839e-06 -2.755686273070757e-03
1.643017790547726e-04 4.339076591967336e-03 -1.551300415551182e-05 4.339076591967334e-03 2.468270188852856e-03 -3.287046029486459e-06 -1.551300415551182e-05 -3.287046029486459e-06 -2.632571967907629e-03
1.614173688769357e-04 4.334180230966773e-03 1.109609666895773e-05 4.334180230966774e-03 2.470173986114618e-03 3.265182385705910e-06 1.109609666895773e-05 3.265182385705911e-06 -2.631591354991554e-03
-1.068393779311862e-03 4.499634432323947e-03 2.847325433559668e-05 4.499634432323947e-03 3.987402192459777e-03 8.773855577448018e-06 2.847325433559668e-05 8.773855577448018e-06 -2.919008413147915e-03
-1.064857848242939e-03 4.504522811862231e-03 -3.071838884929434e-05 4.504522811862231e-03 3.987551590059050e-03 -1.107254309949131e-05 -3.071838884929434e-05 -1.107254309949131e-05 -2.922693741816110e-03
-1.612575577233235e-03 5.648444672380779e-03 -3.486186821331154e-05 5.648444672380780e-03 4.335901053556052e-03 -4.356362195122590e-06 -3.486186821331155e-05 -4.356362195122587e-06 -2.723325476322818e-03
-1.611082261097750e-03 5.639439024122781e-03 2.705994153061320e-05 5.639439024122781e-03 4.332482554998931e-03 4.865525388532679e-06 2.705994153061320e-05 4.865525388532676e-06 -2.721400293901182e-03
1.614173688769357e-04 4.334180230966773e-03 1.109609666895773e-05 4.334180230966774e-03 2.470173986114618e-03 3.265182385705910e-06 1.109609666895773e-05 3.265182385705911e-06 -2.631591354991554e-03
1.643017790547726e-04 4.339076591967336e-03 -1.551300415551182e-05 4.339076591967334e-03 2.468270188852856e-03 -3.287046029486459e-06 -1.551300415551182e-05 -3.287046029486459e-06 -2.632571967907629e-03
-9.854394156723662e-05 5.503169959451293e-03 -2.305869951643274e-05 5.503169959451293e-03 2.610741986043966e-03 6.662223458788656e-06 -2.305869951643274e-05 6.662223458788657e-06 -2.512198044476730e-03
-9.681349745226557e-05 5.494506017819586e-03 1.739522437007209e-05 5.494506017819589e-03 2.610555984367682e-03 -7.335401192466109e-06 1.739522437007209e-05 -7.335401192466110e-06 -2.513742486915415e-03
-1.611082261097750e-03 5.639439024122781e-03 2.705994153061320e-05 5.639439024122781e-03 4.332482554998931e-03 4.865525388532679e-06 2.705994153061320e-05 4.865525388532676e-06 -2.721400293901182e-03
-1.612575577233235e-03 5.648444672380779e-03 -3.486186821331154e-05 5.648444672380780e-03 4.335901053556052e-03 -4.356362195122590e-06 -3.486186821331155e-05 -4.356362195122587e-06 -2.723325476322818e-03
-2.504021811370575e-03 7.947422965686235e-03 -6.079949414575194e-05 7.947422965686233e-03 4.780147047598141e-03 1.867912665201517e-05 -6.079949414575194e-05 1.867912665201517e-05 -2.276125236227563e-03
-2.495636081540549e-03 7.920443298347608e-03 4.361940649919626e-05 7.920443298347610e-03 4.780687155720892e-03 -3.487901691501789e-06 4.361940649919627e-05 -3.487901691501787e-06 -2.285051074180344e-03
-9.681349745226557e-05 5.494506017819586e-03 1.739522437007209e-05 5.494506017819589e-03 2.610555984367682e-03 -7.335401192466109e-06 1.739522437007209e-05 -7.335401192466110e-06 -2.513742486915415e-03
-9.854394156723662e-05 5.503169959451293e-03 -2.305869951643274e-05 5.503169959451293e-03 2.610741986043966e-03 6.662223458788656e-06 -2.305869951643274e-05 6.662223458788657e-06 -2.512198044476730e-03
-6.335740653901776e-04 7.626555012405818e-03 -5.139779723757727e-05 7.626555012405821e-03 2.695649327451157e-03 2.890473810664699e-05 -5.139779723757726e-05 2.890473810664699e-05 -2.062075262060979e-03
-6.257446510154112e-04 7.601347043842665e-03 3.365556245052259e-05 7.601347043842663e-03 2.698087652769781e-03 -1.811971172414231e-05 3.365556245052258e-05 -1.811971172414231e-05 -2.072343001754370e-03
-2.495636081540549e-03 7.920443298347608e-03 4.361940649919626e-05 7.920443298347610e-03 4.780687155720892e-03 -3.487901691501789e-06 4.361940649919627e-05 -3.487901691501787e-06 -2.285051074180344e-03
-2.504021811370575e-03 7.947422965686235e-03 -6.079949414575194e-05 7.947422965686233e-03 4.780147047598141e-03 1.867912665201517e-05 -6.079949414575194e-05 1.867912665201517e-05 -2.276125236227563e-03
-3.789098241902408e-03 1.252876374738539e-02 -2.401068940603528e-04 1.252876374738539e-02 4.919162945048242e-03 1.557488221489724e-04 -2.401068940603528e-04 1.557488221489724e-04 -1.130064703145836e-03
-3.737938345824764e-03 1.241531169746307e-02 1.141606293551556e-04 1.241531169746307e-02 4.932679530742513e-03 -6.759993508673768e-05 1.141606293551556e-04 -6.759993508673767e-05 -1.194741184917749e-03
-6.257446510154112e-04 7.601347043842665e-03 3.365556245052259e-05 7.601347043842663e-03 2.698087652769781e-03 -1.811971172414231e-05 3.365556245052258e-05 -1.811971172414231e-05 -2.072343001754370e-03
-6.335740653901776e-04 7.626555012405818e-03 -5.139779723757727e-05 7.626555012405821e-03 2.695649327451157e-03 2.890473810664699e-05 -5.139779723757726e-05 2.890473810664699e-05 -2.062075262060979e-03
-1.618258805247729e-03 1.202270298396240e-02 -2.436084109582971e-04 1.202270298396240e-02 2.499803343658443e-03 1.830310347594319e-04 -2.436084109582971e-04 1.830310347594319e-04 -8.815445384107142e-04
-1.567989271630860e-03 1.189468747782363e-02 1.017568198049183e-04 1.189468747782363e-02 2.525736716183372e-03 -7.899834954025022e-05 1.017568198049183e-04 -7.899834954025024e-05 -9.577474445525105e-04
-3.737938345824764e-03 1.241531169746307e-02 1.141606293551556e-04 1.241531169746307e-02 4.932679530742513e-03 -6.759993508673768e-05 1.141606293551556e-04 -6.759993508673767e-05 -1.194741184917749e-03
-3.789098241902408e-03 1.252876374738539e-02 -2.401068940603528e-04 1.252876374738539e-02 4.919162945048242e-03 1.557488221489724e-04 -2.401068940603528e-04 1.557488221489724e-04 -1.130064703145836e-03
-6.502902182760549e-03 2.093768088463243e-02 -2.853835934229630e-04 2.093768088463243e-02 2.995885867935780e-03 2.207715010581088e-04 -2.853835934229630e-04 2.207715010581088e-04 3.507016314824770e-03
-6.506273202097380e-03 2.090491338541382e-02 6.022841437937651e-04 2.090491338541381e-02 2.961620187272979e-03 -3.544192690913293e-04 6.022841437937653e-04 -3.544192690913293e-04 3.544653014824396e-03
-1.567989271630860e-03 1.189468747782363e-02 1.017568198049183e-04 1.189468747782363e-02 2.525736716183372e-03 -7.899834954025022e-05 1.017568198049183e-04 -7.899834954025024e-05 -9.577474445525105e-04
-1.618258805247729e-03 1.202270298396240e-02 -2.436084109582971e-04 1.202270298396240e-02 2.499803343658443e-03 1.830310347594319e-04 -2.436084109582971e-04 1.830310347594319e-04 -8.815445384107142e-04
-4.451246656468960e-03 2.099068052784240e-02 -3.078614155462639e-04 2.099068052784240e-02 2.469920115111850e-04 2.646853854751416e-04 -3.078614155462639e-04 2.646853854751416e-04 4.204254644957773e-03
-4.465896611495260e-03 2.094271776996511e-02 5.908399943960637e-04 2.094271776996513e-02 2.175567164538607e-04 -4.284879266061468e-04 5.908399943960633e-04 -4.284879266061468e-04 4.248339895041400e-03
-6.506273202097380e-03 2.090491338541382e-02 6.022841437937651e-04 2.090491338541381e-02 2.961620187272979e-03 -3.544192690913293e-04 6.022841437937653e-04 -3.544192690913293e-04 3.544653014824396e-03
-6.502902182760549e-03 2.093768088463243e-02 -2.853835934229630e-04 2.093768088463243e-02 2.995885867935780e-03 2.207715010581088e-04 -2.853835934229630e-04 2.207715010581088e-04 3.507016314824770e-03
-1.927453166182195e-02 5.796984654246536e-02 -2.983040807525532e-03 5.796984654246534e-02 1.284170291760915e-03 1.452029931509786e-03 -2.983040807525532e-03 1.452029931509786e-03 1.799036137006103e-02
-1.941248923264977e-02 5.838901879364748e-02 9.904106869304779e-06 5.838901879364750e-02 1.124302728694394e-03 -1.298483711258127e-05 9.904106869304617e-06 -1.298483711258125e-05 1.828818650395538e-02
-4.465896611495260e-03 2.094271776996511e-02 5.908399943960637e-04 2.094271776996513e-02 2.175567164538607e-04 -4.284879266061468e-04 5.908399943960633e-04 -4.284879266061468e-04 4.248339895041400e-03
-4.451246656468960e-03 2.099068052784240e-02 -3.078614155462639e-04 2.099068052784240e-02 2.469920115111850e-04 2.646853854751416e-04 -3.078614155462639e-04 2.646853854751416e-04 4.204254644957773e-03
-1.612318391907474e-02 5.995460422588762e-02 -2.856084915531775e-03 5.995460422588759e-02 -5.539760591791688e-03 1.843849115833730e-03 -2.856084915531775e-03 1.843849115833730e-03 2.166294451086644e-02
-1.624214596124744e-02 6.041275150902482e-02 9.980716109261851e-06 6.041275150902482e-02 -5.719939146743846e-03 -1.405241529535582e-05 9.980716109261824e-06 -1.405241529535582e-05 2.196208510799128e-02
7.774413706520304e-04 6.701656309923764e-03 3.409207185477050e-05 6.701656309923762e-03 4.783383704686877e-03 2.607126088392206e-05 3.409207185477050e-05 2.607126088392205e-05 -5.560825075338908e-03
7.813965862390460e-04 6.713238807186547e-03 -3.802102200642414e-05 6.713238807186548e-03 4.782086330172778e-03 -2.356421191150772e-05 -3.802102200642415e-05 -2.356421191150772e-05 -5.563482916411821e-03
3.552854320161671e-04 3.669175688164897e-03 -1.639124848409219e-05 3.669175688164897e-03 2.400400841054591e-03 -9.219603172019841e-06 -1.639124848409219e-05 -9.219603172019839e-06 -2.755686273070757e-03
3.516822174813481e-04 3.664778441419889e-03 1.857297262317690e-05 3.664778441419889e-03 2.401805555945528e-03 7.131735755490120e-06 1.857297262317690e-05 7.131735755490119e-06 -2.753487773426876e-03
3.870059360998989e-03 1.279337247088521e-02 5.956838110837347e-06 1.279337247088521e-02 6.370516436422688e-03 2.450966765478353e-06 5.956838110837337e-06 2.450966765478355e-06 -1.024057579742168e-02
3.875110539609597e-03 1.281435115129794e-02 -6.986564829379135e-05 1.281435115129794e-02 6.372575170461062e-03 -5.789734844977172e-05 -6.986564829379135e-05 -5.789734844977172e-05 -1.024768571007065e-02
2.022675538233894e-03 7.122455978593092e-03 -2.768283895990547e-05 7.122455978593090e-03 3.171862451069829e-03 -2.290102427905701e-05 -2.768283895990548e-05 -2.290102427905701e-05 -5.194537989303721e-03
2.018992527165585e-03 7.115202892013766e-03 8.713353569322216e-06 7.115202892013766e-03 3.171128526521974e-03 -3.051425634430983e-06 8.713353569322221e-06 -3.051425634430981e-06 -5.190121053687561e-03
3.516822174813481e-04 3.664778441419889e-03 1.857297262317690e-05 3.664778441419889e-03 2.401805555945528e-03 7.131735755490120e-06 1.857297262317690e-05 7.131735755490119e-06 -2.753487773426876e-03
3.552854320161671e-04 3.669175688164897e-03 -1.639124848409219e-05 3.669175688164897e-03 2.400400841054591e-03 -9.219603172019841e-06 -1.639124848409219e-05 -9.219603172019839e-06 -2.755686273070757e-03
1.643017790547726e-04 4.339076591967336e-03 -1.551300415551182e-05 4.339076591967334e-03 2.468270188852856e-03 -3.287046029486459e-06 -1.551300415551182e-05 -3.287046029486459e-06 -2.632571967907629e-03
1.614173688769357e-04 4.334180230966773e-03 1.109609666895773e-05 4.334180230966774e-03 2.470173986114618e-03 3.265182385705910e-06 1.109609666895773e-05 3.265182385705911e-06 -2.631591354991554e-03
2.018992527165585e-03 7.115202892013766e-03 8.713353569322216e-06 7.115202892013766e-03 3.171128526521974e-03 -3.051425634430983e-06 8.713353569322221e-06 -3.051425634430981e-06 -5.190121053687561e-03
2.022675538233894e-03 7.122455978593092e-03 -2.768283895990547e-05 7.122455978593090e-03 3.171862451069829e-03 -2.290102427905701e-05 -2.768283895990548e-05 -2.290102427905701e-05 -5.194537989303721e-03
1.968672595334591e-03 8.597322067105551e-03 -2.352355367307971e-05 8.597322067105553e-03 3.113460851000731e-03 -6.360561802064898e-06 -2.352355367307971e-05 -6.360561802064901e-06 -5.082133446335322e-03
1.967261261822960e-03 8.588537258771020e-03 3.729079302115737e-06 8.588537258771020e-03 3.115107458290584e-03 2.553783834247583e-07 3.729079302115735e-06 2.553783834247574e-07 -5.082368720113544e-03
1.614173688769357e-04 4.334180230966773e-03 1.109609666895773e-05 4.334180230966774e-03 2.470173986114618e-03 3.265182385705910e-06 1.109609666895773e-05 3.265182385705911e-06 -2.631591354991554e-03
1.643017790547726e-04 4.339076591967336e-03 -1.551300415551182e-05 4.339076591967334e-03 2.468270188852856e-03 -3.287046029486459e-06 -1.551300415551182e-05 -3.287046029486459e-06 -2.632571967907629e-03
-9.854394156723662e-05 5.503169959451293e-03 -2.305869951643274e-05 5.503169959451293e-03 2.610741986043966e-03 6.662223458788656e-06 -2.305869951643274e-05 6.662223458788657e-06 -2.512198044476730e-03
-9.681349745226557e-05 5.494506017819586e-03 1.739522437007209e-05 5.494506017819589e-03 2.610555984367682e-03 -7.335401192466109e-06 1.739522437007209e-05 -7.335401192466110e-06 -2.513742486915415e-03
1.967261261822960e-03 8.588537258771020e-03 3.729079302115737e-06 8.588537258771020e-03 3.115107458290584e-03 2.553783834247583e-07 3.729079302115735e-06 2.553783834247574e-07 -5.082368720113544e-03
1.968672595334591e-03 8.597322067105551e-03 -2.352355367307971e-05 8.597322067105553e-03 3.113460851000731e-03 -6.360561802064898e-06 -2.352355367307971e-05 -6.360561802064901e-06 -5.082133446335322e-03
1.830553978163927e-03 1.099304363694727e-02 -4.110603081763660e-05 1.099304363694728e-02 3.082163021399269e-03 1.647082381954370e-05 -4.110603081763659e-05 1.647082381954369e-05 -4.912716999563195e-03
1.833971414155569e-03 1.097656908300076e-02 2.657470102266685e-05 1.097656908300076e-02 3.085021697492292e-03 -2.119451130819513e-05 2.657470102266684e-05 -2.119451130819512e-05 -4.918993111647861e-03
-9.681349745226557e-05 5.494506017819586e-03 1.739522437007209e-05 5.494506017819589e-03 2.610555984367682e-03 -7.335401192466109e-06 1.739522437007209e-05 -7.335401192466110e-06 -2.513742486915415e-03
-9.854394156723662e-05 5.503169959451293e-03 -2.305869951643274e-05 5.503169959451293e-03 2.610741986043966e-03 6.662223458788656e-06 -2.305869951643274e-05 6.662223458788657e-06 -2.512198044476730e-03
-6.335740653901776e-04 7.626555012405818e-03 -5.139779723757727e-05 7.626555012405821e-03 2.695649327451157e-03 2.890473810664699e-05 -5.139779723757726e-05 2.890473810664699e-05 -2.062075262060979e-03
-6.257446510154112e-04 7.601347043842665e-03 3.365556245052259e-05 7.601347043842663e-03 2.698087652769781e-03 -1.811971172414231e-05 3.365556245052258e-05 -1.811971172414231e-05 -2.072343001754370e-03
1.833971414155569e-03 1.097656908300076e-02 2.657470102266685e-05 1.097656908300076e-02 3.085021697492292e-03 -2.119451130819513e-05 2.657470102266684e-05 -2.119451130819512e-05 -4.918993111647861e-03
1.830553978163927e-03 1.099304363694727e-02 -4.110603081763660e-05 1.099304363694728e-02 3.082163021399269e-03 1.647082381954370e-05 -4.110603081763659e-05 1.647082381954369e-05 -4.912716999563195e-03
1.268257652535263e-03 1.509763794209519e-02 -1.034763422512787e-04 1.509763794209519e-02 2.740907582778043e-03 5.913454180153415e-05 -1.034763422512786e-04 5.913454180153415e-05 -4.009165235313304e-03
1.281909527838213e-03 1.504968628199452e-02 5.684805648298555e-05 1.504968628199454e-02 2.750050936852143e-03 -4.832232742695935e-05 5.684805648298555e-05 -4.832232742695936e-05 -4.031960464690357e-03
-6.257446510154112e-04 7.601347043842665e-03 3.365556245052259e-05 7.601347043842663e-03 2.698087652769781e-03 -1.811971172414231e-05 3.365556245052258e-05 -1.811971172414231e-05 -2.072343001754370e-03
-6.335740653901776e-04 7.626555012405818e-03 -5.139779723757727e-05 7.626555012405821e-03 2.695649327451157e-03 2.890473810664699e-05 -5.139779723757726e-05 2.890473810664699e-05 -2.062075262060979e-03
-1.618258805247729e-03 1.202270298396240e-02 -2.436084109582971e-04 1.202270298396240e-02 2.499803343658443e-03 1.830310347594319e-04 -2.436084109582971e-04 1.830310347594319e-04 -8.815445384107142e-04
-1.567989271630860e-03 1.189468747782363e-02 1.017568198049183e-04 1.189468747782363e-02 2.525736716183372e-03 -7.899834954025022e-05 1.017568198049183e-04 -7.899834954025024e-05 -9.577474445525105e-04
1.281909527838213e-03 1.504968628199452e-02 5.684805648298555e-05 1.504968628199454e-02 2.750050936852143e-03 -4.832232742695935e-05 5.684805648298555e-05 -4.832232742695936e-05 -4.031960464690357e-03
1.268257652535263e-03 1.509763794209519e-02 -1.034763422512787e-04 1.509763794209519e-02 2.740907582778043e-03 5.913454180153415e-05 -1.034763422512786e-04 5.913454180153415e-05 -4.009165235313304e-03
-9.373240730943685e-05 2.362240515255078e-02 -5.169605262990623e-04 2.362240515255078e-02 1.690821570334039e-03 3.600423347532053e-04 -5.169605262990625e-04 3.600423347532053e-04 -1.597089163024603e-03
1.349880625160999e-06 2.335821290459015e-02 1.955340943922833e-04 2.335821290459014e-02 1.760253227328386e-03 -1.636763457232431e-04 1.955340943922834e-04 -1.636763457232431e-04 -1.761603107953547e-03
-1.567989271630860e-03 1.189468747782363e-02 1.017568198049183e-04 1.189468747782363e-02 2.525736716183372e-03 -7.899834954025022e-05 1.017568198049183e-04 -7.899834954025024e-05 -9.577474445525105e-04
-1.618258805247729e-03 1.202270298396240e-02 -2.436084109582971e-04 1.202270298396240e-02 2.499803343658443e-03 1.830310347594319e-04 -2.436084109582971e-04 1.830310347594319e-04 -8.815445384107142e-04
-4.451246656468960e-03 2.099068052784240e-02 -3.078614155462639e-04 2.099068052784240e-02 2.469920115111850e-04 2.646853854751416e-04 -3.078614155462639e-04 2.646853854751416e-04 4.204254644957773e-03
-4.465896611495260e-03 2.094271776996511e-02 5.908399943960637e-04 2.094271776996513e-02 2.175567164538607e-04 -4.284879266061468e-04 5.908399943960633e-04 -4.284879266061468e-04 4.248339895041400e-03
1.349880625160999e-06 2.335821290459015e-02 1.955340943922833e-04 2.335821290459014e-02 1.760253227328386e-03 -1.636763457232431e-04 1.955340943922834e-04 -1.636763457232431e-04 -1.761603107953547e-03
-9.373240730943685e-05 2.362240515255078e-02 -5.169605262990623e-04 2.362240515255078e-02 1.690821570334039e-03 3.600423347532053e-04 -5.169605262990625e-04 3.600423347532053e-04 -1.597089163024603e-03
-5.633691026193181e-03 4.189605448508101e-02 -8.026686723430618e-04 4.189605448508101e-02 -3.307356898408179e-03 4.687872359741590e-04 -8.026686723430620e-04 4.687872359741590e-04 8.941047924601361e-03
-5.676542701372424e-03 4.179505464211040e-02 1.059767343033976e-03 4.179505464211039e-02 -3.358668252011540e-03 -9.443517447845725e-04 1.059767343033976e-03 -9.443517447845725e-04 9.035210953383969e-03
-4.465896611495260e-03 2.094271776996511e-02 5.908399943960637e-04 2.094271776996513e-02 2.175567164538607e-04 -4.284879266061468e-04 5.908399943960633e-04 -4.284879266061468e-04 4.248339895041400e-03
-4.451246656468960e-03 2.099068052784240e-02 -3.078614155462639e-04 2.099068052784240e-02 2.469920115111850e-04 2.646853854751416e-04 -3.078614155462639e-04 2.646853854751416e-04 4.204254644957773e-03
-1.612318391907474e-02 5.995460422588762e-02 -2.856084915531775e-03 5.995460422588759e-02 -5.539760591791688e-03 1.843849115833730e-03 -2.856084915531775e-03 1.843849115833730e-03 2.166294451086644e-02
-1.624214596124744e-02 6.041275150902482e-02 9.980716109261851e-06 6.041275150902482e-02 -5.719939146743846e-03 -1.405241529535582e-05 9.980716109261824e-06 -1.405241529535582e-05 2.196208510799128e-02
-5.676542701372424e-03 4.179505464211040e-02 1.059767343033976e-03 4.179505464211039e-02 -3.358668252011540e-03 -9.443517447845725e-04 1.059767343033976e-03 -9.443517447845725e-04 9.035210953383969e-03
-5.633691026193181e-03 4.189605448508101e-02 -8.026686723430618e-04 4.189605448508101e-02 -3.307356898408179e-03 4.687872359741590e-04 -8.026686723430620e-04 4.687872359741590e-04 8.941047924601361e-03
-2.647316209590662e-02 1.212638645130445e-01 -5.512632937069347e-03 1.212638645130445e-01 -1.985551072988482e-02 3.868678558692472e-03 -5.512632937069347e-03 3.868678558692473e-03 4.632867282579141e-02
-2.669612085234932e-02 1.222005891230096e-01 1.093430001906036e-05 1.222005891230095e-01 -2.021023189441197e-02 -2.281989857412167e-05 1.093430001906080e-05 -2.281989857412146e-05 4.690635274676129e-02
        </DataArray>
        <DataArray type="Float64" Name="nodal_cauchy_stresses_xyz" NumberOfComponents="6" format="ascii">
1.260275454708667e-02 -2.732300578894527e-01 -3.295953699671079e-03 1.866445507705037e-02 -1.439641808887988e-05 1.767964824370321e-03
1.252635893616888e-02 -2.732049715123674e-01 -3.247390476650770e-03 1.890797662776668e-02 -2.857216197798225e-05 -1.925657587227066e-03
1.702830739215160e-02 -2.696901262320712e-01 1.781628220536551e-04 1.023232806415100e-02 8.430598951719427e-04 -1.232634675829604e-03
1.692999360146229e-02 -2.697328048220251e-01 3.111955547265171e-04 9.900574913732354e-03 7.587919747418696e-06 1.619473748046756e-03
6.766980751417043e-03 -2.727810828113745e-01 -1.145539979270108e-03 -4.492903172777421e-02 -1.278028228618043e-04 7.495769483976191e-04
6.888049843361112e-03 -2.728733677665859e-01 -1.172152149265101e-03 -4.422097004298269e-02 1.243987363934688e-04 -6.462581613670424e-04
1.900422223284448e-02 -2.691515634410508e-01 -5.179889163325260e-04 -4.272267324394553e-02 5.427118369863619e-04 -3.399156059579552e-04
1.887999023692889e-02 -2.690917667403376e-01 -4.604282657048129e-04 -4.344302703922825e-02 -9.512344753058503e-04 3.350498171451667e-04
1.692999360146229e-02 -2.697328048220251e-01 3.111955547265171e-04 9.900574913732354e-03 7.587919747418696e-06 1.619473748046756e-03
1.702830739215160e-02 -2.696901262320712e-01 1.781628220536551e-04 1.023232806415100e-02 8.430598951719427e-04 -1.232634675829604e-03
3.520117060321849e-02 -2.594404246803622e-01 2.113139936093881e-03 -6.446801083440611e-04 1.596477210105162e-03 -1.461880044457575e-04
3.489421709112726e-02 -2.595435255963010e-01 2.498824314398199e-03 -8.252903075669405e-04 3.190505416128974e-05 4.663840628027543e-04
1.887999023692889e-02 -2.690917667403376e-01 -4.604282657048129e-04 -4.344302703922825e-02 -9.512344753058503e-04 3.350498171451667e-04
1.900422223284448e-02 -2.691515634410508e-01 -5.179889163325260e-04 -4.272267324394553e-02 5.427118369863619e-04 -3.399156059579552e-04
4.608320404046344e-02 -2.592279324642787e-01 -5.409666079362388e-04 -4.075077582958980e-02 7.405879254410532e-04 2.795303369575986e-04
4.589532556109504e-02 -2.592360753802080e-01 -3.593695559259852e-04 -4.105963289816957e-02 -1.749504688254861e-03 -2.874874356256328e-04
3.489421709112726e-02 -2.595435255963010e-01 2.498824314398199e-03 -8.252903075669405e-04 3.190505416128974e-05 4.663840628027543e-04
3.520117060321849e-02 -2.594404246803622e-01 2.113139936093881e-03 -6.446801083440611e-04 1.596477210105162e-03 -1.461880044457575e-04
6.268676984054736e-02 -2.460933795931294e-01 1.695568110819462e-03 -1.114093202806559e-02 1.234742001364677e-03 8.935962542232376e-04
6.241615653365977e-02 -2.461980603797201e-01 2.047271109027636e-03 -1.110467674176756e-02 -3.585176585573495e-05 -1.070885893290361e-03
4.589532556109504e-02 -2.592360753802080e-01 -3.593695559259852e-04 -4.105963289816957e-02 -1.749504688254861e-03 -2.874874356256328e-04
4.608320404046344e-02 -2.592279324642787e-01 -5.409666079362388e-04 -4.075077582958980e-02 7.405879254410532e-04 2.795303369575986e-04
7.601758258846958e-02 -2.465784132012965e-01 -4.208568625424998e-04 -4.108187874127907e-02 5.749614242038324e-04 9.482336315765360e-04
7.585161950609451e-02 -2.466486213553286e-01 -1.991147979899373e-04 -4.094486574383614e-02 -1.498179631258722e-03 -1.122167635925010e-03
6.241615653365977e-02 -2.461980603797201e-01 2.047271109027636e-03 -1.110467674176756e-02 -3.585176585573495e-05 -1.070885893290361e-03
6.268676984054736e-02 -2.460933795931294e-01 1.695568110819462e-03 -1.114093202806559e-02 1.234742001364677e-03 8.935962542232376e-04
9.992901838410206e-02 -2.285987573395915e-01 1.131313728413431e-03 -1.853972408162897e-02 1.124505163040763e-03 1.797361250789432e-03
9.977805480380247e-02 -2.287199433175674e-01 1.387915116899466e-03 -1.849885691443512e-02 -1.498113343432503e-04 -1.508397799150144e-03
7.585161950609451e-02 -2.466486213553286e-01 -1.991147979899373e-04 -4.094486574383614e-02 -1.498179631258722e-03 -1.122167635925010e-03
7.601758258846958e-02 -2.465784132012965e-01 -4.208568625424998e-04 -4.108187874127907e-02 5.749614242038324e-04 9.482336315765360e-04
1.110623244998477e-01 -2.275787584894669e-01 -6.834630083023476e-04 -4.302269566574547e-02 3.008079661028996e-04 1.584756243219822e-03
1.109823308810260e-01 -2.276796608589242e-01 -5.118622225985915e-04 -4.279168735168302e-02 -1.132558933545130e-03 -1.451082375741938e-03
9.977805480380247e-02 -2.287199433175674e-01 1.387915116899466e-03 -1.849885691443512e-02 -1.498113343432503e-04 -1.508397799150144e-03
9.992901838410206e-02 -2.285987573395915e-01 1.131313728413431e-03 -1.853972408162897e-02 1.124505163040763e-03 1.797361250789432e-03
1.470080862304589e-01 -2.019323688983940e-01 1.201357643341256e-03 -2.056398450247811e-02 8.581318577684377e-04 3.671479723242460e-03
1.466870384186457e-01 -2.022026534612817e-01 1.785135140525600e-03 -2.056825129620727e-02 -3.267278800523352e-04 -1.998358301896198e-03
1.109823308810260e-01 -2.276796608589242e-01 -5.118622225985915e-04 -4.279168735168302e-02 -1.132558933545130e-03 -1.451082375741938e-03
1.110623244998477e-01 -2.275787584894669e-01 -6.834630083023476e-04 -4.302269566574547e-02 3.008079661028996e-04 1.584756243219822e-03
1.508360377104931e-01 -1.995345569301927e-01 1.050915804262776e-03 -4.613953897727115e-02 8.747077429379678e-05 3.444979077682783e-03
1.505913723247482e-01 -1.997937768242987e-01 1.550368185481527e-03 -4.608688342631832e-02 -5.789727117564332e-04 -1.747058022590294e-03
1.466870384186457e-01 -2.022026534612817e-01 1.785135140525600e-03 -2.056825129620727e-02 -3.267278800523352e-04 -1.998358301896198e-03
1.470080862304589e-01 -2.019323688983940e-01 1.201357643341256e-03 -2.056398450247811e-02 8.581318577684377e-04 3.671479723242460e-03
2.073771399116551e-01 -1.557951357693940e-01 -1.317065246749382e-03 -1.564362955098818e-02 6.394135103702565e-04 3.788114147203056e-03
2.073443235455971e-01 -1.558337073233041e-01 -1.265169967528443e-03 -1.565123182705880e-02 -1.100353793246302e-03 -4.868805540105624e-03
1.505913723247482e-01 -1.997937768242987e-01 1.550368185481527e-03 -4.608688342631832e-02 -5.789727117564332e-04 -1.747058022590294e-03
1.508360377104931e-01 -1.995345569301927e-01 1.050915804262776e-03 -4.613953897727115e-02 8.747077429379678e-05 3.444979077682783e-03
2.051873880910748e-01 -1.514534488776001e-01 -6.127553246252589e-04 -4.844286156763796e-02 -6.494562725086304e-05 3.618577767058387e-03
2.051351065048158e-01 -1.514255084082084e-01 -6.128573728526373e-04 -4.840501181397681e-02 -8.664966290921249e-04 -4.720952703997324e-03
2.073443235455971e-01 -1.558337073233041e-01 -1.265169967528443e-03 -1.565123182705880e-02 -1.100353793246302e-03 -4.868805540105624e-03
2.073771399116551e-01 -1.557951357693940e-01 -1.317065246749382e-03 -1.564362955098818e-02 6.394135103702565e-04 3.788114147203056e-03
2.441800451436576e-01 -1.275400285335138e-01 -2.031419944506099e-03 -9.632719908785010e-03 1.720412103658406e-03 8.840843537649783e-03
2.445091166384955e-01 -1.276103897974726e-01 -2.335958462919901e-03 -9.519945161250321e-03 8.679702219785781e-06 8.669427068876579e-05
2.051351065048158e-01 -1.514255084082084e-01 -6.128573728526373e-04 -4.840501181397681e-02 -8.664966290921249e-04 -4.720952703997324e-03
2.051873880910748e-01 -1.514534488776001e-01 -6.127553246252589e-04 -4.844286156763796e-02 -6.494562725086304e-05 3.618577767058387e-03
2.402106930997321e-01 -1.209749496571429e-01 -1.526426161617709e-03 -4.892363408999091e-02 7.380192608299659e-04 8.686217039972582e-03
2.405468673424745e-01 -1.210028537966956e-01 -1.883320704031435e-03 -4.873079314396021e-02 4.199720322758131e-06 7.187567274246514e-05
6.766980751417043e-03 -2.727810828113745e-01 -1.145539979270108e-03 -4.492903172777421e-02 -1.278028228618043e-04 7.495769483976191e-04
6.888049843361112e-03 -2.728733677665859e-01 -1.172152149265101e-03 -4.422097004298269e-02 1.243987363934688e-04 -6.462581613670424e-04
1.900422223284448e-02 -2.691515634410508e-01 -5.179889163325260e-04 -4.272267324394553e-02 5.427118369863619e-04 -3.399156059579552e-04
1.887999023692889e-02 -2.690917667403376e-01 -4.604282657048129e-04 -4.344302703922825e-02 -9.512344753058503e-04 3.350498171451667e-04
-1.287277231777850e-02 -2.640335652425858e-01 2.042238670344166e-03 -7.719283452702191e-02 -5.162520812960934e-04 -1.305594685520588e-03
-1.268498545589193e-02 -2.641456857618019e-01 1.972650285736067e-03 -7.686385376102947e-02 -1.127239956755376e-05 1.315162578279877e-03
5.131245493744715e-03 -2.581711143066603e-01 -2.211567513501430e-04 -7.903127478684055e-02 4.064620548857340e-04 1.242256618221549e-03
5.055763553909788e-03 -2.580357143010795e-01 -2.829929055164378e-04 -7.939818431296909e-02 -9.711769932307084e-04 -1.672933915470007e-03
1.887999023692889e-02 -2.690917667403376e-01 -4.604282657048129e-04 -4.344302703922825e-02 -9.512344753058503e-04 3.350498171451667e-04
1.900422223284448e-02 -2.691515634410508e-01 -5.179889163325260e-04 -4.272267324394553e-02 5.427118369863619e-04 -3.399156059579552e-04
4.608320404046344e-02 -2.592279324642787e-01 -5.409666079362388e-04 -4.075077582958980e-02 7.405879254410532e-04 2.795303369575986e-04
4.589532556109504e-02 -2.592360753802080e-01 -3.593695559259852e-04 -4.105963289816957e-02 -1.749504688254861e-03 -2.874874356256328e-04
5.055763553909788e-03 -2.580357143010795e-01 -2.829929055164378e-04 -7.939818431296909e-02 -9.711769932307084e-04 -1.672933915470007e-03
5.131245493744715e-03 -2.581711143066603e-01 -2.211567513501430e-04 -7.903127478684055e-02 4.064620548857340e-04 1.242256618221549e-03
3.875154448312878e-02 -2.462975548403792e-01 -1.580431465364889e-03 -7.861160530403205e-02 7.645484680350433e-04 9.923138236538013e-04
3.881733748703981e-02 -2.461978237648417e-01 -1.744321907374105e-03 -7.880569919563707e-02 -1.461351149763372e-03 -1.104640812773270e-03
4.589532556109504e-02 -2.592360753802080e-01 -3.593695559259852e-04 -4.105963289816957e-02 -1.749504688254861e-03 -2.874874356256328e-04
4.608320404046344e-02 -2.592279324642787e-01 -5.409666079362388e-04 -4.075077582958980e-02 7.405879254410532e-04 2.795303369575986e-04
7.601758258846958e-02 -2.465784132012965e-01 -4.208568625424998e-04 -4.108187874127907e-02 5.749614242038324e-04 9.482336315765360e-04
7.585161950609451e-02 -2.466486213553286e-01 -1.991147979899373e-04 -4.094486574383614e-02 -1.498179631258722e-03 -1.122167635925010e-03
3.881733748703981e-02 -2.461978237648417e-01 -1.744321907374105e-03 -7.880569919563707e-02 -1.461351149763372e-03 -1.104640812773270e-03
3.875154448312878e-02 -2.462975548403792e-01 -1.580431465364889e-03 -7.861160530403205e-02 7.645484680350433e-04 9.923138236538013e-04
7.060889515984009e-02 -2.321851699477156e-01 -7.025497952856815e-04 -7.934184064117535e-02 6.552428170856650e-04 8.288547429496161e-04
7.067707719786147e-02 -2.322200102958577e-01 -7.363913712797392e-04 -7.919420018591888e-02 -1.292276886403747e-03 -7.225064920286714e-04
7.585161950609451e-02 -2.466486213553286e-01 -1.991147979899373e-04 -4.094486574383614e-02 -1.498179631258722e-03 -1.122167635925010e-03
7.601758258846958e-02 -2.465784132012965e-01 -4.208568625424998e-04 -4.108187874127907e-02 5.749614242038324e-04 9.482336315765360e-04
1.110623244998477e-01 -2.275787584894669e-01 -6.834630083023476e-04 -4.302269566574547e-02 3.008079661028996e-04 1.584756243219822e-03
1.109823308810260e-01 -2.276796608589242e-01 -5.118622225985915e-04 -4.279168735168302e-02 -1.132558933545130e-03 -1.451082375741938e-03
7.067707719786147e-02 -2.322200102958577e-01 -7.363913712797392e-04 -7.919420018591888e-02 -1.292276886403747e-03 -7.225064920286714e-04
7.060889515984009e-02 -2.321851699477156e-01 -7.025497952856815e-04 -7.934184064117535e-02 6.552428170856650e-04 8.288547429496161e-04
1.052033720100184e-01 -2.116400613127234e-01 -7.112384530418727e-04 -8.260483731762175e-02 2.494450338105679e-04 1.095971052614715e-03
1.052087981619077e-01 -2.117823587487248e-01 -5.764442828506500e-04 -8.235561590568916e-02 -6.142303314888656e-04 -8.176514170263921e-04
1.109823308810260e-01 -2.276796608589242e-01 -5.118622225985915e-04 -4.279168735168302e-02 -1.132558933545130e-03 -1.451082375741938e-03
1.110623244998477e-01 -2.275787584894669e-01 -6.834630083023476e-04 -4.302269566574547e-02 3.008079661028996e-04 1.584756243219822e-03
1.508360377104931e-01 -1.995345569301927e-01 1.050915804262776e-03 -4.613953897727115e-02 8.747077429379678e-05 3.444979077682783e-03
1.505913723247482e-01 -1.997937768242987e-01 1.550368185481527e-03 -4.608688342631832e-02 -5.789727117564332e-04 -1.747058022590294e-03
1.052087981619077e-01 -2.117823587487248e-01 -5.764442828506500e-04 -8.235561590568916e-02 -6.142303314888656e-04 -8.176514170263921e-04
1.052033720100184e-01 -2.116400613127234e-01 -7.112384530418727e-04 -8.260483731762175e-02 2.494450338105679e-04 1.095971052614715e-03
1.412551548753247e-01 -1.821113017661375e-01 1.499586706913604e-03 -8.714778989741215e-02 -2.988098615933933e-04 3.099706868384408e-03
1.409783565904346e-01 -1.823285087435926e-01 1.991967498046632e-03 -8.723121426023478e-02 -2.963982603512461e-05 -1.518485383621264e-03
1.505913723247482e-01 -1.997937768242987e-01 1.550368185481527e-03 -4.608688342631832e-02 -5.789727117564332e-04 -1.747058022590294e-03
1.508360377104931e-01 -1.995345569301927e-01 1.050915804262776e-03 -4.613953897727115e-02 8.747077429379678e-05 3.444979077682783e-03
2.051873880910748e-01 -1.514534488776001e-01 -6.127553246252589e-04 -4.844286156763796e-02 -6.494562725086304e-05 3.618577767058387e-03
2.051351065048158e-01 -1.514255084082084e-01 -6.128573728526373e-04 -4.840501181397681e-02 -8.664966290921249e-04 -4.720952703997324e-03
1.409783565904346e-01 -1.823285087435926e-01 1.991967498046632e-03 -8.723121426023478e-02 -2.963982603512461e-05 -1.518485383621264e-03
1.412551548753247e-01 -1.821113017661375e-01 1.499586706913604e-03 -8.714778989741215e-02 -2.988098615933933e-04 3.099706868384408e-03
1.913633195562714e-01 -1.314080047375776e-01 -3.453994901031266e-04 -9.190915502645963e-02 -5.847247571878746e-04 3.547570034938970e-03
1.912994276956119e-01 -1.313076325362679e-01 -4.143547551317757e-04 -9.191111899827697e-02 -1.695215369401458e-04 -4.639989207308091e-03
2.051351065048158e-01 -1.514255084082084e-01 -6.128573728526373e-04 -4.840501181397681e-02 -8.664966290921249e-04 -4.720952703997324e-03
2.051873880910748e-01 -1.514534488776001e-01 -6.127553246252589e-04 -4.844286156763796e-02 -6.494562725086304e-05 3.618577767058387e-03
2.402106930997321e-01 -1.209749496571429e-01 -1.526426161617709e-03 -4.892363408999091e-02 7.380192608299659e-04 8.686217039972582e-03
2.405468673424745e-01 -1.210028537966956e-01 -1.883320704031435e-03 -4.873079314396021e-02 4.199720322758131e-06 7.187567274246514e-05
1.912994276956119e-01 -1.313076325362679e-01 -4.143547551317757e-04 -9.191111899827697e-02 -1.695215369401458e-04 -4.639989207308091e-03
1.913633195562714e-01 -1.314080047375776e-01 -3.453994901031266e-04 -9.190915502645963e-02 -5.847247571878746e-04 3.547570034938970e-03
2.251280035947055e-01 -9.879594054093473e-02 -2.383216753803184e-03 -9.410991126588611e-02 -2.231481536780481e-04 8.657075392151856e-03
2.254866507878242e-01 -9.885824257690834e-02 -2.737553641029269e-03 -9.396031326326962e-02 -6.751938260533981e-06 5.718170888452178e-05
-1.287277231777850e-02 -2.640335652425858e-01 2.042238670344166e-03 -7.719283452702191e-02 -5.162520812960934e-04 -1.305594685520588e-03
-1.268498545589193e-02 -2.641456857618019e-01 1.972650285736067e-03 -7.686385376102947e-02 -1.127239956755376e-05 1.315162578279877e-03
5.131245493744715e-03 -2.581711143066603e-01 -2.211567513501430e-04 -7.903127478684055e-02 4.064620548857340e-04 1.242256618221549e-03
5.055763553909788e-03 -2.580357143010795e-01 -2.829929055164378e-04 -7.939818431296909e-02 -9.711769932307084e-04 -1.672933915470007e-03
-3.704101190248759e-02 -2.468100435447378e-01 1.889841305111362e-03 -1.057201289529021e-01 -2.262915228086280e-04 -1.269098712123622e-03
-3.711648881862198e-02 -2.466480403938697e-01 1.806597620773655e-03 -1.059233526790812e-01 -5.074751836933299e-05 1.281964521344100e-03
-2.304712913823061e-02 -2.393261438817521e-01 5.217357733698772e-04 -1.100625619008454e-01 -1.143305848136608e-04 1.081141991964065e-03
-2.286111166244644e-02 -2.394727956318601e-01 4.843719606332906e-04 -1.098980171535441e-01 1.677216411803358e-04 -1.325931716339626e-03
5.055763553909788e-03 -2.580357143010795e-01 -2.829929055164378e-04 -7.939818431296909e-02 -9.711769932307084e-04 -1.672933915470007e-03
5.131245493744715e-03 -2.581711143066603e-01 -2.211567513501430e-04 -7.903127478684055e-02 4.064620548857340e-04 1.242256618221549e-03
3.875154448312878e-02 -2.462975548403792e-01 -1.580431465364889e-03 -7.861160530403205e-02 7.645484680350433e-04 9.923138236538013e-04
3.881733748703981e-02 -2.461978237648417e-01 -1.744321907374105e-03 -7.880569919563707e-02 -1.461351149763372e-03 -1.104640812773270e-03
-2.286111166244644e-02 -2.394727956318601e-01 4.843719606332906e-04 -1.098980171535441e-01 1.677216411803358e-04 -1.325931716339626e-03
-2.304712913823061e-02 -2.393261438817521e-01 5.217357733698772e-04 -1.100625619008454e-01 -1.143305848136608e-04 1.081141991964065e-03
6.846492450795575e-03 -2.254659276129365e-01 -2.118954925794377e-04 -1.143088429491836e-01 -9.158760415096850e-05 6.651003135369695e-04
7.033527221677939e-03 -2.254785555076501e-01 -3.798113326692711e-04 -1.142983079325385e-01 2.626497372805230e-04 -5.821326401760745e-04
3.881733748703981e-02 -2.461978237648417e-01 -1.744321907374105e-03 -7.880569919563707e-02 -1.461351149763372e-03 -1.104640812773270e-03
3.875154448312878e-02 -2.462975548403792e-01 -1.580431465364889e-03 -7.861160530403205e-02 7.645484680350433e-04 9.923138236538013e-04
7.060889515984009e-02 -2.321851699477156e-01 -7.025497952856815e-04 -7.934184064117535e-02 6.552428170856650e-04 8.288547429496161e-04
7.067707719786147e-02 -2.322200102958577e-01 -7.363913712797392e-04 -7.919420018591888e-02 -1.292276886403747e-03 -7.225064920286714e-04
7.033527221677939e-03 -2.254785555076501e-01 -3.798113326692711e-04 -1.142983079325385e-01 2.626497372805230e-04 -5.821326401760745e-04
6.846492450795575e-03 -2.254659276129365e-01 -2.118954925794377e-04 -1.143088429491836e-01 -9.158760415096850e-05 6.651003135369695e-04
3.960975295188617e-02 -2.091761682818523e-01 2.632856876534472e-04 -1.172381857680810e-01 -1.067795606360500e-05 4.504263992316194e-04
3.960267007162529e-02 -2.091072367598407e-01 2.051360649790969e-04 -1.173059434978192e-01 2.313907581519340e-05 -1.541951480317162e-04
7.067707719786147e-02 -2.322200102958577e-01 -7.363913712797392e-04 -7.919420018591888e-02 -1.292276886403747e-03 -7.225064920286714e-04
7.060889515984009e-02 -2.321851699477156e-01 -7.025497952856815e-04 -7.934184064117535e-02 6.552428170856650e-04 8.288547429496161e-04
1.052033720100184e-01 -2.116400613127234e-01 -7.112384530418727e-04 -8.260483731762175e-02 2.494450338105679e-04 1.095971052614715e-03
1.052087981619077e-01 -2.117823587487248e-01 -5.764442828506500e-04 -8.235561590568916e-02 -6.142303314888656e-04 -8.176514170263921e-04
3.960267007162529e-02 -2.091072367598407e-01 2.051360649790969e-04 -1.173059434978192e-01 2.313907581519340e-05 -1.541951480317162e-04
3.960975295188617e-02 -2.091761682818523e-01 2.632856876534472e-04 -1.172381857680810e-01 -1.067795606360500e-05 4.504263992316194e-04
7.715728917895559e-02 -1.864609294674778e-01 1.770493255851259e-04 -1.203131084370342e-01 -2.153796597773277e-04 9.258733542305270e-04
7.699363187035278e-02 -1.865173362137183e-01 3.947750511454386e-04 -1.203202353846355e-01 -2.980410255412323e-06 -4.945097506540832e-04
1.052087981619077e-01 -2.117823587487248e-01 -5.764442828506500e-04 -8.235561590568916e-02 -6.142303314888656e-04 -8.176514170263921e-04
1.052033720100184e-01 -2.116400613127234e-01 -7.112384530418727e-04 -8.260483731762175e-02 2.494450338105679e-04 1.095971052614715e-03
1.412551548753247e-01 -1.821113017661375e-01 1.499586706913604e-03 -8.714778989741215e-02 -2.988098615933933e-04 3.099706868384408e-03
1.409783565904346e-01 -1.823285087435926e-01 1.991967498046632e-03 -8.723121426023478e-02 -2.963982603512461e-05 -1.518485383621264e-03
7.699363187035278e-02 -1.865173362137183e-01 3.947750511454386e-04 -1.203202353846355e-01 -2.980410255412323e-06 -4.945097506540832e-04
7.715728917895559e-02 -1.864609294674778e-01 1.770493255851259e-04 -1.203131084370342e-01 -2.153796597773277e-04 9.258733542305270e-04
1.167897497979268e-01 -1.542672215131875e-01 1.965551202801068e-03 -1.238017325048639e-01 -8.632081322016881e-04 3.153094046591134e-03
1.164354496133463e-01 -1.544497007366977e-01 2.500596551138189e-03 -1.239498585664327e-01 3.707290007019974e-04 -1.736657755779640e-03
1.409783565904346e-01 -1.823285087435926e-01 1.991967498046632e-03 -8.723121426023478e-02 -2.963982603512461e-05 -1.518485383621264e-03
1.412551548753247e-01 -1.821113017661375e-01 1.499586706913604e-03 -8.714778989741215e-02 -2.988098615933933e-04 3.099706868384408e-03
1.913633195562714e-01 -1.314080047375776e-01 -3.453994901031266e-04 -9.190915502645963e-02 -5.847247571878746e-04 3.547570034938970e-03
1.912994276956119e-01 -1.313076325362679e-01 -4.143547551317757e-04 -9.191111899827697e-02 -1.695215369401458e-04 -4.639989207308091e-03
1.164354496133463e-01 -1.544497007366977e-01 2.500596551138189e-03 -1.239498585664327e-01 3.707290007019974e-04 -1.736657755779640e-03
1.167897497979268e-01 -1.542672215131875e-01 1.965551202801068e-03 -1.238017325048639e-01 -8.632081322016881e-04 3.153094046591134e-03
1.680794787934851e-01 -1.000888699322585e-01 -3.108230562344620e-04 -1.284411355108050e-01 -1.357103071075501e-03 3.658891412732711e-03
1.680219397172526e-01 -9.992468781525558e-02 -4.581006541341200e-04 -1.284364373546752e-01 5.401827816400327e-04 -4.563036416764438e-03
1.912994276956119e-01 -1.313076325362679e-01 -4.143547551317757e-04 -9.191111899827697e-02 -1.695215369401458e-04 -4.639989207308091e-03
1.913633195562714e-01 -1.314080047375776e-01 -3.453994901031266e-04 -9.190915502645963e-02 -5.847247571878746e-04 3.547570034938970e-03
2.251280035947055e-01 -9.879594054093473e-02 -2.383216753803184e-03 -9.410991126588611e-02 -2.231481536780481e-04 8.657075392151856e-03
2.254866507878242e-01 -9.885824257690834e-02 -2.737553641029269e-03 -9.396031326326962e-02 -6.751938260533981e-06 5.718170888452178e-05
1.680219397172526e-01 -9.992468781525558e-02 -4.581006541341200e-04 -1.284364373546752e-01 5.401827816400327e-04 -4.563036416764438e-03
1.680794787934851e-01 -1.000888699322585e-01 -3.108230562344620e-04 -1.284411355108050e-01 -1.357103071075501e-03 3.658891412732711e-03
2.022558822002598e-01 -6.575126620274813e-02 -2.727739015349628e-03 -1.307629898621745e-01 -1.103211277515763e-03 8.736685126243673e-03
2.025996040816290e-01 -6.582748433461938e-02 -3.068367560484645e-03 -1.306930207419521e-01 -1.534044635593160e-05 4.599684594497631e-05
-3.704101190248759e-02 -2.468100435447378e-01 1.889841305111362e-03 -1.057201289529021e-01 -2.262915228086280e-04 -1.269098712123622e-03
-3.711648881862198e-02 -2.466480403938697e-01 1.806597620773655e-03 -1.059233526790812e-01 -5.074751836933299e-05 1.281964521344100e-03
-2.304712913823061e-02 -2.393261438817521e-01 5.217357733698772e-04 -1.100625619008454e-01 -1.143305848136608e-04 1.081141991964065e-03
-2.286111166244644e-02 -2.394727956318601e-01 4.843719606332906e-04 -1.098980171535441e-01 1.677216411803358e-04 -1.325931716339626e-03
-6.642552527724865e-02 -2.194837682949337e-01 5.447688408357716e-04 -1.314845068126113e-01 8.852289315729032e-05 -1.434022172482090e-04
-6.658837682839690e-02 -2.192229449163586e-01 4.473787442602615e-04 -1.317054396147274e-01 -5.909299043985389e-05 3.751710972289521e-04
-5.628499495457359e-02 -2.114792222182899e-01 2.859785805220613e-04 -1.353116353117534e-01 -3.905189497352974e-04 1.671690787904339e-04
-5.606919345330657e-02 -2.117458089138808e-01 3.386328377493867e-04 -1.351073182006820e-01 5.372289916706459e-04 -1.402174234751922e-04
-2.286111166244644e-02 -2.394727956318601e-01 4.843719606332906e-04 -1.098980171535441e-01 1.677216411803358e-04 -1.325931716339626e-03
-2.304712913823061e-02 -2.393261438817521e-01 5.217357733698772e-04 -1.100625619008454e-01 -1.143305848136608e-04 1.081141991964065e-03
6.846492450795575e-03 -2.254659276129365e-01 -2.118954925794377e-04 -1.143088429491836e-01 -9.158760415096850e-05 6.651003135369695e-04
7.033527221677939e-03 -2.254785555076501e-01 -3.798113326692711e-04 -1.142983079325385e-01 2.626497372805230e-04 -5.821326401760745e-04
-5.606919345330657e-02 -2.117458089138808e-01 3.386328377493867e-04 -1.351073182006820e-01 5.372289916706459e-04 -1.402174234751922e-04
-5.628499495457359e-02 -2.114792222182899e-01 2.859785805220613e-04 -1.353116353117534e-01 -3.905189497352974e-04 1.671690787904339e-04
-3.209746830179729e-02 -1.952499480707568e-01 5.404213791318822e-05 -1.415543898366129e-01 -6.939770414292426e-04 1.188069043050077e-04
-3.200083596761354e-02 -1.953922591004355e-01 1.030042566809265e-04 -1.414448476817805e-01 8.317953035608325e-04 1.020366157708367e-04
7.033527221677939e-03 -2.254785555076501e-01 -3.798113326692711e-04 -1.142983079325385e-01 2.626497372805230e-04 -5.821326401760745e-04
6.846492450795575e-03 -2.254659276129365e-01 -2.118954925794377e-04 -1.143088429491836e-01 -9.158760415096850e-05 6.651003135369695e-04
3.960975295188617e-02 -2.091761682818523e-01 2.632856876534472e-04 -1.172381857680810e-01 -1.067795606360500e-05 4.504263992316194e-04
3.960267007162529e-02 -2.091072367598407e-01 2.051360649790969e-04 -1.173059434978192e-01 2.313907581519340e-05 -1.541951480317162e-04
-3.200083596761354e-02 -1.953922591004355e-01 1.030042566809265e-04 -1.414448476817805e-01 8.317953035608325e-04 1.020366157708367e-04
-3.209746830179729e-02 -1.952499480707568e-01 5.404213791318822e-05 -1.415543898366129e-01 -6.939770414292426e-04 1.188069043050077e-04
-2.380116039920258e-03 -1.756687015417519e-01 2.594395787810931e-04 -1.471422825413257e-01 -7.179248647589339e-04 3.555870727093829e-04
-2.560615527961945e-03 -1.755711109007445e-01 3.437434780182969e-04 -1.471941112062567e-01 7.863840893032792e-04 -1.752627159337379e-04
3.960267007162529e-02 -2.091072367598407e-01 2.051360649790969e-04 -1.173059434978192e-01 2.313907581519340e-05 -1.541951480317162e-04
3.960975295188617e-02 -2.091761682818523e-01 2.632856876534472e-04 -1.172381857680810e-01 -1.067795606360500e-05 4.504263992316194e-04
7.715728917895559e-02 -1.864609294674778e-01 1.770493255851259e-04 -1.203131084370342e-01 -2.153796597773277e-04 9.258733542305270e-04
7.699363187035278e-02 -1.865173362137183e-01 3.947750511454386e-04 -1.203202353846355e-01 -2.980410255412323e-06 -4.945097506540832e-04
-2.560615527961945e-03 -1.755711109007445e-01 3.437434780182969e-04 -1.471941112062567e-01 7.863840893032792e-04 -1.752627159337379e-04
-2.380116039920258e-03 -1.756687015417519e-01 2.594395787810931e-04 -1.471422825413257e-01 -7.179248647589339e-04 3.555870727093829e-04
3.626113871531406e-02 -1.500931210900179e-01 -2.894784125273089e-04 -1.517796973813204e-01 -7.427939318764362e-04 1.051166619628464e-03
3.598584600468302e-02 -1.500476685799782e-01 -6.305611079544082e-05 -1.518407052989382e-01 4.587008499239953e-04 -6.533526886770442e-04
7.699363187035278e-02 -1.865173362137183e-01 3.947750511454386e-04 -1.203202353846355e-01 -2.980410255412323e-06 -4.945097506540832e-04
7.715728917895559e-02 -1.864609294674778e-01 1.770493255851259e-04 -1.203131084370342e-01 -2.153796597773277e-04 9.258733542305270e-04
1.167897497979268e-01 -1.542672215131875e-01 1.965551202801068e-03 -1.238017325048639e-01 -8.632081322016881e-04 3.153094046591134e-03
1.164354496133463e-01 -1.544497007366977e-01 2.500596551138189e-03 -1.239498585664327e-01 3.707290007019974e-04 -1.736657755779640e-03
3.598584600468302e-02 -1.500476685799782e-01 -6.305611079544082e-05 -1.518407052989382e-01 4.587008499239953e-04 -6.533526886770442e-04
3.626113871531406e-02 -1.500931210900179e-01 -2.894784125273089e-04 -1.517796973813204e-01 -7.427939318764362e-04 1.051166619628464e-03
7.960671225750582e-02 -1.164194334544572e-01 1.788363926761783e-03 -1.545500423167996e-01 -1.533724626420997e-03 3.310823130604153e-03
7.928239857492635e-02 -1.166372607250917e-01 2.329266336565805e-03 -1.546453882981114e-01 8.459210354421086e-04 -1.704510099634553e-03
1.164354496133463e-01 -1.544497007366977e-01 2.500596551138189e-03 -1.239498585664327e-01 3.707290007019974e-04 -1.736657755779640e-03
1.167897497979268e-01 -1.542672215131875e-01 1.965551202801068e-03 -1.238017325048639e-01 -8.632081322016881e-04 3.153094046591134e-03
1.680794787934851e-01 -1.000888699322585e-01 -3.108230562344620e-04 -1.284411355108050e-01 -1.357103071075501e-03 3.658891412732711e-03
1.680219397172526e-01 -9.992468781525558e-02 -4.581006541341200e-04 -1.284364373546752e-01 5.401827816400327e-04 -4.563036416764438e-03
7.928239857492635e-02 -1.166372607250917e-01 2.329266336565805e-03 -1.546453882981114e-01 8.459210354421086e-04 -1.704510099634553e-03
7.960671225750582e-02 -1.164194334544572e-01 1.788363926761783e-03 -1.545500423167996e-01 -1.533724626420997e-03 3.310823130604153e-03
1.348515394752164e-01 -5.965780297054651e-02 -2.791875150769383e-04 -1.576392655195317e-01 -2.228060301280468e-03 3.809813603618759e-03
1.347795457426845e-01 -5.945423545548086e-02 -4.625816480146637e-04 -1.576137694422036e-01 1.576434435424379e-03 -4.485665630809265e-03
1.680219397172526e-01 -9.992468781525558e-02 -4.581006541341200e-04 -1.284364373546752e-01 5.401827816400327e-04 -4.563036416764438e-03
1.680794787934851e-01 -1.000888699322585e-01 -3.108230562344620e-04 -1.284411355108050e-01 -1.357103071075501e-03 3.658891412732711e-03
2.022558822002598e-01 -6.575126620274813e-02 -2.727739015349628e-03 -1.307629898621745e-01 -1.103211277515763e-03 8.736685126243673e-03
2.025996040816290e-01 -6.582748433461938e-02 -3.068367560484645e-03 -1.306930207419521e-01 -1.534044635593160e-05 4.599684594497631e-05
1.347795457426845e-01 -5.945423545548086e-02 -4.625816480146637e-04 -1.576137694422036e-01 1.576434435424379e-03 -4.485665630809265e-03
1.348515394752164e-01 -5.965780297054651e-02 -2.791875150769383e-04 -1.576392655195317e-01 -2.228060301280468e-03 3.809813603618759e-03
1.719792204879027e-01 -2.279560281657301e-02 -3.152619305334404e-03 -1.595822249911113e-01 -2.622045613440629e-03 9.264707730117089e-03
1.722556535967442e-01 -2.281783783428062e-02 -3.498860493282154e-03 -1.596434746553138e-01 -2.687353676685659e-05 4.311561854206109e-05
-6.642552527724865e-02 -2.194837682949337e-01 5.447688408357716e-04 -1.314845068126113e-01 8.852289315729032e-05 -1.434022172482090e-04
-6.658837682839690e-02 -2.192229449163586e-01 4.473787442602615e-04 -1.317054396147274e-01 -5.909299043985389e-05 3.751710972289521e-04
-5.628499495457359e-02 -2.114792222182899e-01 2.859785805220613e-04 -1.353116353117534e-01 -3.905189497352974e-04 1.671690787904339e-04
-5.606919345330657e-02 -2.117458089138808e-01 3.386328377493867e-04 -1.351073182006820e-01 5.372289916706459e-04 -1.402174234751922e-04
-1.025710110845869e-01 -1.836571289642634e-01 -1.645984729057114e-04 -1.488764430803860e-01 -1.770900569788871e-04 4.361716785593200e-04
-1.026925287209713e-01 -1.834824529242385e-01 -2.188230174649447e-04 -1.489596692749997e-01 1.175352413959727e-04 -3.279705344026527e-04
-9.379297482137786e-02 -1.754190000067493e-01 1.558623081259026e-05 -1.521238607089213e-01 -1.136866217467713e-04 -3.728635523928934e-04
-9.365461704067568e-02 -1.756195083848741e-01 7.937872310149276e-05 -1.520334096915857e-01 9.281478234865820e-05 4.136194714954452e-04
-5.606919345330657e-02 -2.117458089138808e-01 3.386328377493867e-04 -1.351073182006820e-01 5.372289916706459e-04 -1.402174234751922e-04
-5.628499495457359e-02 -2.114792222182899e-01 2.859785805220613e-04 -1.353116353117534e-01 -3.905189497352974e-04 1.671690787904339e-04
-3.209746830179729e-02 -1.952499480707568e-01 5.404213791318822e-05 -1.415543898366129e-01 -6.939770414292426e-04 1.188069043050077e-04
-3.200083596761354e-02 -1.953922591004355e-01 1.030042566809265e-04 -1.414448476817805e-01 8.317953035608325e-04 1.020366157708367e-04
-9.365461704067568e-02 -1.756195083848741e-01 7.937872310149276e-05 -1.520334096915857e-01 9.281478234865820e-05 4.136194714954452e-04
-9.379297482137786e-02 -1.754190000067493e-01 1.558623081259026e-05 -1.521238607089213e-01 -1.136866217467713e-04 -3.728635523928934e-04
-7.267109204084542e-02 -1.575526248444697e-01 5.315881326411905e-05 -1.586076064345877e-01 -4.545203272023786e-04 -1.263685200399834e-04
-7.263720697937034e-02 -1.577645144567115e-01 2.308207343587595e-04 -1.584909310465205e-01 4.072481467922097e-04 3.623035481549205e-04
-3.200083596761354e-02 -1.953922591004355e-01 1.030042566809265e-04 -1.414448476817805e-01 8.317953035608325e-04 1.020366157708367e-04
-3.209746830179729e-02 -1.952499480707568e-01 5.404213791318822e-05 -1.415543898366129e-01 -6.939770414292426e-04 1.188069043050077e-04
-2.380116039920258e-03 -1.756687015417519e-01 2.594395787810931e-04 -1.471422825413257e-01 -7.179248647589339e-04 3.555870727093829e-04
-2.560615527961945e-03 -1.755711109007445e-01 3.437434780182969e-04 -1.471941112062567e-01 7.863840893032792e-04 -1.752627159337379e-04
-7.263720697937034e-02 -1.577645144567115e-01 2.308207343587595e-04 -1.584909310465205e-01 4.072481467922097e-04 3.623035481549205e-04
-7.267109204084542e-02 -1.575526248444697e-01 5.315881326411905e-05 -1.586076064345877e-01 -4.545203272023786e-04 -1.263685200399834e-04
-4.690201035073747e-02 -1.356327810496194e-01 2.994700523671095e-04 -1.649071722075891e-01 -7.193603172832514e-04 3.677074330989274e-04
-4.704878295113268e-02 -1.357015941595617e-01 5.126187709231534e-04 -1.648405936297326e-01 8.554157843382690e-04 -2.790588010470963e-04
-2.560615527961945e-03 -1.755711109007445e-01 3.437434780182969e-04 -1.471941112062567e-01 7.863840893032792e-04 -1.752627159337379e-04
-2.380116039920258e-03 -1.756687015417519e-01 2.594395787810931e-04 -1.471422825413257e-01 -7.179248647589339e-04 3.555870727093829e-04
3.626113871531406e-02 -1.500931210900179e-01 -2.894784125273089e-04 -1.517796973813204e-01 -7.427939318764362e-04 1.051166619628464e-03
3.598584600468302e-02 -1.500476685799782e-01 -6.305611079544082e-05 -1.518407052989382e-01 4.587008499239953e-04 -6.533526886770442e-04
-4.704878295113268e-02 -1.357015941595617e-01 5.126187709231534e-04 -1.648405936297326e-01 8.554157843382690e-04 -2.790588010470963e-04
-4.690201035073747e-02 -1.356327810496194e-01 2.994700523671095e-04 -1.649071722075891e-01 -7.193603172832514e-04 3.677074330989274e-04
-1.200347963520993e-02 -1.072002252767008e-01 -2.559400873861252e-04 -1.710332264799086e-01 -9.839319116679425e-04 1.146480754635899e-03
-1.223904338607713e-02 -1.072215793870491e-01 -3.683938705576688e-06 -1.710178979410045e-01 8.664454027868981e-04 -7.416196694345690e-04
3.598584600468302e-02 -1.500476685799782e-01 -6.305611079544082e-05 -1.518407052989382e-01 4.587008499239953e-04 -6.533526886770442e-04
3.626113871531406e-02 -1.500931210900179e-01 -2.894784125273089e-04 -1.517796973813204e-01 -7.427939318764362e-04 1.051166619628464e-03
7.960671225750582e-02 -1.164194334544572e-01 1.788363926761783e-03 -1.545500423167996e-01 -1.533724626420997e-03 3.310823130604153e-03
7.928239857492635e-02 -1.166372607250917e-01 2.329266336565805e-03 -1.546453882981114e-01 8.459210354421086e-04 -1.704510099634553e-03
-1.223904338607713e-02 -1.072215793870491e-01 -3.683938705576688e-06 -1.710178979410045e-01 8.664454027868981e-04 -7.416196694345690e-04
-1.200347963520993e-02 -1.072002252767008e-01 -2.559400873861252e-04 -1.710332264799086e-01 -9.839319116679425e-04 1.146480754635899e-03
3.137507847837213e-02 -7.127423708429580e-02 1.798457630231087e-03 -1.749380319687935e-01 -2.243789496276819e-03 3.371328182063516e-03
3.104097501473508e-02 -7.153786747953442e-02 2.394615159701395e-03 -1.750101985477874e-01 1.296572527452609e-03 -1.636282532090382e-03
7.928239857492635e-02 -1.166372607250917e-01 2.329266336565805e-03 -1.546453882981114e-01 8.459210354421086e-04 -1.704510099634553e-03
7.960671225750582e-02 -1.164194334544572e-01 1.788363926761783e-03 -1.545500423167996e-01 -1.533724626420997e-03 3.310823130604153e-03
1.348515394752164e-01 -5.965780297054651e-02 -2.791875150769383e-04 -1.576392655195317e-01 -2.228060301280468e-03 3.809813603618759e-03
1.347795457426845e-01 -5.945423545548086e-02 -4.625816480146637e-04 -1.576137694422036e-01 1.576434435424379e-03 -4.485665630809265e-03
3.104097501473508e-02 -7.153786747953442e-02 2.394615159701395e-03 -1.750101985477874e-01 1.296572527452609e-03 -1.636282532090382e-03
3.137507847837213e-02 -7.127423708429580e-02 1.798457630231087e-03 -1.749380319687935e-01 -2.243789496276819e-03 3.371328182063516e-03
9.116196254149132e-02 -1.185084436376312e-02 -4.420489838525923e-04 -1.772922033722259e-01 -3.049475759641591e-03 3.949623857162910e-03
9.109393120639706e-02 -1.168882746574641e-02 -5.976120177803280e-04 -1.772339274483360e-01 2.644255648078794e-03 -4.315525323161491e-03
1.347795457426845e-01 -5.945423545548086e-02 -4.625816480146637e-04 -1.576137694422036e-01 1.576434435424379e-03 -4.485665630809265e-03
1.348515394752164e-01 -5.965780297054651e-02 -2.791875150769383e-04 -1.576392655195317e-01 -2.228060301280468e-03 3.809813603618759e-03
1.719792204879027e-01 -2.279560281657301e-02 -3.152619305334404e-03 -1.595822249911113e-01 -2.622045613440629e-03 9.264707730117089e-03
1.722556535967442e-01 -2.281783783428062e-02 -3.498860493282154e-03 -1.596434746553138e-01 -2.687353676685659e-05 4.311561854206109e-05
9.109393120639706e-02 -1.168882746574641e-02 -5.976120177803280e-04 -1.772339274483360e-01 2.644255648078794e-03 -4.315525323161491e-03
9.116196254149132e-02 -1.185084436376312e-02 -4.420489838525923e-04 -1.772922033722259e-01 -3.049475759641591e-03 3.949623857162910e-03
1.314138217635077e-01 2.760821998511370e-02 -3.167361640360031e-03 -1.794476317157386e-01 -4.925880601286753e-03 9.206271596958693e-03
1.316165198717528e-01 2.766787786785511e-02 -3.539085966107365e-03 -1.795955941899338e-01 -3.924392553656498e-05 4.523164037178122e-05
-1.025710110845869e-01 -1.836571289642634e-01 -1.645984729057114e-04 -1.488764430803860e-01 -1.770900569788871e-04 4.361716785593200e-04
-1.026925287209713e-01 -1.834824529242385e-01 -2.188230174649447e-04 -1.489596692749997e-01 1.175352413959727e-04 -3.279705344026527e-04
-9.379297482137786e-02 -1.754190000067493e-01 1.558623081259026e-05 -1.521238607089213e-01 -1.136866217467713e-04 -3.728635523928934e-04
-9.365461704067568e-02 -1.756195083848741e-01 7.937872310149276e-05 -1.520334096915857e-01 9.281478234865820e-05 4.136194714954452e-04
-1.430312116157123e-01 -1.432713786569278e-01 -3.786262552651360e-04 -1.550696648762259e-01 -4.297271224385657e-04 5.014474068833854e-04
-1.430013521874053e-01 -1.432484557658300e-01 -4.329877223590925e-04 -1.551042440957748e-01 3.596044051811734e-04 -4.221421250984077e-04
-1.346227004935624e-01 -1.348833721840564e-01 -3.342860293004151e-05 -1.580691707067436e-01 2.509265782690047e-04 -2.873269967006020e-04
-1.346570549124863e-01 -1.349100437046516e-01 2.923715942992151e-05 -1.580345186726065e-01 -2.753462266727347e-04 3.073288269436972e-04
-9.365461704067568e-02 -1.756195083848741e-01 7.937872310149276e-05 -1.520334096915857e-01 9.281478234865820e-05 4.136194714954452e-04
-9.379297482137786e-02 -1.754190000067493e-01 1.558623081259026e-05 -1.521238607089213e-01 -1.136866217467713e-04 -3.728635523928934e-04
-7.267109204084542e-02 -1.575526248444697e-01 5.315881326411905e-05 -1.586076064345877e-01 -4.545203272023786e-04 -1.263685200399834e-04
-7.263720697937034e-02 -1.577645144567115e-01 2.308207343587595e-04 -1.584909310465205e-01 4.072481467922097e-04 3.623035481549205e-04
-1.346570549124863e-01 -1.349100437046516e-01 2.923715942992151e-05 -1.580345186726065e-01 -2.753462266727347e-04 3.073288269436972e-04
-1.346227004935624e-01 -1.348833721840564e-01 -3.342860293004151e-05 -1.580691707067436e-01 2.509265782690047e-04 -2.873269967006020e-04
-1.150670094932625e-01 -1.153900963612872e-01 -4.309133339912401e-05 -1.646394523916771e-01 -6.885707741684104e-05 1.005542973443957e-04
-1.151689671878632e-01 -1.154862554543608e-01 1.534524519989658e-04 -1.645578692338444e-01 -9.765064067158882e-05 8.545930833432717e-05
-7.263720697937034e-02 -1.577645144567115e-01 2.308207343587595e-04 -1.584909310465205e-01 4.072481467922097e-04 3.623035481549205e-04
-7.267109204084542e-02 -1.575526248444697e-01 5.315881326411905e-05 -1.586076064345877e-01 -4.545203272023786e-04 -1.263685200399834e-04
-4.690201035073747e-02 -1.356327810496194e-01 2.994700523671095e-04 -1.649071722075891e-01 -7.193603172832514e-04 3.677074330989274e-04
-4.704878295113268e-02 -1.357015941595617e-01 5.126187709231534e-04 -1.648405936297326e-01 8.554157843382690e-04 -2.790588010470963e-04
-1.151689671878632e-01 -1.154862554543608e-01 1.534524519989658e-04 -1.645578692338444e-01 -9.765064067158882e-05 8.545930833432717e-05
-1.150670094932625e-01 -1.153900963612872e-01 -4.309133339912401e-05 -1.646394523916771e-01 -6.885707741684104e-05 1.005542973443957e-04
-9.158602556568669e-02 -9.192098196324458e-02 2.890592497188691e-04 -1.709050370370544e-01 -4.887755749142750e-04 5.944661445816130e-04
-9.171675832359115e-02 -9.204954636252821e-02 5.442415171556273e-04 -1.708194971448848e-01 4.841421454241623e-04 -6.150088145868943e-04
-4.704878295113268e-02 -1.357015941595617e-01 5.126187709231534e-04 -1.648405936297326e-01 8.554157843382690e-04 -2.790588010470963e-04
-4.690201035073747e-02 -1.356327810496194e-01 2.994700523671095e-04 -1.649071722075891e-01 -7.193603172832514e-04 3.677074330989274e-04
-1.200347963520993e-02 -1.072002252767008e-01 -2.559400873861252e-04 -1.710332264799086e-01 -9.839319116679425e-04 1.146480754635899e-03
-1.223904338607713e-02 -1.072215793870491e-01 -3.683938705576688e-06 -1.710178979410045e-01 8.664454027868981e-04 -7.416196694345690e-04
-9.171675832359115e-02 -9.204954636252821e-02 5.442415171556273e-04 -1.708194971448848e-01 4.841421454241623e-04 -6.150088145868943e-04
-9.158602556568669e-02 -9.192098196324458e-02 2.890592497188691e-04 -1.709050370370544e-01 -4.887755749142750e-04 5.944661445816130e-04
-6.047189993891348e-02 -6.073796602525573e-02 -2.574114989821933e-04 -1.773223814157448e-01 -1.034551241259912e-03 1.213909001967840e-03
-6.060938578140849e-02 -6.088030071755356e-02 1.679225206420627e-05 -1.772725121073344e-01 7.918873674883779e-04 -9.744789121959438e-04
-1.223904338607713e-02 -1.072215793870491e-01 -3.683938705576688e-06 -1.710178979410045e-01 8.664454027868981e-04 -7.416196694345690e-04
-1.200347963520993e-02 -1.072002252767008e-01 -2.559400873861252e-04 -1.710332264799086e-01 -9.839319116679425e-04 1.146480754635899e-03
3.137507847837213e-02 -7.127423708429580e-02 1.798457630231087e-03 -1.749380319687935e-01 -2.243789496276819e-03 3.371328182063516e-03
3.104097501473508e-02 -7.153786747953442e-02 2.394615159701395e-03 -1.750101985477874e-01 1.296572527452609e-03 -1.636282532090382e-03
-6.060938578140849e-02 -6.088030071755356e-02 1.679225206420627e-05 -1.772725121073344e-01 7.918873674883779e-04 -9.744789121959438e-04
-6.047189993891348e-02 -6.073796602525573e-02 -2.574114989821933e-04 -1.773223814157448e-01 -1.034551241259912e-03 1.213909001967840e-03
-2.083142863715213e-02 -2.093585992343883e-02 1.803594299467578e-03 -1.819929379242698e-01 -2.816520280187142e-03 3.172949697716938e-03
-2.114470737236896e-02 -2.126005104456935e-02 2.438813384060790e-03 -1.820523565714748e-01 1.403247647289511e-03 -1.643111334849883e-03
3.104097501473508e-02 -7.153786747953442e-02 2.394615159701395e-03 -1.750101985477874e-01 1.296572527452609e-03 -1.636282532090382e-03
3.137507847837213e-02 -7.127423708429580e-02 1.798457630231087e-03 -1.749380319687935e-01 -2.243789496276819e-03 3.371328182063516e-03
9.116196254149132e-02 -1.185084436376312e-02 -4.420489838525923e-04 -1.772922033722259e-01 -3.049475759641591e-03 3.949623857162910e-03
9.109393120639706e-02 -1.168882746574641e-02 -5.976120177803280e-04 -1.772339274483360e-01 2.644255648078794e-03 -4.315525323161491e-03
-2.114470737236896e-02 -2.126005104456935e-02 2.438813384060790e-03 -1.820523565714748e-01 1.403247647289511e-03 -1.643111334849883e-03
-2.083142863715213e-02 -2.093585992343883e-02 1.803594299467578e-03 -1.819929379242698e-01 -2.816520280187142e-03 3.172949697716938e-03
4.020553274949858e-02 4.033072717303732e-02 -4.902826252100429e-04 -1.843475770260836e-01 -3.616933436454564e-03 3.849743340902024e-03
4.023205759418291e-02 4.036443803723497e-02 -6.160587114802133e-04 -1.842695042765551e-01 3.465685477762992e-03 -3.974430180597274e-03
9.109393120639706e-02 -1.168882746574641e-02 -5.976120177803280e-04 -1.772339274483360e-01 2.644255648078794e-03 -4.315525323161491e-03
9.116196254149132e-02 -1.185084436376312e-02 -4.420489838525923e-04 -1.772922033722259e-01 -3.049475759641591e-03 3.949623857162910e-03
1.314138217635077e-01 2.760821998511370e-02 -3.167361640360031e-03 -1.794476317157386e-01 -4.925880601286753e-03 9.206271596958693e-03
1.316165198717528e-01 2.766787786785511e-02 -3.539085966107365e-03 -1.795955941899338e-01 -3.924392553656498e-05 4.523164037178122e-05
4.023205759418291e-02 4.036443803723497e-02 -6.160587114802133e-04 -1.842695042765551e-01 3.465685477762992e-03 -3.974430180597274e-03
4.020553274949858e-02 4.033072717303732e-02 -4.902826252100429e-04 -1.843475770260836e-01 -3.616933436454564e-03 3.849743340902024e-03
8.154398892279643e-02 8.181614938859078e-02 -3.313960176393483e-03 -1.866772054130116e-01 -7.338469927384114e-03 8.012029155092290e-03
8.170778550256974e-02 8.193210502569939e-02 -3.710555040075171e-03 -1.868578669007089e-01 -4.818557171888075e-05 4.734125053075104e-05
        </DataArray>
        <DataArray type="Float64" Name="plastic_strain_incr" format="ascii">
5.056743874756919e-03
5.055756412563801e-03
3.208624397433543e-03
3.210880354048003e-03
2.519408538696249e-03
2.517855455922230e-03
1.495764369073416e-03
1.496972867851441e-03
3.210880354048003e-03
3.208624397433543e-03
3.925126617906278e-03
3.929574257910951e-03
1.496972867851441e-03
1.495764369073416e-03
1.800886578215138e-03
1.801486170464894e-03
3.929574257910951e-03
3.925126617906278e-03
4.487701986928112e-03
4.492332000339249e-03
1.801486170464894e-03
1.800886578215138e-03
2.126041596805019e-03
2.125412244027594e-03
4.492332000339249e-03
4.487701986928112e-03
5.033885464538456e-03
5.037441414478986e-03
2.125412244027594e-03
2.126041596805019e-03
2.477323140218386e-03
2.475235351000481e-03
5.037441414478986e-03
5.033885464538456e-03
5.962912119411204e-03
5.933713198046212e-03
2.475235351000481e-03
2.477323140218386e-03
3.027125166874361e-03
3.009777029440728e-03
5.933713198046212e-03
5.962912119411204e-03
8.425163569347719e-03
8.434448139083988e-03
3.009777029440728e-03
3.027125166874361e-03
4.328654248337955e-03
4.329387620969320e-03
8.434448139083988e-03
8.425163569347719e-03
2.378030625673209e-02
2.391421126610654e-02
4.329387620969320e-03
4.328654248337955e-03
1.204444266162425e-02
1.210761234709437e-02
2.519408538696249e-03
2.517855455922230e-03
1.495764369073416e-03
1.496972867851441e-03
2.339825050686683e-03
2.339920209645770e-03
1.198200127573548e-03
1.197466873998495e-03
1.496972867851441e-03
1.495764369073416e-03
1.800886578215138e-03
1.801486170464894e-03
1.197466873998495e-03
1.198200127573548e-03
1.339553935797259e-03
1.337347287350407e-03
1.801486170464894e-03
1.800886578215138e-03
2.126041596805019e-03
2.125412244027594e-03
1.337347287350407e-03
1.339553935797259e-03
1.655352924451924e-03
1.651637177767690e-03
2.125412244027594e-03
2.126041596805019e-03
2.477323140218386e-03
2.475235351000481e-03
1.651637177767690e-03
1.655352924451924e-03
2.169854295379005e-03
2.163278332423348e-03
2.475235351000481e-03
2.477323140218386e-03
3.027125166874361e-03
3.009777029440728e-03
2.163278332423348e-03
2.169854295379005e-03
3.015353459614709e-03
2.994029929998674e-03
3.009777029440728e-03
3.027125166874361e-03
4.328654248337955e-03
4.329387620969320e-03
2.994029929998674e-03
3.015353459614709e-03
4.520706525811606e-03
4.517506954076265e-03
4.329387620969320e-03
4.328654248337955e-03
1.204444266162425e-02
1.210761234709437e-02
4.517506954076265e-03
4.520706525811606e-03
1.231481538948826e-02
1.237715662999805e-02
2.339825050686683e-03
2.339920209645770e-03
1.198200127573548e-03
1.197466873998495e-03
2.064320560155266e-03
2.066671759711538e-03
1.024383215242785e-03
1.022787590692421e-03
1.197466873998495e-03
1.198200127573548e-03
1.339553935797259e-03
1.337347287350407e-03
1.022787590692421e-03
1.024383215242785e-03
1.104968036701542e-03
1.102902160537763e-03
1.337347287350407e-03
1.339553935797259e-03
1.655352924451924e-03
1.651637177767690e-03
1.102902160537763e-03
1.104968036701542e-03
1.372527549911489e-03
1.369243157652425e-03
1.651637177767690e-03
1.655352924451924e-03
2.169854295379005e-03
2.163278332423348e-03
1.369243157652425e-03
1.372527549911489e-03
1.922829874037786e-03
1.916326843450917e-03
2.163278332423348e-03
2.169854295379005e-03
3.015353459614709e-03
2.994029929998674e-03
1.916326843450917e-03
1.922829874037786e-03
2.915768957903469e-03
2.894027898317588e-03
2.994029929998674e-03
3.015353459614709e-03
4.520706525811606e-03
4.517506954076265e-03
2.894027898317588e-03
2.915768957903469e-03
4.596110800671505e-03
4.590805259689362e-03
4.517506954076265e-03
4.520706525811606e-03
1.231481538948826e-02
1.237715662999805e-02
4.590805259689362e-03
4.596110800671505e-03
1.254634342317239e-02
1.260730170336882e-02
2.064320560155266e-03
2.066671759711538e-03
1.024383215242785e-03
1.022787590692421e-03
1.979035649074882e-03
1.980743555883467e-03
1.055782133467714e-03
1.055110387106469e-03
1.022787590692421e-03
1.024383215242785e-03
1.104968036701542e-03
1.102902160537763e-03
1.055110387106469e-03
1.055782133467714e-03
1.178690024643943e-03
1.177859426672558e-03
1.102902160537763e-03
1.104968036701542e-03
1.372527549911489e-03
1.369243157652425e-03
1.177859426672558e-03
1.178690024643943e-03
1.413129236964042e-03
1.411329720800104e-03
1.369243157652425e-03
1.372527549911489e-03
1.922829874037786e-03
1.916326843450917e-03
1.411329720800104e-03
1.413129236964042e-03
1.864985760528904e-03
1.859853221780435e-03
1.916326843450917e-03
1.922829874037786e-03
2.915768957903469e-03
2.894027898317588e-03
1.859853221780435e-03
1.864985760528904e-03
2.766911391328959e-03
2.744990079646484e-03
2.894027898317588e-03
2.915768957903469e-03
4.596110800671505e-03
4.590805259689362e-03
2.744990079646484e-03
2.766911391328959e-03
4.498201703384755e-03
4.491002427525059e-03
4.590805259689362e-03
4.596110800671505e-03
1.254634342317239e-02
1.260730170336882e-02
4.491002427525059e-03
4.498201703384755e-03
1.265814513540966e-02
1.271719455325591e-02
1.979035649074882e-03
1.980743555883467e-03
1.055782133467714e-03
1.055110387106469e-03
2.005370758813301e-03
2.005537821611054e-03
1.139224703410227e-03
1.139325439854746e-03
1.055110387106469e-03
1.055782133467714e-03
1.178690024643943e-03
1.177859426672558e-03
1.139325439854746e-03
1.139224703410227e-03
1.335990213718455e-03
1.335632700414714e-03
1.177859426672558e-03
1.178690024643943e-03
1.413129236964042e-03
1.411329720800104e-03
1.335632700414714e-03
1.335990213718455e-03
1.591820103300113e-03
1.590680490787517e-03
1.411329720800104e-03
1.413129236964042e-03
1.864985760528904e-03
1.859853221780435e-03
1.590680490787517e-03
1.591820103300113e-03
1.955208094163746e-03
1.951323759458513e-03
1.859853221780435e-03
1.864985760528904e-03
2.766911391328959e-03
2.744990079646484e-03
1.951323759458513e-03
1.955208094163746e-03
2.663376322513757e-03
2.642759770938500e-03
2.744990079646484e-03
2.766911391328959e-03
4.498201703384755e-03
4.491002427525059e-03
2.642759770938500e-03
2.663376322513757e-03
4.322576094995162e-03
4.315869543467321e-03
4.491002427525059e-03
4.498201703384755e-03
1.265814513540966e-02
1.271719455325591e-02
4.315869543467321e-03
4.322576094995162e-03
1.264815805643948e-02
1.270509054619733e-02
2.005370758813301e-03
2.005537821611054e-03
1.139224703410227e-03
1.139325439854746e-03
4.043200719278725e-03
4.043155007398170e-03
2.347080811961950e-03
2.347615754712605e-03
1.139325439854746e-03
1.139224703410227e-03
1.335990213718455e-03
1.335632700414714e-03
2.347615754712605e-03
2.347080811961950e-03
2.804932516523591e-03
2.804633907895898e-03
1.335632700414714e-03
1.335990213718455e-03
1.591820103300113e-03
1.590680490787517e-03
2.804633907895898e-03
2.804932516523591e-03
3.362113569593239e-03
3.360583867426870e-03
1.590680490787517e-03
1.591820103300113e-03
1.955208094163746e-03
1.951323759458513e-03
3.360583867426870e-03
3.362113569593239e-03
4.038261016224431e-03
4.032423170114516e-03
1.951323759458513e-03
1.955208094163746e-03
2.663376322513757e-03
2.642759770938500e-03
4.032423170114516e-03
4.038261016224431e-03
5.269053560696375e-03
5.229605762268559e-03
2.642759770938500e-03
2.663376322513757e-03
4.322576094995162e-03
4.315869543467321e-03
5.229605762268559e-03
5.269053560696375e-03
8.475244836335157e-03
8.462744967538762e-03
4.315869543467321e-03
4.322576094995162e-03
1.264815805643948e-02
1.270509054619733e-02
8.462744967538762e-03
8.475244836335157e-03
2.525094026239099e-02
2.536256226974849e-02
        </DataArray>
        <DataArray type="Float64" Name="plastic_zone" format="ascii">
2.000000000000000e+00
2.000000000000000e+00
1.000000000000000e+00
1.000000000000000e+00
1.000000000000000e+00
1.000000000000000e+00
5.000000000000000e-01
5.000000000000000e-01
1.000000000000000e+00
1.000000000000000e+00
1.000000000000000e+00
1.000000000000000e+00
5.000000000000000e-01
5.000000000000000e-01
5.000000000000000e-01
5.000000000000000e-01
1.000000000000000e+00
1.000000000000000e+00
1.000000000000000e+00
1.000000000000000e+00
5.000000000000000e-01
5.000000000000000e-01
5.000000000000000e-01
5.000000000000000e-01
1.000000000000000e+00
1.000000000000000e+00
1.000000000000000e+00
1.000000000000000e+00
5.000000000000000e-01
5.000000000000000e-01
5.000000000000000e-01
5.000000000000000e-01
1.000000000000000e+00
1.000000000000000e+00
1.000000000000000e+00
1.000000000000000e+00
5.000000000000000e-01
5.000000000000000e-01
5.000000000000000e-01
5.000000000000000e-01
1.000000000000000e+00
1.000000000000000e+00
1.000000000000000e+00
1.000000000000000e+00
5.000000000000000e-01
5.000000000000000e-01
5.000000000000000e-01
5.000000000000000e-01
1.000000000000000e+00
1.000000000000000e+00
2.000000000000000e+00
2.000000000000000e+00
5.000000000000000e-01
5.000000000000000e-01
1.000000000000000e+00
1.000000000000000e+00
1.000000000000000e+00
1.000000000000000e+00
5.000000000000000e-01
5.000000000000000e-01
1.000000000000000e+00
1.000000000000000e+00
5.000000000000000e-01
5.000000000000000e-01
5.000000000000000e-01
5.000000000000000e-01
5.000000000000000e-01
5.000000000000000e-01
5.000000000000000e-01
5.000000000000000e-01
5.000000000000000e-01
5.000000000000000e-01
5.000000000000000e-01
5.000000000000000e-01
5.000000000000000e-01
5.000000000000000e-01
5.000000000000000e-01
5.000000000000000e-01
5.000000000000000e-01
5.000000000000000e-01
5.000000000000000e-01
5.000000000000000e-01
5.000000000000000e-01
5.000000000000000e-01
5.000000000000000e-01
5.000000000000000e-01
5.000000000000000e-01
5.000000000000000e-01
5.000000000000000e-01
5.000000000000000e-01
5.000000000000000e-01
5.000000000000000e-01
5.000000000000000e-01
5.000000000000000e-01
5.000000000000000e-01
5.000000000000000e-01
5.000000000000000e-01
5.000000000000000e-01
5.000000000000000e-01
5.000000000000000e-01
5.000000000000000e-01
5.000000000000000e-01
5.000000000000000e-01
5.000000000000000e-01
5.000000000000000e-01
5.000000000000000e-01
1.000000000000000e+00
1.000000000000000e+00
5.000000000000000e-01
5.000000000000000e-01
1.000000000000000e+00
1.000000000000000e+00
1.000000000000000e+00
1.000000000000000e+00
5.000000000000000e-01
5.000000000000000e-01
1.000000000000000e+00
1.000000000000000e+00
5.000000000000000e-01
5.000000000000000e-01
5.000000000000000e-01
5.000000000000000e-01
5.000000000000000e-01
5.000000000000000e-01
5.000000000000000e-01
5.000000000000000e-01
5.000000000000000e-01
5.000000000000000e-01
5.000000000000000e-01
5.000000000000000e-01
5.000000000000000e-01
5.000000000000000e-01
5.000000000000000e-01
5.000000000000000e-01
5.000000000000000e-01
5.000000000000000e-01
5.000000000000000e-01
5.000000000000000e-01
5.000000000000000e-01
5.000000000000000e-01
5.000000000000000e-01
5.000000000000000e-01
5.000000000000000e-01
5.000000000000000e-01
5.000000000000000e-01
5.000000000000000e-01
5.000000000000000e-01
5.000000000000000e-01
5.000000000000000e-01
5.000000000000000e-01
5.000000000000000e-01
5.000000000000000e-01
5.000000000000000e-01
5.000000000000000e-01
5.000000000000000e-01
5.000000000000000e-01
5.000000000000000e-01
5.000000000000000e-01
5.000000000000000e-01
5.000000000000000e-01
5.000000000000000e-01
5.000000000000000e-01
1.000000000000000e+00
1.000000000000000e+00
5.000000000000000e-01
5.000000000000000e-01
1.000000000000000e+00
1.000000000000000e+00
1.000000000000000e+00
1.000000000000000e+00
5.000000000000000e-01
5.000000000000000e-01
1.000000000000000e+00
1.000000000000000e+00
5.000000000000000e-01
5.000000000000000e-01
5.000000000000000e-01
5.000000000000000e-01
5.000000000000000e-01
5.000000000000000e-01
5.000000000000000e-01
5.000000000000000e-01
5.000000000000000e-01
5.000000000000000e-01
5.000000000000000e-01
5.000000000000000e-01
5.000000000000000e-01
5.000000000000000e-01
5.000000000000000e-01
5.000000000000000e-01
5.000000000000000e-01
5.000000000000000e-01
5.000000000000000e-01
5.000000000000000e-01
5.000000000000000e-01
5.000000000000000e-01
5.000000000000000e-01
5.000000000000000e-01
5.000000000000000e-01
5.000000000000000e-01
5.000000000000000e-01
5.000000000000000e-01
5.000000000000000e-01
5.000000000000000e-01
5.000000000000000e-01
5.000000000000000e-01
5.000000000000000e-01
5.000000000000000e-01
5.000000000000000e-01
5.000000000000000e-01
5.000000000000000e-01
5.000000000000000e-01
5.000000000000000e-01
5.000000000000000e-01
5.000000000000000e-01
5.000000000000000e-01
5.000000000000000e-01
5.000000000000000e-01
1.000000000000000e+00
1.000000000000000e+00
5.000000000000000e-01
5.000000000000000e-01
1.000000000000000e+00
1.000000000000000e+00
1.000000000000000e+00
1.000000000000000e+00
5.000000000000000e-01
5.000000000000000e-01
1.000000000000000e+00
1.000000000000000e+00
5.000000000000000e-01
5.000000000000000e-01
5.000000000000000e-01
5.000000000000000e-01
5.000000000000000e-01
5.000000000000000e-01
5.000000000000000e-01
5.000000000000000e-01
5.000000000000000e-01
5.000000000000000e-01
5.000000000000000e-01
5.000000000000000e-01
5.000000000000000e-01
5.000000000000000e-01
5.000000000000000e-01
5.000000000000000e-01
5.000000000000000e-01
5.000000000000000e-01
5.000000000000000e-01
5.000000000000000e-01
5.000000000000000e-01
5.000000000000000e-01
5.000000000000000e-01
5.000000000000000e-01
5.000000000000000e-01
5.000000000000000e-01
5.000000000000000e-01
5.000000000000000e-01
5.000000000000000e-01
5.000000000000000e-01
5.000000000000000e-01
5.000000000000000e-01
5.000000000000000e-01
5.000000000000000e-01
5.000000000000000e-01
5.000000000000000e-01
5.000000000000000e-01
5.000000000000000e-01
5.000000000000000e-01
5.000000000000000e-01
5.000000000000000e-01
5.000000000000000e-01
5.000000000000000e-01
5.000000000000000e-01
1.000000000000000e+00
1.000000000000000e+00
5.000000000000000e-01
5.000000000000000e-01
1.000000000000000e+00
1.000000000000000e+00
1.000000000000000e+00
1.000000000000000e+00
5.000000000000000e-01
5.000000000000000e-01
2.000000000000000e+00
2.000000000000000e+00
1.000000000000000e+00
1.000000000000000e+00
5.000000000000000e-01
5.000000000000000e-01
5.000000000000000e-01
5.000000000000000e-01
1.000000000000000e+00
1.000000000000000e+00
1.000000000000000e+00
1.000000000000000e+00
5.000000000000000e-01
5.000000000000000e-01
5.000000000000000e-01
5.000000000000000e-01
1.000000000000000e+00
1.000000000000000e+00
1.000000000000000e+00
1.000000000000000e+00
5.000000000000000e-01
5.000000000000000e-01
5.000000000000000e-01
5.000000000000000e-01
1.000000000000000e+00
1.000000000000000e+00
1.000000000000000e+00
1.000000000000000e+00
5.000000000000000e-01
5.000000000000000e-01
5.000000000000000e-01
5.000000000000000e-01
1.000000000000000e+00
1.000000000000000e+00
1.000000000000000e+00
1.000000000000000e+00
5.000000000000000e-01
5.000000000000000e-01
5.000000000000000e-01
5.000000000000000e-01
1.000000000000000e+00
1.000000000000000e+00
1.000000000000000e+00
1.000000000000000e+00
5.000000000000000e-01
5.000000000000000e-01
1.000000000000000e+00
1.000000000000000e+00
1.000000000000000e+00
1.000000000000000e+00
2.000000000000000e+00
2.000000000000000e+00
        </DataArray>
  </PointData>
  <CellData>
        <DataArray type="Float64" Name="element_cauchy_stresses_xyz" NumberOfComponents="6" format="ascii">
7.916181930680133e-03 -2.737213877603625e-01 1.443668069932662e-03 -1.543725679598099e-02 -1.004550289216807e-04 -2.381131849181560e-05
2.826004383141231e-02 -2.672551471881159e-01 -1.730266648469805e-03 -1.601061647023546e-02 -2.733357990019410e-05 -1.981051182044637e-04
5.270299664757809e-02 -2.560764730242358e-01 -5.407513766535894e-04 -1.820409418396787e-02 -2.941763590590232e-05 5.805937176783527e-06
8.377023980735590e-02 -2.418883799841929e-01 -1.694526459869760e-03 -2.095942575347267e-02 -1.181365432354423e-05 1.223680547075254e-04
1.237807993484897e-01 -2.195557211939893e-01 3.661722847073182e-04 -2.379651163772482e-02 3.371985242362265e-05 1.788048793892468e-05
1.752941851961424e-01 -1.845458421083588e-01 -2.708329695959404e-03 -2.547939862899126e-02 -1.003718531460326e-04 -1.109744422336580e-04
2.385414711813106e-01 -1.273092159668147e-01 2.356150552731064e-03 -2.445575377975074e-02 3.012172342215130e-04 2.833103604098686e-03
1.720503313826701e-03 -2.722546541728150e-01 -2.987811958884919e-04 -5.563556868440913e-02 4.526957808648203e-05 -1.415604821696435e-05
3.168734178138322e-02 -2.601005101454791e-01 1.215037072053781e-03 -5.582686521053837e-02 1.315387247996484e-04 1.346435530558296e-04
6.182955247107144e-02 -2.469582948283705e-01 1.643452770903820e-03 -5.875621300624148e-02 1.261591029541759e-04 -8.677312937106843e-05
9.361630578951620e-02 -2.312246240913504e-01 4.685993368574289e-04 -6.282482072788670e-02 -2.227990332354552e-05 2.440801599618352e-04
1.290411964255016e-01 -2.077182909165540e-01 2.168328015181947e-03 -6.682920887741076e-02 -9.084815277859206e-05 -9.376211004508591e-05
1.706616218363967e-01 -1.735061211211825e-01 -3.605065458642494e-03 -7.008165983933068e-02 -2.931473398698855e-04 4.605235011173917e-05
2.285875191039284e-01 -1.122864614747311e-01 3.228359123572124e-03 -7.380054675524411e-02 -1.890308053967342e-04 2.739118744393541e-03
-2.098719385005852e-02 -2.572178868000687e-01 -1.262431641923780e-03 -9.578355205847439e-02 -2.538520715220754e-05 -9.895234783182451e-06
7.801605172570131e-03 -2.443566728791589e-01 7.973064391651716e-04 -9.708274006867040e-02 -2.311127898893057e-04 1.904372510304884e-04
4.008529946764407e-02 -2.300892371628787e-01 3.084810635334317e-05 -9.829980197251739e-02 -1.825966120008461e-04 -3.001858763735353e-04
7.430379602180372e-02 -2.119122726366746e-01 -8.349660911157195e-04 -1.005440845942442e-01 -2.743793345920250e-04 9.496201214308750e-05
1.106256565559346e-01 -1.871850812947219e-01 2.967793207515703e-04 -1.036422708567711e-01 -8.123860163229745e-05 -2.465467673467347e-04
1.540281709636595e-01 -1.481296448288840e-01 -3.644287660934085e-03 -1.083125202493534e-01 -2.994752944476894e-04 2.641249857843591e-04
2.082488533403964e-01 -8.546987679283266e-02 2.908392514926433e-03 -1.137189546720878e-01 -5.084413357342386e-04 2.695707926193294e-03
-5.218734554692868e-02 -2.318022432014649e-01 -6.236460768028327e-04 -1.239878517568027e-01 -1.428992512989105e-04 -1.280596557209300e-04
-2.843245747415815e-02 -2.191964739694810e-01 1.623355006026755e-04 -1.279891944736163e-01 -2.288388418858469e-04 7.193177193789849e-05
1.709549284164531e-03 -2.038658508586970e-01 3.252949971492364e-04 -1.314556710527711e-01 -4.571500610644988e-05 -2.333894424016053e-04
3.784924036837280e-02 -1.839539408888169e-01 -7.001302030347018e-04 -1.347285115682136e-01 -9.320551264030007e-05 1.291075514409390e-04
7.904436723330195e-02 -1.551397081328686e-01 1.331666865757810e-03 -1.380654370006139e-01 1.223596291229652e-04 -2.198807611231846e-04
1.254648009662880e-01 -1.138978924993395e-01 -4.230631274521584e-03 -1.417425733595674e-01 -3.795481705504025e-04 3.610671033227762e-04
1.826302361855183e-01 -4.775468780624821e-02 3.695809754029956e-03 -1.451326710119911e-01 -8.762276012022592e-04 2.858902358872674e-03
-8.625151817205796e-02 -1.998821647614546e-01 -5.078159655778945e-05 -1.428482288636324e-01 -4.308902642511324e-05 -9.761973889391275e-05
-6.565198867819533e-02 -1.856629820720268e-01 -2.241804931106395e-04 -1.487976989501220e-01 -1.103312859380651e-04 -2.913357649355705e-06
-4.025150104725939e-02 -1.680262415734657e-01 1.300874367438757e-04 -1.546011506762676e-01 -1.547567368002917e-05 -1.917843063614670e-04
-7.787661212187741e-03 -1.455502218023003e-01 -9.661265675259456e-04 -1.603982628228299e-01 -1.963437445330313e-04 1.236263580147455e-04
3.339391021342960e-02 -1.151048566258438e-01 1.300109696219291e-03 -1.647418412230965e-01 9.115424683653304e-05 -2.760994411499570e-04
8.437047573504140e-02 -7.143539791020460e-02 -4.497876815265695e-03 -1.678894361303280e-01 -4.107085700919527e-04 3.021268935984100e-04
1.477108071360073e-01 -2.199606349833859e-03 3.730865048244079e-03 -1.687201845620299e-01 -1.545514418430082e-03 3.054536674467528e-03
-1.238571356014887e-01 -1.630521784831848e-01 2.250372136901410e-04 -1.529187722821811e-01 6.670584820534544e-06 -4.669805452498224e-05
-1.052637339809184e-01 -1.466576855521405e-01 -3.721889434324470e-04 -1.597343528988462e-01 -1.600239094378837e-05 5.858405580436171e-06
-8.272046357261684e-02 -1.262814617701826e-01 3.384181499888200e-04 -1.663098681984733e-01 8.720610822570253e-05 -1.245888057677076e-04
-5.512529017430766e-02 -1.016127632763581e-01 -1.181864111146479e-03 -1.731107725798184e-01 -1.548687629644882e-04 1.815366344089302e-04
-1.811868636126531e-02 -6.857824554379408e-02 1.601497724038018e-03 -1.786769434612835e-01 1.624992120489371e-04 -2.225501465726726e-04
3.234298858371979e-02 -2.204795550045963e-02 -4.962986043786456e-03 -1.828499101208011e-01 -3.352484613297663e-04 2.508660812946055e-04
1.027958422549471e-01 5.031241219303849e-02 4.153301953065265e-03 -1.822279312881677e-01 -2.294064593294400e-03 3.009464554670257e-03
        </DataArray>
        <DataArray type="Float64" Name="element_owner" format="ascii">
0.000000000000000e+00
0.000000000000000e+00
0.000000000000000e+00
0.000000000000000e+00
0.000000000000000e+00
0.000000000000000e+00
0.000000000000000e+00
0.000000000000000e+00
0.000000000000000e+00
0.000000000000000e+00
0.000000000000000e+00
0.000000000000000e+00
0.000000000000000e+00
0.000000000000000e+00
0.000000000000000e+00
0.000000000000000e+00
0.000000000000000e+00
0.000000000000000e+00
0.000000000000000e+00
0.000000000000000e+00
0.000000000000000e+00
0.000000000000000e+00
0.000000000000000e+00
0.000000000000000e+00
0.000000000000000e+00
0.000000000000000e+00
0.000000000000000e+00
0.000000000000000e+00
0.000000000000000e+00
0.000000000000000e+00
0.000000000000000e+00
0.000000000000000e+00
0.000000000000000e+00
0.000000000000000e+00
0.000000000000000e+00
0.000000000000000e+00
0.000000000000000e+00
0.000000000000000e+00
0.000000000000000e+00
0.000000000000000e+00
0.000000000000000e+00
0.000000000000000e+00
        </DataArray>
      </CellData>

    </Piece>
  </UnstructuredGrid>
</VTKFile>
