<?xml version="1.0" ?> 
<!-- 
# vtk DataFile Version 3.0
-->
<VTKFile type="UnstructuredGrid" version="0.1" compressor="vtkZLibDataCompressor" byte_order="LittleEndian">
  <UnstructuredGrid>
    <FieldData>
      <DataArray type="Float64" Name="TIME" NumberOfTuples="1" format="ascii">
1.000000000000000e+01 
      </DataArray>
    </FieldData>

    <Piece NumberOfPoints="304" NumberOfCells="31" >
      <Points>
        <DataArray type="Float64" NumberOfComponents="3" format="ascii">
0.000000000000000e+00 0.000000000000000e+00 0.000000000000000e+00
1.000000000000000e+00 0.000000000000000e+00 0.000000000000000e+00
1.000000000000000e+00 1.000000000000000e+00 0.000000000000000e+00
0.000000000000000e+00 1.000000000000000e+00 0.000000000000000e+00
0.000000000000000e+00 0.000000000000000e+00 1.000000000000000e+00
1.000000000000000e+00 0.000000000000000e+00 1.000000000000000e+00
1.000000000000000e+00 1.000000000000000e+00 1.000000000000000e+00
0.000000000000000e+00 1.000000000000000e+00 1.000000000000000e+00
1.000000000000000e+00 0.000000000000000e+00 0.000000000000000e+00
2.000000000000000e+00 0.000000000000000e+00 0.000000000000000e+00
2.000000000000000e+00 1.000000000000000e+00 0.000000000000000e+00
1.000000000000000e+00 1.000000000000000e+00 0.000000000000000e+00
1.000000000000000e+00 0.000000000000000e+00 1.000000000000000e+00
2.000000000000000e+00 0.000000000000000e+00 1.000000000000000e+00
2.000000000000000e+00 1.000000000000000e+00 1.000000000000000e+00
1.000000000000000e+00 1.000000000000000e+00 1.000000000000000e+00
2.000000000000000e+00 0.000000000000000e+00 0.000000000000000e+00
3.000000000000000e+00 0.000000000000000e+00 0.000000000000000e+00
3.000000000000000e+00 1.000000000000000e+00 0.000000000000000e+00
2.000000000000000e+00 1.000000000000000e+00 0.000000000000000e+00
2.000000000000000e+00 0.000000000000000e+00 1.000000000000000e+00
3.000000000000000e+00 0.000000000000000e+00 1.000000000000000e+00
3.000000000000000e+00 1.000000000000000e+00 1.000000000000000e+00
2.000000000000000e+00 1.000000000000000e+00 1.000000000000000e+00
0.000000000000000e+00 1.500000000000000e+00 1.000000000000000e+00
0.000000000000000e+00 1.500000000000000e+00 0.000000000000000e+00
0.000000000000000e+00 2.000000000000000e+00 5.000000000000000e-01
5.000000000000000e-01 1.500000000000000e+00 5.000000000000000e-01
0.000000000000000e+00 1.500000000000000e+00 5.000000000000000e-01
0.000000000000000e+00 1.750000000000000e+00 2.500000000000000e-01
0.000000000000000e+00 1.750000000000000e+00 7.500000000000000e-01
2.500000000000000e-01 1.500000000000000e+00 7.500000000000000e-01
2.500000000000000e-01 1.500000000000000e+00 2.500000000000000e-01
2.500000000000000e-01 1.750000000000000e+00 5.000000000000000e-01
0.000000000000000e+00 1.500000000000000e+00 0.000000000000000e+00
0.000000000000000e+00 2.500000000000000e+00 0.000000000000000e+00
0.000000000000000e+00 2.000000000000000e+00 5.000000000000000e-01
5.000000000000000e-01 2.000000000000000e+00 0.000000000000000e+00
0.000000000000000e+00 2.000000000000000e+00 0.000000000000000e+00
0.000000000000000e+00 2.250000000000000e+00 2.500000000000000e-01
0.000000000000000e+00 1.750000000000000e+00 2.500000000000000e-01
2.500000000000000e-01 1.750000000000000e+00 0.000000000000000e+00
2.500000000000000e-01 2.250000000000000e+00 0.000000000000000e+00
2.500000000000000e-01 2.000000000000000e+00 2.500000000000000e-01
0.000000000000000e+00 2.500000000000000e+00 0.000000000000000e+00
0.000000000000000e+00 2.500000000000000e+00 1.000000000000000e+00
0.000000000000000e+00 2.000000000000000e+00 5.000000000000000e-01
5.000000000000000e-01 2.500000000000000e+00 5.000000000000000e-01
0.000000000000000e+00 2.500000000000000e+00 5.000000000000000e-01
0.000000000000000e+00 2.250000000000000e+00 7.500000000000000e-01
0.000000000000000e+00 2.250000000000000e+00 2.500000000000000e-01
2.500000000000000e-01 2.500000000000000e+00 2.500000000000000e-01
2.500000000000000e-01 2.500000000000000e+00 7.500000000000000e-01
2.500000000000000e-01 2.250000000000000e+00 5.000000000000000e-01
0.000000000000000e+00 2.500000000000000e+00 1.000000000000000e+00
0.000000000000000e+00 1.500000000000000e+00 1.000000000000000e+00
0.000000000000000e+00 2.000000000000000e+00 5.000000000000000e-01
5.000000000000000e-01 2.000000000000000e+00 1.000000000000000e+00
0.000000000000000e+00 2.000000000000000e+00 1.000000000000000e+00
0.000000000000000e+00 1.750000000000000e+00 7.500000000000000e-01
0.000000000000000e+00 2.250000000000000e+00 7.500000000000000e-01
2.500000000000000e-01 2.250000000000000e+00 1.000000000000000e+00
2.500000000000000e-01 1.750000000000000e+00 1.000000000000000e+00
2.500000000000000e-01 2.000000000000000e+00 7.500000000000000e-01
0.000000000000000e+00 1.500000000000000e+00 1.000000000000000e+00
1.000000000000000e+00 1.500000000000000e+00 1.000000000000000e+00
5.000000000000000e-01 1.500000000000000e+00 5.000000000000000e-01
5.000000000000000e-01 2.000000000000000e+00 1.000000000000000e+00
5.000000000000000e-01 1.500000000000000e+00 1.000000000000000e+00
7.500000000000000e-01 1.500000000000000e+00 7.500000000000000e-01
2.500000000000000e-01 1.500000000000000e+00 7.500000000000000e-01
2.500000000000000e-01 1.750000000000000e+00 1.000000000000000e+00
7.500000000000000e-01 1.750000000000000e+00 1.000000000000000e+00
5.000000000000000e-01 1.750000000000000e+00 7.500000000000000e-01
0.000000000000000e+00 1.500000000000000e+00 0.000000000000000e+00
1.000000000000000e+00 1.500000000000000e+00 0.000000000000000e+00
5.000000000000000e-01 2.000000000000000e+00 0.000000000000000e+00
5.000000000000000e-01 1.500000000000000e+00 5.000000000000000e-01
5.000000000000000e-01 1.500000000000000e+00 0.000000000000000e+00
7.500000000000000e-01 1.750000000000000e+00 0.000000000000000e+00
2.500000000000000e-01 1.750000000000000e+00 0.000000000000000e+00
2.500000000000000e-01 1.500000000000000e+00 2.500000000000000e-01
7.500000000000000e-01 1.500000000000000e+00 2.500000000000000e-01
5.000000000000000e-01 1.750000000000000e+00 2.500000000000000e-01
0.000000000000000e+00 2.500000000000000e+00 0.000000000000000e+00
1.000000000000000e+00 2.500000000000000e+00 0.000000000000000e+00
5.000000000000000e-01 2.500000000000000e+00 5.000000000000000e-01
5.000000000000000e-01 2.000000000000000e+00 0.000000000000000e+00
5.000000000000000e-01 2.500000000000000e+00 0.000000000000000e+00
7.500000000000000e-01 2.500000000000000e+00 2.500000000000000e-01
2.500000000000000e-01 2.500000000000000e+00 2.500000000000000e-01
2.500000000000000e-01 2.250000000000000e+00 0.000000000000000e+00
7.500000000000000e-01 2.250000000000000e+00 0.000000000000000e+00
5.000000000000000e-01 2.250000000000000e+00 2.500000000000000e-01
0.000000000000000e+00 2.500000000000000e+00 1.000000000000000e+00
1.000000000000000e+00 2.500000000000000e+00 1.000000000000000e+00
5.000000000000000e-01 2.000000000000000e+00 1.000000000000000e+00
5.000000000000000e-01 2.500000000000000e+00 5.000000000000000e-01
5.000000000000000e-01 2.500000000000000e+00 1.000000000000000e+00
7.500000000000000e-01 2.250000000000000e+00 1.000000000000000e+00
2.500000000000000e-01 2.250000000000000e+00 1.000000000000000e+00
2.500000000000000e-01 2.500000000000000e+00 7.500000000000000e-01
7.500000000000000e-01 2.500000000000000e+00 7.500000000000000e-01
5.000000000000000e-01 2.250000000000000e+00 7.500000000000000e-01
1.000000000000000e+00 1.500000000000000e+00 1.000000000000000e+00
1.000000000000000e+00 1.500000000000000e+00 0.000000000000000e+00
5.000000000000000e-01 1.500000000000000e+00 5.000000000000000e-01
1.000000000000000e+00 2.000000000000000e+00 5.000000000000000e-01
1.000000000000000e+00 1.500000000000000e+00 5.000000000000000e-01
7.500000000000000e-01 1.500000000000000e+00 2.500000000000000e-01
7.500000000000000e-01 1.500000000000000e+00 7.500000000000000e-01
1.000000000000000e+00 1.750000000000000e+00 7.500000000000000e-01
1.000000000000000e+00 1.750000000000000e+00 2.500000000000000e-01
7.500000000000000e-01 1.750000000000000e+00 5.000000000000000e-01
1.000000000000000e+00 1.500000000000000e+00 0.000000000000000e+00
1.000000000000000e+00 2.500000000000000e+00 0.000000000000000e+00
5.000000000000000e-01 2.000000000000000e+00 0.000000000000000e+00
1.000000000000000e+00 2.000000000000000e+00 5.000000000000000e-01
1.000000000000000e+00 2.000000000000000e+00 0.000000000000000e+00
7.500000000000000e-01 2.250000000000000e+00 0.000000000000000e+00
7.500000000000000e-01 1.750000000000000e+00 0.000000000000000e+00
1.000000000000000e+00 1.750000000000000e+00 2.500000000000000e-01
1.000000000000000e+00 2.250000000000000e+00 2.500000000000000e-01
7.500000000000000e-01 2.000000000000000e+00 2.500000000000000e-01
1.000000000000000e+00 2.500000000000000e+00 0.000000000000000e+00
1.000000000000000e+00 2.500000000000000e+00 1.000000000000000e+00
5.000000000000000e-01 2.500000000000000e+00 5.000000000000000e-01
1.000000000000000e+00 2.000000000000000e+00 5.000000000000000e-01
1.000000000000000e+00 2.500000000000000e+00 5.000000000000000e-01
7.500000000000000e-01 2.500000000000000e+00 7.500000000000000e-01
7.500000000000000e-01 2.500000000000000e+00 2.500000000000000e-01
1.000000000000000e+00 2.250000000000000e+00 2.500000000000000e-01
1.000000000000000e+00 2.250000000000000e+00 7.500000000000000e-01
7.500000000000000e-01 2.250000000000000e+00 5.000000000000000e-01
1.000000000000000e+00 2.500000000000000e+00 1.000000000000000e+00
1.000000000000000e+00 1.500000000000000e+00 1.000000000000000e+00
5.000000000000000e-01 2.000000000000000e+00 1.000000000000000e+00
1.000000000000000e+00 2.000000000000000e+00 5.000000000000000e-01
1.000000000000000e+00 2.000000000000000e+00 1.000000000000000e+00
7.500000000000000e-01 1.750000000000000e+00 1.000000000000000e+00
7.500000000000000e-01 2.250000000000000e+00 1.000000000000000e+00
1.000000000000000e+00 2.250000000000000e+00 7.500000000000000e-01
1.000000000000000e+00 1.750000000000000e+00 7.500000000000000e-01
7.500000000000000e-01 2.000000000000000e+00 7.500000000000000e-01
0.000000000000000e+00 2.000000000000000e+00 5.000000000000000e-01
5.000000000000000e-01 1.500000000000000e+00 5.000000000000000e-01
5.000000000000000e-01 2.000000000000000e+00 1.000000000000000e+00
0.000000000000000e+00 1.500000000000000e+00 1.000000000000000e+00
2.500000000000000e-01 1.750000000000000e+00 5.000000000000000e-01
5.000000000000000e-01 1.750000000000000e+00 7.500000000000000e-01
2.500000000000000e-01 2.000000000000000e+00 7.500000000000000e-01
0.000000000000000e+00 1.750000000000000e+00 7.500000000000000e-01
2.500000000000000e-01 1.500000000000000e+00 7.500000000000000e-01
2.500000000000000e-01 1.750000000000000e+00 1.000000000000000e+00
0.000000000000000e+00 2.000000000000000e+00 5.000000000000000e-01
5.000000000000000e-01 2.000000000000000e+00 0.000000000000000e+00
5.000000000000000e-01 1.500000000000000e+00 5.000000000000000e-01
0.000000000000000e+00 1.500000000000000e+00 0.000000000000000e+00
2.500000000000000e-01 2.000000000000000e+00 2.500000000000000e-01
5.000000000000000e-01 1.750000000000000e+00 2.500000000000000e-01
2.500000000000000e-01 1.750000000000000e+00 5.000000000000000e-01
0.000000000000000e+00 1.750000000000000e+00 2.500000000000000e-01
2.500000000000000e-01 1.750000000000000e+00 0.000000000000000e+00
2.500000000000000e-01 1.500000000000000e+00 2.500000000000000e-01
0.000000000000000e+00 2.000000000000000e+00 5.000000000000000e-01
5.000000000000000e-01 2.500000000000000e+00 5.000000000000000e-01
5.000000000000000e-01 2.000000000000000e+00 0.000000000000000e+00
0.000000000000000e+00 2.500000000000000e+00 0.000000000000000e+00
2.500000000000000e-01 2.250000000000000e+00 5.000000000000000e-01
5.000000000000000e-01 2.250000000000000e+00 2.500000000000000e-01
2.500000000000000e-01 2.000000000000000e+00 2.500000000000000e-01
0.000000000000000e+00 2.250000000000000e+00 2.500000000000000e-01
2.500000000000000e-01 2.500000000000000e+00 2.500000000000000e-01
2.500000000000000e-01 2.250000000000000e+00 0.000000000000000e+00
0.000000000000000e+00 2.000000000000000e+00 5.000000000000000e-01
5.000000000000000e-01 2.000000000000000e+00 1.000000000000000e+00
5.000000000000000e-01 2.500000000000000e+00 5.000000000000000e-01
0.000000000000000e+00 2.500000000000000e+00 1.000000000000000e+00
2.500000000000000e-01 2.000000000000000e+00 7.500000000000000e-01
5.000000000000000e-01 2.250000000000000e+00 7.500000000000000e-01
2.500000000000000e-01 2.250000000000000e+00 5.000000000000000e-01
0.000000000000000e+00 2.250000000000000e+00 7.500000000000000e-01
2.500000000000000e-01 2.250000000000000e+00 1.000000000000000e+00
2.500000000000000e-01 2.500000000000000e+00 7.500000000000000e-01
1.000000000000000e+00 2.000000000000000e+00 5.000000000000000e-01
5.000000000000000e-01 2.000000000000000e+00 1.000000000000000e+00
5.000000000000000e-01 1.500000000000000e+00 5.000000000000000e-01
1.000000000000000e+00 1.500000000000000e+00 1.000000000000000e+00
7.500000000000000e-01 2.000000000000000e+00 7.500000000000000e-01
5.000000000000000e-01 1.750000000000000e+00 7.500000000000000e-01
7.500000000000000e-01 1.750000000000000e+00 5.000000000000000e-01
1.000000000000000e+00 1.750000000000000e+00 7.500000000000000e-01
7.500000000000000e-01 1.750000000000000e+00 1.000000000000000e+00
7.500000000000000e-01 1.500000000000000e+00 7.500000000000000e-01
1.000000000000000e+00 2.000000000000000e+00 5.000000000000000e-01
5.000000000000000e-01 1.500000000000000e+00 5.000000000000000e-01
5.000000000000000e-01 2.000000000000000e+00 0.000000000000000e+00
1.000000000000000e+00 1.500000000000000e+00 0.000000000000000e+00
7.500000000000000e-01 1.750000000000000e+00 5.000000000000000e-01
5.000000000000000e-01 1.750000000000000e+00 2.500000000000000e-01
7.500000000000000e-01 2.000000000000000e+00 2.500000000000000e-01
1.000000000000000e+00 1.750000000000000e+00 2.500000000000000e-01
7.500000000000000e-01 1.500000000000000e+00 2.500000000000000e-01
7.500000000000000e-01 1.750000000000000e+00 0.000000000000000e+00
1.000000000000000e+00 2.000000000000000e+00 5.000000000000000e-01
5.000000000000000e-01 2.000000000000000e+00 0.000000000000000e+00
5.000000000000000e-01 2.500000000000000e+00 5.000000000000000e-01
1.000000000000000e+00 2.500000000000000e+00 0.000000000000000e+00
7.500000000000000e-01 2.000000000000000e+00 2.500000000000000e-01
5.000000000000000e-01 2.250000000000000e+00 2.500000000000000e-01
7.500000000000000e-01 2.250000000000000e+00 5.000000000000000e-01
1.000000000000000e+00 2.250000000000000e+00 2.500000000000000e-01
7.500000000000000e-01 2.250000000000000e+00 0.000000000000000e+00
7.500000000000000e-01 2.500000000000000e+00 2.500000000000000e-01
1.000000000000000e+00 2.000000000000000e+00 5.000000000000000e-01
5.000000000000000e-01 2.500000000000000e+00 5.000000000000000e-01
5.000000000000000e-01 2.000000000000000e+00 1.000000000000000e+00
1.000000000000000e+00 2.500000000000000e+00 1.000000000000000e+00
7.500000000000000e-01 2.250000000000000e+00 5.000000000000000e-01
5.000000000000000e-01 2.250000000000000e+00 7.500000000000000e-01
7.500000000000000e-01 2.000000000000000e+00 7.500000000000000e-01
1.000000000000000e+00 2.250000000000000e+00 7.500000000000000e-01
7.500000000000000e-01 2.500000000000000e+00 7.500000000000000e-01
7.500000000000000e-01 2.250000000000000e+00 1.000000000000000e+00
0.000000000000000e+00 2.000000000000000e+00 5.000000000000000e-01
5.000000000000000e-01 2.000000000000000e+00 1.000000000000000e+00
5.000000000000000e-01 1.500000000000000e+00 5.000000000000000e-01
5.000000000000000e-01 2.000000000000000e+00 5.000000000000000e-01
2.500000000000000e-01 2.000000000000000e+00 7.500000000000000e-01
5.000000000000000e-01 1.750000000000000e+00 7.500000000000000e-01
2.500000000000000e-01 1.750000000000000e+00 5.000000000000000e-01
2.500000000000000e-01 2.000000000000000e+00 5.000000000000000e-01
5.000000000000000e-01 2.000000000000000e+00 7.500000000000000e-01
5.000000000000000e-01 1.750000000000000e+00 5.000000000000000e-01
0.000000000000000e+00 2.000000000000000e+00 5.000000000000000e-01
5.000000000000000e-01 1.500000000000000e+00 5.000000000000000e-01
5.000000000000000e-01 2.000000000000000e+00 0.000000000000000e+00
5.000000000000000e-01 2.000000000000000e+00 5.000000000000000e-01
2.500000000000000e-01 1.750000000000000e+00 5.000000000000000e-01
5.000000000000000e-01 1.750000000000000e+00 2.500000000000000e-01
2.500000000000000e-01 2.000000000000000e+00 2.500000000000000e-01
2.500000000000000e-01 2.000000000000000e+00 5.000000000000000e-01
5.000000000000000e-01 1.750000000000000e+00 5.000000000000000e-01
5.000000000000000e-01 2.000000000000000e+00 2.500000000000000e-01
0.000000000000000e+00 2.000000000000000e+00 5.000000000000000e-01
5.000000000000000e-01 2.000000000000000e+00 0.000000000000000e+00
5.000000000000000e-01 2.500000000000000e+00 5.000000000000000e-01
5.000000000000000e-01 2.000000000000000e+00 5.000000000000000e-01
2.500000000000000e-01 2.000000000000000e+00 2.500000000000000e-01
5.000000000000000e-01 2.250000000000000e+00 2.500000000000000e-01
2.500000000000000e-01 2.250000000000000e+00 5.000000000000000e-01
2.500000000000000e-01 2.000000000000000e+00 5.000000000000000e-01
5.000000000000000e-01 2.000000000000000e+00 2.500000000000000e-01
5.000000000000000e-01 2.250000000000000e+00 5.000000000000000e-01
0.000000000000000e+00 2.000000000000000e+00 5.000000000000000e-01
5.000000000000000e-01 2.500000000000000e+00 5.000000000000000e-01
5.000000000000000e-01 2.000000000000000e+00 1.000000000000000e+00
5.000000000000000e-01 2.000000000000000e+00 5.000000000000000e-01
2.500000000000000e-01 2.250000000000000e+00 5.000000000000000e-01
5.000000000000000e-01 2.250000000000000e+00 7.500000000000000e-01
2.500000000000000e-01 2.000000000000000e+00 7.500000000000000e-01
2.500000000000000e-01 2.000000000000000e+00 5.000000000000000e-01
5.000000000000000e-01 2.250000000000000e+00 5.000000000000000e-01
5.000000000000000e-01 2.000000000000000e+00 7.500000000000000e-01
1.000000000000000e+00 2.000000000000000e+00 5.000000000000000e-01
5.000000000000000e-01 1.500000000000000e+00 5.000000000000000e-01
5.000000000000000e-01 2.000000000000000e+00 1.000000000000000e+00
5.000000000000000e-01 2.000000000000000e+00 5.000000000000000e-01
7.500000000000000e-01 1.750000000000000e+00 5.000000000000000e-01
5.000000000000000e-01 1.750000000000000e+00 7.500000000000000e-01
7.500000000000000e-01 2.000000000000000e+00 7.500000000000000e-01
7.500000000000000e-01 2.000000000000000e+00 5.000000000000000e-01
5.000000000000000e-01 1.750000000000000e+00 5.000000000000000e-01
5.000000000000000e-01 2.000000000000000e+00 7.500000000000000e-01
1.000000000000000e+00 2.000000000000000e+00 5.000000000000000e-01
5.000000000000000e-01 2.000000000000000e+00 0.000000000000000e+00
5.000000000000000e-01 1.500000000000000e+00 5.000000000000000e-01
5.000000000000000e-01 2.000000000000000e+00 5.000000000000000e-01
7.500000000000000e-01 2.000000000000000e+00 2.500000000000000e-01
5.000000000000000e-01 1.750000000000000e+00 2.500000000000000e-01
7.500000000000000e-01 1.750000000000000e+00 5.000000000000000e-01
7.500000000000000e-01 2.000000000000000e+00 5.000000000000000e-01
5.000000000000000e-01 2.000000000000000e+00 2.500000000000000e-01
5.000000000000000e-01 1.750000000000000e+00 5.000000000000000e-01
1.000000000000000e+00 2.000000000000000e+00 5.000000000000000e-01
5.000000000000000e-01 2.500000000000000e+00 5.000000000000000e-01
5.000000000000000e-01 2.000000000000000e+00 0.000000000000000e+00
5.000000000000000e-01 2.000000000000000e+00 5.000000000000000e-01
7.500000000000000e-01 2.250000000000000e+00 5.000000000000000e-01
5.000000000000000e-01 2.250000000000000e+00 2.500000000000000e-01
7.500000000000000e-01 2.000000000000000e+00 2.500000000000000e-01
7.500000000000000e-01 2.000000000000000e+00 5.000000000000000e-01
5.000000000000000e-01 2.250000000000000e+00 5.000000000000000e-01
5.000000000000000e-01 2.000000000000000e+00 2.500000000000000e-01
1.000000000000000e+00 2.000000000000000e+00 5.000000000000000e-01
5.000000000000000e-01 2.000000000000000e+00 1.000000000000000e+00
5.000000000000000e-01 2.500000000000000e+00 5.000000000000000e-01
5.000000000000000e-01 2.000000000000000e+00 5.000000000000000e-01
7.500000000000000e-01 2.000000000000000e+00 7.500000000000000e-01
5.000000000000000e-01 2.250000000000000e+00 7.500000000000000e-01
7.500000000000000e-01 2.250000000000000e+00 5.000000000000000e-01
7.500000000000000e-01 2.000000000000000e+00 5.000000000000000e-01
5.000000000000000e-01 2.000000000000000e+00 7.500000000000000e-01
5.000000000000000e-01 2.250000000000000e+00 5.000000000000000e-01
        </DataArray>
      </Points>

      <Cells>
        <DataArray type="Int32" Name="connectivity" format="ascii">
0 1 2 3 4 5 6 7 8 9 10 11 12 13 14 15 16 17 18 19 20 21 22 23 24 25 26 27 28 29 30 31 32 33 34 35 36 37 38 39 40 41 42 43 44 45 46 47 48 49 50 51 52 53 54 55 56 57 58 59 60 61 62 63 64 65 66 67 68 69 70 71 72 73 74 75 76 77 78 79 80 81 82 83 84 85 86 87 88 89 90 91 92 93 94 95 96 97 98 99 100 101 102 103 104 105 106 107 108 109 110 111 112 113 114 115 116 117 118 119 120 121 122 123 124 125 126 127 128 129 130 131 132 133 134 135 136 137 138 139 140 141 142 143 144 145 146 147 148 149 150 151 152 153 154 155 156 157 158 159 160 161 162 163 164 165 166 167 168 169 170 171 172 173 174 175 176 177 178 179 180 181 182 183 184 185 186 187 188 189 190 191 192 193 194 195 196 197 198 199 200 201 202 203 204 205 206 207 208 209 210 211 212 213 214 215 216 217 218 219 220 221 222 223 224 225 226 227 228 229 230 231 232 233 234 235 236 237 238 239 240 241 242 243 244 245 246 247 248 249 250 251 252 253 254 255 256 257 258 259 260 261 262 263 264 265 266 267 268 269 270 271 272 273 274 275 276 277 278 279 280 281 282 283 284 285 286 287 288 289 290 291 292 293 294 295 296 297 298 299 300 301 302 303 
        </DataArray>
        <DataArray type="Int32" Name="offsets" format="ascii">
8 16 24 34 44 54 64 74 84 94 104 114 124 134 144 154 164 174 184 194 204 214 224 234 244 254 264 274 284 294 304 
        </DataArray>
        <DataArray type="UInt8" Name="types" format="ascii">
12 12 12 24 24 24 24 24 24 24 24 24 24 24 24 24 24 24 24 24 24 24 24 24 24 24 24 24 24 24 24 
        </DataArray>
      </Cells>

  <PointData>
        <DataArray type="Float64" Name="current_reference_density" format="ascii">
1.059107550805164e+00
1.059438896537300e+00
1.060684479931766e+00
1.060024433051528e+00
1.060930587977297e+00
1.061909833361649e+00
1.063114820669714e+00
1.061826123140086e+00
1.059438896537300e+00
1.059770242269434e+00
1.061344526812009e+00
1.060684479931766e+00
1.061909833361649e+00
1.062889078746002e+00
1.064403518199340e+00
1.063114820669714e+00
1.059770242269434e+00
0.000000000000000e+00
0.000000000000000e+00
1.061344526812009e+00
1.062889078746002e+00
0.000000000000000e+00
0.000000000000000e+00
1.064403518199340e+00
1.093826402284138e+00
1.089794660710457e+00
1.115405807230750e+00
1.090439343255122e+00
1.103321865651031e+00
1.115611544929721e+00
1.119706619696266e+00
1.075216499916644e+00
1.074962469750100e+00
1.087116964219422e+00
1.089794660710457e+00
1.091786231550322e+00
1.115405807230750e+00
1.089207186417484e+00
1.102494980196846e+00
1.117628598171735e+00
1.115611544929721e+00
1.074900298513141e+00
1.075006171879293e+00
1.085677497007126e+00
1.091786231550322e+00
1.095917378834258e+00
1.115405807230750e+00
1.092858905162207e+00
1.105087277672800e+00
1.121876834893700e+00
1.117628598171735e+00
1.075189866737573e+00
1.075533719199526e+00
1.089915657293763e+00
1.095917378834258e+00
1.093826402284138e+00
1.115405807230750e+00
1.094053131157168e+00
1.106012063432612e+00
1.119706619696266e+00
1.121876834893700e+00
1.075620868131195e+00
1.075426922672515e+00
1.091264832214131e+00
1.093826402284138e+00
1.104538075955416e+00
1.090439343255122e+00
1.094053131157168e+00
1.096443690627457e+00
1.119438561662665e+00
1.075216499916644e+00
1.075426922672515e+00
1.125155209793006e+00
1.110941856837143e+00
1.089794660710457e+00
1.081765643515695e+00
1.089207186417484e+00
1.090439343255122e+00
1.078402188009941e+00
1.112335964492092e+00
1.074900298513141e+00
1.074962469750100e+00
1.114162916427435e+00
1.109295264297327e+00
1.091786231550322e+00
1.093298939818610e+00
1.092858905162207e+00
1.089207186417484e+00
1.087596226916078e+00
1.120550110729013e+00
1.075189866737573e+00
1.075006171879293e+00
1.114958991595324e+00
1.110064407385377e+00
1.095917378834258e+00
1.115571216140543e+00
1.094053131157168e+00
1.092858905162207e+00
1.104984879453808e+00
1.127885700983549e+00
1.075620868131195e+00
1.075533719199526e+00
1.125936830865759e+00
1.111939922787946e+00
1.104538075955416e+00
1.081765643515695e+00
1.090439343255122e+00
0.000000000000000e+00
0.000000000000000e+00
1.114162916427435e+00
1.119438561662665e+00
0.000000000000000e+00
0.000000000000000e+00
0.000000000000000e+00
1.081765643515695e+00
1.093298939818610e+00
1.089207186417484e+00
0.000000000000000e+00
0.000000000000000e+00
1.114958991595324e+00
1.112335964492092e+00
0.000000000000000e+00
0.000000000000000e+00
0.000000000000000e+00
1.093298939818610e+00
1.115571216140543e+00
1.092858905162207e+00
0.000000000000000e+00
0.000000000000000e+00
1.125936830865759e+00
1.120550110729013e+00
0.000000000000000e+00
0.000000000000000e+00
0.000000000000000e+00
1.115571216140543e+00
1.104538075955416e+00
1.094053131157168e+00
0.000000000000000e+00
0.000000000000000e+00
1.125155209793006e+00
1.127885700983549e+00
0.000000000000000e+00
0.000000000000000e+00
0.000000000000000e+00
1.115405807230750e+00
1.090439343255122e+00
1.094053131157168e+00
1.093826402284138e+00
1.087116964219422e+00
1.110941856837143e+00
1.091264832214131e+00
1.119706619696266e+00
1.075216499916644e+00
1.075426922672515e+00
1.115405807230750e+00
1.089207186417484e+00
1.090439343255122e+00
1.089794660710457e+00
1.085677497007126e+00
1.109295264297327e+00
1.087116964219422e+00
1.115611544929721e+00
1.074900298513141e+00
1.074962469750100e+00
1.115405807230750e+00
1.092858905162207e+00
1.089207186417484e+00
1.091786231550322e+00
1.089915657293763e+00
1.110064407385377e+00
1.085677497007126e+00
1.117628598171735e+00
1.075189866737573e+00
1.075006171879293e+00
1.115405807230750e+00
1.094053131157168e+00
1.092858905162207e+00
1.095917378834258e+00
1.091264832214131e+00
1.111939922787946e+00
1.089915657293763e+00
1.121876834893700e+00
1.075620868131195e+00
1.075533719199526e+00
0.000000000000000e+00
1.094053131157168e+00
1.090439343255122e+00
1.104538075955416e+00
0.000000000000000e+00
1.110941856837143e+00
0.000000000000000e+00
0.000000000000000e+00
1.125155209793006e+00
1.119438561662665e+00
0.000000000000000e+00
1.090439343255122e+00
1.089207186417484e+00
1.081765643515695e+00
0.000000000000000e+00
1.109295264297327e+00
0.000000000000000e+00
0.000000000000000e+00
1.114162916427435e+00
1.112335964492092e+00
0.000000000000000e+00
1.089207186417484e+00
1.092858905162207e+00
1.093298939818610e+00
0.000000000000000e+00
1.110064407385377e+00
0.000000000000000e+00
0.000000000000000e+00
1.114958991595324e+00
1.120550110729013e+00
0.000000000000000e+00
1.092858905162207e+00
1.094053131157168e+00
1.115571216140543e+00
0.000000000000000e+00
1.111939922787946e+00
0.000000000000000e+00
0.000000000000000e+00
1.125936830865759e+00
1.127885700983549e+00
1.115405807230750e+00
1.094053131157168e+00
1.090439343255122e+00
1.089458294729939e+00
1.091264832214131e+00
1.110941856837143e+00
1.087116964219422e+00
1.088097360546616e+00
1.111277369006982e+00
1.105597683602494e+00
1.115405807230750e+00
1.090439343255122e+00
1.089207186417484e+00
1.089458294729939e+00
1.087116964219422e+00
1.109295264297327e+00
1.085677497007126e+00
1.088097360546616e+00
1.105597683602494e+00
1.103604514148443e+00
1.115405807230750e+00
1.089207186417484e+00
1.092858905162207e+00
1.089458294729939e+00
1.085677497007126e+00
1.110064407385377e+00
1.089915657293763e+00
1.088097360546616e+00
1.103604514148443e+00
1.109435854793927e+00
1.115405807230750e+00
1.092858905162207e+00
1.094053131157168e+00
1.089458294729939e+00
1.089915657293763e+00
1.111939922787946e+00
1.091264832214131e+00
1.088097360546616e+00
1.109435854793927e+00
1.111277369006982e+00
0.000000000000000e+00
1.090439343255122e+00
1.094053131157168e+00
1.089458294729939e+00
0.000000000000000e+00
1.110941856837143e+00
0.000000000000000e+00
0.000000000000000e+00
1.105597683602494e+00
1.111277369006982e+00
0.000000000000000e+00
1.089207186417484e+00
1.090439343255122e+00
1.089458294729939e+00
0.000000000000000e+00
1.109295264297327e+00
0.000000000000000e+00
0.000000000000000e+00
1.103604514148443e+00
1.105597683602494e+00
0.000000000000000e+00
1.092858905162207e+00
1.089207186417484e+00
1.089458294729939e+00
0.000000000000000e+00
1.110064407385377e+00
0.000000000000000e+00
0.000000000000000e+00
1.109435854793927e+00
1.103604514148443e+00
0.000000000000000e+00
1.094053131157168e+00
1.092858905162207e+00
1.089458294729939e+00
0.000000000000000e+00
1.111939922787946e+00
0.000000000000000e+00
0.000000000000000e+00
1.111277369006982e+00
1.109435854793927e+00
        </DataArray>
        <DataArray type="Float64" Name="displacement" NumberOfComponents="3" format="ascii">
9.366397045474083e-01 -6.477848050239220e-03 -6.559582059469777e-03
9.652932901984509e-01 -9.871862376794152e-03 -1.030875662909535e-02
9.746459023811774e-01 9.159007020087685e-03 -1.054574466564408e-02
9.455919875140968e-01 6.514054193645325e-03 -6.796960604556431e-03
9.544761342152623e-01 -6.916698459937799e-03 6.595788202875845e-03
9.839250907102742e-01 -1.027935212340668e-02 8.815601856293763e-03
9.931309310991275e-01 9.431647489841327e-03 8.917793868217538e-03
9.632921737232337e-01 6.880492316531676e-03 6.760754461150357e-03
9.652932901984509e-01 -9.871862376794152e-03 -1.030875662909535e-02
9.941571791432724e-01 1.125980859249884e-02 1.062054952171856e-02
1.004170930541706e+00 -1.294266584301876e-02 1.082116339442395e-02
9.746459023811774e-01 9.159007020087685e-03 -1.054574466564408e-02
9.839250907102742e-01 -1.027935212340668e-02 8.815601856293763e-03
1.014090517015808e+00 1.183655827114625e-02 -1.415678891173092e-02
1.023915835423524e+00 -1.386046117103818e-02 -1.469831484977549e-02
9.931309310991275e-01 9.431647489841327e-03 8.917793868217538e-03
9.941571791432724e-01 1.125980859249884e-02 1.062054952171856e-02
1.115513693576842e+00 2.309888081364978e-03 -9.472176508943235e-03
1.131840866578020e+00 -2.635840625695094e-02 -9.179278163908020e-03
1.004170930541706e+00 -1.294266584301876e-02 1.082116339442395e-02
1.014090517015808e+00 1.183655827114625e-02 -1.415678891173092e-02
1.147903328682642e+00 2.972163166985431e-03 -3.869663765578792e-02
1.163713522556417e+00 -2.717131710147773e-02 -3.913971864192949e-02
1.023915835423524e+00 -1.386046117103818e-02 -1.469831484977549e-02
1.452950155036820e+00 -8.956749231035111e-03 -2.797805372691091e-03
1.403636930379319e+00 -2.650819982474084e-03 -6.461332548243965e-03
1.391142112673559e+00 6.482400912166283e-04 1.295937700688259e-03
1.407082099542373e+00 1.169614129523751e-02 8.311371128146985e-04
1.395764654882564e+00 -6.713487110366648e-03 -1.981344027796296e-03
1.379046096489673e+00 6.058573097306656e-04 7.727301614504331e-04
1.402665155860155e+00 -3.495256756914732e-04 2.803386636834595e-04
1.425175250640507e+00 -3.927522938682471e-03 -4.795571176347015e-03
1.400064219099243e+00 -7.308299853191360e-04 -1.254663863525945e-03
1.394216447931565e+00 2.055333081054423e-03 1.257668600681374e-03
1.403636930379319e+00 -2.650819982474084e-03 -6.461332548243965e-03
1.428684025602724e+00 -1.844032953350444e-03 -9.759960517414450e-03
1.391142112673559e+00 6.482400912166283e-04 1.295937700688259e-03
1.395978243128347e+00 5.620422372081533e-04 1.214614991603303e-02
1.384543430094143e+00 -9.152175913724905e-04 -6.235722531011718e-03
1.390946578974015e+00 2.260629176725070e-05 1.909457120841478e-04
1.379046096489673e+00 6.058573097306656e-04 7.727301614504331e-04
1.394786414528553e+00 9.030934828628951e-04 -2.026689352230486e-03
1.407534286658552e+00 -3.733934104874484e-03 -3.737903961801280e-03
1.388442508143638e+00 6.928889927843548e-04 2.853621267341158e-03
1.428684025602724e+00 -1.844032953350444e-03 -9.759960517414450e-03
1.476490465696213e+00 3.910022076511032e-03 -5.072894454283597e-05
1.391142112673559e+00 6.482400912166283e-04 1.295937700688259e-03
1.428714475415253e+00 -1.160315576930191e-02 2.669480236890519e-04
1.417639210856173e+00 7.148343323450324e-03 -2.286742149348433e-03
1.414217700532922e+00 5.716382999944707e-04 4.555161060482530e-04
1.390946578974015e+00 2.260629176725070e-05 1.909457120841478e-04
1.422934084622650e+00 -6.937755736930521e-04 -2.885954152016898e-03
1.447310992847416e+00 2.066218039989707e-03 -3.930757672983384e-03
1.405614805284723e+00 -8.501463485048261e-04 1.005434941601636e-03
1.476490465696213e+00 3.910022076511032e-03 -5.072894454283597e-05
1.452950155036820e+00 -8.956749231035111e-03 -2.797805372691091e-03
1.391142112673559e+00 6.482400912166283e-04 1.295937700688259e-03
1.439258329772000e+00 -2.794988907812790e-06 -1.194076279668203e-02
1.428301640453578e+00 -1.220791073312009e-03 7.104747421625903e-03
1.402665155860155e+00 -3.495256756914732e-04 2.803386636834595e-04
1.414217700532922e+00 5.716382999944707e-04 4.555161060482530e-04
1.452173860463497e+00 -1.627354193747254e-03 2.398030614692552e-04
1.440160292565744e+00 -1.970709780155070e-03 -1.034583943643840e-03
1.411239429065503e+00 4.407326356408835e-04 -4.417277945220068e-04
1.452950155036820e+00 -8.956749231035111e-03 -2.797805372691091e-03
1.496700801323922e+00 5.207922477791628e-03 -3.155240013605774e-02
1.407082099542373e+00 1.169614129523751e-02 8.311371128146985e-04
1.439258329772000e+00 -2.794988907812790e-06 -1.194076279668203e-02
1.474445448621229e+00 -9.102106841895514e-03 -7.051463325291464e-03
1.450534505090420e+00 9.879571857029175e-03 -1.553683631949863e-02
1.425175250640507e+00 -3.927522938682471e-03 -4.795571176347015e-03
1.440160292565744e+00 -1.970709780155070e-03 -1.034583943643840e-03
1.466398984866118e+00 3.113485037223665e-03 -2.292368082322861e-02
1.420617020998736e+00 6.609756769701092e-03 -6.106153148226529e-03
1.403636930379319e+00 -2.650819982474084e-03 -6.461332548243965e-03
1.441274958801856e+00 4.001832662619887e-03 -4.486084741212823e-03
1.395978243128347e+00 5.620422372081533e-04 1.214614991603303e-02
1.407082099542373e+00 1.169614129523751e-02 8.311371128146985e-04
1.422167245947877e+00 -2.527249643317588e-03 -7.739087960709559e-03
1.419459823657402e+00 3.469829368076562e-03 5.880996360318295e-03
1.394786414528553e+00 9.030934828628951e-04 -2.026689352230486e-03
1.400064219099243e+00 -7.308299853191360e-04 -1.254663863525945e-03
1.425039899858270e+00 9.784843195119384e-03 -3.979825672584705e-04
1.396935513564735e+00 6.810404547657895e-03 7.263895724352792e-03
1.428684025602724e+00 -1.844032953350444e-03 -9.759960517414450e-03
1.469533055221983e+00 -2.196990656181187e-02 -3.949810076547633e-03
1.428714475415253e+00 -1.160315576930191e-02 2.669480236890519e-04
1.395978243128347e+00 5.620422372081533e-04 1.214614991603303e-02
1.448742613823487e+00 -4.634624001827305e-03 -1.126393639303368e-02
1.448715149144542e+00 -1.822316552966087e-02 -8.052595048759619e-04
1.422934084622650e+00 -6.937755736930521e-04 -2.885954152016898e-03
1.407534286658552e+00 -3.733934104874484e-03 -3.737903961801280e-03
1.432424705341310e+00 -1.120893572021016e-02 5.825997036558514e-03
1.408870293296503e+00 -6.091130858515503e-03 7.017641254041554e-03
1.476490465696213e+00 3.910022076511032e-03 -5.072894454283597e-05
1.522886669880854e+00 -2.339227685343111e-02 -3.230506307699159e-02
1.439258329772000e+00 -2.794988907812790e-06 -1.194076279668203e-02
1.428714475415253e+00 -1.160315576930191e-02 2.669480236890519e-04
1.499338350362189e+00 1.035336998436492e-03 -4.429453649678301e-03
1.478542766150686e+00 -1.172947041362875e-02 -2.323691975396424e-02
1.452173860463497e+00 -1.627354193747254e-03 2.398030614692552e-04
1.447310992847416e+00 2.066218039989707e-03 -3.930757672983384e-03
1.473389350836140e+00 -1.868561321092307e-02 -1.600509604639183e-02
1.432189784012910e+00 -6.452845826014005e-03 -6.422264293240189e-03
1.496700801323922e+00 5.207922477791628e-03 -3.155240013605774e-02
1.441274958801856e+00 4.001832662619887e-03 -4.486084741212823e-03
1.407082099542373e+00 1.169614129523751e-02 8.311371128146985e-04
1.487991428003048e+00 -9.533286900590127e-03 -1.906378709153153e-02
1.474936505368908e+00 5.678312414930649e-03 -1.870707577493246e-02
1.425039899858270e+00 9.784843195119384e-03 -3.979825672584705e-04
1.450534505090420e+00 9.879571857029175e-03 -1.553683631949863e-02
1.494308659409330e+00 -2.206166568067503e-03 -2.553562810622294e-02
1.465922374652997e+00 -2.586385997147108e-03 -1.174731098614159e-02
1.444283293298802e+00 3.090522632993679e-03 -8.406212813073119e-03
1.441274958801856e+00 4.001832662619887e-03 -4.486084741212823e-03
1.469533055221983e+00 -2.196990656181187e-02 -3.949810076547633e-03
1.395978243128347e+00 5.620422372081533e-04 1.214614991603303e-02
1.487991428003048e+00 -9.533286900590127e-03 -1.906378709153153e-02
1.462129086505734e+00 -9.305724124639019e-03 -3.435374928714227e-03
1.432424705341310e+00 -1.120893572021016e-02 5.825997036558514e-03
1.419459823657402e+00 3.469829368076562e-03 5.880996360318295e-03
1.465922374652997e+00 -2.586385997147108e-03 -1.174731098614159e-02
1.480278027719167e+00 -1.604081868841779e-02 -1.157513153802846e-02
1.438035133636589e+00 -4.148274481523010e-03 -1.034852674509899e-03
1.469533055221983e+00 -2.196990656181187e-02 -3.949810076547633e-03
1.522886669880854e+00 -2.339227685343111e-02 -3.230506307699159e-02
1.428714475415253e+00 -1.160315576930191e-02 2.669480236890519e-04
1.487991428003048e+00 -9.533286900590127e-03 -1.906378709153153e-02
1.499997462413039e+00 -2.408699558245166e-02 -1.888102036294718e-02
1.473389350836140e+00 -1.868561321092307e-02 -1.600509604639183e-02
1.448715149144542e+00 -1.822316552966087e-02 -8.052595048759619e-04
1.480278027719167e+00 -1.604081868841779e-02 -1.157513153802846e-02
1.508046456325979e+00 -1.648631472987017e-02 -2.577249827231085e-02
1.456626405024328e+00 -1.165828643461800e-02 -8.619367596529405e-03
1.522886669880854e+00 -2.339227685343111e-02 -3.230506307699159e-02
1.496700801323922e+00 5.207922477791628e-03 -3.155240013605774e-02
1.439258329772000e+00 -2.794988907812790e-06 -1.194076279668203e-02
1.487991428003048e+00 -9.533286900590127e-03 -1.906378709153153e-02
1.512257146399814e+00 -9.480583974650224e-03 -3.336860590367773e-02
1.466398984866118e+00 3.113485037223665e-03 -2.292368082322861e-02
1.478542766150686e+00 -1.172947041362875e-02 -2.323691975396424e-02
1.508046456325979e+00 -1.648631472987017e-02 -2.577249827231085e-02
1.494308659409330e+00 -2.206166568067503e-03 -2.553562810622294e-02
1.462722684448239e+00 -4.361740101707087e-03 -1.609529029664670e-02
1.391142112673559e+00 6.482400912166283e-04 1.295937700688259e-03
1.407082099542373e+00 1.169614129523751e-02 8.311371128146985e-04
1.439258329772000e+00 -2.794988907812790e-06 -1.194076279668203e-02
1.452950155036820e+00 -8.956749231035111e-03 -2.797805372691091e-03
1.394216447931565e+00 2.055333081054423e-03 1.257668600681374e-03
1.420617020998736e+00 6.609756769701092e-03 -6.106153148226529e-03
1.411239429065503e+00 4.407326356408835e-04 -4.417277945220068e-04
1.402665155860155e+00 -3.495256756914732e-04 2.803386636834595e-04
1.425175250640507e+00 -3.927522938682471e-03 -4.795571176347015e-03
1.440160292565744e+00 -1.970709780155070e-03 -1.034583943643840e-03
1.391142112673559e+00 6.482400912166283e-04 1.295937700688259e-03
1.395978243128347e+00 5.620422372081533e-04 1.214614991603303e-02
1.407082099542373e+00 1.169614129523751e-02 8.311371128146985e-04
1.403636930379319e+00 -2.650819982474084e-03 -6.461332548243965e-03
1.388442508143638e+00 6.928889927843548e-04 2.853621267341158e-03
1.396935513564735e+00 6.810404547657895e-03 7.263895724352792e-03
1.394216447931565e+00 2.055333081054423e-03 1.257668600681374e-03
1.379046096489673e+00 6.058573097306656e-04 7.727301614504331e-04
1.394786414528553e+00 9.030934828628951e-04 -2.026689352230486e-03
1.400064219099243e+00 -7.308299853191360e-04 -1.254663863525945e-03
1.391142112673559e+00 6.482400912166283e-04 1.295937700688259e-03
1.428714475415253e+00 -1.160315576930191e-02 2.669480236890519e-04
1.395978243128347e+00 5.620422372081533e-04 1.214614991603303e-02
1.428684025602724e+00 -1.844032953350444e-03 -9.759960517414450e-03
1.405614805284723e+00 -8.501463485048261e-04 1.005434941601636e-03
1.408870293296503e+00 -6.091130858515503e-03 7.017641254041554e-03
1.388442508143638e+00 6.928889927843548e-04 2.853621267341158e-03
1.390946578974015e+00 2.260629176725070e-05 1.909457120841478e-04
1.422934084622650e+00 -6.937755736930521e-04 -2.885954152016898e-03
1.407534286658552e+00 -3.733934104874484e-03 -3.737903961801280e-03
1.391142112673559e+00 6.482400912166283e-04 1.295937700688259e-03
1.439258329772000e+00 -2.794988907812790e-06 -1.194076279668203e-02
1.428714475415253e+00 -1.160315576930191e-02 2.669480236890519e-04
1.476490465696213e+00 3.910022076511032e-03 -5.072894454283597e-05
1.411239429065503e+00 4.407326356408835e-04 -4.417277945220068e-04
1.432189784012910e+00 -6.452845826014005e-03 -6.422264293240189e-03
1.405614805284723e+00 -8.501463485048261e-04 1.005434941601636e-03
1.414217700532922e+00 5.716382999944707e-04 4.555161060482530e-04
1.452173860463497e+00 -1.627354193747254e-03 2.398030614692552e-04
1.447310992847416e+00 2.066218039989707e-03 -3.930757672983384e-03
1.487991428003048e+00 -9.533286900590127e-03 -1.906378709153153e-02
1.439258329772000e+00 -2.794988907812790e-06 -1.194076279668203e-02
1.407082099542373e+00 1.169614129523751e-02 8.311371128146985e-04
1.496700801323922e+00 5.207922477791628e-03 -3.155240013605774e-02
1.462722684448239e+00 -4.361740101707087e-03 -1.609529029664670e-02
1.420617020998736e+00 6.609756769701092e-03 -6.106153148226529e-03
1.444283293298802e+00 3.090522632993679e-03 -8.406212813073119e-03
1.494308659409330e+00 -2.206166568067503e-03 -2.553562810622294e-02
1.466398984866118e+00 3.113485037223665e-03 -2.292368082322861e-02
1.450534505090420e+00 9.879571857029175e-03 -1.553683631949863e-02
1.487991428003048e+00 -9.533286900590127e-03 -1.906378709153153e-02
1.407082099542373e+00 1.169614129523751e-02 8.311371128146985e-04
1.395978243128347e+00 5.620422372081533e-04 1.214614991603303e-02
1.441274958801856e+00 4.001832662619887e-03 -4.486084741212823e-03
1.444283293298802e+00 3.090522632993679e-03 -8.406212813073119e-03
1.396935513564735e+00 6.810404547657895e-03 7.263895724352792e-03
1.438035133636589e+00 -4.148274481523010e-03 -1.034852674509899e-03
1.465922374652997e+00 -2.586385997147108e-03 -1.174731098614159e-02
1.425039899858270e+00 9.784843195119384e-03 -3.979825672584705e-04
1.419459823657402e+00 3.469829368076562e-03 5.880996360318295e-03
1.487991428003048e+00 -9.533286900590127e-03 -1.906378709153153e-02
1.395978243128347e+00 5.620422372081533e-04 1.214614991603303e-02
1.428714475415253e+00 -1.160315576930191e-02 2.669480236890519e-04
1.469533055221983e+00 -2.196990656181187e-02 -3.949810076547633e-03
1.438035133636589e+00 -4.148274481523010e-03 -1.034852674509899e-03
1.408870293296503e+00 -6.091130858515503e-03 7.017641254041554e-03
1.456626405024328e+00 -1.165828643461800e-02 -8.619367596529405e-03
1.480278027719167e+00 -1.604081868841779e-02 -1.157513153802846e-02
1.432424705341310e+00 -1.120893572021016e-02 5.825997036558514e-03
1.448715149144542e+00 -1.822316552966087e-02 -8.052595048759619e-04
1.487991428003048e+00 -9.533286900590127e-03 -1.906378709153153e-02
1.428714475415253e+00 -1.160315576930191e-02 2.669480236890519e-04
1.439258329772000e+00 -2.794988907812790e-06 -1.194076279668203e-02
1.522886669880854e+00 -2.339227685343111e-02 -3.230506307699159e-02
1.456626405024328e+00 -1.165828643461800e-02 -8.619367596529405e-03
1.432189784012910e+00 -6.452845826014005e-03 -6.422264293240189e-03
1.462722684448239e+00 -4.361740101707087e-03 -1.609529029664670e-02
1.508046456325979e+00 -1.648631472987017e-02 -2.577249827231085e-02
1.473389350836140e+00 -1.868561321092307e-02 -1.600509604639183e-02
1.478542766150686e+00 -1.172947041362875e-02 -2.323691975396424e-02
1.391142112673559e+00 6.482400912166283e-04 1.295937700688259e-03
1.439258329772000e+00 -2.794988907812790e-06 -1.194076279668203e-02
1.407082099542373e+00 1.169614129523751e-02 8.311371128146985e-04
1.411691592015836e+00 4.987724475997288e-04 9.967354875163484e-04
1.411239429065503e+00 4.407326356408835e-04 -4.417277945220068e-04
1.420617020998736e+00 6.609756769701092e-03 -6.106153148226529e-03
1.394216447931565e+00 2.055333081054423e-03 1.257668600681374e-03
1.401342616964816e+00 5.797691966188561e-04 1.158683939122543e-03
1.423606729246017e+00 2.885865162167769e-04 -5.165845216869580e-03
1.406064011258287e+00 5.959596379439515e-03 1.014120446965862e-03
1.391142112673559e+00 6.482400912166283e-04 1.295937700688259e-03
1.407082099542373e+00 1.169614129523751e-02 8.311371128146985e-04
1.395978243128347e+00 5.620422372081533e-04 1.214614991603303e-02
1.411691592015836e+00 4.987724475997288e-04 9.967354875163484e-04
1.394216447931565e+00 2.055333081054423e-03 1.257668600681374e-03
1.396935513564735e+00 6.810404547657895e-03 7.263895724352792e-03
1.388442508143638e+00 6.928889927843548e-04 2.853621267341158e-03
1.401342616964816e+00 5.797691966188561e-04 1.158683939122543e-03
1.406064011258287e+00 5.959596379439515e-03 1.014120446965862e-03
1.400104913517836e+00 5.821293651849384e-04 6.519560649247994e-03
1.391142112673559e+00 6.482400912166283e-04 1.295937700688259e-03
1.395978243128347e+00 5.620422372081533e-04 1.214614991603303e-02
1.428714475415253e+00 -1.160315576930191e-02 2.669480236890519e-04
1.411691592015836e+00 4.987724475997288e-04 9.967354875163484e-04
1.388442508143638e+00 6.928889927843548e-04 2.853621267341158e-03
1.408870293296503e+00 -6.091130858515503e-03 7.017641254041554e-03
1.405614805284723e+00 -8.501463485048261e-04 1.005434941601636e-03
1.401342616964816e+00 5.797691966188561e-04 1.158683939122543e-03
1.400104913517836e+00 5.821293651849384e-04 6.519560649247994e-03
1.417814914746868e+00 -5.285101025578743e-03 7.206813534554818e-04
1.391142112673559e+00 6.482400912166283e-04 1.295937700688259e-03
1.428714475415253e+00 -1.160315576930191e-02 2.669480236890519e-04
1.439258329772000e+00 -2.794988907812790e-06 -1.194076279668203e-02
1.411691592015836e+00 4.987724475997288e-04 9.967354875163484e-04
1.405614805284723e+00 -8.501463485048261e-04 1.005434941601636e-03
1.432189784012910e+00 -6.452845826014005e-03 -6.422264293240189e-03
1.411239429065503e+00 4.407326356408835e-04 -4.417277945220068e-04
1.401342616964816e+00 5.797691966188561e-04 1.158683939122543e-03
1.417814914746868e+00 -5.285101025578743e-03 7.206813534554818e-04
1.423606729246017e+00 2.885865162167769e-04 -5.165845216869580e-03
1.487991428003048e+00 -9.533286900590127e-03 -1.906378709153153e-02
1.407082099542373e+00 1.169614129523751e-02 8.311371128146985e-04
1.439258329772000e+00 -2.794988907812790e-06 -1.194076279668203e-02
1.411691592015836e+00 4.987724475997288e-04 9.967354875163484e-04
1.444283293298802e+00 3.090522632993679e-03 -8.406212813073119e-03
1.420617020998736e+00 6.609756769701092e-03 -6.106153148226529e-03
1.462722684448239e+00 -4.361740101707087e-03 -1.609529029664670e-02
1.449932225666251e+00 -4.301496499044245e-03 -8.602577840517215e-03
1.406064011258287e+00 5.959596379439515e-03 1.014120446965862e-03
1.423606729246017e+00 2.885865162167769e-04 -5.165845216869580e-03
1.487991428003048e+00 -9.533286900590127e-03 -1.906378709153153e-02
1.395978243128347e+00 5.620422372081533e-04 1.214614991603303e-02
1.407082099542373e+00 1.169614129523751e-02 8.311371128146985e-04
1.411691592015836e+00 4.987724475997288e-04 9.967354875163484e-04
1.438035133636589e+00 -4.148274481523010e-03 -1.034852674509899e-03
1.396935513564735e+00 6.810404547657895e-03 7.263895724352792e-03
1.444283293298802e+00 3.090522632993679e-03 -8.406212813073119e-03
1.449932225666251e+00 -4.301496499044245e-03 -8.602577840517215e-03
1.400104913517836e+00 5.821293651849384e-04 6.519560649247994e-03
1.406064011258287e+00 5.959596379439515e-03 1.014120446965862e-03
1.487991428003048e+00 -9.533286900590127e-03 -1.906378709153153e-02
1.428714475415253e+00 -1.160315576930191e-02 2.669480236890519e-04
1.395978243128347e+00 5.620422372081533e-04 1.214614991603303e-02
1.411691592015836e+00 4.987724475997288e-04 9.967354875163484e-04
1.456626405024328e+00 -1.165828643461800e-02 -8.619367596529405e-03
1.408870293296503e+00 -6.091130858515503e-03 7.017641254041554e-03
1.438035133636589e+00 -4.148274481523010e-03 -1.034852674509899e-03
1.449932225666251e+00 -4.301496499044245e-03 -8.602577840517215e-03
1.417814914746868e+00 -5.285101025578743e-03 7.206813534554818e-04
1.400104913517836e+00 5.821293651849384e-04 6.519560649247994e-03
1.487991428003048e+00 -9.533286900590127e-03 -1.906378709153153e-02
1.439258329772000e+00 -2.794988907812790e-06 -1.194076279668203e-02
1.428714475415253e+00 -1.160315576930191e-02 2.669480236890519e-04
1.411691592015836e+00 4.987724475997288e-04 9.967354875163484e-04
1.462722684448239e+00 -4.361740101707087e-03 -1.609529029664670e-02
1.432189784012910e+00 -6.452845826014005e-03 -6.422264293240189e-03
1.456626405024328e+00 -1.165828643461800e-02 -8.619367596529405e-03
1.449932225666251e+00 -4.301496499044245e-03 -8.602577840517215e-03
1.423606729246017e+00 2.885865162167769e-04 -5.165845216869580e-03
1.417814914746868e+00 -5.285101025578743e-03 7.206813534554818e-04
        </DataArray>
        <DataArray type="Float64" Name="mixture_constituent_elasthyper_prestretch" NumberOfComponents="9" format="ascii">
1.000000000000000e+00 1.000000000000000e+00 1.000000000000000e+00 0.000000000000000e+00 0.000000000000000e+00 0.000000000000000e+00 0.000000000000000e+00 0.000000000000000e+00 0.000000000000000e+00
1.000000000000000e+00 1.000000000000000e+00 1.000000000000000e+00 0.000000000000000e+00 0.000000000000000e+00 0.000000000000000e+00 0.000000000000000e+00 0.000000000000000e+00 0.000000000000000e+00
1.000000000000000e+00 1.000000000000000e+00 1.000000000000000e+00 0.000000000000000e+00 0.000000000000000e+00 0.000000000000000e+00 0.000000000000000e+00 0.000000000000000e+00 0.000000000000000e+00
9.999999999999999e-01 9.999999999999999e-01 9.999999999999999e-01 0.000000000000000e+00 0.000000000000000e+00 0.000000000000000e+00 0.000000000000000e+00 0.000000000000000e+00 0.000000000000000e+00
9.999999999999999e-01 9.999999999999999e-01 9.999999999999999e-01 0.000000000000000e+00 0.000000000000000e+00 0.000000000000000e+00 0.000000000000000e+00 0.000000000000000e+00 0.000000000000000e+00
1.000000000000000e+00 1.000000000000000e+00 1.000000000000000e+00 0.000000000000000e+00 0.000000000000000e+00 0.000000000000000e+00 0.000000000000000e+00 0.000000000000000e+00 0.000000000000000e+00
1.000000000000000e+00 1.000000000000000e+00 1.000000000000000e+00 0.000000000000000e+00 0.000000000000000e+00 0.000000000000000e+00 0.000000000000000e+00 0.000000000000000e+00 0.000000000000000e+00
1.000000000000000e+00 1.000000000000000e+00 1.000000000000000e+00 0.000000000000000e+00 0.000000000000000e+00 0.000000000000000e+00 0.000000000000000e+00 0.000000000000000e+00 0.000000000000000e+00
1.000000000000000e+00 1.000000000000000e+00 1.000000000000000e+00 0.000000000000000e+00 0.000000000000000e+00 0.000000000000000e+00 0.000000000000000e+00 0.000000000000000e+00 0.000000000000000e+00
1.000000000000000e+00 1.000000000000000e+00 1.000000000000000e+00 0.000000000000000e+00 0.000000000000000e+00 0.000000000000000e+00 0.000000000000000e+00 0.000000000000000e+00 0.000000000000000e+00
1.000000000000000e+00 1.000000000000000e+00 1.000000000000000e+00 0.000000000000000e+00 0.000000000000000e+00 0.000000000000000e+00 0.000000000000000e+00 0.000000000000000e+00 0.000000000000000e+00
1.000000000000000e+00 1.000000000000000e+00 1.000000000000000e+00 0.000000000000000e+00 0.000000000000000e+00 0.000000000000000e+00 0.000000000000000e+00 0.000000000000000e+00 0.000000000000000e+00
1.000000000000000e+00 1.000000000000000e+00 1.000000000000000e+00 0.000000000000000e+00 0.000000000000000e+00 0.000000000000000e+00 0.000000000000000e+00 0.000000000000000e+00 0.000000000000000e+00
1.000000000000000e+00 1.000000000000000e+00 1.000000000000000e+00 0.000000000000000e+00 0.000000000000000e+00 0.000000000000000e+00 0.000000000000000e+00 0.000000000000000e+00 0.000000000000000e+00
9.999999999999999e-01 9.999999999999999e-01 9.999999999999999e-01 0.000000000000000e+00 0.000000000000000e+00 0.000000000000000e+00 0.000000000000000e+00 0.000000000000000e+00 0.000000000000000e+00
1.000000000000000e+00 1.000000000000000e+00 1.000000000000000e+00 0.000000000000000e+00 0.000000000000000e+00 0.000000000000000e+00 0.000000000000000e+00 0.000000000000000e+00 0.000000000000000e+00
1.000000000000000e+00 1.000000000000000e+00 1.000000000000000e+00 0.000000000000000e+00 0.000000000000000e+00 0.000000000000000e+00 0.000000000000000e+00 0.000000000000000e+00 0.000000000000000e+00
0.000000000000000e+00 0.000000000000000e+00 0.000000000000000e+00 0.000000000000000e+00 0.000000000000000e+00 0.000000000000000e+00 0.000000000000000e+00 0.000000000000000e+00 0.000000000000000e+00
0.000000000000000e+00 0.000000000000000e+00 0.000000000000000e+00 0.000000000000000e+00 0.000000000000000e+00 0.000000000000000e+00 0.000000000000000e+00 0.000000000000000e+00 0.000000000000000e+00
1.000000000000000e+00 1.000000000000000e+00 1.000000000000000e+00 0.000000000000000e+00 0.000000000000000e+00 0.000000000000000e+00 0.000000000000000e+00 0.000000000000000e+00 0.000000000000000e+00
1.000000000000000e+00 1.000000000000000e+00 1.000000000000000e+00 0.000000000000000e+00 0.000000000000000e+00 0.000000000000000e+00 0.000000000000000e+00 0.000000000000000e+00 0.000000000000000e+00
0.000000000000000e+00 0.000000000000000e+00 0.000000000000000e+00 0.000000000000000e+00 0.000000000000000e+00 0.000000000000000e+00 0.000000000000000e+00 0.000000000000000e+00 0.000000000000000e+00
0.000000000000000e+00 0.000000000000000e+00 0.000000000000000e+00 0.000000000000000e+00 0.000000000000000e+00 0.000000000000000e+00 0.000000000000000e+00 0.000000000000000e+00 0.000000000000000e+00
9.999999999999999e-01 9.999999999999999e-01 9.999999999999999e-01 0.000000000000000e+00 0.000000000000000e+00 0.000000000000000e+00 0.000000000000000e+00 0.000000000000000e+00 0.000000000000000e+00
1.000000000000000e+00 1.000000000000000e+00 1.000000000000000e+00 0.000000000000000e+00 0.000000000000000e+00 0.000000000000000e+00 0.000000000000000e+00 0.000000000000000e+00 0.000000000000000e+00
1.000000000000000e+00 1.000000000000000e+00 1.000000000000000e+00 0.000000000000000e+00 0.000000000000000e+00 0.000000000000000e+00 0.000000000000000e+00 0.000000000000000e+00 0.000000000000000e+00
1.000000000000000e+00 1.000000000000000e+00 1.000000000000000e+00 0.000000000000000e+00 0.000000000000000e+00 0.000000000000000e+00 0.000000000000000e+00 0.000000000000000e+00 0.000000000000000e+00
1.000000000000000e+00 1.000000000000000e+00 1.000000000000000e+00 0.000000000000000e+00 0.000000000000000e+00 0.000000000000000e+00 0.000000000000000e+00 0.000000000000000e+00 0.000000000000000e+00
1.000000000000000e+00 1.000000000000000e+00 1.000000000000000e+00 0.000000000000000e+00 0.000000000000000e+00 0.000000000000000e+00 0.000000000000000e+00 0.000000000000000e+00 0.000000000000000e+00
1.000000000000000e+00 1.000000000000000e+00 1.000000000000000e+00 0.000000000000000e+00 0.000000000000000e+00 0.000000000000000e+00 0.000000000000000e+00 0.000000000000000e+00 0.000000000000000e+00
1.000000000000000e+00 1.000000000000000e+00 1.000000000000000e+00 0.000000000000000e+00 0.000000000000000e+00 0.000000000000000e+00 0.000000000000000e+00 0.000000000000000e+00 0.000000000000000e+00
1.000000000000000e+00 1.000000000000000e+00 1.000000000000000e+00 0.000000000000000e+00 0.000000000000000e+00 0.000000000000000e+00 0.000000000000000e+00 0.000000000000000e+00 0.000000000000000e+00
1.000000000000000e+00 1.000000000000000e+00 1.000000000000000e+00 0.000000000000000e+00 0.000000000000000e+00 0.000000000000000e+00 0.000000000000000e+00 0.000000000000000e+00 0.000000000000000e+00
1.000000000000000e+00 1.000000000000000e+00 1.000000000000000e+00 0.000000000000000e+00 0.000000000000000e+00 0.000000000000000e+00 0.000000000000000e+00 0.000000000000000e+00 0.000000000000000e+00
1.000000000000000e+00 1.000000000000000e+00 1.000000000000000e+00 0.000000000000000e+00 0.000000000000000e+00 0.000000000000000e+00 0.000000000000000e+00 0.000000000000000e+00 0.000000000000000e+00
1.000000000000000e+00 1.000000000000000e+00 1.000000000000000e+00 0.000000000000000e+00 0.000000000000000e+00 0.000000000000000e+00 0.000000000000000e+00 0.000000000000000e+00 0.000000000000000e+00
1.000000000000000e+00 1.000000000000000e+00 1.000000000000000e+00 0.000000000000000e+00 0.000000000000000e+00 0.000000000000000e+00 0.000000000000000e+00 0.000000000000000e+00 0.000000000000000e+00
1.000000000000000e+00 1.000000000000000e+00 1.000000000000000e+00 0.000000000000000e+00 0.000000000000000e+00 0.000000000000000e+00 0.000000000000000e+00 0.000000000000000e+00 0.000000000000000e+00
1.000000000000000e+00 1.000000000000000e+00 1.000000000000000e+00 0.000000000000000e+00 0.000000000000000e+00 0.000000000000000e+00 0.000000000000000e+00 0.000000000000000e+00 0.000000000000000e+00
1.000000000000000e+00 1.000000000000000e+00 1.000000000000000e+00 0.000000000000000e+00 0.000000000000000e+00 0.000000000000000e+00 0.000000000000000e+00 0.000000000000000e+00 0.000000000000000e+00
1.000000000000000e+00 1.000000000000000e+00 1.000000000000000e+00 0.000000000000000e+00 0.000000000000000e+00 0.000000000000000e+00 0.000000000000000e+00 0.000000000000000e+00 0.000000000000000e+00
1.000000000000000e+00 1.000000000000000e+00 1.000000000000000e+00 0.000000000000000e+00 0.000000000000000e+00 0.000000000000000e+00 0.000000000000000e+00 0.000000000000000e+00 0.000000000000000e+00
1.000000000000000e+00 1.000000000000000e+00 1.000000000000000e+00 0.000000000000000e+00 0.000000000000000e+00 0.000000000000000e+00 0.000000000000000e+00 0.000000000000000e+00 0.000000000000000e+00
1.000000000000000e+00 1.000000000000000e+00 1.000000000000000e+00 0.000000000000000e+00 0.000000000000000e+00 0.000000000000000e+00 0.000000000000000e+00 0.000000000000000e+00 0.000000000000000e+00
1.000000000000000e+00 1.000000000000000e+00 1.000000000000000e+00 0.000000000000000e+00 0.000000000000000e+00 0.000000000000000e+00 0.000000000000000e+00 0.000000000000000e+00 0.000000000000000e+00
1.000000000000000e+00 1.000000000000000e+00 1.000000000000000e+00 0.000000000000000e+00 0.000000000000000e+00 0.000000000000000e+00 0.000000000000000e+00 0.000000000000000e+00 0.000000000000000e+00
1.000000000000000e+00 1.000000000000000e+00 1.000000000000000e+00 0.000000000000000e+00 0.000000000000000e+00 0.000000000000000e+00 0.000000000000000e+00 0.000000000000000e+00 0.000000000000000e+00
1.000000000000000e+00 1.000000000000000e+00 1.000000000000000e+00 0.000000000000000e+00 0.000000000000000e+00 0.000000000000000e+00 0.000000000000000e+00 0.000000000000000e+00 0.000000000000000e+00
1.000000000000000e+00 1.000000000000000e+00 1.000000000000000e+00 0.000000000000000e+00 0.000000000000000e+00 0.000000000000000e+00 0.000000000000000e+00 0.000000000000000e+00 0.000000000000000e+00
1.000000000000000e+00 1.000000000000000e+00 1.000000000000000e+00 0.000000000000000e+00 0.000000000000000e+00 0.000000000000000e+00 0.000000000000000e+00 0.000000000000000e+00 0.000000000000000e+00
1.000000000000000e+00 1.000000000000000e+00 1.000000000000000e+00 0.000000000000000e+00 0.000000000000000e+00 0.000000000000000e+00 0.000000000000000e+00 0.000000000000000e+00 0.000000000000000e+00
1.000000000000000e+00 1.000000000000000e+00 1.000000000000000e+00 0.000000000000000e+00 0.000000000000000e+00 0.000000000000000e+00 0.000000000000000e+00 0.000000000000000e+00 0.000000000000000e+00
1.000000000000000e+00 1.000000000000000e+00 1.000000000000000e+00 0.000000000000000e+00 0.000000000000000e+00 0.000000000000000e+00 0.000000000000000e+00 0.000000000000000e+00 0.000000000000000e+00
1.000000000000000e+00 1.000000000000000e+00 1.000000000000000e+00 0.000000000000000e+00 0.000000000000000e+00 0.000000000000000e+00 0.000000000000000e+00 0.000000000000000e+00 0.000000000000000e+00
1.000000000000000e+00 1.000000000000000e+00 1.000000000000000e+00 0.000000000000000e+00 0.000000000000000e+00 0.000000000000000e+00 0.000000000000000e+00 0.000000000000000e+00 0.000000000000000e+00
1.000000000000000e+00 1.000000000000000e+00 1.000000000000000e+00 0.000000000000000e+00 0.000000000000000e+00 0.000000000000000e+00 0.000000000000000e+00 0.000000000000000e+00 0.000000000000000e+00
1.000000000000000e+00 1.000000000000000e+00 1.000000000000000e+00 0.000000000000000e+00 0.000000000000000e+00 0.000000000000000e+00 0.000000000000000e+00 0.000000000000000e+00 0.000000000000000e+00
1.000000000000000e+00 1.000000000000000e+00 1.000000000000000e+00 0.000000000000000e+00 0.000000000000000e+00 0.000000000000000e+00 0.000000000000000e+00 0.000000000000000e+00 0.000000000000000e+00
1.000000000000000e+00 1.000000000000000e+00 1.000000000000000e+00 0.000000000000000e+00 0.000000000000000e+00 0.000000000000000e+00 0.000000000000000e+00 0.000000000000000e+00 0.000000000000000e+00
1.000000000000000e+00 1.000000000000000e+00 1.000000000000000e+00 0.000000000000000e+00 0.000000000000000e+00 0.000000000000000e+00 0.000000000000000e+00 0.000000000000000e+00 0.000000000000000e+00
1.000000000000000e+00 1.000000000000000e+00 1.000000000000000e+00 0.000000000000000e+00 0.000000000000000e+00 0.000000000000000e+00 0.000000000000000e+00 0.000000000000000e+00 0.000000000000000e+00
1.000000000000000e+00 1.000000000000000e+00 1.000000000000000e+00 0.000000000000000e+00 0.000000000000000e+00 0.000000000000000e+00 0.000000000000000e+00 0.000000000000000e+00 0.000000000000000e+00
1.000000000000000e+00 1.000000000000000e+00 1.000000000000000e+00 0.000000000000000e+00 0.000000000000000e+00 0.000000000000000e+00 0.000000000000000e+00 0.000000000000000e+00 0.000000000000000e+00
1.000000000000000e+00 1.000000000000000e+00 1.000000000000000e+00 0.000000000000000e+00 0.000000000000000e+00 0.000000000000000e+00 0.000000000000000e+00 0.000000000000000e+00 0.000000000000000e+00
1.000000000000000e+00 1.000000000000000e+00 1.000000000000000e+00 0.000000000000000e+00 0.000000000000000e+00 0.000000000000000e+00 0.000000000000000e+00 0.000000000000000e+00 0.000000000000000e+00
1.000000000000000e+00 1.000000000000000e+00 1.000000000000000e+00 0.000000000000000e+00 0.000000000000000e+00 0.000000000000000e+00 0.000000000000000e+00 0.000000000000000e+00 0.000000000000000e+00
1.000000000000000e+00 1.000000000000000e+00 1.000000000000000e+00 0.000000000000000e+00 0.000000000000000e+00 0.000000000000000e+00 0.000000000000000e+00 0.000000000000000e+00 0.000000000000000e+00
1.000000000000000e+00 1.000000000000000e+00 1.000000000000000e+00 0.000000000000000e+00 0.000000000000000e+00 0.000000000000000e+00 0.000000000000000e+00 0.000000000000000e+00 0.000000000000000e+00
1.000000000000000e+00 1.000000000000000e+00 1.000000000000000e+00 0.000000000000000e+00 0.000000000000000e+00 0.000000000000000e+00 0.000000000000000e+00 0.000000000000000e+00 0.000000000000000e+00
1.000000000000000e+00 1.000000000000000e+00 1.000000000000000e+00 0.000000000000000e+00 0.000000000000000e+00 0.000000000000000e+00 0.000000000000000e+00 0.000000000000000e+00 0.000000000000000e+00
1.000000000000000e+00 1.000000000000000e+00 1.000000000000000e+00 0.000000000000000e+00 0.000000000000000e+00 0.000000000000000e+00 0.000000000000000e+00 0.000000000000000e+00 0.000000000000000e+00
1.000000000000000e+00 1.000000000000000e+00 1.000000000000000e+00 0.000000000000000e+00 0.000000000000000e+00 0.000000000000000e+00 0.000000000000000e+00 0.000000000000000e+00 0.000000000000000e+00
1.000000000000000e+00 1.000000000000000e+00 1.000000000000000e+00 0.000000000000000e+00 0.000000000000000e+00 0.000000000000000e+00 0.000000000000000e+00 0.000000000000000e+00 0.000000000000000e+00
1.000000000000000e+00 1.000000000000000e+00 1.000000000000000e+00 0.000000000000000e+00 0.000000000000000e+00 0.000000000000000e+00 0.000000000000000e+00 0.000000000000000e+00 0.000000000000000e+00
1.000000000000000e+00 1.000000000000000e+00 1.000000000000000e+00 0.000000000000000e+00 0.000000000000000e+00 0.000000000000000e+00 0.000000000000000e+00 0.000000000000000e+00 0.000000000000000e+00
1.000000000000000e+00 1.000000000000000e+00 1.000000000000000e+00 0.000000000000000e+00 0.000000000000000e+00 0.000000000000000e+00 0.000000000000000e+00 0.000000000000000e+00 0.000000000000000e+00
1.000000000000000e+00 1.000000000000000e+00 1.000000000000000e+00 0.000000000000000e+00 0.000000000000000e+00 0.000000000000000e+00 0.000000000000000e+00 0.000000000000000e+00 0.000000000000000e+00
1.000000000000000e+00 1.000000000000000e+00 1.000000000000000e+00 0.000000000000000e+00 0.000000000000000e+00 0.000000000000000e+00 0.000000000000000e+00 0.000000000000000e+00 0.000000000000000e+00
1.000000000000000e+00 1.000000000000000e+00 1.000000000000000e+00 0.000000000000000e+00 0.000000000000000e+00 0.000000000000000e+00 0.000000000000000e+00 0.000000000000000e+00 0.000000000000000e+00
1.000000000000000e+00 1.000000000000000e+00 1.000000000000000e+00 0.000000000000000e+00 0.000000000000000e+00 0.000000000000000e+00 0.000000000000000e+00 0.000000000000000e+00 0.000000000000000e+00
1.000000000000000e+00 1.000000000000000e+00 1.000000000000000e+00 0.000000000000000e+00 0.000000000000000e+00 0.000000000000000e+00 0.000000000000000e+00 0.000000000000000e+00 0.000000000000000e+00
1.000000000000000e+00 1.000000000000000e+00 1.000000000000000e+00 0.000000000000000e+00 0.000000000000000e+00 0.000000000000000e+00 0.000000000000000e+00 0.000000000000000e+00 0.000000000000000e+00
1.000000000000000e+00 1.000000000000000e+00 1.000000000000000e+00 0.000000000000000e+00 0.000000000000000e+00 0.000000000000000e+00 0.000000000000000e+00 0.000000000000000e+00 0.000000000000000e+00
1.000000000000000e+00 1.000000000000000e+00 1.000000000000000e+00 0.000000000000000e+00 0.000000000000000e+00 0.000000000000000e+00 0.000000000000000e+00 0.000000000000000e+00 0.000000000000000e+00
1.000000000000000e+00 1.000000000000000e+00 1.000000000000000e+00 0.000000000000000e+00 0.000000000000000e+00 0.000000000000000e+00 0.000000000000000e+00 0.000000000000000e+00 0.000000000000000e+00
1.000000000000000e+00 1.000000000000000e+00 1.000000000000000e+00 0.000000000000000e+00 0.000000000000000e+00 0.000000000000000e+00 0.000000000000000e+00 0.000000000000000e+00 0.000000000000000e+00
1.000000000000000e+00 1.000000000000000e+00 1.000000000000000e+00 0.000000000000000e+00 0.000000000000000e+00 0.000000000000000e+00 0.000000000000000e+00 0.000000000000000e+00 0.000000000000000e+00
1.000000000000000e+00 1.000000000000000e+00 1.000000000000000e+00 0.000000000000000e+00 0.000000000000000e+00 0.000000000000000e+00 0.000000000000000e+00 0.000000000000000e+00 0.000000000000000e+00
1.000000000000000e+00 1.000000000000000e+00 1.000000000000000e+00 0.000000000000000e+00 0.000000000000000e+00 0.000000000000000e+00 0.000000000000000e+00 0.000000000000000e+00 0.000000000000000e+00
1.000000000000000e+00 1.000000000000000e+00 1.000000000000000e+00 0.000000000000000e+00 0.000000000000000e+00 0.000000000000000e+00 0.000000000000000e+00 0.000000000000000e+00 0.000000000000000e+00
1.000000000000000e+00 1.000000000000000e+00 1.000000000000000e+00 0.000000000000000e+00 0.000000000000000e+00 0.000000000000000e+00 0.000000000000000e+00 0.000000000000000e+00 0.000000000000000e+00
1.000000000000000e+00 1.000000000000000e+00 1.000000000000000e+00 0.000000000000000e+00 0.000000000000000e+00 0.000000000000000e+00 0.000000000000000e+00 0.000000000000000e+00 0.000000000000000e+00
1.000000000000000e+00 1.000000000000000e+00 1.000000000000000e+00 0.000000000000000e+00 0.000000000000000e+00 0.000000000000000e+00 0.000000000000000e+00 0.000000000000000e+00 0.000000000000000e+00
1.000000000000000e+00 1.000000000000000e+00 1.000000000000000e+00 0.000000000000000e+00 0.000000000000000e+00 0.000000000000000e+00 0.000000000000000e+00 0.000000000000000e+00 0.000000000000000e+00
1.000000000000000e+00 1.000000000000000e+00 1.000000000000000e+00 0.000000000000000e+00 0.000000000000000e+00 0.000000000000000e+00 0.000000000000000e+00 0.000000000000000e+00 0.000000000000000e+00
1.000000000000000e+00 1.000000000000000e+00 1.000000000000000e+00 0.000000000000000e+00 0.000000000000000e+00 0.000000000000000e+00 0.000000000000000e+00 0.000000000000000e+00 0.000000000000000e+00
1.000000000000000e+00 1.000000000000000e+00 1.000000000000000e+00 0.000000000000000e+00 0.000000000000000e+00 0.000000000000000e+00 0.000000000000000e+00 0.000000000000000e+00 0.000000000000000e+00
1.000000000000000e+00 1.000000000000000e+00 1.000000000000000e+00 0.000000000000000e+00 0.000000000000000e+00 0.000000000000000e+00 0.000000000000000e+00 0.000000000000000e+00 0.000000000000000e+00
1.000000000000000e+00 1.000000000000000e+00 1.000000000000000e+00 0.000000000000000e+00 0.000000000000000e+00 0.000000000000000e+00 0.000000000000000e+00 0.000000000000000e+00 0.000000000000000e+00
1.000000000000000e+00 1.000000000000000e+00 1.000000000000000e+00 0.000000000000000e+00 0.000000000000000e+00 0.000000000000000e+00 0.000000000000000e+00 0.000000000000000e+00 0.000000000000000e+00
1.000000000000000e+00 1.000000000000000e+00 1.000000000000000e+00 0.000000000000000e+00 0.000000000000000e+00 0.000000000000000e+00 0.000000000000000e+00 0.000000000000000e+00 0.000000000000000e+00
1.000000000000000e+00 1.000000000000000e+00 1.000000000000000e+00 0.000000000000000e+00 0.000000000000000e+00 0.000000000000000e+00 0.000000000000000e+00 0.000000000000000e+00 0.000000000000000e+00
1.000000000000000e+00 1.000000000000000e+00 1.000000000000000e+00 0.000000000000000e+00 0.000000000000000e+00 0.000000000000000e+00 0.000000000000000e+00 0.000000000000000e+00 0.000000000000000e+00
1.000000000000000e+00 1.000000000000000e+00 1.000000000000000e+00 0.000000000000000e+00 0.000000000000000e+00 0.000000000000000e+00 0.000000000000000e+00 0.000000000000000e+00 0.000000000000000e+00
1.000000000000000e+00 1.000000000000000e+00 1.000000000000000e+00 0.000000000000000e+00 0.000000000000000e+00 0.000000000000000e+00 0.000000000000000e+00 0.000000000000000e+00 0.000000000000000e+00
1.000000000000000e+00 1.000000000000000e+00 1.000000000000000e+00 0.000000000000000e+00 0.000000000000000e+00 0.000000000000000e+00 0.000000000000000e+00 0.000000000000000e+00 0.000000000000000e+00
1.000000000000000e+00 1.000000000000000e+00 1.000000000000000e+00 0.000000000000000e+00 0.000000000000000e+00 0.000000000000000e+00 0.000000000000000e+00 0.000000000000000e+00 0.000000000000000e+00
0.000000000000000e+00 0.000000000000000e+00 0.000000000000000e+00 0.000000000000000e+00 0.000000000000000e+00 0.000000000000000e+00 0.000000000000000e+00 0.000000000000000e+00 0.000000000000000e+00
0.000000000000000e+00 0.000000000000000e+00 0.000000000000000e+00 0.000000000000000e+00 0.000000000000000e+00 0.000000000000000e+00 0.000000000000000e+00 0.000000000000000e+00 0.000000000000000e+00
1.000000000000000e+00 1.000000000000000e+00 1.000000000000000e+00 0.000000000000000e+00 0.000000000000000e+00 0.000000000000000e+00 0.000000000000000e+00 0.000000000000000e+00 0.000000000000000e+00
1.000000000000000e+00 1.000000000000000e+00 1.000000000000000e+00 0.000000000000000e+00 0.000000000000000e+00 0.000000000000000e+00 0.000000000000000e+00 0.000000000000000e+00 0.000000000000000e+00
0.000000000000000e+00 0.000000000000000e+00 0.000000000000000e+00 0.000000000000000e+00 0.000000000000000e+00 0.000000000000000e+00 0.000000000000000e+00 0.000000000000000e+00 0.000000000000000e+00
0.000000000000000e+00 0.000000000000000e+00 0.000000000000000e+00 0.000000000000000e+00 0.000000000000000e+00 0.000000000000000e+00 0.000000000000000e+00 0.000000000000000e+00 0.000000000000000e+00
0.000000000000000e+00 0.000000000000000e+00 0.000000000000000e+00 0.000000000000000e+00 0.000000000000000e+00 0.000000000000000e+00 0.000000000000000e+00 0.000000000000000e+00 0.000000000000000e+00
1.000000000000000e+00 1.000000000000000e+00 1.000000000000000e+00 0.000000000000000e+00 0.000000000000000e+00 0.000000000000000e+00 0.000000000000000e+00 0.000000000000000e+00 0.000000000000000e+00
1.000000000000000e+00 1.000000000000000e+00 1.000000000000000e+00 0.000000000000000e+00 0.000000000000000e+00 0.000000000000000e+00 0.000000000000000e+00 0.000000000000000e+00 0.000000000000000e+00
1.000000000000000e+00 1.000000000000000e+00 1.000000000000000e+00 0.000000000000000e+00 0.000000000000000e+00 0.000000000000000e+00 0.000000000000000e+00 0.000000000000000e+00 0.000000000000000e+00
0.000000000000000e+00 0.000000000000000e+00 0.000000000000000e+00 0.000000000000000e+00 0.000000000000000e+00 0.000000000000000e+00 0.000000000000000e+00 0.000000000000000e+00 0.000000000000000e+00
0.000000000000000e+00 0.000000000000000e+00 0.000000000000000e+00 0.000000000000000e+00 0.000000000000000e+00 0.000000000000000e+00 0.000000000000000e+00 0.000000000000000e+00 0.000000000000000e+00
1.000000000000000e+00 1.000000000000000e+00 1.000000000000000e+00 0.000000000000000e+00 0.000000000000000e+00 0.000000000000000e+00 0.000000000000000e+00 0.000000000000000e+00 0.000000000000000e+00
1.000000000000000e+00 1.000000000000000e+00 1.000000000000000e+00 0.000000000000000e+00 0.000000000000000e+00 0.000000000000000e+00 0.000000000000000e+00 0.000000000000000e+00 0.000000000000000e+00
0.000000000000000e+00 0.000000000000000e+00 0.000000000000000e+00 0.000000000000000e+00 0.000000000000000e+00 0.000000000000000e+00 0.000000000000000e+00 0.000000000000000e+00 0.000000000000000e+00
0.000000000000000e+00 0.000000000000000e+00 0.000000000000000e+00 0.000000000000000e+00 0.000000000000000e+00 0.000000000000000e+00 0.000000000000000e+00 0.000000000000000e+00 0.000000000000000e+00
0.000000000000000e+00 0.000000000000000e+00 0.000000000000000e+00 0.000000000000000e+00 0.000000000000000e+00 0.000000000000000e+00 0.000000000000000e+00 0.000000000000000e+00 0.000000000000000e+00
1.000000000000000e+00 1.000000000000000e+00 1.000000000000000e+00 0.000000000000000e+00 0.000000000000000e+00 0.000000000000000e+00 0.000000000000000e+00 0.000000000000000e+00 0.000000000000000e+00
1.000000000000000e+00 1.000000000000000e+00 1.000000000000000e+00 0.000000000000000e+00 0.000000000000000e+00 0.000000000000000e+00 0.000000000000000e+00 0.000000000000000e+00 0.000000000000000e+00
1.000000000000000e+00 1.000000000000000e+00 1.000000000000000e+00 0.000000000000000e+00 0.000000000000000e+00 0.000000000000000e+00 0.000000000000000e+00 0.000000000000000e+00 0.000000000000000e+00
0.000000000000000e+00 0.000000000000000e+00 0.000000000000000e+00 0.000000000000000e+00 0.000000000000000e+00 0.000000000000000e+00 0.000000000000000e+00 0.000000000000000e+00 0.000000000000000e+00
0.000000000000000e+00 0.000000000000000e+00 0.000000000000000e+00 0.000000000000000e+00 0.000000000000000e+00 0.000000000000000e+00 0.000000000000000e+00 0.000000000000000e+00 0.000000000000000e+00
1.000000000000000e+00 1.000000000000000e+00 1.000000000000000e+00 0.000000000000000e+00 0.000000000000000e+00 0.000000000000000e+00 0.000000000000000e+00 0.000000000000000e+00 0.000000000000000e+00
1.000000000000000e+00 1.000000000000000e+00 1.000000000000000e+00 0.000000000000000e+00 0.000000000000000e+00 0.000000000000000e+00 0.000000000000000e+00 0.000000000000000e+00 0.000000000000000e+00
0.000000000000000e+00 0.000000000000000e+00 0.000000000000000e+00 0.000000000000000e+00 0.000000000000000e+00 0.000000000000000e+00 0.000000000000000e+00 0.000000000000000e+00 0.000000000000000e+00
0.000000000000000e+00 0.000000000000000e+00 0.000000000000000e+00 0.000000000000000e+00 0.000000000000000e+00 0.000000000000000e+00 0.000000000000000e+00 0.000000000000000e+00 0.000000000000000e+00
0.000000000000000e+00 0.000000000000000e+00 0.000000000000000e+00 0.000000000000000e+00 0.000000000000000e+00 0.000000000000000e+00 0.000000000000000e+00 0.000000000000000e+00 0.000000000000000e+00
1.000000000000000e+00 1.000000000000000e+00 1.000000000000000e+00 0.000000000000000e+00 0.000000000000000e+00 0.000000000000000e+00 0.000000000000000e+00 0.000000000000000e+00 0.000000000000000e+00
1.000000000000000e+00 1.000000000000000e+00 1.000000000000000e+00 0.000000000000000e+00 0.000000000000000e+00 0.000000000000000e+00 0.000000000000000e+00 0.000000000000000e+00 0.000000000000000e+00
1.000000000000000e+00 1.000000000000000e+00 1.000000000000000e+00 0.000000000000000e+00 0.000000000000000e+00 0.000000000000000e+00 0.000000000000000e+00 0.000000000000000e+00 0.000000000000000e+00
0.000000000000000e+00 0.000000000000000e+00 0.000000000000000e+00 0.000000000000000e+00 0.000000000000000e+00 0.000000000000000e+00 0.000000000000000e+00 0.000000000000000e+00 0.000000000000000e+00
0.000000000000000e+00 0.000000000000000e+00 0.000000000000000e+00 0.000000000000000e+00 0.000000000000000e+00 0.000000000000000e+00 0.000000000000000e+00 0.000000000000000e+00 0.000000000000000e+00
1.000000000000000e+00 1.000000000000000e+00 1.000000000000000e+00 0.000000000000000e+00 0.000000000000000e+00 0.000000000000000e+00 0.000000000000000e+00 0.000000000000000e+00 0.000000000000000e+00
1.000000000000000e+00 1.000000000000000e+00 1.000000000000000e+00 0.000000000000000e+00 0.000000000000000e+00 0.000000000000000e+00 0.000000000000000e+00 0.000000000000000e+00 0.000000000000000e+00
0.000000000000000e+00 0.000000000000000e+00 0.000000000000000e+00 0.000000000000000e+00 0.000000000000000e+00 0.000000000000000e+00 0.000000000000000e+00 0.000000000000000e+00 0.000000000000000e+00
0.000000000000000e+00 0.000000000000000e+00 0.000000000000000e+00 0.000000000000000e+00 0.000000000000000e+00 0.000000000000000e+00 0.000000000000000e+00 0.000000000000000e+00 0.000000000000000e+00
0.000000000000000e+00 0.000000000000000e+00 0.000000000000000e+00 0.000000000000000e+00 0.000000000000000e+00 0.000000000000000e+00 0.000000000000000e+00 0.000000000000000e+00 0.000000000000000e+00
1.000000000000000e+00 1.000000000000000e+00 1.000000000000000e+00 0.000000000000000e+00 0.000000000000000e+00 0.000000000000000e+00 0.000000000000000e+00 0.000000000000000e+00 0.000000000000000e+00
1.000000000000000e+00 1.000000000000000e+00 1.000000000000000e+00 0.000000000000000e+00 0.000000000000000e+00 0.000000000000000e+00 0.000000000000000e+00 0.000000000000000e+00 0.000000000000000e+00
1.000000000000000e+00 1.000000000000000e+00 1.000000000000000e+00 0.000000000000000e+00 0.000000000000000e+00 0.000000000000000e+00 0.000000000000000e+00 0.000000000000000e+00 0.000000000000000e+00
1.000000000000000e+00 1.000000000000000e+00 1.000000000000000e+00 0.000000000000000e+00 0.000000000000000e+00 0.000000000000000e+00 0.000000000000000e+00 0.000000000000000e+00 0.000000000000000e+00
1.000000000000000e+00 1.000000000000000e+00 1.000000000000000e+00 0.000000000000000e+00 0.000000000000000e+00 0.000000000000000e+00 0.000000000000000e+00 0.000000000000000e+00 0.000000000000000e+00
1.000000000000000e+00 1.000000000000000e+00 1.000000000000000e+00 0.000000000000000e+00 0.000000000000000e+00 0.000000000000000e+00 0.000000000000000e+00 0.000000000000000e+00 0.000000000000000e+00
1.000000000000000e+00 1.000000000000000e+00 1.000000000000000e+00 0.000000000000000e+00 0.000000000000000e+00 0.000000000000000e+00 0.000000000000000e+00 0.000000000000000e+00 0.000000000000000e+00
1.000000000000000e+00 1.000000000000000e+00 1.000000000000000e+00 0.000000000000000e+00 0.000000000000000e+00 0.000000000000000e+00 0.000000000000000e+00 0.000000000000000e+00 0.000000000000000e+00
1.000000000000000e+00 1.000000000000000e+00 1.000000000000000e+00 0.000000000000000e+00 0.000000000000000e+00 0.000000000000000e+00 0.000000000000000e+00 0.000000000000000e+00 0.000000000000000e+00
1.000000000000000e+00 1.000000000000000e+00 1.000000000000000e+00 0.000000000000000e+00 0.000000000000000e+00 0.000000000000000e+00 0.000000000000000e+00 0.000000000000000e+00 0.000000000000000e+00
1.000000000000000e+00 1.000000000000000e+00 1.000000000000000e+00 0.000000000000000e+00 0.000000000000000e+00 0.000000000000000e+00 0.000000000000000e+00 0.000000000000000e+00 0.000000000000000e+00
1.000000000000000e+00 1.000000000000000e+00 1.000000000000000e+00 0.000000000000000e+00 0.000000000000000e+00 0.000000000000000e+00 0.000000000000000e+00 0.000000000000000e+00 0.000000000000000e+00
1.000000000000000e+00 1.000000000000000e+00 1.000000000000000e+00 0.000000000000000e+00 0.000000000000000e+00 0.000000000000000e+00 0.000000000000000e+00 0.000000000000000e+00 0.000000000000000e+00
1.000000000000000e+00 1.000000000000000e+00 1.000000000000000e+00 0.000000000000000e+00 0.000000000000000e+00 0.000000000000000e+00 0.000000000000000e+00 0.000000000000000e+00 0.000000000000000e+00
1.000000000000000e+00 1.000000000000000e+00 1.000000000000000e+00 0.000000000000000e+00 0.000000000000000e+00 0.000000000000000e+00 0.000000000000000e+00 0.000000000000000e+00 0.000000000000000e+00
1.000000000000000e+00 1.000000000000000e+00 1.000000000000000e+00 0.000000000000000e+00 0.000000000000000e+00 0.000000000000000e+00 0.000000000000000e+00 0.000000000000000e+00 0.000000000000000e+00
1.000000000000000e+00 1.000000000000000e+00 1.000000000000000e+00 0.000000000000000e+00 0.000000000000000e+00 0.000000000000000e+00 0.000000000000000e+00 0.000000000000000e+00 0.000000000000000e+00
1.000000000000000e+00 1.000000000000000e+00 1.000000000000000e+00 0.000000000000000e+00 0.000000000000000e+00 0.000000000000000e+00 0.000000000000000e+00 0.000000000000000e+00 0.000000000000000e+00
1.000000000000000e+00 1.000000000000000e+00 1.000000000000000e+00 0.000000000000000e+00 0.000000000000000e+00 0.000000000000000e+00 0.000000000000000e+00 0.000000000000000e+00 0.000000000000000e+00
1.000000000000000e+00 1.000000000000000e+00 1.000000000000000e+00 0.000000000000000e+00 0.000000000000000e+00 0.000000000000000e+00 0.000000000000000e+00 0.000000000000000e+00 0.000000000000000e+00
1.000000000000000e+00 1.000000000000000e+00 1.000000000000000e+00 0.000000000000000e+00 0.000000000000000e+00 0.000000000000000e+00 0.000000000000000e+00 0.000000000000000e+00 0.000000000000000e+00
1.000000000000000e+00 1.000000000000000e+00 1.000000000000000e+00 0.000000000000000e+00 0.000000000000000e+00 0.000000000000000e+00 0.000000000000000e+00 0.000000000000000e+00 0.000000000000000e+00
1.000000000000000e+00 1.000000000000000e+00 1.000000000000000e+00 0.000000000000000e+00 0.000000000000000e+00 0.000000000000000e+00 0.000000000000000e+00 0.000000000000000e+00 0.000000000000000e+00
1.000000000000000e+00 1.000000000000000e+00 1.000000000000000e+00 0.000000000000000e+00 0.000000000000000e+00 0.000000000000000e+00 0.000000000000000e+00 0.000000000000000e+00 0.000000000000000e+00
1.000000000000000e+00 1.000000000000000e+00 1.000000000000000e+00 0.000000000000000e+00 0.000000000000000e+00 0.000000000000000e+00 0.000000000000000e+00 0.000000000000000e+00 0.000000000000000e+00
1.000000000000000e+00 1.000000000000000e+00 1.000000000000000e+00 0.000000000000000e+00 0.000000000000000e+00 0.000000000000000e+00 0.000000000000000e+00 0.000000000000000e+00 0.000000000000000e+00
1.000000000000000e+00 1.000000000000000e+00 1.000000000000000e+00 0.000000000000000e+00 0.000000000000000e+00 0.000000000000000e+00 0.000000000000000e+00 0.000000000000000e+00 0.000000000000000e+00
1.000000000000000e+00 1.000000000000000e+00 1.000000000000000e+00 0.000000000000000e+00 0.000000000000000e+00 0.000000000000000e+00 0.000000000000000e+00 0.000000000000000e+00 0.000000000000000e+00
1.000000000000000e+00 1.000000000000000e+00 1.000000000000000e+00 0.000000000000000e+00 0.000000000000000e+00 0.000000000000000e+00 0.000000000000000e+00 0.000000000000000e+00 0.000000000000000e+00
1.000000000000000e+00 1.000000000000000e+00 1.000000000000000e+00 0.000000000000000e+00 0.000000000000000e+00 0.000000000000000e+00 0.000000000000000e+00 0.000000000000000e+00 0.000000000000000e+00
1.000000000000000e+00 1.000000000000000e+00 1.000000000000000e+00 0.000000000000000e+00 0.000000000000000e+00 0.000000000000000e+00 0.000000000000000e+00 0.000000000000000e+00 0.000000000000000e+00
1.000000000000000e+00 1.000000000000000e+00 1.000000000000000e+00 0.000000000000000e+00 0.000000000000000e+00 0.000000000000000e+00 0.000000000000000e+00 0.000000000000000e+00 0.000000000000000e+00
1.000000000000000e+00 1.000000000000000e+00 1.000000000000000e+00 0.000000000000000e+00 0.000000000000000e+00 0.000000000000000e+00 0.000000000000000e+00 0.000000000000000e+00 0.000000000000000e+00
1.000000000000000e+00 1.000000000000000e+00 1.000000000000000e+00 0.000000000000000e+00 0.000000000000000e+00 0.000000000000000e+00 0.000000000000000e+00 0.000000000000000e+00 0.000000000000000e+00
1.000000000000000e+00 1.000000000000000e+00 1.000000000000000e+00 0.000000000000000e+00 0.000000000000000e+00 0.000000000000000e+00 0.000000000000000e+00 0.000000000000000e+00 0.000000000000000e+00
1.000000000000000e+00 1.000000000000000e+00 1.000000000000000e+00 0.000000000000000e+00 0.000000000000000e+00 0.000000000000000e+00 0.000000000000000e+00 0.000000000000000e+00 0.000000000000000e+00
1.000000000000000e+00 1.000000000000000e+00 1.000000000000000e+00 0.000000000000000e+00 0.000000000000000e+00 0.000000000000000e+00 0.000000000000000e+00 0.000000000000000e+00 0.000000000000000e+00
1.000000000000000e+00 1.000000000000000e+00 1.000000000000000e+00 0.000000000000000e+00 0.000000000000000e+00 0.000000000000000e+00 0.000000000000000e+00 0.000000000000000e+00 0.000000000000000e+00
1.000000000000000e+00 1.000000000000000e+00 1.000000000000000e+00 0.000000000000000e+00 0.000000000000000e+00 0.000000000000000e+00 0.000000000000000e+00 0.000000000000000e+00 0.000000000000000e+00
1.000000000000000e+00 1.000000000000000e+00 1.000000000000000e+00 0.000000000000000e+00 0.000000000000000e+00 0.000000000000000e+00 0.000000000000000e+00 0.000000000000000e+00 0.000000000000000e+00
0.000000000000000e+00 0.000000000000000e+00 0.000000000000000e+00 0.000000000000000e+00 0.000000000000000e+00 0.000000000000000e+00 0.000000000000000e+00 0.000000000000000e+00 0.000000000000000e+00
1.000000000000000e+00 1.000000000000000e+00 1.000000000000000e+00 0.000000000000000e+00 0.000000000000000e+00 0.000000000000000e+00 0.000000000000000e+00 0.000000000000000e+00 0.000000000000000e+00
1.000000000000000e+00 1.000000000000000e+00 1.000000000000000e+00 0.000000000000000e+00 0.000000000000000e+00 0.000000000000000e+00 0.000000000000000e+00 0.000000000000000e+00 0.000000000000000e+00
1.000000000000000e+00 1.000000000000000e+00 1.000000000000000e+00 0.000000000000000e+00 0.000000000000000e+00 0.000000000000000e+00 0.000000000000000e+00 0.000000000000000e+00 0.000000000000000e+00
0.000000000000000e+00 0.000000000000000e+00 0.000000000000000e+00 0.000000000000000e+00 0.000000000000000e+00 0.000000000000000e+00 0.000000000000000e+00 0.000000000000000e+00 0.000000000000000e+00
1.000000000000000e+00 1.000000000000000e+00 1.000000000000000e+00 0.000000000000000e+00 0.000000000000000e+00 0.000000000000000e+00 0.000000000000000e+00 0.000000000000000e+00 0.000000000000000e+00
0.000000000000000e+00 0.000000000000000e+00 0.000000000000000e+00 0.000000000000000e+00 0.000000000000000e+00 0.000000000000000e+00 0.000000000000000e+00 0.000000000000000e+00 0.000000000000000e+00
0.000000000000000e+00 0.000000000000000e+00 0.000000000000000e+00 0.000000000000000e+00 0.000000000000000e+00 0.000000000000000e+00 0.000000000000000e+00 0.000000000000000e+00 0.000000000000000e+00
1.000000000000000e+00 1.000000000000000e+00 1.000000000000000e+00 0.000000000000000e+00 0.000000000000000e+00 0.000000000000000e+00 0.000000000000000e+00 0.000000000000000e+00 0.000000000000000e+00
1.000000000000000e+00 1.000000000000000e+00 1.000000000000000e+00 0.000000000000000e+00 0.000000000000000e+00 0.000000000000000e+00 0.000000000000000e+00 0.000000000000000e+00 0.000000000000000e+00
0.000000000000000e+00 0.000000000000000e+00 0.000000000000000e+00 0.000000000000000e+00 0.000000000000000e+00 0.000000000000000e+00 0.000000000000000e+00 0.000000000000000e+00 0.000000000000000e+00
1.000000000000000e+00 1.000000000000000e+00 1.000000000000000e+00 0.000000000000000e+00 0.000000000000000e+00 0.000000000000000e+00 0.000000000000000e+00 0.000000000000000e+00 0.000000000000000e+00
1.000000000000000e+00 1.000000000000000e+00 1.000000000000000e+00 0.000000000000000e+00 0.000000000000000e+00 0.000000000000000e+00 0.000000000000000e+00 0.000000000000000e+00 0.000000000000000e+00
1.000000000000000e+00 1.000000000000000e+00 1.000000000000000e+00 0.000000000000000e+00 0.000000000000000e+00 0.000000000000000e+00 0.000000000000000e+00 0.000000000000000e+00 0.000000000000000e+00
0.000000000000000e+00 0.000000000000000e+00 0.000000000000000e+00 0.000000000000000e+00 0.000000000000000e+00 0.000000000000000e+00 0.000000000000000e+00 0.000000000000000e+00 0.000000000000000e+00
1.000000000000000e+00 1.000000000000000e+00 1.000000000000000e+00 0.000000000000000e+00 0.000000000000000e+00 0.000000000000000e+00 0.000000000000000e+00 0.000000000000000e+00 0.000000000000000e+00
0.000000000000000e+00 0.000000000000000e+00 0.000000000000000e+00 0.000000000000000e+00 0.000000000000000e+00 0.000000000000000e+00 0.000000000000000e+00 0.000000000000000e+00 0.000000000000000e+00
0.000000000000000e+00 0.000000000000000e+00 0.000000000000000e+00 0.000000000000000e+00 0.000000000000000e+00 0.000000000000000e+00 0.000000000000000e+00 0.000000000000000e+00 0.000000000000000e+00
1.000000000000000e+00 1.000000000000000e+00 1.000000000000000e+00 0.000000000000000e+00 0.000000000000000e+00 0.000000000000000e+00 0.000000000000000e+00 0.000000000000000e+00 0.000000000000000e+00
1.000000000000000e+00 1.000000000000000e+00 1.000000000000000e+00 0.000000000000000e+00 0.000000000000000e+00 0.000000000000000e+00 0.000000000000000e+00 0.000000000000000e+00 0.000000000000000e+00
0.000000000000000e+00 0.000000000000000e+00 0.000000000000000e+00 0.000000000000000e+00 0.000000000000000e+00 0.000000000000000e+00 0.000000000000000e+00 0.000000000000000e+00 0.000000000000000e+00
1.000000000000000e+00 1.000000000000000e+00 1.000000000000000e+00 0.000000000000000e+00 0.000000000000000e+00 0.000000000000000e+00 0.000000000000000e+00 0.000000000000000e+00 0.000000000000000e+00
1.000000000000000e+00 1.000000000000000e+00 1.000000000000000e+00 0.000000000000000e+00 0.000000000000000e+00 0.000000000000000e+00 0.000000000000000e+00 0.000000000000000e+00 0.000000000000000e+00
1.000000000000000e+00 1.000000000000000e+00 1.000000000000000e+00 0.000000000000000e+00 0.000000000000000e+00 0.000000000000000e+00 0.000000000000000e+00 0.000000000000000e+00 0.000000000000000e+00
0.000000000000000e+00 0.000000000000000e+00 0.000000000000000e+00 0.000000000000000e+00 0.000000000000000e+00 0.000000000000000e+00 0.000000000000000e+00 0.000000000000000e+00 0.000000000000000e+00
1.000000000000000e+00 1.000000000000000e+00 1.000000000000000e+00 0.000000000000000e+00 0.000000000000000e+00 0.000000000000000e+00 0.000000000000000e+00 0.000000000000000e+00 0.000000000000000e+00
0.000000000000000e+00 0.000000000000000e+00 0.000000000000000e+00 0.000000000000000e+00 0.000000000000000e+00 0.000000000000000e+00 0.000000000000000e+00 0.000000000000000e+00 0.000000000000000e+00
0.000000000000000e+00 0.000000000000000e+00 0.000000000000000e+00 0.000000000000000e+00 0.000000000000000e+00 0.000000000000000e+00 0.000000000000000e+00 0.000000000000000e+00 0.000000000000000e+00
1.000000000000000e+00 1.000000000000000e+00 1.000000000000000e+00 0.000000000000000e+00 0.000000000000000e+00 0.000000000000000e+00 0.000000000000000e+00 0.000000000000000e+00 0.000000000000000e+00
1.000000000000000e+00 1.000000000000000e+00 1.000000000000000e+00 0.000000000000000e+00 0.000000000000000e+00 0.000000000000000e+00 0.000000000000000e+00 0.000000000000000e+00 0.000000000000000e+00
0.000000000000000e+00 0.000000000000000e+00 0.000000000000000e+00 0.000000000000000e+00 0.000000000000000e+00 0.000000000000000e+00 0.000000000000000e+00 0.000000000000000e+00 0.000000000000000e+00
1.000000000000000e+00 1.000000000000000e+00 1.000000000000000e+00 0.000000000000000e+00 0.000000000000000e+00 0.000000000000000e+00 0.000000000000000e+00 0.000000000000000e+00 0.000000000000000e+00
1.000000000000000e+00 1.000000000000000e+00 1.000000000000000e+00 0.000000000000000e+00 0.000000000000000e+00 0.000000000000000e+00 0.000000000000000e+00 0.000000000000000e+00 0.000000000000000e+00
1.000000000000000e+00 1.000000000000000e+00 1.000000000000000e+00 0.000000000000000e+00 0.000000000000000e+00 0.000000000000000e+00 0.000000000000000e+00 0.000000000000000e+00 0.000000000000000e+00
0.000000000000000e+00 0.000000000000000e+00 0.000000000000000e+00 0.000000000000000e+00 0.000000000000000e+00 0.000000000000000e+00 0.000000000000000e+00 0.000000000000000e+00 0.000000000000000e+00
1.000000000000000e+00 1.000000000000000e+00 1.000000000000000e+00 0.000000000000000e+00 0.000000000000000e+00 0.000000000000000e+00 0.000000000000000e+00 0.000000000000000e+00 0.000000000000000e+00
0.000000000000000e+00 0.000000000000000e+00 0.000000000000000e+00 0.000000000000000e+00 0.000000000000000e+00 0.000000000000000e+00 0.000000000000000e+00 0.000000000000000e+00 0.000000000000000e+00
0.000000000000000e+00 0.000000000000000e+00 0.000000000000000e+00 0.000000000000000e+00 0.000000000000000e+00 0.000000000000000e+00 0.000000000000000e+00 0.000000000000000e+00 0.000000000000000e+00
1.000000000000000e+00 1.000000000000000e+00 1.000000000000000e+00 0.000000000000000e+00 0.000000000000000e+00 0.000000000000000e+00 0.000000000000000e+00 0.000000000000000e+00 0.000000000000000e+00
1.000000000000000e+00 1.000000000000000e+00 1.000000000000000e+00 0.000000000000000e+00 0.000000000000000e+00 0.000000000000000e+00 0.000000000000000e+00 0.000000000000000e+00 0.000000000000000e+00
1.000000000000000e+00 1.000000000000000e+00 1.000000000000000e+00 0.000000000000000e+00 0.000000000000000e+00 0.000000000000000e+00 0.000000000000000e+00 0.000000000000000e+00 0.000000000000000e+00
1.000000000000000e+00 1.000000000000000e+00 1.000000000000000e+00 0.000000000000000e+00 0.000000000000000e+00 0.000000000000000e+00 0.000000000000000e+00 0.000000000000000e+00 0.000000000000000e+00
1.000000000000000e+00 1.000000000000000e+00 1.000000000000000e+00 0.000000000000000e+00 0.000000000000000e+00 0.000000000000000e+00 0.000000000000000e+00 0.000000000000000e+00 0.000000000000000e+00
1.000000000000000e+00 1.000000000000000e+00 1.000000000000000e+00 0.000000000000000e+00 0.000000000000000e+00 0.000000000000000e+00 0.000000000000000e+00 0.000000000000000e+00 0.000000000000000e+00
1.000000000000000e+00 1.000000000000000e+00 1.000000000000000e+00 0.000000000000000e+00 0.000000000000000e+00 0.000000000000000e+00 0.000000000000000e+00 0.000000000000000e+00 0.000000000000000e+00
1.000000000000000e+00 1.000000000000000e+00 1.000000000000000e+00 0.000000000000000e+00 0.000000000000000e+00 0.000000000000000e+00 0.000000000000000e+00 0.000000000000000e+00 0.000000000000000e+00
1.000000000000000e+00 1.000000000000000e+00 1.000000000000000e+00 0.000000000000000e+00 0.000000000000000e+00 0.000000000000000e+00 0.000000000000000e+00 0.000000000000000e+00 0.000000000000000e+00
1.000000000000000e+00 1.000000000000000e+00 1.000000000000000e+00 0.000000000000000e+00 0.000000000000000e+00 0.000000000000000e+00 0.000000000000000e+00 0.000000000000000e+00 0.000000000000000e+00
1.000000000000000e+00 1.000000000000000e+00 1.000000000000000e+00 0.000000000000000e+00 0.000000000000000e+00 0.000000000000000e+00 0.000000000000000e+00 0.000000000000000e+00 0.000000000000000e+00
1.000000000000000e+00 1.000000000000000e+00 1.000000000000000e+00 0.000000000000000e+00 0.000000000000000e+00 0.000000000000000e+00 0.000000000000000e+00 0.000000000000000e+00 0.000000000000000e+00
1.000000000000000e+00 1.000000000000000e+00 1.000000000000000e+00 0.000000000000000e+00 0.000000000000000e+00 0.000000000000000e+00 0.000000000000000e+00 0.000000000000000e+00 0.000000000000000e+00
1.000000000000000e+00 1.000000000000000e+00 1.000000000000000e+00 0.000000000000000e+00 0.000000000000000e+00 0.000000000000000e+00 0.000000000000000e+00 0.000000000000000e+00 0.000000000000000e+00
1.000000000000000e+00 1.000000000000000e+00 1.000000000000000e+00 0.000000000000000e+00 0.000000000000000e+00 0.000000000000000e+00 0.000000000000000e+00 0.000000000000000e+00 0.000000000000000e+00
1.000000000000000e+00 1.000000000000000e+00 1.000000000000000e+00 0.000000000000000e+00 0.000000000000000e+00 0.000000000000000e+00 0.000000000000000e+00 0.000000000000000e+00 0.000000000000000e+00
1.000000000000000e+00 1.000000000000000e+00 1.000000000000000e+00 0.000000000000000e+00 0.000000000000000e+00 0.000000000000000e+00 0.000000000000000e+00 0.000000000000000e+00 0.000000000000000e+00
1.000000000000000e+00 1.000000000000000e+00 1.000000000000000e+00 0.000000000000000e+00 0.000000000000000e+00 0.000000000000000e+00 0.000000000000000e+00 0.000000000000000e+00 0.000000000000000e+00
1.000000000000000e+00 1.000000000000000e+00 1.000000000000000e+00 0.000000000000000e+00 0.000000000000000e+00 0.000000000000000e+00 0.000000000000000e+00 0.000000000000000e+00 0.000000000000000e+00
1.000000000000000e+00 1.000000000000000e+00 1.000000000000000e+00 0.000000000000000e+00 0.000000000000000e+00 0.000000000000000e+00 0.000000000000000e+00 0.000000000000000e+00 0.000000000000000e+00
1.000000000000000e+00 1.000000000000000e+00 1.000000000000000e+00 0.000000000000000e+00 0.000000000000000e+00 0.000000000000000e+00 0.000000000000000e+00 0.000000000000000e+00 0.000000000000000e+00
1.000000000000000e+00 1.000000000000000e+00 1.000000000000000e+00 0.000000000000000e+00 0.000000000000000e+00 0.000000000000000e+00 0.000000000000000e+00 0.000000000000000e+00 0.000000000000000e+00
1.000000000000000e+00 1.000000000000000e+00 1.000000000000000e+00 0.000000000000000e+00 0.000000000000000e+00 0.000000000000000e+00 0.000000000000000e+00 0.000000000000000e+00 0.000000000000000e+00
1.000000000000000e+00 1.000000000000000e+00 1.000000000000000e+00 0.000000000000000e+00 0.000000000000000e+00 0.000000000000000e+00 0.000000000000000e+00 0.000000000000000e+00 0.000000000000000e+00
1.000000000000000e+00 1.000000000000000e+00 1.000000000000000e+00 0.000000000000000e+00 0.000000000000000e+00 0.000000000000000e+00 0.000000000000000e+00 0.000000000000000e+00 0.000000000000000e+00
1.000000000000000e+00 1.000000000000000e+00 1.000000000000000e+00 0.000000000000000e+00 0.000000000000000e+00 0.000000000000000e+00 0.000000000000000e+00 0.000000000000000e+00 0.000000000000000e+00
1.000000000000000e+00 1.000000000000000e+00 1.000000000000000e+00 0.000000000000000e+00 0.000000000000000e+00 0.000000000000000e+00 0.000000000000000e+00 0.000000000000000e+00 0.000000000000000e+00
1.000000000000000e+00 1.000000000000000e+00 1.000000000000000e+00 0.000000000000000e+00 0.000000000000000e+00 0.000000000000000e+00 0.000000000000000e+00 0.000000000000000e+00 0.000000000000000e+00
1.000000000000000e+00 1.000000000000000e+00 1.000000000000000e+00 0.000000000000000e+00 0.000000000000000e+00 0.000000000000000e+00 0.000000000000000e+00 0.000000000000000e+00 0.000000000000000e+00
1.000000000000000e+00 1.000000000000000e+00 1.000000000000000e+00 0.000000000000000e+00 0.000000000000000e+00 0.000000000000000e+00 0.000000000000000e+00 0.000000000000000e+00 0.000000000000000e+00
1.000000000000000e+00 1.000000000000000e+00 1.000000000000000e+00 0.000000000000000e+00 0.000000000000000e+00 0.000000000000000e+00 0.000000000000000e+00 0.000000000000000e+00 0.000000000000000e+00
1.000000000000000e+00 1.000000000000000e+00 1.000000000000000e+00 0.000000000000000e+00 0.000000000000000e+00 0.000000000000000e+00 0.000000000000000e+00 0.000000000000000e+00 0.000000000000000e+00
1.000000000000000e+00 1.000000000000000e+00 1.000000000000000e+00 0.000000000000000e+00 0.000000000000000e+00 0.000000000000000e+00 0.000000000000000e+00 0.000000000000000e+00 0.000000000000000e+00
1.000000000000000e+00 1.000000000000000e+00 1.000000000000000e+00 0.000000000000000e+00 0.000000000000000e+00 0.000000000000000e+00 0.000000000000000e+00 0.000000000000000e+00 0.000000000000000e+00
1.000000000000000e+00 1.000000000000000e+00 1.000000000000000e+00 0.000000000000000e+00 0.000000000000000e+00 0.000000000000000e+00 0.000000000000000e+00 0.000000000000000e+00 0.000000000000000e+00
1.000000000000000e+00 1.000000000000000e+00 1.000000000000000e+00 0.000000000000000e+00 0.000000000000000e+00 0.000000000000000e+00 0.000000000000000e+00 0.000000000000000e+00 0.000000000000000e+00
1.000000000000000e+00 1.000000000000000e+00 1.000000000000000e+00 0.000000000000000e+00 0.000000000000000e+00 0.000000000000000e+00 0.000000000000000e+00 0.000000000000000e+00 0.000000000000000e+00
1.000000000000000e+00 1.000000000000000e+00 1.000000000000000e+00 0.000000000000000e+00 0.000000000000000e+00 0.000000000000000e+00 0.000000000000000e+00 0.000000000000000e+00 0.000000000000000e+00
1.000000000000000e+00 1.000000000000000e+00 1.000000000000000e+00 0.000000000000000e+00 0.000000000000000e+00 0.000000000000000e+00 0.000000000000000e+00 0.000000000000000e+00 0.000000000000000e+00
1.000000000000000e+00 1.000000000000000e+00 1.000000000000000e+00 0.000000000000000e+00 0.000000000000000e+00 0.000000000000000e+00 0.000000000000000e+00 0.000000000000000e+00 0.000000000000000e+00
1.000000000000000e+00 1.000000000000000e+00 1.000000000000000e+00 0.000000000000000e+00 0.000000000000000e+00 0.000000000000000e+00 0.000000000000000e+00 0.000000000000000e+00 0.000000000000000e+00
1.000000000000000e+00 1.000000000000000e+00 1.000000000000000e+00 0.000000000000000e+00 0.000000000000000e+00 0.000000000000000e+00 0.000000000000000e+00 0.000000000000000e+00 0.000000000000000e+00
0.000000000000000e+00 0.000000000000000e+00 0.000000000000000e+00 0.000000000000000e+00 0.000000000000000e+00 0.000000000000000e+00 0.000000000000000e+00 0.000000000000000e+00 0.000000000000000e+00
1.000000000000000e+00 1.000000000000000e+00 1.000000000000000e+00 0.000000000000000e+00 0.000000000000000e+00 0.000000000000000e+00 0.000000000000000e+00 0.000000000000000e+00 0.000000000000000e+00
1.000000000000000e+00 1.000000000000000e+00 1.000000000000000e+00 0.000000000000000e+00 0.000000000000000e+00 0.000000000000000e+00 0.000000000000000e+00 0.000000000000000e+00 0.000000000000000e+00
1.000000000000000e+00 1.000000000000000e+00 1.000000000000000e+00 0.000000000000000e+00 0.000000000000000e+00 0.000000000000000e+00 0.000000000000000e+00 0.000000000000000e+00 0.000000000000000e+00
0.000000000000000e+00 0.000000000000000e+00 0.000000000000000e+00 0.000000000000000e+00 0.000000000000000e+00 0.000000000000000e+00 0.000000000000000e+00 0.000000000000000e+00 0.000000000000000e+00
1.000000000000000e+00 1.000000000000000e+00 1.000000000000000e+00 0.000000000000000e+00 0.000000000000000e+00 0.000000000000000e+00 0.000000000000000e+00 0.000000000000000e+00 0.000000000000000e+00
0.000000000000000e+00 0.000000000000000e+00 0.000000000000000e+00 0.000000000000000e+00 0.000000000000000e+00 0.000000000000000e+00 0.000000000000000e+00 0.000000000000000e+00 0.000000000000000e+00
0.000000000000000e+00 0.000000000000000e+00 0.000000000000000e+00 0.000000000000000e+00 0.000000000000000e+00 0.000000000000000e+00 0.000000000000000e+00 0.000000000000000e+00 0.000000000000000e+00
1.000000000000000e+00 1.000000000000000e+00 1.000000000000000e+00 0.000000000000000e+00 0.000000000000000e+00 0.000000000000000e+00 0.000000000000000e+00 0.000000000000000e+00 0.000000000000000e+00
1.000000000000000e+00 1.000000000000000e+00 1.000000000000000e+00 0.000000000000000e+00 0.000000000000000e+00 0.000000000000000e+00 0.000000000000000e+00 0.000000000000000e+00 0.000000000000000e+00
0.000000000000000e+00 0.000000000000000e+00 0.000000000000000e+00 0.000000000000000e+00 0.000000000000000e+00 0.000000000000000e+00 0.000000000000000e+00 0.000000000000000e+00 0.000000000000000e+00
1.000000000000000e+00 1.000000000000000e+00 1.000000000000000e+00 0.000000000000000e+00 0.000000000000000e+00 0.000000000000000e+00 0.000000000000000e+00 0.000000000000000e+00 0.000000000000000e+00
1.000000000000000e+00 1.000000000000000e+00 1.000000000000000e+00 0.000000000000000e+00 0.000000000000000e+00 0.000000000000000e+00 0.000000000000000e+00 0.000000000000000e+00 0.000000000000000e+00
1.000000000000000e+00 1.000000000000000e+00 1.000000000000000e+00 0.000000000000000e+00 0.000000000000000e+00 0.000000000000000e+00 0.000000000000000e+00 0.000000000000000e+00 0.000000000000000e+00
0.000000000000000e+00 0.000000000000000e+00 0.000000000000000e+00 0.000000000000000e+00 0.000000000000000e+00 0.000000000000000e+00 0.000000000000000e+00 0.000000000000000e+00 0.000000000000000e+00
1.000000000000000e+00 1.000000000000000e+00 1.000000000000000e+00 0.000000000000000e+00 0.000000000000000e+00 0.000000000000000e+00 0.000000000000000e+00 0.000000000000000e+00 0.000000000000000e+00
0.000000000000000e+00 0.000000000000000e+00 0.000000000000000e+00 0.000000000000000e+00 0.000000000000000e+00 0.000000000000000e+00 0.000000000000000e+00 0.000000000000000e+00 0.000000000000000e+00
0.000000000000000e+00 0.000000000000000e+00 0.000000000000000e+00 0.000000000000000e+00 0.000000000000000e+00 0.000000000000000e+00 0.000000000000000e+00 0.000000000000000e+00 0.000000000000000e+00
1.000000000000000e+00 1.000000000000000e+00 1.000000000000000e+00 0.000000000000000e+00 0.000000000000000e+00 0.000000000000000e+00 0.000000000000000e+00 0.000000000000000e+00 0.000000000000000e+00
1.000000000000000e+00 1.000000000000000e+00 1.000000000000000e+00 0.000000000000000e+00 0.000000000000000e+00 0.000000000000000e+00 0.000000000000000e+00 0.000000000000000e+00 0.000000000000000e+00
0.000000000000000e+00 0.000000000000000e+00 0.000000000000000e+00 0.000000000000000e+00 0.000000000000000e+00 0.000000000000000e+00 0.000000000000000e+00 0.000000000000000e+00 0.000000000000000e+00
1.000000000000000e+00 1.000000000000000e+00 1.000000000000000e+00 0.000000000000000e+00 0.000000000000000e+00 0.000000000000000e+00 0.000000000000000e+00 0.000000000000000e+00 0.000000000000000e+00
1.000000000000000e+00 1.000000000000000e+00 1.000000000000000e+00 0.000000000000000e+00 0.000000000000000e+00 0.000000000000000e+00 0.000000000000000e+00 0.000000000000000e+00 0.000000000000000e+00
1.000000000000000e+00 1.000000000000000e+00 1.000000000000000e+00 0.000000000000000e+00 0.000000000000000e+00 0.000000000000000e+00 0.000000000000000e+00 0.000000000000000e+00 0.000000000000000e+00
0.000000000000000e+00 0.000000000000000e+00 0.000000000000000e+00 0.000000000000000e+00 0.000000000000000e+00 0.000000000000000e+00 0.000000000000000e+00 0.000000000000000e+00 0.000000000000000e+00
1.000000000000000e+00 1.000000000000000e+00 1.000000000000000e+00 0.000000000000000e+00 0.000000000000000e+00 0.000000000000000e+00 0.000000000000000e+00 0.000000000000000e+00 0.000000000000000e+00
0.000000000000000e+00 0.000000000000000e+00 0.000000000000000e+00 0.000000000000000e+00 0.000000000000000e+00 0.000000000000000e+00 0.000000000000000e+00 0.000000000000000e+00 0.000000000000000e+00
0.000000000000000e+00 0.000000000000000e+00 0.000000000000000e+00 0.000000000000000e+00 0.000000000000000e+00 0.000000000000000e+00 0.000000000000000e+00 0.000000000000000e+00 0.000000000000000e+00
1.000000000000000e+00 1.000000000000000e+00 1.000000000000000e+00 0.000000000000000e+00 0.000000000000000e+00 0.000000000000000e+00 0.000000000000000e+00 0.000000000000000e+00 0.000000000000000e+00
1.000000000000000e+00 1.000000000000000e+00 1.000000000000000e+00 0.000000000000000e+00 0.000000000000000e+00 0.000000000000000e+00 0.000000000000000e+00 0.000000000000000e+00 0.000000000000000e+00
0.000000000000000e+00 0.000000000000000e+00 0.000000000000000e+00 0.000000000000000e+00 0.000000000000000e+00 0.000000000000000e+00 0.000000000000000e+00 0.000000000000000e+00 0.000000000000000e+00
1.000000000000000e+00 1.000000000000000e+00 1.000000000000000e+00 0.000000000000000e+00 0.000000000000000e+00 0.000000000000000e+00 0.000000000000000e+00 0.000000000000000e+00 0.000000000000000e+00
1.000000000000000e+00 1.000000000000000e+00 1.000000000000000e+00 0.000000000000000e+00 0.000000000000000e+00 0.000000000000000e+00 0.000000000000000e+00 0.000000000000000e+00 0.000000000000000e+00
1.000000000000000e+00 1.000000000000000e+00 1.000000000000000e+00 0.000000000000000e+00 0.000000000000000e+00 0.000000000000000e+00 0.000000000000000e+00 0.000000000000000e+00 0.000000000000000e+00
0.000000000000000e+00 0.000000000000000e+00 0.000000000000000e+00 0.000000000000000e+00 0.000000000000000e+00 0.000000000000000e+00 0.000000000000000e+00 0.000000000000000e+00 0.000000000000000e+00
1.000000000000000e+00 1.000000000000000e+00 1.000000000000000e+00 0.000000000000000e+00 0.000000000000000e+00 0.000000000000000e+00 0.000000000000000e+00 0.000000000000000e+00 0.000000000000000e+00
0.000000000000000e+00 0.000000000000000e+00 0.000000000000000e+00 0.000000000000000e+00 0.000000000000000e+00 0.000000000000000e+00 0.000000000000000e+00 0.000000000000000e+00 0.000000000000000e+00
0.000000000000000e+00 0.000000000000000e+00 0.000000000000000e+00 0.000000000000000e+00 0.000000000000000e+00 0.000000000000000e+00 0.000000000000000e+00 0.000000000000000e+00 0.000000000000000e+00
1.000000000000000e+00 1.000000000000000e+00 1.000000000000000e+00 0.000000000000000e+00 0.000000000000000e+00 0.000000000000000e+00 0.000000000000000e+00 0.000000000000000e+00 0.000000000000000e+00
1.000000000000000e+00 1.000000000000000e+00 1.000000000000000e+00 0.000000000000000e+00 0.000000000000000e+00 0.000000000000000e+00 0.000000000000000e+00 0.000000000000000e+00 0.000000000000000e+00
        </DataArray>
        <DataArray type="Float64" Name="nodal_GL_strains_xyz" NumberOfComponents="6" format="ascii">
2.907081341527641e-02 1.311327561304186e-02 1.339797688072881e-02 2.885596252267524e-03 -2.627307573744225e-04 7.274849497024082e-03
2.923849517095741e-02 1.917627883125412e-02 1.939894672318275e-02 9.329097922645248e-03 -2.387380867061458e-04 1.396023379380541e-02
2.979464808088292e-02 1.917627883125467e-02 1.973791386751552e-02 -1.439196228257521e-04 1.032073120079580e-04 1.400320965021741e-02
2.948049362863588e-02 1.311327561304110e-02 1.380330888850629e-02 5.946110945426664e-03 1.445503637243252e-04 7.207502331196620e-03
2.988474550842848e-02 1.392825067475594e-02 1.339797688072804e-02 2.833296807528225e-03 -6.027116324423635e-05 1.030570253771376e-02
3.034046333921311e-02 1.986022254452690e-02 1.939894672318290e-02 9.520835799434810e-03 -6.928097246192251e-05 4.305441801880997e-03
3.087591364170209e-02 1.986022254452642e-02 1.973791386751505e-02 -5.449485504699235e-04 2.727173420962530e-04 4.053208875333943e-03
3.028362793156651e-02 1.392825067475633e-02 1.380330888850667e-02 5.832721669798399e-03 3.474227773721224e-04 1.020738794228222e-02
2.923849517095741e-02 1.917627883125412e-02 1.939894672318275e-02 9.329097922645248e-03 -2.387380867061458e-04 1.396023379380541e-02
7.917437055589799e-02 -2.394002850445776e-02 -2.435944503970361e-02 8.353395157814152e-03 4.783146894173335e-04 1.091808766742599e-02
8.309983033203309e-02 -2.394002850445776e-02 -2.509008497479830e-02 -3.265469743702137e-03 -2.556964398511828e-04 1.098655131045965e-02
2.979464808088292e-02 1.917627883125467e-02 1.973791386751552e-02 -1.439196228257521e-04 1.032073120079580e-04 1.400320965021741e-02
3.034046333921311e-02 1.986022254452690e-02 1.939894672318290e-02 9.520835799434810e-03 -6.928097246192251e-05 4.305441801880997e-03
8.694155377352236e-02 -2.540689114785682e-02 -2.435944503970329e-02 8.548303361536528e-03 1.124149143011468e-04 -8.010847065593432e-04
9.070316531413393e-02 -2.540689114785682e-02 -2.509008497479826e-02 -3.578912805975145e-03 -6.204365998296961e-04 -9.879618386524111e-04
3.087591364170209e-02 1.986022254452642e-02 1.973791386751505e-02 -5.449485504699235e-04 2.727173420962530e-04 4.053208875333943e-03
7.917437055589799e-02 -2.394002850445776e-02 -2.435944503970361e-02 8.353395157814152e-03 4.783146894173335e-04 1.091808766742599e-02
1.289425641851576e-01 -2.812925913797865e-02 -2.828748893048575e-02 4.804951964431688e-03 7.217417969901374e-04 8.404165697931123e-03
1.360908581309369e-01 -2.812925913797937e-02 -2.901751151464797e-02 2.687598014497272e-03 1.146188077383073e-06 8.275489764253673e-03
8.309983033203309e-02 -2.394002850445776e-02 -2.509008497479830e-02 -3.265469743702137e-03 -2.556964398511828e-04 1.098655131045965e-02
8.694155377352236e-02 -2.540689114785682e-02 -2.435944503970329e-02 8.548303361536528e-03 1.124149143011468e-04 -8.010847065593432e-04
1.430869263770464e-01 -2.956896683215065e-02 -2.828748893048659e-02 4.670015463840931e-03 3.559887430825820e-04 6.447331108853399e-03
1.499381312764302e-01 -2.956896683215046e-02 -2.901751151464732e-02 2.561078767357896e-03 -3.631233421763666e-04 6.314753031452452e-03
9.070316531413393e-02 -2.540689114785682e-02 -2.509008497479826e-02 -3.578912805975145e-03 -6.204365998296961e-04 -9.879618386524111e-04
4.432037517905534e-02 4.486678419883997e-02 2.910632517235728e-02 -5.950892339067005e-02 -1.734101425492580e-03 8.478726979171666e-02
4.260976339889362e-02 2.534268509869194e-02 3.137399649413598e-02 -4.940987687915827e-02 6.422101328987391e-03 -4.007494677301435e-02
5.263606666913886e-02 1.625321344498059e-03 1.599972984114034e-03 1.170353246470572e-02 8.569294822994571e-05 2.340294206715866e-02
8.689978514794683e-02 -6.877836924942770e-03 -2.560445748046086e-02 -1.651536652313573e-03 2.324429796901406e-03 2.112799890909718e-02
4.799723408464621e-02 4.222453649232178e-02 7.635878619625695e-03 -5.165751146164111e-02 3.784933665722557e-03 2.158407417136048e-02
5.273108223505363e-02 9.372987349399068e-03 1.175319012248618e-02 -1.414455791987736e-02 2.367756047571739e-03 -3.956456928364880e-03
5.439603878900377e-02 1.610349773587689e-02 9.849409853038664e-03 -1.786228008605526e-02 1.794305973690226e-03 4.713138056472382e-02
3.678535939451679e-02 3.647228930434402e-02 -1.511144562836361e-03 -3.102400881401519e-02 -3.542171204833573e-03 6.505736295292149e-02
3.660412991699302e-02 2.355150876238634e-02 9.388745636623563e-03 -2.727857608770299e-02 1.163816511698357e-02 -1.237132304128090e-02
4.150471648318522e-02 -4.823678213487649e-04 -9.436661232887073e-03 1.537827224142426e-02 1.361864760866736e-03 2.670523850023968e-02
4.260976339889362e-02 2.534268509869194e-02 3.137399649413598e-02 -4.940987687915827e-02 6.422101328987391e-03 -4.007494677301435e-02
4.345741790866718e-02 2.423545943161703e-02 4.107106794274025e-02 7.231891284446403e-02 -3.850125706771268e-03 -4.569463404157717e-02
5.263606666913886e-02 1.625321344498059e-03 1.599972984114034e-03 1.170353246470572e-02 8.569294822994571e-05 2.340294206715866e-02
8.564828571701022e-02 -2.615393447303051e-02 -4.532449093383652e-03 1.076247189186342e-02 1.112348096235893e-03 4.685541469260261e-03
4.763898462125465e-02 3.708289608582721e-03 4.459100890974640e-02 1.102418584796796e-02 2.028897759773047e-03 -4.130910872719801e-02
5.355259638202001e-02 8.397832793895537e-03 1.504965104207936e-02 3.596233982549011e-02 -1.135612764134428e-04 -6.054384401285002e-03
5.273108223505363e-02 9.372987349399068e-03 1.175319012248618e-02 -1.414455791987736e-02 2.367756047571739e-03 -3.956456928364880e-03
3.657122430931765e-02 3.114898567179178e-03 2.942415281016275e-02 -2.427538303340834e-02 1.073510791284963e-02 -1.730847421318131e-02
3.665398064047820e-02 -2.351958043976119e-03 3.591442786369579e-02 5.115289962335366e-02 -6.590270867246206e-03 -1.947885509407347e-02
4.092694111735646e-02 -9.567726052741423e-03 -1.188510615906921e-04 1.346857774051176e-02 7.022485586455310e-04 2.641593547468128e-02
4.345741790866718e-02 2.423545943161703e-02 4.107106794274025e-02 7.231891284446403e-02 -3.850125706771268e-03 -4.569463404157717e-02
4.519957023084965e-02 4.387832141194298e-02 3.893363789689261e-02 8.024299854669777e-02 -9.256696593323887e-05 8.823283476134940e-02
5.263606666913886e-02 1.625321344498059e-03 1.599972984114034e-03 1.170353246470572e-02 8.569294822994571e-05 2.340294206715866e-02
8.938285671347804e-02 -1.191289466748477e-02 -2.473401509533455e-02 1.326803440955092e-02 -2.543677621752655e-03 2.039181669443723e-02
4.876130385700893e-02 3.835554235924676e-02 1.414380627351919e-02 7.095173908211404e-02 -3.342336491605248e-03 2.070015651248762e-02
5.527348828886718e-02 1.533441970202818e-02 1.335655444035664e-02 3.876706823174576e-02 -3.454718717274135e-03 4.831624579591426e-02
5.355259638202001e-02 8.397832793895537e-03 1.504965104207936e-02 3.596233982549011e-02 -1.135612764134428e-04 -6.054384401285002e-03
3.674781773283545e-02 1.886351756450447e-02 1.540229463332213e-02 4.803943184073208e-02 -9.325364397249727e-03 -1.623462718443398e-02
3.696192122206469e-02 3.159603757852207e-02 4.685279500793761e-03 5.065379654702999e-02 1.491500754844686e-03 6.688494024884449e-02
4.262423355193981e-02 -1.277614912190845e-03 -9.470546518780546e-03 6.096785649976472e-03 -1.300030531251479e-03 2.627639469630374e-02
4.519957023084965e-02 4.387832141194298e-02 3.893363789689261e-02 8.024299854669777e-02 -9.256696593323887e-05 8.823283476134940e-02
4.432037517905534e-02 4.486678419883997e-02 2.910632517235728e-02 -5.950892339067005e-02 -1.734101425492580e-03 8.478726979171666e-02
5.263606666913886e-02 1.625321344498059e-03 1.599972984114034e-03 1.170353246470572e-02 8.569294822994571e-05 2.340294206715866e-02
9.062234054811841e-02 -2.438300366182905e-02 -1.462599593352870e-02 1.002535687382590e-02 -1.331175634475423e-03 1.860955657404382e-02
4.916153253145186e-02 1.680180662873109e-02 3.676954662028519e-02 1.013989686947607e-02 -1.585470920211765e-03 7.992237579017734e-02
5.439603878900377e-02 1.610349773587689e-02 9.849409853038664e-03 -1.786228008605526e-02 1.794305973690226e-03 4.713138056472382e-02
5.527348828886718e-02 1.533441970202818e-02 1.335655444035664e-02 3.876706823174576e-02 -3.454718717274135e-03 4.831624579591426e-02
3.700069630542380e-02 1.000963553661501e-02 2.617748614795115e-02 5.577811559595815e-02 2.395277644924553e-03 5.933971112560563e-02
3.688574084987978e-02 1.530024965480594e-02 1.986940547577132e-02 -3.093773981734756e-02 -6.277022017152726e-03 5.830045179452880e-02
4.316220597958408e-02 -9.610044588817668e-03 -1.739473157331100e-03 1.303939544537829e-02 -6.401887636505695e-04 1.656282093609954e-02
4.432037517905534e-02 4.486678419883997e-02 2.910632517235728e-02 -5.950892339067005e-02 -1.734101425492580e-03 8.478726979171666e-02
1.424592889135248e-01 -1.237341319793664e-02 -1.540384048749672e-02 6.810464052843018e-04 -1.671891117866416e-02 1.129273387722937e-02
8.689978514794683e-02 -6.877836924942770e-03 -2.560445748046086e-02 -1.651536652313573e-03 2.324429796901406e-03 2.112799890909718e-02
9.062234054811841e-02 -2.438300366182905e-02 -1.462599593352870e-02 1.002535687382590e-02 -1.331175634475423e-03 1.860955657404382e-02
4.553307858713355e-02 5.054723714331731e-02 3.377490771147681e-02 -4.440684911984692e-02 -3.351469175503046e-02 6.791353670360636e-02
1.200611109640044e-01 -6.489802932561680e-03 -2.324129392544737e-02 -2.265795433620894e-03 -1.287420126815400e-02 1.782467463990701e-02
3.678535939451679e-02 3.647228930434402e-02 -1.511144562836361e-03 -3.102400881401519e-02 -3.542171204833573e-03 6.505736295292149e-02
3.688574084987978e-02 1.530024965480594e-02 1.986940547577132e-02 -3.093773981734756e-02 -6.277022017152726e-03 5.830045179452880e-02
1.241572874521537e-01 -1.413695362414739e-02 -1.568386720171807e-02 -8.701138208092778e-04 -1.333984740688416e-02 1.414321365088019e-02
9.332227534770209e-02 -1.424443406826194e-02 -2.463343225871737e-02 -7.405818687053424e-04 -3.780696131219106e-03 2.515871053813732e-02
4.260976339889362e-02 2.534268509869194e-02 3.137399649413598e-02 -4.940987687915827e-02 6.422101328987391e-03 -4.007494677301435e-02
1.189780682165993e-01 -1.426084506327832e-02 -1.214649424286343e-02 3.468706860459853e-03 1.671763108665496e-02 7.692729108193356e-03
8.564828571701022e-02 -2.615393447303051e-02 -4.532449093383652e-03 1.076247189186342e-02 1.112348096235893e-03 4.685541469260261e-03
8.689978514794683e-02 -6.877836924942770e-03 -2.560445748046086e-02 -1.651536652313573e-03 2.324429796901406e-03 2.112799890909718e-02
3.828986252386664e-02 2.843829942626999e-02 3.568102094136192e-02 -3.212007799426124e-02 2.982873713096876e-02 -2.343930996172774e-02
1.093357218461211e-01 -1.665573191646446e-02 -6.040161283785581e-03 2.229866320501737e-03 1.517411908319010e-02 1.478327301027350e-03
3.657122430931765e-02 3.114898567179178e-03 2.942415281016275e-02 -2.427538303340834e-02 1.073510791284963e-02 -1.730847421318131e-02
3.660412991699302e-02 2.355150876238634e-02 9.388745636623563e-03 -2.727857608770299e-02 1.163816511698357e-02 -1.237132304128090e-02
1.107087352972083e-01 -9.469130466056335e-03 -1.306899962381987e-02 -2.940118223924022e-03 1.527931768883993e-02 8.125997755486001e-03
9.142531127393519e-02 -1.608656900109019e-02 -1.265956380866102e-02 -1.401788847292513e-03 7.661938938714891e-03 7.154790542886795e-03
4.345741790866718e-02 2.423545943161703e-02 4.107106794274025e-02 7.231891284446403e-02 -3.850125706771268e-03 -4.569463404157717e-02
1.310472698574262e-01 -1.610897039538495e-02 -1.150158643281059e-02 6.136928629082392e-03 -1.631502932921471e-02 6.181108526354930e-03
8.938285671347804e-02 -1.191289466748477e-02 -2.473401509533455e-02 1.326803440955092e-02 -2.543677621752655e-03 2.039181669443723e-02
8.564828571701022e-02 -2.615393447303051e-02 -4.532449093383652e-03 1.076247189186342e-02 1.112348096235893e-03 4.685541469260261e-03
4.198958643347088e-02 2.740096385687275e-02 4.651886453658912e-02 5.485322618518472e-02 -3.137110619202177e-02 -3.010844267206053e-02
1.182546337157864e-01 -1.432240046802539e-02 -1.203254123015966e-02 1.080505657453219e-02 -1.427269735667228e-02 6.342186939298385e-03
3.674781773283545e-02 1.886351756450447e-02 1.540229463332213e-02 4.803943184073208e-02 -9.325364397249727e-03 -1.623462718443398e-02
3.665398064047820e-02 -2.351958043976119e-03 3.591442786369579e-02 5.115289962335366e-02 -6.590270867246206e-03 -1.947885509407347e-02
1.141475945492969e-01 -2.191954679701717e-02 -4.621334347162082e-03 1.097960194159931e-02 -1.387864758617367e-02 1.740964537984393e-03
9.235089543797755e-02 -2.205936543070422e-02 -1.173507777928405e-02 1.773326070974445e-02 -5.820228986201266e-03 7.297438313902178e-03
4.519957023084965e-02 4.387832141194298e-02 3.893363789689261e-02 8.024299854669777e-02 -9.256696593323887e-05 8.823283476134940e-02
1.532856230292527e-01 -1.326659129100417e-02 -1.379679915087676e-02 8.477231304573094e-03 1.781406765761577e-02 1.235688480330574e-02
9.062234054811841e-02 -2.438300366182905e-02 -1.462599593352870e-02 1.002535687382590e-02 -1.331175634475423e-03 1.860955657404382e-02
8.938285671347804e-02 -1.191289466748477e-02 -2.473401509533455e-02 1.326803440955092e-02 -2.543677621752655e-03 2.039181669443723e-02
4.893944321132096e-02 5.009179507415423e-02 4.521228820024414e-02 6.520028554154836e-02 3.615426170213085e-02 7.264171891610169e-02
1.284622453278206e-01 -1.865811880410247e-02 -1.407814473122473e-02 1.319705392221780e-02 1.235941058085455e-02 1.360197678707291e-02
3.700069630542380e-02 1.000963553661501e-02 2.617748614795115e-02 5.577811559595815e-02 2.395277644924553e-03 5.933971112560563e-02
3.696192122206469e-02 3.159603757852207e-02 4.685279500793761e-03 5.065379654702999e-02 1.491500754844686e-03 6.688494024884449e-02
1.271000297283894e-01 -1.115942884543255e-02 -2.145728682044775e-02 9.853011558387552e-03 1.218168743219557e-02 1.872662547417378e-02
9.433280823583606e-02 -2.025516012772778e-02 -2.374611299320037e-02 1.636382087102680e-02 1.528204139730609e-03 2.430822383786904e-02
1.424592889135248e-01 -1.237341319793664e-02 -1.540384048749672e-02 6.810464052843018e-04 -1.671891117866416e-02 1.129273387722937e-02
1.189780682165993e-01 -1.426084506327832e-02 -1.214649424286343e-02 3.468706860459853e-03 1.671763108665496e-02 7.692729108193356e-03
8.689978514794683e-02 -6.877836924942770e-03 -2.560445748046086e-02 -1.651536652313573e-03 2.324429796901406e-03 2.112799890909718e-02
1.732007066349709e-01 -3.107320677340617e-02 -3.014900540267108e-02 5.728624158073828e-03 6.433571902942992e-04 1.145825951773144e-02
1.620449487512172e-01 -3.115232456134466e-02 -2.507255780764453e-02 4.336816351853724e-03 1.256948225081611e-03 9.690032999308500e-03
1.107087352972083e-01 -9.469130466056335e-03 -1.306899962381987e-02 -2.940118223924022e-03 1.527931768883993e-02 8.125997755486001e-03
1.200611109640044e-01 -6.489802932561680e-03 -2.324129392544737e-02 -2.265795433620894e-03 -1.287420126815400e-02 1.782467463990701e-02
1.761215158430390e-01 -2.967737455361876e-02 -2.664809623340589e-02 5.175616218413169e-03 -1.384864939803138e-03 8.319528330152561e-03
1.606767793262253e-01 -2.803646692366860e-02 -2.797751923939416e-02 6.077493548112644e-03 2.413824478721671e-03 1.050895445403939e-02
1.601822417780296e-01 -2.771671779885539e-02 -3.009200548399033e-02 8.973673571506759e-04 -1.023146484256274e-04 1.153747381737138e-02
1.189780682165993e-01 -1.426084506327832e-02 -1.214649424286343e-02 3.468706860459853e-03 1.671763108665496e-02 7.692729108193356e-03
1.310472698574262e-01 -1.610897039538495e-02 -1.150158643281059e-02 6.136928629082392e-03 -1.631502932921471e-02 6.181108526354930e-03
8.564828571701022e-02 -2.615393447303051e-02 -4.532449093383652e-03 1.076247189186342e-02 1.112348096235893e-03 4.685541469260261e-03
1.732007066349709e-01 -3.107320677340617e-02 -3.014900540267108e-02 5.728624158073828e-03 6.433571902942992e-04 1.145825951773144e-02
1.552951508235717e-01 -2.511928323818467e-02 -3.123082074425785e-02 4.872799161121212e-03 8.291052604835121e-04 6.663688373726983e-03
1.141475945492969e-01 -2.191954679701717e-02 -4.621334347162082e-03 1.097960194159931e-02 -1.387864758617367e-02 1.740964537984393e-03
1.093357218461211e-01 -1.665573191646446e-02 -6.040161283785581e-03 2.229866320501737e-03 1.517411908319010e-02 1.478327301027350e-03
1.606767793262253e-01 -2.803646692366860e-02 -2.797751923939416e-02 6.077493548112644e-03 2.413824478721671e-03 1.050895445403939e-02
1.686252825483944e-01 -2.746234951118377e-02 -2.892598207935212e-02 3.347072642391418e-03 -1.345664346883334e-03 1.005351703490344e-02
1.587887025089487e-01 -3.049813698991312e-02 -2.738052397291894e-02 5.830604068683027e-03 5.947222166795957e-05 4.733576477263004e-03
1.310472698574262e-01 -1.610897039538495e-02 -1.150158643281059e-02 6.136928629082392e-03 -1.631502932921471e-02 6.181108526354930e-03
1.532856230292527e-01 -1.326659129100417e-02 -1.379679915087676e-02 8.477231304573094e-03 1.781406765761577e-02 1.235688480330574e-02
8.938285671347804e-02 -1.191289466748477e-02 -2.473401509533455e-02 1.326803440955092e-02 -2.543677621752655e-03 2.039181669443723e-02
1.732007066349709e-01 -3.107320677340617e-02 -3.014900540267108e-02 5.728624158073828e-03 6.433571902942992e-04 1.145825951773144e-02
1.755097885525197e-01 -3.009637154090282e-02 -2.648868791106830e-02 4.064485985808414e-04 -5.284676514333821e-04 9.590298756635885e-03
1.271000297283894e-01 -1.115942884543255e-02 -2.145728682044775e-02 9.853011558387552e-03 1.218168743219557e-02 1.872662547417378e-02
1.182546337157864e-01 -1.432240046802539e-02 -1.203254123015966e-02 1.080505657453219e-02 -1.427269735667228e-02 6.342186939298385e-03
1.686252825483944e-01 -2.746234951118377e-02 -2.892598207935212e-02 3.347072642391418e-03 -1.345664346883334e-03 1.005351703490344e-02
1.832073188822436e-01 -2.870293888418975e-02 -2.719414763836338e-02 4.212039671839495e-03 2.461114697875631e-03 8.739289087516663e-03
1.629790621625642e-01 -2.782605775171496e-02 -3.006824915255099e-02 6.478111608025110e-03 5.377109343444560e-04 1.131484777047994e-02
1.532856230292527e-01 -1.326659129100417e-02 -1.379679915087676e-02 8.477231304573094e-03 1.781406765761577e-02 1.235688480330574e-02
1.424592889135248e-01 -1.237341319793664e-02 -1.540384048749672e-02 6.810464052843018e-04 -1.671891117866416e-02 1.129273387722937e-02
9.062234054811841e-02 -2.438300366182905e-02 -1.462599593352870e-02 1.002535687382590e-02 -1.331175634475423e-03 1.860955657404382e-02
1.732007066349709e-01 -3.107320677340617e-02 -3.014900540267108e-02 5.728624158073828e-03 6.433571902942992e-04 1.145825951773144e-02
1.821954071362843e-01 -2.782748318151986e-02 -2.917908822048000e-02 4.772872072611661e-03 -9.868558471448318e-05 2.813796977123990e-03
1.241572874521537e-01 -1.413695362414739e-02 -1.568386720171807e-02 -8.701138208092778e-04 -1.333984740688416e-02 1.414321365088019e-02
1.284622453278206e-01 -1.865811880410247e-02 -1.407814473122473e-02 1.319705392221780e-02 1.235941058085455e-02 1.360197678707291e-02
1.832073188822436e-01 -2.870293888418975e-02 -2.719414763836338e-02 4.212039671839495e-03 2.461114697875631e-03 8.739289087516663e-03
1.761215158430390e-01 -2.967737455361876e-02 -2.664809623340589e-02 5.175616218413169e-03 -1.384864939803138e-03 8.319528330152561e-03
1.643893943574722e-01 -3.043800610905601e-02 -2.760681127574702e-02 5.607323312064034e-03 3.760290131346627e-04 1.004031380752249e-02
5.263606666913886e-02 1.625321344498059e-03 1.599972984114034e-03 1.170353246470572e-02 8.569294822994571e-05 2.340294206715866e-02
8.689978514794683e-02 -6.877836924942770e-03 -2.560445748046086e-02 -1.651536652313573e-03 2.324429796901406e-03 2.112799890909718e-02
9.062234054811841e-02 -2.438300366182905e-02 -1.462599593352870e-02 1.002535687382590e-02 -1.331175634475423e-03 1.860955657404382e-02
4.432037517905534e-02 4.486678419883997e-02 2.910632517235728e-02 -5.950892339067005e-02 -1.734101425492580e-03 8.478726979171666e-02
4.150471648318522e-02 -4.823678213487649e-04 -9.436661232887073e-03 1.537827224142426e-02 1.361864760866736e-03 2.670523850023968e-02
9.332227534770209e-02 -1.424443406826194e-02 -2.463343225871737e-02 -7.405818687053424e-04 -3.780696131219106e-03 2.515871053813732e-02
4.316220597958408e-02 -9.610044588817668e-03 -1.739473157331100e-03 1.303939544537829e-02 -6.401887636505695e-04 1.656282093609954e-02
5.439603878900377e-02 1.610349773587689e-02 9.849409853038664e-03 -1.786228008605526e-02 1.794305973690226e-03 4.713138056472382e-02
3.678535939451679e-02 3.647228930434402e-02 -1.511144562836361e-03 -3.102400881401519e-02 -3.542171204833573e-03 6.505736295292149e-02
3.688574084987978e-02 1.530024965480594e-02 1.986940547577132e-02 -3.093773981734756e-02 -6.277022017152726e-03 5.830045179452880e-02
5.263606666913886e-02 1.625321344498059e-03 1.599972984114034e-03 1.170353246470572e-02 8.569294822994571e-05 2.340294206715866e-02
8.564828571701022e-02 -2.615393447303051e-02 -4.532449093383652e-03 1.076247189186342e-02 1.112348096235893e-03 4.685541469260261e-03
8.689978514794683e-02 -6.877836924942770e-03 -2.560445748046086e-02 -1.651536652313573e-03 2.324429796901406e-03 2.112799890909718e-02
4.260976339889362e-02 2.534268509869194e-02 3.137399649413598e-02 -4.940987687915827e-02 6.422101328987391e-03 -4.007494677301435e-02
4.092694111735646e-02 -9.567726052741423e-03 -1.188510615906921e-04 1.346857774051176e-02 7.022485586455310e-04 2.641593547468128e-02
9.142531127393519e-02 -1.608656900109019e-02 -1.265956380866102e-02 -1.401788847292513e-03 7.661938938714891e-03 7.154790542886795e-03
4.150471648318522e-02 -4.823678213487649e-04 -9.436661232887073e-03 1.537827224142426e-02 1.361864760866736e-03 2.670523850023968e-02
5.273108223505363e-02 9.372987349399068e-03 1.175319012248618e-02 -1.414455791987736e-02 2.367756047571739e-03 -3.956456928364880e-03
3.657122430931765e-02 3.114898567179178e-03 2.942415281016275e-02 -2.427538303340834e-02 1.073510791284963e-02 -1.730847421318131e-02
3.660412991699302e-02 2.355150876238634e-02 9.388745636623563e-03 -2.727857608770299e-02 1.163816511698357e-02 -1.237132304128090e-02
5.263606666913886e-02 1.625321344498059e-03 1.599972984114034e-03 1.170353246470572e-02 8.569294822994571e-05 2.340294206715866e-02
8.938285671347804e-02 -1.191289466748477e-02 -2.473401509533455e-02 1.326803440955092e-02 -2.543677621752655e-03 2.039181669443723e-02
8.564828571701022e-02 -2.615393447303051e-02 -4.532449093383652e-03 1.076247189186342e-02 1.112348096235893e-03 4.685541469260261e-03
4.345741790866718e-02 2.423545943161703e-02 4.107106794274025e-02 7.231891284446403e-02 -3.850125706771268e-03 -4.569463404157717e-02
4.262423355193981e-02 -1.277614912190845e-03 -9.470546518780546e-03 6.096785649976472e-03 -1.300030531251479e-03 2.627639469630374e-02
9.235089543797755e-02 -2.205936543070422e-02 -1.173507777928405e-02 1.773326070974445e-02 -5.820228986201266e-03 7.297438313902178e-03
4.092694111735646e-02 -9.567726052741423e-03 -1.188510615906921e-04 1.346857774051176e-02 7.022485586455310e-04 2.641593547468128e-02
5.355259638202001e-02 8.397832793895537e-03 1.504965104207936e-02 3.596233982549011e-02 -1.135612764134428e-04 -6.054384401285002e-03
3.674781773283545e-02 1.886351756450447e-02 1.540229463332213e-02 4.803943184073208e-02 -9.325364397249727e-03 -1.623462718443398e-02
3.665398064047820e-02 -2.351958043976119e-03 3.591442786369579e-02 5.115289962335366e-02 -6.590270867246206e-03 -1.947885509407347e-02
5.263606666913886e-02 1.625321344498059e-03 1.599972984114034e-03 1.170353246470572e-02 8.569294822994571e-05 2.340294206715866e-02
9.062234054811841e-02 -2.438300366182905e-02 -1.462599593352870e-02 1.002535687382590e-02 -1.331175634475423e-03 1.860955657404382e-02
8.938285671347804e-02 -1.191289466748477e-02 -2.473401509533455e-02 1.326803440955092e-02 -2.543677621752655e-03 2.039181669443723e-02
4.519957023084965e-02 4.387832141194298e-02 3.893363789689261e-02 8.024299854669777e-02 -9.256696593323887e-05 8.823283476134940e-02
4.316220597958408e-02 -9.610044588817668e-03 -1.739473157331100e-03 1.303939544537829e-02 -6.401887636505695e-04 1.656282093609954e-02
9.433280823583606e-02 -2.025516012772778e-02 -2.374611299320037e-02 1.636382087102680e-02 1.528204139730609e-03 2.430822383786904e-02
4.262423355193981e-02 -1.277614912190845e-03 -9.470546518780546e-03 6.096785649976472e-03 -1.300030531251479e-03 2.627639469630374e-02
5.527348828886718e-02 1.533441970202818e-02 1.335655444035664e-02 3.876706823174576e-02 -3.454718717274135e-03 4.831624579591426e-02
3.700069630542380e-02 1.000963553661501e-02 2.617748614795115e-02 5.577811559595815e-02 2.395277644924553e-03 5.933971112560563e-02
3.696192122206469e-02 3.159603757852207e-02 4.685279500793761e-03 5.065379654702999e-02 1.491500754844686e-03 6.688494024884449e-02
1.732007066349709e-01 -3.107320677340617e-02 -3.014900540267108e-02 5.728624158073828e-03 6.433571902942992e-04 1.145825951773144e-02
9.062234054811841e-02 -2.438300366182905e-02 -1.462599593352870e-02 1.002535687382590e-02 -1.331175634475423e-03 1.860955657404382e-02
8.689978514794683e-02 -6.877836924942770e-03 -2.560445748046086e-02 -1.651536652313573e-03 2.324429796901406e-03 2.112799890909718e-02
1.424592889135248e-01 -1.237341319793664e-02 -1.540384048749672e-02 6.810464052843018e-04 -1.671891117866416e-02 1.129273387722937e-02
1.643893943574722e-01 -3.043800610905601e-02 -2.760681127574702e-02 5.607323312064034e-03 3.760290131346627e-04 1.004031380752249e-02
9.332227534770209e-02 -1.424443406826194e-02 -2.463343225871737e-02 -7.405818687053424e-04 -3.780696131219106e-03 2.515871053813732e-02
1.601822417780296e-01 -2.771671779885539e-02 -3.009200548399033e-02 8.973673571506759e-04 -1.023146484256274e-04 1.153747381737138e-02
1.761215158430390e-01 -2.967737455361876e-02 -2.664809623340589e-02 5.175616218413169e-03 -1.384864939803138e-03 8.319528330152561e-03
1.241572874521537e-01 -1.413695362414739e-02 -1.568386720171807e-02 -8.701138208092778e-04 -1.333984740688416e-02 1.414321365088019e-02
1.200611109640044e-01 -6.489802932561680e-03 -2.324129392544737e-02 -2.265795433620894e-03 -1.287420126815400e-02 1.782467463990701e-02
1.732007066349709e-01 -3.107320677340617e-02 -3.014900540267108e-02 5.728624158073828e-03 6.433571902942992e-04 1.145825951773144e-02
8.689978514794683e-02 -6.877836924942770e-03 -2.560445748046086e-02 -1.651536652313573e-03 2.324429796901406e-03 2.112799890909718e-02
8.564828571701022e-02 -2.615393447303051e-02 -4.532449093383652e-03 1.076247189186342e-02 1.112348096235893e-03 4.685541469260261e-03
1.189780682165993e-01 -1.426084506327832e-02 -1.214649424286343e-02 3.468706860459853e-03 1.671763108665496e-02 7.692729108193356e-03
1.601822417780296e-01 -2.771671779885539e-02 -3.009200548399033e-02 8.973673571506759e-04 -1.023146484256274e-04 1.153747381737138e-02
9.142531127393519e-02 -1.608656900109019e-02 -1.265956380866102e-02 -1.401788847292513e-03 7.661938938714891e-03 7.154790542886795e-03
1.587887025089487e-01 -3.049813698991312e-02 -2.738052397291894e-02 5.830604068683027e-03 5.947222166795957e-05 4.733576477263004e-03
1.606767793262253e-01 -2.803646692366860e-02 -2.797751923939416e-02 6.077493548112644e-03 2.413824478721671e-03 1.050895445403939e-02
1.107087352972083e-01 -9.469130466056335e-03 -1.306899962381987e-02 -2.940118223924022e-03 1.527931768883993e-02 8.125997755486001e-03
1.093357218461211e-01 -1.665573191646446e-02 -6.040161283785581e-03 2.229866320501737e-03 1.517411908319010e-02 1.478327301027350e-03
1.732007066349709e-01 -3.107320677340617e-02 -3.014900540267108e-02 5.728624158073828e-03 6.433571902942992e-04 1.145825951773144e-02
8.564828571701022e-02 -2.615393447303051e-02 -4.532449093383652e-03 1.076247189186342e-02 1.112348096235893e-03 4.685541469260261e-03
8.938285671347804e-02 -1.191289466748477e-02 -2.473401509533455e-02 1.326803440955092e-02 -2.543677621752655e-03 2.039181669443723e-02
1.310472698574262e-01 -1.610897039538495e-02 -1.150158643281059e-02 6.136928629082392e-03 -1.631502932921471e-02 6.181108526354930e-03
1.587887025089487e-01 -3.049813698991312e-02 -2.738052397291894e-02 5.830604068683027e-03 5.947222166795957e-05 4.733576477263004e-03
9.235089543797755e-02 -2.205936543070422e-02 -1.173507777928405e-02 1.773326070974445e-02 -5.820228986201266e-03 7.297438313902178e-03
1.629790621625642e-01 -2.782605775171496e-02 -3.006824915255099e-02 6.478111608025110e-03 5.377109343444560e-04 1.131484777047994e-02
1.686252825483944e-01 -2.746234951118377e-02 -2.892598207935212e-02 3.347072642391418e-03 -1.345664346883334e-03 1.005351703490344e-02
1.141475945492969e-01 -2.191954679701717e-02 -4.621334347162082e-03 1.097960194159931e-02 -1.387864758617367e-02 1.740964537984393e-03
1.182546337157864e-01 -1.432240046802539e-02 -1.203254123015966e-02 1.080505657453219e-02 -1.427269735667228e-02 6.342186939298385e-03
1.732007066349709e-01 -3.107320677340617e-02 -3.014900540267108e-02 5.728624158073828e-03 6.433571902942992e-04 1.145825951773144e-02
8.938285671347804e-02 -1.191289466748477e-02 -2.473401509533455e-02 1.326803440955092e-02 -2.543677621752655e-03 2.039181669443723e-02
9.062234054811841e-02 -2.438300366182905e-02 -1.462599593352870e-02 1.002535687382590e-02 -1.331175634475423e-03 1.860955657404382e-02
1.532856230292527e-01 -1.326659129100417e-02 -1.379679915087676e-02 8.477231304573094e-03 1.781406765761577e-02 1.235688480330574e-02
1.629790621625642e-01 -2.782605775171496e-02 -3.006824915255099e-02 6.478111608025110e-03 5.377109343444560e-04 1.131484777047994e-02
9.433280823583606e-02 -2.025516012772778e-02 -2.374611299320037e-02 1.636382087102680e-02 1.528204139730609e-03 2.430822383786904e-02
1.643893943574722e-01 -3.043800610905601e-02 -2.760681127574702e-02 5.607323312064034e-03 3.760290131346627e-04 1.004031380752249e-02
1.832073188822436e-01 -2.870293888418975e-02 -2.719414763836338e-02 4.212039671839495e-03 2.461114697875631e-03 8.739289087516663e-03
1.271000297283894e-01 -1.115942884543255e-02 -2.145728682044775e-02 9.853011558387552e-03 1.218168743219557e-02 1.872662547417378e-02
1.284622453278206e-01 -1.865811880410247e-02 -1.407814473122473e-02 1.319705392221780e-02 1.235941058085455e-02 1.360197678707291e-02
5.263606666913886e-02 1.625321344498059e-03 1.599972984114034e-03 1.170353246470572e-02 8.569294822994571e-05 2.340294206715866e-02
9.062234054811841e-02 -2.438300366182905e-02 -1.462599593352870e-02 1.002535687382590e-02 -1.331175634475423e-03 1.860955657404382e-02
8.689978514794683e-02 -6.877836924942770e-03 -2.560445748046086e-02 -1.651536652313573e-03 2.324429796901406e-03 2.112799890909718e-02
1.041772957122753e-01 -2.121565812426153e-02 -2.120663134061850e-02 9.355559157067440e-03 4.920994843491124e-05 1.870409948962068e-02
4.316220597958408e-02 -9.610044588817668e-03 -1.739473157331100e-03 1.303939544537829e-02 -6.401887636505695e-04 1.656282093609954e-02
9.332227534770209e-02 -1.424443406826194e-02 -2.463343225871737e-02 -7.405818687053424e-04 -3.780696131219106e-03 2.515871053813732e-02
4.150471648318522e-02 -4.823678213487649e-04 -9.436661232887073e-03 1.537827224142426e-02 1.361864760866736e-03 2.670523850023968e-02
4.183277625454834e-02 -4.704568893228768e-03 -4.659854735325627e-03 1.268748751213237e-02 8.803702083702786e-05 2.536693840859773e-02
1.106626779370973e-01 -2.473864758640244e-02 -2.403659072739932e-02 9.328649205434988e-03 -1.185809734063837e-04 1.556934084904855e-02
1.072962879283040e-01 -2.206516829890991e-02 -2.444573403265348e-02 6.287669641138575e-03 1.980846787886112e-04 1.909983095812646e-02
5.263606666913886e-02 1.625321344498059e-03 1.599972984114034e-03 1.170353246470572e-02 8.569294822994571e-05 2.340294206715866e-02
8.689978514794683e-02 -6.877836924942770e-03 -2.560445748046086e-02 -1.651536652313573e-03 2.324429796901406e-03 2.112799890909718e-02
8.564828571701022e-02 -2.615393447303051e-02 -4.532449093383652e-03 1.076247189186342e-02 1.112348096235893e-03 4.685541469260261e-03
1.041772957122753e-01 -2.121565812426153e-02 -2.120663134061850e-02 9.355559157067440e-03 4.920994843491124e-05 1.870409948962068e-02
4.150471648318522e-02 -4.823678213487649e-04 -9.436661232887073e-03 1.537827224142426e-02 1.361864760866736e-03 2.670523850023968e-02
9.142531127393519e-02 -1.608656900109019e-02 -1.265956380866102e-02 -1.401788847292513e-03 7.661938938714891e-03 7.154790542886795e-03
4.092694111735646e-02 -9.567726052741423e-03 -1.188510615906921e-04 1.346857774051176e-02 7.022485586455310e-04 2.641593547468128e-02
4.183277625454834e-02 -4.704568893228768e-03 -4.659854735325627e-03 1.268748751213237e-02 8.803702083702786e-05 2.536693840859773e-02
1.072962879283040e-01 -2.206516829890991e-02 -2.444573403265348e-02 6.287669641138575e-03 1.980846787886112e-04 1.909983095812646e-02
1.061657951999959e-01 -2.441119202128444e-02 -2.150337559117251e-02 9.634353952922493e-03 9.606092371235349e-05 1.388557610827029e-02
5.263606666913886e-02 1.625321344498059e-03 1.599972984114034e-03 1.170353246470572e-02 8.569294822994571e-05 2.340294206715866e-02
8.564828571701022e-02 -2.615393447303051e-02 -4.532449093383652e-03 1.076247189186342e-02 1.112348096235893e-03 4.685541469260261e-03
8.938285671347804e-02 -1.191289466748477e-02 -2.473401509533455e-02 1.326803440955092e-02 -2.543677621752655e-03 2.039181669443723e-02
1.041772957122753e-01 -2.121565812426153e-02 -2.120663134061850e-02 9.355559157067440e-03 4.920994843491124e-05 1.870409948962068e-02
4.092694111735646e-02 -9.567726052741423e-03 -1.188510615906921e-04 1.346857774051176e-02 7.022485586455310e-04 2.641593547468128e-02
9.235089543797755e-02 -2.205936543070422e-02 -1.173507777928405e-02 1.773326070974445e-02 -5.820228986201266e-03 7.297438313902178e-03
4.262423355193981e-02 -1.277614912190845e-03 -9.470546518780546e-03 6.096785649976472e-03 -1.300030531251479e-03 2.627639469630374e-02
4.183277625454834e-02 -4.704568893228768e-03 -4.659854735325627e-03 1.268748751213237e-02 8.803702083702786e-05 2.536693840859773e-02
1.061657951999959e-01 -2.441119202128444e-02 -2.150337559117251e-02 9.634353952922493e-03 9.606092371235349e-05 1.388557610827029e-02
1.095436635475364e-01 -2.332930693938304e-02 -2.461512677905171e-02 8.431261358004035e-03 -2.207418442671305e-04 1.879446488827381e-02
5.263606666913886e-02 1.625321344498059e-03 1.599972984114034e-03 1.170353246470572e-02 8.569294822994571e-05 2.340294206715866e-02
8.938285671347804e-02 -1.191289466748477e-02 -2.473401509533455e-02 1.326803440955092e-02 -2.543677621752655e-03 2.039181669443723e-02
9.062234054811841e-02 -2.438300366182905e-02 -1.462599593352870e-02 1.002535687382590e-02 -1.331175634475423e-03 1.860955657404382e-02
1.041772957122753e-01 -2.121565812426153e-02 -2.120663134061850e-02 9.355559157067440e-03 4.920994843491124e-05 1.870409948962068e-02
4.262423355193981e-02 -1.277614912190845e-03 -9.470546518780546e-03 6.096785649976472e-03 -1.300030531251479e-03 2.627639469630374e-02
9.433280823583606e-02 -2.025516012772778e-02 -2.374611299320037e-02 1.636382087102680e-02 1.528204139730609e-03 2.430822383786904e-02
4.316220597958408e-02 -9.610044588817668e-03 -1.739473157331100e-03 1.303939544537829e-02 -6.401887636505695e-04 1.656282093609954e-02
4.183277625454834e-02 -4.704568893228768e-03 -4.659854735325627e-03 1.268748751213237e-02 8.803702083702786e-05 2.536693840859773e-02
1.095436635475364e-01 -2.332930693938304e-02 -2.461512677905171e-02 8.431261358004035e-03 -2.207418442671305e-04 1.879446488827381e-02
1.106626779370973e-01 -2.473864758640244e-02 -2.403659072739932e-02 9.328649205434988e-03 -1.185809734063837e-04 1.556934084904855e-02
1.732007066349709e-01 -3.107320677340617e-02 -3.014900540267108e-02 5.728624158073828e-03 6.433571902942992e-04 1.145825951773144e-02
8.689978514794683e-02 -6.877836924942770e-03 -2.560445748046086e-02 -1.651536652313573e-03 2.324429796901406e-03 2.112799890909718e-02
9.062234054811841e-02 -2.438300366182905e-02 -1.462599593352870e-02 1.002535687382590e-02 -1.331175634475423e-03 1.860955657404382e-02
1.041772957122753e-01 -2.121565812426153e-02 -2.120663134061850e-02 9.355559157067440e-03 4.920994843491124e-05 1.870409948962068e-02
1.601822417780296e-01 -2.771671779885539e-02 -3.009200548399033e-02 8.973673571506759e-04 -1.023146484256274e-04 1.153747381737138e-02
9.332227534770209e-02 -1.424443406826194e-02 -2.463343225871737e-02 -7.405818687053424e-04 -3.780696131219106e-03 2.515871053813732e-02
1.643893943574722e-01 -3.043800610905601e-02 -2.760681127574702e-02 5.607323312064034e-03 3.760290131346627e-04 1.004031380752249e-02
1.652301235767787e-01 -2.798944933191521e-02 -2.763399133347492e-02 5.565655175528268e-03 2.687945387812329e-04 1.112830481955880e-02
1.072962879283040e-01 -2.206516829890991e-02 -2.444573403265348e-02 6.287669641138575e-03 1.980846787886112e-04 1.909983095812646e-02
1.106626779370973e-01 -2.473864758640244e-02 -2.403659072739932e-02 9.328649205434988e-03 -1.185809734063837e-04 1.556934084904855e-02
1.732007066349709e-01 -3.107320677340617e-02 -3.014900540267108e-02 5.728624158073828e-03 6.433571902942992e-04 1.145825951773144e-02
8.564828571701022e-02 -2.615393447303051e-02 -4.532449093383652e-03 1.076247189186342e-02 1.112348096235893e-03 4.685541469260261e-03
8.689978514794683e-02 -6.877836924942770e-03 -2.560445748046086e-02 -1.651536652313573e-03 2.324429796901406e-03 2.112799890909718e-02
1.041772957122753e-01 -2.121565812426153e-02 -2.120663134061850e-02 9.355559157067440e-03 4.920994843491124e-05 1.870409948962068e-02
1.587887025089487e-01 -3.049813698991312e-02 -2.738052397291894e-02 5.830604068683027e-03 5.947222166795957e-05 4.733576477263004e-03
9.142531127393519e-02 -1.608656900109019e-02 -1.265956380866102e-02 -1.401788847292513e-03 7.661938938714891e-03 7.154790542886795e-03
1.601822417780296e-01 -2.771671779885539e-02 -3.009200548399033e-02 8.973673571506759e-04 -1.023146484256274e-04 1.153747381737138e-02
1.652301235767787e-01 -2.798944933191521e-02 -2.763399133347492e-02 5.565655175528268e-03 2.687945387812329e-04 1.112830481955880e-02
1.061657951999959e-01 -2.441119202128444e-02 -2.150337559117251e-02 9.634353952922493e-03 9.606092371235349e-05 1.388557610827029e-02
1.072962879283040e-01 -2.206516829890991e-02 -2.444573403265348e-02 6.287669641138575e-03 1.980846787886112e-04 1.909983095812646e-02
1.732007066349709e-01 -3.107320677340617e-02 -3.014900540267108e-02 5.728624158073828e-03 6.433571902942992e-04 1.145825951773144e-02
8.938285671347804e-02 -1.191289466748477e-02 -2.473401509533455e-02 1.326803440955092e-02 -2.543677621752655e-03 2.039181669443723e-02
8.564828571701022e-02 -2.615393447303051e-02 -4.532449093383652e-03 1.076247189186342e-02 1.112348096235893e-03 4.685541469260261e-03
1.041772957122753e-01 -2.121565812426153e-02 -2.120663134061850e-02 9.355559157067440e-03 4.920994843491124e-05 1.870409948962068e-02
1.629790621625642e-01 -2.782605775171496e-02 -3.006824915255099e-02 6.478111608025110e-03 5.377109343444560e-04 1.131484777047994e-02
9.235089543797755e-02 -2.205936543070422e-02 -1.173507777928405e-02 1.773326070974445e-02 -5.820228986201266e-03 7.297438313902178e-03
1.587887025089487e-01 -3.049813698991312e-02 -2.738052397291894e-02 5.830604068683027e-03 5.947222166795957e-05 4.733576477263004e-03
1.652301235767787e-01 -2.798944933191521e-02 -2.763399133347492e-02 5.565655175528268e-03 2.687945387812329e-04 1.112830481955880e-02
1.095436635475364e-01 -2.332930693938304e-02 -2.461512677905171e-02 8.431261358004035e-03 -2.207418442671305e-04 1.879446488827381e-02
1.061657951999959e-01 -2.441119202128444e-02 -2.150337559117251e-02 9.634353952922493e-03 9.606092371235349e-05 1.388557610827029e-02
1.732007066349709e-01 -3.107320677340617e-02 -3.014900540267108e-02 5.728624158073828e-03 6.433571902942992e-04 1.145825951773144e-02
9.062234054811841e-02 -2.438300366182905e-02 -1.462599593352870e-02 1.002535687382590e-02 -1.331175634475423e-03 1.860955657404382e-02
8.938285671347804e-02 -1.191289466748477e-02 -2.473401509533455e-02 1.326803440955092e-02 -2.543677621752655e-03 2.039181669443723e-02
1.041772957122753e-01 -2.121565812426153e-02 -2.120663134061850e-02 9.355559157067440e-03 4.920994843491124e-05 1.870409948962068e-02
1.643893943574722e-01 -3.043800610905601e-02 -2.760681127574702e-02 5.607323312064034e-03 3.760290131346627e-04 1.004031380752249e-02
9.433280823583606e-02 -2.025516012772778e-02 -2.374611299320037e-02 1.636382087102680e-02 1.528204139730609e-03 2.430822383786904e-02
1.629790621625642e-01 -2.782605775171496e-02 -3.006824915255099e-02 6.478111608025110e-03 5.377109343444560e-04 1.131484777047994e-02
1.652301235767787e-01 -2.798944933191521e-02 -2.763399133347492e-02 5.565655175528268e-03 2.687945387812329e-04 1.112830481955880e-02
1.106626779370973e-01 -2.473864758640244e-02 -2.403659072739932e-02 9.328649205434988e-03 -1.185809734063837e-04 1.556934084904855e-02
1.095436635475364e-01 -2.332930693938304e-02 -2.461512677905171e-02 8.431261358004035e-03 -2.207418442671305e-04 1.879446488827381e-02
        </DataArray>
        <DataArray type="Float64" Name="nodal_cauchy_stresses_xyz" NumberOfComponents="6" format="ascii">
1.875448648534739e+02 -3.529526804127339e-01 -3.497199999526792e-01 -5.742369195299253e-01 -3.294064373976573e-03 -5.687087112471196e-01
1.869046076438443e+02 6.447342530224835e-01 6.449603849048818e-01 1.770275225793352e+00 3.787832560309504e-02 1.800880515697585e+00
1.885881662520262e+02 6.286993453390294e-01 6.314865209507321e-01 -1.785402633691242e+00 -4.520151783775286e-02 1.858417199967217e+00
1.888028678780247e+02 -3.691554031358309e-01 -3.583186684817753e-01 5.818575168177339e-01 -7.554954414875865e-04 -5.740417873286474e-01
1.900446382496103e+02 -3.694931872752580e-01 -3.814531938846993e-01 -5.770584868726190e-01 -3.682746383356755e-03 5.759139704321373e-01
1.902385094659119e+02 6.197733132658247e-01 6.149324662248927e-01 1.901843010039428e+00 -5.062365969609796e-02 -1.847335660687232e+00
1.918557464163554e+02 6.075818719556720e-01 6.053042851742995e-01 -1.949402505064307e+00 5.421331013313047e-02 -1.937301131092634e+00
1.912703547217092e+02 -3.844165342732595e-01 -3.887711451839682e-01 5.685880047173082e-01 5.504587287253520e-03 5.651559960605312e-01
1.869046076438443e+02 6.447342530224835e-01 6.449603849048818e-01 1.770275225793352e+00 3.787832560309504e-02 1.800880515697585e+00
1.924757446986566e+02 6.498943157419941e-01 4.053328532214175e-01 2.178549427196165e+00 3.262976540349376e-01 1.379879810130700e+00
2.002302175278218e+02 1.507636873465318e+00 7.868644529585804e-01 -3.872998878295731e+00 -1.785452699660358e-01 1.368280725815128e+00
1.885881662520262e+02 6.286993453390294e-01 6.314865209507321e-01 -1.785402633691242e+00 -4.520151783775286e-02 1.858417199967217e+00
1.902385094659119e+02 6.197733132658247e-01 6.149324662248927e-01 1.901843010039428e+00 -5.062365969609796e-02 -1.847335660687232e+00
2.079653839058284e+02 1.278541205553819e+00 1.990227237062365e+00 2.262714092633577e+00 2.629137356084647e-02 -4.877835736564030e+00
2.156896606918750e+02 1.880379920164444e+00 2.115962877202886e+00 -4.179696306507460e+00 -2.866948426656500e-01 -5.088529380444410e+00
1.918557464163554e+02 6.075818719556720e-01 6.053042851742995e-01 -1.949402505064307e+00 5.421331013313047e-02 -1.937301131092634e+00
1.924757446986566e+02 6.498943157419941e-01 4.053328532214175e-01 2.178549427196165e+00 3.262976540349376e-01 1.379879810130700e+00
1.855967893305411e+02 -5.338091374344462e+00 -5.804688656988718e+00 3.538371990432280e+00 6.752773309303705e-01 5.394986454443392e+00
1.989650433966797e+02 -3.737706662563848e+00 -5.156570566904698e+00 4.283972350500835e-01 -1.414589355790443e-01 5.146177939498594e+00
2.002302175278218e+02 1.507636873465318e+00 7.868644529585804e-01 -3.872998878295731e+00 -1.785452699660358e-01 1.368280725815128e+00
2.079653839058284e+02 1.278541205553819e+00 1.990227237062365e+00 2.262714092633577e+00 2.629137356084647e-02 -4.877835736564030e+00
2.124064669853948e+02 -4.312183082677216e+00 -2.873683864011039e+00 3.319641158108554e+00 2.739271387093901e-01 2.250410767088334e+00
2.258454300745384e+02 -3.244821173186637e+00 -2.758584473377273e+00 8.191560411591747e-02 -5.654071681666792e-01 1.933950228319871e+00
2.156896606918750e+02 1.880379920164444e+00 2.115962877202886e+00 -4.179696306507460e+00 -2.866948426656500e-01 -5.088529380444410e+00
2.327283197492325e+02 7.706298906214278e-01 2.915283769413602e-01 -1.395803153285801e+00 1.451788235563307e-01 1.999684378234341e-01
2.278946069366267e+02 3.705266149009715e-01 5.013650169800351e-01 -6.661171610534771e-01 4.884975012410807e-02 -1.023533606569284e+00
2.585583264910234e+02 -4.733555319756189e+00 -4.746146481139122e+00 -6.145544685954543e-02 -7.563942445436859e-03 -1.227605260229004e-01
2.349851074767680e+02 1.708312393073404e+00 -2.588698727103366e+00 4.566080040825686e+00 -9.261077074801691e-02 3.047700469888357e+00
2.415668589954061e+02 -8.707925555211202e-01 -1.372537147554123e+00 -1.190569647756256e+00 8.364145442783641e-02 -1.514066648121026e+00
2.562981686179152e+02 -3.405345487471688e+00 -3.365324857477195e+00 -9.093156346573096e-01 -8.468795821853149e-03 -1.305259423626707e+00
2.611419460144629e+02 -3.474134566400381e+00 -3.642692376284749e+00 -1.027492206539944e+00 8.336524145984381e-02 -2.181975536796831e-01
2.209578096963395e+02 -6.368868684221056e-01 -1.720548536210043e+00 4.832556838273502e+00 4.331024602794972e-02 6.263081392207195e-01
2.181590113935363e+02 -4.027205127027523e-01 -7.978959577200451e-01 4.889894932933863e+00 2.263187369238218e-01 9.267842583411771e-01
2.376731337346400e+02 -4.359536645125837e+00 -4.720208623621510e+00 5.002267321409606e+00 3.909341889284251e-02 9.358245012645834e-01
2.278946069366267e+02 3.705266149009715e-01 5.013650169800351e-01 -6.661171610534771e-01 4.884975012410807e-02 -1.023533606569284e+00
2.302734829807064e+02 2.843400930824856e-01 7.181135662166002e-01 2.921436712711717e-01 3.587325223364268e-02 -1.422487464602714e+00
2.585583264910234e+02 -4.733555319756189e+00 -4.746146481139122e+00 -6.145544685954543e-02 -7.563942445436859e-03 -1.227605260229004e-01
2.311529035572167e+02 -1.938710591240278e+00 2.405761968872592e+00 1.605891529279758e+00 -1.417754566987648e-01 3.936003125617210e+00
2.401700941430727e+02 -1.293070990126585e+00 -7.034718811267968e-01 -7.436088278683647e-01 3.894505692130625e-02 -1.571996599006172e+00
2.587017532908518e+02 -3.545073255611734e+00 -3.401164083038954e+00 1.631465744433914e-01 3.880139766667773e-02 -1.378924499019220e+00
2.562981686179152e+02 -3.405345487471688e+00 -3.365324857477195e+00 -9.093156346573096e-01 -8.468795821853149e-03 -1.305259423626707e+00
2.180205445176837e+02 -9.556422577921873e-01 -3.095900841102378e-01 5.606230469146278e-01 1.904618006864565e-01 4.710838317092324e+00
2.193807689116207e+02 -1.408032095822343e+00 -4.195051279600732e-01 2.646822576076400e-01 -6.659482788904197e-02 4.660363734399665e+00
2.360221719464868e+02 -4.623680036931553e+00 -4.280691777961700e+00 4.828914438517427e-01 1.556736719638596e-02 5.038266401350595e+00
2.302734829807064e+02 2.843400930824856e-01 7.181135662166002e-01 2.921436712711717e-01 3.587325223364268e-02 -1.422487464602714e+00
2.352394338482520e+02 6.270762278336058e-01 4.510635232199912e-01 8.833880979716882e-01 -2.826783913883205e-01 4.607910113402356e-01
2.585583264910234e+02 -4.733555319756189e+00 -4.746146481139122e+00 -6.145544685954543e-02 -7.563942445436859e-03 -1.227605260229004e-01
2.417232420169259e+02 1.123814623035960e-01 -3.014772869115107e+00 -6.382592684137765e+00 -2.586302104603604e-01 2.740662006678718e+00
2.444940324866014e+02 -1.239710777645521e+00 -1.523759705456260e+00 3.358913170811242e-01 -9.453664778025930e-02 -1.562245563933077e+00
2.636368805231501e+02 -3.605779734086187e+00 -3.670434505625506e+00 2.205156602147114e-01 -1.433412624153803e-01 -2.053461350937081e-01
2.587017532908518e+02 -3.545073255611734e+00 -3.401164083038954e+00 1.631465744433914e-01 3.880139766667773e-02 -1.378924499019220e+00
2.196878901968153e+02 -6.806616501115947e-01 -8.524952170952189e-01 -5.302355831388923e+00 -1.745588664488497e-01 7.757853367876120e-01
2.226302012985533e+02 -9.437871406497312e-01 -1.798262070204873e+00 -5.332819361307787e+00 -1.358350314766515e-01 5.847303657761138e-01
2.407803662448810e+02 -4.498006124752414e+00 -4.846698036068065e+00 -4.992497739642539e+00 -5.394999088253784e-02 8.719847075990982e-01
2.352394338482520e+02 6.270762278336058e-01 4.510635232199912e-01 8.833880979716882e-01 -2.826783913883205e-01 4.607910113402356e-01
2.327283197492325e+02 7.706298906214278e-01 2.915283769413602e-01 -1.395803153285801e+00 1.451788235563307e-01 1.999684378234341e-01
2.585583264910234e+02 -4.733555319756189e+00 -4.746146481139122e+00 -6.145544685954543e-02 -7.563942445436859e-03 -1.227605260229004e-01
2.446494249872864e+02 -2.832459056803635e+00 -7.624401858905864e-01 1.298613898730900e+00 -2.099409924845189e-01 -7.538156355377486e+00
2.460158046991338e+02 -1.597263625075301e+00 -1.440487175967004e+00 -7.920486095118096e-01 -4.985334300901761e-02 -1.373213066728773e-01
2.611419460144629e+02 -3.474134566400381e+00 -3.642692376284749e+00 -1.027492206539944e+00 8.336524145984381e-02 -2.181975536796831e-01
2.636368805231501e+02 -3.605779734086187e+00 -3.670434505625506e+00 2.205156602147114e-01 -1.433412624153803e-01 -2.053461350937081e-01
2.226804871640260e+02 -1.560492640309783e+00 -1.022501579100176e+00 2.779139824427608e-01 -9.637229136823328e-02 -5.619481396434628e+00
2.211779356489595e+02 -1.084899059699222e+00 -8.839784303980681e-01 3.547818814849351e-01 -6.807794518583470e-02 -5.582456910647112e+00
2.422303940976947e+02 -4.879265272944658e+00 -4.557313093627444e+00 4.191452193982003e-01 -3.030285267708769e-02 -5.019588731322818e+00
2.327283197492325e+02 7.706298906214278e-01 2.915283769413602e-01 -1.395803153285801e+00 1.451788235563307e-01 1.999684378234341e-01
2.682049300545554e+02 1.838627596639340e+00 5.733605327329032e+00 4.705569028672900e+00 -2.644161278785627e+00 -8.874099611369562e+00
2.349851074767680e+02 1.708312393073404e+00 -2.588698727103366e+00 4.566080040825686e+00 -9.261077074801691e-02 3.047700469888357e+00
2.446494249872864e+02 -2.832459056803635e+00 -7.624401858905864e-01 1.298613898730900e+00 -2.099409924845189e-01 -7.538156355377486e+00
2.363449384313078e+02 1.624001111545931e+00 1.328515463791840e+00 2.283332254409292e+00 -6.715034094107490e-01 -5.248686640750421e+00
2.428125234023151e+02 1.615001634325714e+00 3.226650608271411e-01 5.416002542391269e+00 -9.094996758118453e-01 -5.148431265243850e+00
2.209578096963395e+02 -6.368868684221056e-01 -1.720548536210043e+00 4.832556838273502e+00 4.331024602794972e-02 6.263081392207195e-01
2.211779356489595e+02 -1.084899059699222e+00 -8.839784303980681e-01 3.547818814849351e-01 -6.807794518583470e-02 -5.582456910647112e+00
2.510497866812194e+02 -1.012159794509145e+00 1.239170196895104e+00 5.186705167221396e+00 -9.240900651555499e-01 -9.602569439714470e+00
2.547105013423209e+02 -3.884448474239730e-01 -1.837260620010650e+00 3.112998111137375e+00 1.405258295525169e+00 -2.113793753303469e+00
2.278946069366267e+02 3.705266149009715e-01 5.013650169800351e-01 -6.661171610534771e-01 4.884975012410807e-02 -1.023533606569284e+00
2.207063765094059e+02 7.245853541837186e-01 -1.065196155213067e-01 4.339451432477768e+00 2.791260918410727e+00 3.286397587324053e+00
2.311529035572167e+02 -1.938710591240278e+00 2.405761968872592e+00 1.605891529279758e+00 -1.417754566987648e-01 3.936003125617210e+00
2.349851074767680e+02 1.708312393073404e+00 -2.588698727103366e+00 4.566080040825686e+00 -9.261077074801691e-02 3.047700469888357e+00
2.202848515338919e+02 1.310037764636906e+00 1.449794569233182e+00 7.385880073961990e-01 4.837920684151958e-01 -1.283304065140453e-01
2.197219359661807e+02 -1.292961768721256e+00 1.210471370490746e+00 5.784732631111576e+00 2.132996814594177e-01 2.204282156711651e+00
2.180205445176837e+02 -9.556422577921873e-01 -3.095900841102378e-01 5.606230469146278e-01 1.904618006864565e-01 4.710838317092324e+00
2.181590113935363e+02 -4.027205127027523e-01 -7.978959577200451e-01 4.889894932933863e+00 2.263187369238218e-01 9.267842583411771e-01
2.229527780837717e+02 1.125224415055495e+00 -1.992354644051816e+00 3.135954677517606e+00 2.399766132634664e-01 6.012254572694729e+00
2.474575619099490e+02 8.245204055172675e-01 1.007335346471288e+00 2.323145510912609e+00 -1.431354328713451e+00 2.851616878575412e+00
2.302734829807064e+02 2.843400930824856e-01 7.181135662166002e-01 2.921436712711717e-01 3.587325223364268e-02 -1.422487464602714e+00
2.446506375071991e+02 3.639092221164590e+00 4.454752491872024e-01 -6.917335856662680e+00 -2.493254279736040e+00 3.233157825536057e+00
2.417232420169259e+02 1.123814623035960e-01 -3.014772869115107e+00 -6.382592684137765e+00 -2.586302104603604e-01 2.740662006678718e+00
2.311529035572167e+02 -1.938710591240278e+00 2.405761968872592e+00 1.605891529279758e+00 -1.417754566987648e-01 3.936003125617210e+00
2.285755444117378e+02 1.209511822359734e+00 1.568108520710292e+00 -3.394920790656020e+00 -5.499780031457382e-01 6.075319008119908e-01
2.386911767714370e+02 1.170772951182153e+00 -1.833293676444766e+00 -6.753481947156987e+00 -6.645305609649220e-01 5.497397495392907e+00
2.196878901968153e+02 -6.806616501115947e-01 -8.524952170952189e-01 -5.302355831388923e+00 -1.745588664488497e-01 7.757853367876120e-01
2.193807689116207e+02 -1.408032095822343e+00 -4.195051279600732e-01 2.646822576076400e-01 -6.659482788904197e-02 4.660363734399665e+00
2.297371005642221e+02 -1.362044121988852e-01 1.505389525154927e+00 -5.141596014145128e+00 -6.310363185931933e-01 3.244307139819594e+00
2.510701625012300e+02 -5.777295666538174e-01 4.361914628297656e-01 -1.881495292326975e+00 1.255576671519240e+00 3.170067113043045e+00
2.352394338482520e+02 6.270762278336058e-01 4.510635232199912e-01 8.833880979716882e-01 -2.826783913883205e-01 4.607910113402356e-01
2.913657936394819e+02 4.765544921147738e+00 6.295548987599540e+00 -8.127779598295184e+00 3.236149520403838e+00 -9.665643208014346e+00
2.446494249872864e+02 -2.832459056803635e+00 -7.624401858905864e-01 1.298613898730900e+00 -2.099409924845189e-01 -7.538156355377486e+00
2.417232420169259e+02 1.123814623035960e-01 -3.014772869115107e+00 -6.382592684137765e+00 -2.586302104603604e-01 2.740662006678718e+00
2.436421166654337e+02 1.666936380715409e+00 1.589605588164458e+00 -5.047422022628806e+00 8.451127223965709e-01 -6.092392048323791e+00
2.607635310676127e+02 1.306637294047466e-01 1.347144048223891e+00 -5.335679932492990e+00 1.067865202609988e+00 -1.101916190369554e+01
2.226804871640260e+02 -1.560492640309783e+00 -1.022501579100176e+00 2.779139824427608e-01 -9.637229136823328e-02 -5.619481396434628e+00
2.226302012985533e+02 -9.437871406497312e-01 -1.798262070204873e+00 -5.332819361307787e+00 -1.358350314766515e-01 5.847303657761138e-01
2.582533390240059e+02 1.474004496082517e+00 4.655238857949124e-01 -9.410045760302875e+00 1.061008621930065e+00 -5.426162984801540e+00
2.583780637678307e+02 -1.899321645097177e+00 -2.517149275828356e+00 -2.972043369984695e+00 -1.853684086264546e+00 -2.732559158295187e+00
2.682049300545554e+02 1.838627596639340e+00 5.733605327329032e+00 4.705569028672900e+00 -2.644161278785627e+00 -8.874099611369562e+00
2.207063765094059e+02 7.245853541837186e-01 -1.065196155213067e-01 4.339451432477768e+00 2.791260918410727e+00 3.286397587324053e+00
2.349851074767680e+02 1.708312393073404e+00 -2.588698727103366e+00 4.566080040825686e+00 -9.261077074801691e-02 3.047700469888357e+00
2.751350813627862e+02 -4.124961984491228e+00 -3.511374137283596e+00 1.272389545462116e+00 4.366209693703339e-01 2.546719603663682e+00
2.518325128658586e+02 -9.345714648645995e-01 6.297834171142663e+00 -1.505654380811490e-01 1.327415060564924e+00 1.062940912617216e+00
2.229527780837717e+02 1.125224415055495e+00 -1.992354644051816e+00 3.135954677517606e+00 2.399766132634664e-01 6.012254572694729e+00
2.428125234023151e+02 1.615001634325714e+00 3.226650608271411e-01 5.416002542391269e+00 -9.094996758118453e-01 -5.148431265243850e+00
2.807643606544038e+02 3.654339945565158e+00 7.347088484524273e+00 5.474352839510366e-02 -2.079782125894227e+00 2.078398159210567e-01
2.494210563894726e+02 2.725805088216894e+00 2.312011464204474e+00 1.043288087677469e+00 2.665672818502393e+00 1.220732701111554e+00
2.482879584673294e+02 1.296180472381551e+00 -2.476953938455661e+00 -2.067358851877322e+00 -2.557145259377970e-01 4.175129952062633e+00
2.207063765094059e+02 7.245853541837186e-01 -1.065196155213067e-01 4.339451432477768e+00 2.791260918410727e+00 3.286397587324053e+00
2.446506375071991e+02 3.639092221164590e+00 4.454752491872024e-01 -6.917335856662680e+00 -2.493254279736040e+00 3.233157825536057e+00
2.311529035572167e+02 -1.938710591240278e+00 2.405761968872592e+00 1.605891529279758e+00 -1.417754566987648e-01 3.936003125617210e+00
2.751350813627862e+02 -4.124961984491228e+00 -3.511374137283596e+00 1.272389545462116e+00 4.366209693703339e-01 2.546719603663682e+00
2.375046403143506e+02 5.290893363170630e+00 -2.495716748058051e+00 6.747317207936669e-01 8.201367028032485e-01 -1.990507654573843e+00
2.297371005642221e+02 -1.362044121988852e-01 1.505389525154927e+00 -5.141596014145128e+00 -6.310363185931933e-01 3.244307139819594e+00
2.197219359661807e+02 -1.292961768721256e+00 1.210471370490746e+00 5.784732631111576e+00 2.132996814594177e-01 2.204282156711651e+00
2.494210563894726e+02 2.725805088216894e+00 2.312011464204474e+00 1.043288087677469e+00 2.665672818502393e+00 1.220732701111554e+00
2.651776651448333e+02 5.187581362306443e+00 2.707465079451925e+00 -2.042238323456398e-01 -1.954082662550522e+00 5.874775232843348e-01
2.447674858942991e+02 -2.444001090826402e+00 1.469581219013453e+00 2.154807984927084e+00 -1.384643788976916e-01 -1.948759734819642e+00
2.446506375071991e+02 3.639092221164590e+00 4.454752491872024e-01 -6.917335856662680e+00 -2.493254279736040e+00 3.233157825536057e+00
2.913657936394819e+02 4.765544921147738e+00 6.295548987599540e+00 -8.127779598295184e+00 3.236149520403838e+00 -9.665643208014346e+00
2.417232420169259e+02 1.123814623035960e-01 -3.014772869115107e+00 -6.382592684137765e+00 -2.586302104603604e-01 2.740662006678718e+00
2.751350813627862e+02 -4.124961984491228e+00 -3.511374137283596e+00 1.272389545462116e+00 4.366209693703339e-01 2.546719603663682e+00
2.797178823105839e+02 2.734568486070148e+00 6.802581486843108e+00 -3.821142057041752e+00 -7.160734436010919e-01 5.154043556221504e-01
2.582533390240059e+02 1.474004496082517e+00 4.655238857949124e-01 -9.410045760302875e+00 1.061008621930065e+00 -5.426162984801540e+00
2.386911767714370e+02 1.170772951182153e+00 -1.833293676444766e+00 -6.753481947156987e+00 -6.645305609649220e-01 5.497397495392907e+00
2.651776651448333e+02 5.187581362306443e+00 2.707465079451925e+00 -2.042238323456398e-01 -1.954082662550522e+00 5.874775232843348e-01
2.961260036439835e+02 6.361442614054983e+00 7.986470862441232e+00 2.923502638674044e-01 3.021426376268963e+00 3.494234973575169e-01
2.544093073920751e+02 1.247320235191745e+00 -2.136526973017624e+00 1.865408476949928e+00 2.430703646966587e-01 3.933211492761373e+00
2.913657936394819e+02 4.765544921147738e+00 6.295548987599540e+00 -8.127779598295184e+00 3.236149520403838e+00 -9.665643208014346e+00
2.682049300545554e+02 1.838627596639340e+00 5.733605327329032e+00 4.705569028672900e+00 -2.644161278785627e+00 -8.874099611369562e+00
2.446494249872864e+02 -2.832459056803635e+00 -7.624401858905864e-01 1.298613898730900e+00 -2.099409924845189e-01 -7.538156355377486e+00
2.751350813627862e+02 -4.124961984491228e+00 -3.511374137283596e+00 1.272389545462116e+00 4.366209693703339e-01 2.546719603663682e+00
2.933313082861237e+02 6.346357198991173e+00 4.820712205863178e+00 1.282341340316004e-01 -2.084414106735604e-01 -5.954898542051466e+00
2.510497866812194e+02 -1.012159794509145e+00 1.239170196895104e+00 5.186705167221396e+00 -9.240900651555499e-01 -9.602569439714470e+00
2.607635310676127e+02 1.306637294047466e-01 1.347144048223891e+00 -5.335679932492990e+00 1.067865202609988e+00 -1.101916190369554e+01
2.961260036439835e+02 6.361442614054983e+00 7.986470862441232e+00 2.923502638674044e-01 3.021426376268963e+00 3.494234973575169e-01
2.807643606544038e+02 3.654339945565158e+00 7.347088484524273e+00 5.474352839510366e-02 -2.079782125894227e+00 2.078398159210567e-01
2.570388134533140e+02 -1.795530266388837e+00 1.389334853293002e+00 1.912348053215719e+00 1.250413868647620e-01 1.582575660926900e+00
2.585583264910234e+02 -4.733555319756189e+00 -4.746146481139122e+00 -6.145544685954543e-02 -7.563942445436859e-03 -1.227605260229004e-01
2.349851074767680e+02 1.708312393073404e+00 -2.588698727103366e+00 4.566080040825686e+00 -9.261077074801691e-02 3.047700469888357e+00
2.446494249872864e+02 -2.832459056803635e+00 -7.624401858905864e-01 1.298613898730900e+00 -2.099409924845189e-01 -7.538156355377486e+00
2.327283197492325e+02 7.706298906214278e-01 2.915283769413602e-01 -1.395803153285801e+00 1.451788235563307e-01 1.999684378234341e-01
2.376731337346400e+02 -4.359536645125837e+00 -4.720208623621510e+00 5.002267321409606e+00 3.909341889284251e-02 9.358245012645834e-01
2.547105013423209e+02 -3.884448474239730e-01 -1.837260620010650e+00 3.112998111137375e+00 1.405258295525169e+00 -2.113793753303469e+00
2.422303940976947e+02 -4.879265272944658e+00 -4.557313093627444e+00 4.191452193982003e-01 -3.030285267708769e-02 -5.019588731322818e+00
2.611419460144629e+02 -3.474134566400381e+00 -3.642692376284749e+00 -1.027492206539944e+00 8.336524145984381e-02 -2.181975536796831e-01
2.209578096963395e+02 -6.368868684221056e-01 -1.720548536210043e+00 4.832556838273502e+00 4.331024602794972e-02 6.263081392207195e-01
2.211779356489595e+02 -1.084899059699222e+00 -8.839784303980681e-01 3.547818814849351e-01 -6.807794518583470e-02 -5.582456910647112e+00
2.585583264910234e+02 -4.733555319756189e+00 -4.746146481139122e+00 -6.145544685954543e-02 -7.563942445436859e-03 -1.227605260229004e-01
2.311529035572167e+02 -1.938710591240278e+00 2.405761968872592e+00 1.605891529279758e+00 -1.417754566987648e-01 3.936003125617210e+00
2.349851074767680e+02 1.708312393073404e+00 -2.588698727103366e+00 4.566080040825686e+00 -9.261077074801691e-02 3.047700469888357e+00
2.278946069366267e+02 3.705266149009715e-01 5.013650169800351e-01 -6.661171610534771e-01 4.884975012410807e-02 -1.023533606569284e+00
2.360221719464868e+02 -4.623680036931553e+00 -4.280691777961700e+00 4.828914438517427e-01 1.556736719638596e-02 5.038266401350595e+00
2.474575619099490e+02 8.245204055172675e-01 1.007335346471288e+00 2.323145510912609e+00 -1.431354328713451e+00 2.851616878575412e+00
2.376731337346400e+02 -4.359536645125837e+00 -4.720208623621510e+00 5.002267321409606e+00 3.909341889284251e-02 9.358245012645834e-01
2.562981686179152e+02 -3.405345487471688e+00 -3.365324857477195e+00 -9.093156346573096e-01 -8.468795821853149e-03 -1.305259423626707e+00
2.180205445176837e+02 -9.556422577921873e-01 -3.095900841102378e-01 5.606230469146278e-01 1.904618006864565e-01 4.710838317092324e+00
2.181590113935363e+02 -4.027205127027523e-01 -7.978959577200451e-01 4.889894932933863e+00 2.263187369238218e-01 9.267842583411771e-01
2.585583264910234e+02 -4.733555319756189e+00 -4.746146481139122e+00 -6.145544685954543e-02 -7.563942445436859e-03 -1.227605260229004e-01
2.417232420169259e+02 1.123814623035960e-01 -3.014772869115107e+00 -6.382592684137765e+00 -2.586302104603604e-01 2.740662006678718e+00
2.311529035572167e+02 -1.938710591240278e+00 2.405761968872592e+00 1.605891529279758e+00 -1.417754566987648e-01 3.936003125617210e+00
2.302734829807064e+02 2.843400930824856e-01 7.181135662166002e-01 2.921436712711717e-01 3.587325223364268e-02 -1.422487464602714e+00
2.407803662448810e+02 -4.498006124752414e+00 -4.846698036068065e+00 -4.992497739642539e+00 -5.394999088253784e-02 8.719847075990982e-01
2.510701625012300e+02 -5.777295666538174e-01 4.361914628297656e-01 -1.881495292326975e+00 1.255576671519240e+00 3.170067113043045e+00
2.360221719464868e+02 -4.623680036931553e+00 -4.280691777961700e+00 4.828914438517427e-01 1.556736719638596e-02 5.038266401350595e+00
2.587017532908518e+02 -3.545073255611734e+00 -3.401164083038954e+00 1.631465744433914e-01 3.880139766667773e-02 -1.378924499019220e+00
2.196878901968153e+02 -6.806616501115947e-01 -8.524952170952189e-01 -5.302355831388923e+00 -1.745588664488497e-01 7.757853367876120e-01
2.193807689116207e+02 -1.408032095822343e+00 -4.195051279600732e-01 2.646822576076400e-01 -6.659482788904197e-02 4.660363734399665e+00
2.585583264910234e+02 -4.733555319756189e+00 -4.746146481139122e+00 -6.145544685954543e-02 -7.563942445436859e-03 -1.227605260229004e-01
2.446494249872864e+02 -2.832459056803635e+00 -7.624401858905864e-01 1.298613898730900e+00 -2.099409924845189e-01 -7.538156355377486e+00
2.417232420169259e+02 1.123814623035960e-01 -3.014772869115107e+00 -6.382592684137765e+00 -2.586302104603604e-01 2.740662006678718e+00
2.352394338482520e+02 6.270762278336058e-01 4.510635232199912e-01 8.833880979716882e-01 -2.826783913883205e-01 4.607910113402356e-01
2.422303940976947e+02 -4.879265272944658e+00 -4.557313093627444e+00 4.191452193982003e-01 -3.030285267708769e-02 -5.019588731322818e+00
2.583780637678307e+02 -1.899321645097177e+00 -2.517149275828356e+00 -2.972043369984695e+00 -1.853684086264546e+00 -2.732559158295187e+00
2.407803662448810e+02 -4.498006124752414e+00 -4.846698036068065e+00 -4.992497739642539e+00 -5.394999088253784e-02 8.719847075990982e-01
2.636368805231501e+02 -3.605779734086187e+00 -3.670434505625506e+00 2.205156602147114e-01 -1.433412624153803e-01 -2.053461350937081e-01
2.226804871640260e+02 -1.560492640309783e+00 -1.022501579100176e+00 2.779139824427608e-01 -9.637229136823328e-02 -5.619481396434628e+00
2.226302012985533e+02 -9.437871406497312e-01 -1.798262070204873e+00 -5.332819361307787e+00 -1.358350314766515e-01 5.847303657761138e-01
2.751350813627862e+02 -4.124961984491228e+00 -3.511374137283596e+00 1.272389545462116e+00 4.366209693703339e-01 2.546719603663682e+00
2.446494249872864e+02 -2.832459056803635e+00 -7.624401858905864e-01 1.298613898730900e+00 -2.099409924845189e-01 -7.538156355377486e+00
2.349851074767680e+02 1.708312393073404e+00 -2.588698727103366e+00 4.566080040825686e+00 -9.261077074801691e-02 3.047700469888357e+00
2.682049300545554e+02 1.838627596639340e+00 5.733605327329032e+00 4.705569028672900e+00 -2.644161278785627e+00 -8.874099611369562e+00
2.570388134533140e+02 -1.795530266388837e+00 1.389334853293002e+00 1.912348053215719e+00 1.250413868647620e-01 1.582575660926900e+00
2.547105013423209e+02 -3.884448474239730e-01 -1.837260620010650e+00 3.112998111137375e+00 1.405258295525169e+00 -2.113793753303469e+00
2.482879584673294e+02 1.296180472381551e+00 -2.476953938455661e+00 -2.067358851877322e+00 -2.557145259377970e-01 4.175129952062633e+00
2.807643606544038e+02 3.654339945565158e+00 7.347088484524273e+00 5.474352839510366e-02 -2.079782125894227e+00 2.078398159210567e-01
2.510497866812194e+02 -1.012159794509145e+00 1.239170196895104e+00 5.186705167221396e+00 -9.240900651555499e-01 -9.602569439714470e+00
2.428125234023151e+02 1.615001634325714e+00 3.226650608271411e-01 5.416002542391269e+00 -9.094996758118453e-01 -5.148431265243850e+00
2.751350813627862e+02 -4.124961984491228e+00 -3.511374137283596e+00 1.272389545462116e+00 4.366209693703339e-01 2.546719603663682e+00
2.349851074767680e+02 1.708312393073404e+00 -2.588698727103366e+00 4.566080040825686e+00 -9.261077074801691e-02 3.047700469888357e+00
2.311529035572167e+02 -1.938710591240278e+00 2.405761968872592e+00 1.605891529279758e+00 -1.417754566987648e-01 3.936003125617210e+00
2.207063765094059e+02 7.245853541837186e-01 -1.065196155213067e-01 4.339451432477768e+00 2.791260918410727e+00 3.286397587324053e+00
2.482879584673294e+02 1.296180472381551e+00 -2.476953938455661e+00 -2.067358851877322e+00 -2.557145259377970e-01 4.175129952062633e+00
2.474575619099490e+02 8.245204055172675e-01 1.007335346471288e+00 2.323145510912609e+00 -1.431354328713451e+00 2.851616878575412e+00
2.447674858942991e+02 -2.444001090826402e+00 1.469581219013453e+00 2.154807984927084e+00 -1.384643788976916e-01 -1.948759734819642e+00
2.494210563894726e+02 2.725805088216894e+00 2.312011464204474e+00 1.043288087677469e+00 2.665672818502393e+00 1.220732701111554e+00
2.229527780837717e+02 1.125224415055495e+00 -1.992354644051816e+00 3.135954677517606e+00 2.399766132634664e-01 6.012254572694729e+00
2.197219359661807e+02 -1.292961768721256e+00 1.210471370490746e+00 5.784732631111576e+00 2.132996814594177e-01 2.204282156711651e+00
2.751350813627862e+02 -4.124961984491228e+00 -3.511374137283596e+00 1.272389545462116e+00 4.366209693703339e-01 2.546719603663682e+00
2.311529035572167e+02 -1.938710591240278e+00 2.405761968872592e+00 1.605891529279758e+00 -1.417754566987648e-01 3.936003125617210e+00
2.417232420169259e+02 1.123814623035960e-01 -3.014772869115107e+00 -6.382592684137765e+00 -2.586302104603604e-01 2.740662006678718e+00
2.446506375071991e+02 3.639092221164590e+00 4.454752491872024e-01 -6.917335856662680e+00 -2.493254279736040e+00 3.233157825536057e+00
2.447674858942991e+02 -2.444001090826402e+00 1.469581219013453e+00 2.154807984927084e+00 -1.384643788976916e-01 -1.948759734819642e+00
2.510701625012300e+02 -5.777295666538174e-01 4.361914628297656e-01 -1.881495292326975e+00 1.255576671519240e+00 3.170067113043045e+00
2.544093073920751e+02 1.247320235191745e+00 -2.136526973017624e+00 1.865408476949928e+00 2.430703646966587e-01 3.933211492761373e+00
2.651776651448333e+02 5.187581362306443e+00 2.707465079451925e+00 -2.042238323456398e-01 -1.954082662550522e+00 5.874775232843348e-01
2.297371005642221e+02 -1.362044121988852e-01 1.505389525154927e+00 -5.141596014145128e+00 -6.310363185931933e-01 3.244307139819594e+00
2.386911767714370e+02 1.170772951182153e+00 -1.833293676444766e+00 -6.753481947156987e+00 -6.645305609649220e-01 5.497397495392907e+00
2.751350813627862e+02 -4.124961984491228e+00 -3.511374137283596e+00 1.272389545462116e+00 4.366209693703339e-01 2.546719603663682e+00
2.417232420169259e+02 1.123814623035960e-01 -3.014772869115107e+00 -6.382592684137765e+00 -2.586302104603604e-01 2.740662006678718e+00
2.446494249872864e+02 -2.832459056803635e+00 -7.624401858905864e-01 1.298613898730900e+00 -2.099409924845189e-01 -7.538156355377486e+00
2.913657936394819e+02 4.765544921147738e+00 6.295548987599540e+00 -8.127779598295184e+00 3.236149520403838e+00 -9.665643208014346e+00
2.544093073920751e+02 1.247320235191745e+00 -2.136526973017624e+00 1.865408476949928e+00 2.430703646966587e-01 3.933211492761373e+00
2.583780637678307e+02 -1.899321645097177e+00 -2.517149275828356e+00 -2.972043369984695e+00 -1.853684086264546e+00 -2.732559158295187e+00
2.570388134533140e+02 -1.795530266388837e+00 1.389334853293002e+00 1.912348053215719e+00 1.250413868647620e-01 1.582575660926900e+00
2.961260036439835e+02 6.361442614054983e+00 7.986470862441232e+00 2.923502638674044e-01 3.021426376268963e+00 3.494234973575169e-01
2.582533390240059e+02 1.474004496082517e+00 4.655238857949124e-01 -9.410045760302875e+00 1.061008621930065e+00 -5.426162984801540e+00
2.607635310676127e+02 1.306637294047466e-01 1.347144048223891e+00 -5.335679932492990e+00 1.067865202609988e+00 -1.101916190369554e+01
2.585583264910234e+02 -4.733555319756189e+00 -4.746146481139122e+00 -6.145544685954543e-02 -7.563942445436859e-03 -1.227605260229004e-01
2.446494249872864e+02 -2.832459056803635e+00 -7.624401858905864e-01 1.298613898730900e+00 -2.099409924845189e-01 -7.538156355377486e+00
2.349851074767680e+02 1.708312393073404e+00 -2.588698727103366e+00 4.566080040825686e+00 -9.261077074801691e-02 3.047700469888357e+00
2.518825082097914e+02 1.007777123726200e+01 9.785757348499445e+00 1.221389780302165e+00 -1.690406183866444e-01 2.437189756937558e+00
2.422303940976947e+02 -4.879265272944658e+00 -4.557313093627444e+00 4.191452193982003e-01 -3.030285267708769e-02 -5.019588731322818e+00
2.547105013423209e+02 -3.884448474239730e-01 -1.837260620010650e+00 3.112998111137375e+00 1.405258295525169e+00 -2.113793753303469e+00
2.376731337346400e+02 -4.359536645125837e+00 -4.720208623621510e+00 5.002267321409606e+00 3.909341889284251e-02 9.358245012645834e-01
2.348626721829065e+02 -4.816382376190626e+00 -4.832728102314999e+00 1.744713829214710e-01 -9.864525279999956e-03 3.484518219717467e-01
2.695101051265197e+02 3.993603797050007e+00 4.197972648472858e+00 1.272179781399062e+00 -2.927149006203245e-01 -7.053408381123542e-01
2.614587010084225e+02 6.837137519425435e+00 4.838461751923289e+00 1.101104360495615e+00 9.551571911780499e-02 2.763470747879240e+00
2.585583264910234e+02 -4.733555319756189e+00 -4.746146481139122e+00 -6.145544685954543e-02 -7.563942445436859e-03 -1.227605260229004e-01
2.349851074767680e+02 1.708312393073404e+00 -2.588698727103366e+00 4.566080040825686e+00 -9.261077074801691e-02 3.047700469888357e+00
2.311529035572167e+02 -1.938710591240278e+00 2.405761968872592e+00 1.605891529279758e+00 -1.417754566987648e-01 3.936003125617210e+00
2.518825082097914e+02 1.007777123726200e+01 9.785757348499445e+00 1.221389780302165e+00 -1.690406183866444e-01 2.437189756937558e+00
2.376731337346400e+02 -4.359536645125837e+00 -4.720208623621510e+00 5.002267321409606e+00 3.909341889284251e-02 9.358245012645834e-01
2.474575619099490e+02 8.245204055172675e-01 1.007335346471288e+00 2.323145510912609e+00 -1.431354328713451e+00 2.851616878575412e+00
2.360221719464868e+02 -4.623680036931553e+00 -4.280691777961700e+00 4.828914438517427e-01 1.556736719638596e-02 5.038266401350595e+00
2.348626721829065e+02 -4.816382376190626e+00 -4.832728102314999e+00 1.744713829214710e-01 -9.864525279999956e-03 3.484518219717467e-01
2.614587010084225e+02 6.837137519425435e+00 4.838461751923289e+00 1.101104360495615e+00 9.551571911780499e-02 2.763470747879240e+00
2.583787738697075e+02 5.593342688632937e+00 7.512399447135173e+00 1.424024926423635e+00 -3.771269703741059e-02 1.424282630905440e+00
2.585583264910234e+02 -4.733555319756189e+00 -4.746146481139122e+00 -6.145544685954543e-02 -7.563942445436859e-03 -1.227605260229004e-01
2.311529035572167e+02 -1.938710591240278e+00 2.405761968872592e+00 1.605891529279758e+00 -1.417754566987648e-01 3.936003125617210e+00
2.417232420169259e+02 1.123814623035960e-01 -3.014772869115107e+00 -6.382592684137765e+00 -2.586302104603604e-01 2.740662006678718e+00
2.518825082097914e+02 1.007777123726200e+01 9.785757348499445e+00 1.221389780302165e+00 -1.690406183866444e-01 2.437189756937558e+00
2.360221719464868e+02 -4.623680036931553e+00 -4.280691777961700e+00 4.828914438517427e-01 1.556736719638596e-02 5.038266401350595e+00
2.510701625012300e+02 -5.777295666538174e-01 4.361914628297656e-01 -1.881495292326975e+00 1.255576671519240e+00 3.170067113043045e+00
2.407803662448810e+02 -4.498006124752414e+00 -4.846698036068065e+00 -4.992497739642539e+00 -5.394999088253784e-02 8.719847075990982e-01
2.348626721829065e+02 -4.816382376190626e+00 -4.832728102314999e+00 1.744713829214710e-01 -9.864525279999956e-03 3.484518219717467e-01
2.583787738697075e+02 5.593342688632937e+00 7.512399447135173e+00 1.424024926423635e+00 -3.771269703741059e-02 1.424282630905440e+00
2.670216465257465e+02 5.172260727042372e+00 4.044364843682336e+00 -7.467744358830927e-01 -4.256894767883123e-01 2.611762606227046e+00
2.585583264910234e+02 -4.733555319756189e+00 -4.746146481139122e+00 -6.145544685954543e-02 -7.563942445436859e-03 -1.227605260229004e-01
2.417232420169259e+02 1.123814623035960e-01 -3.014772869115107e+00 -6.382592684137765e+00 -2.586302104603604e-01 2.740662006678718e+00
2.446494249872864e+02 -2.832459056803635e+00 -7.624401858905864e-01 1.298613898730900e+00 -2.099409924845189e-01 -7.538156355377486e+00
2.518825082097914e+02 1.007777123726200e+01 9.785757348499445e+00 1.221389780302165e+00 -1.690406183866444e-01 2.437189756937558e+00
2.407803662448810e+02 -4.498006124752414e+00 -4.846698036068065e+00 -4.992497739642539e+00 -5.394999088253784e-02 8.719847075990982e-01
2.583780637678307e+02 -1.899321645097177e+00 -2.517149275828356e+00 -2.972043369984695e+00 -1.853684086264546e+00 -2.732559158295187e+00
2.422303940976947e+02 -4.879265272944658e+00 -4.557313093627444e+00 4.191452193982003e-01 -3.030285267708769e-02 -5.019588731322818e+00
2.348626721829065e+02 -4.816382376190626e+00 -4.832728102314999e+00 1.744713829214710e-01 -9.864525279999956e-03 3.484518219717467e-01
2.670216465257465e+02 5.172260727042372e+00 4.044364843682336e+00 -7.467744358830927e-01 -4.256894767883123e-01 2.611762606227046e+00
2.695101051265197e+02 3.993603797050007e+00 4.197972648472858e+00 1.272179781399062e+00 -2.927149006203245e-01 -7.053408381123542e-01
2.751350813627862e+02 -4.124961984491228e+00 -3.511374137283596e+00 1.272389545462116e+00 4.366209693703339e-01 2.546719603663682e+00
2.349851074767680e+02 1.708312393073404e+00 -2.588698727103366e+00 4.566080040825686e+00 -9.261077074801691e-02 3.047700469888357e+00
2.446494249872864e+02 -2.832459056803635e+00 -7.624401858905864e-01 1.298613898730900e+00 -2.099409924845189e-01 -7.538156355377486e+00
2.518825082097914e+02 1.007777123726200e+01 9.785757348499445e+00 1.221389780302165e+00 -1.690406183866444e-01 2.437189756937558e+00
2.482879584673294e+02 1.296180472381551e+00 -2.476953938455661e+00 -2.067358851877322e+00 -2.557145259377970e-01 4.175129952062633e+00
2.547105013423209e+02 -3.884448474239730e-01 -1.837260620010650e+00 3.112998111137375e+00 1.405258295525169e+00 -2.113793753303469e+00
2.570388134533140e+02 -1.795530266388837e+00 1.389334853293002e+00 1.912348053215719e+00 1.250413868647620e-01 1.582575660926900e+00
2.585683460418230e+02 4.428619355561799e+00 4.320190522179608e+00 1.704301732924448e+00 -3.714342697094866e-02 3.403298960612303e+00
2.614587010084225e+02 6.837137519425435e+00 4.838461751923289e+00 1.101104360495615e+00 9.551571911780499e-02 2.763470747879240e+00
2.695101051265197e+02 3.993603797050007e+00 4.197972648472858e+00 1.272179781399062e+00 -2.927149006203245e-01 -7.053408381123542e-01
2.751350813627862e+02 -4.124961984491228e+00 -3.511374137283596e+00 1.272389545462116e+00 4.366209693703339e-01 2.546719603663682e+00
2.311529035572167e+02 -1.938710591240278e+00 2.405761968872592e+00 1.605891529279758e+00 -1.417754566987648e-01 3.936003125617210e+00
2.349851074767680e+02 1.708312393073404e+00 -2.588698727103366e+00 4.566080040825686e+00 -9.261077074801691e-02 3.047700469888357e+00
2.518825082097914e+02 1.007777123726200e+01 9.785757348499445e+00 1.221389780302165e+00 -1.690406183866444e-01 2.437189756937558e+00
2.447674858942991e+02 -2.444001090826402e+00 1.469581219013453e+00 2.154807984927084e+00 -1.384643788976916e-01 -1.948759734819642e+00
2.474575619099490e+02 8.245204055172675e-01 1.007335346471288e+00 2.323145510912609e+00 -1.431354328713451e+00 2.851616878575412e+00
2.482879584673294e+02 1.296180472381551e+00 -2.476953938455661e+00 -2.067358851877322e+00 -2.557145259377970e-01 4.175129952062633e+00
2.585683460418230e+02 4.428619355561799e+00 4.320190522179608e+00 1.704301732924448e+00 -3.714342697094866e-02 3.403298960612303e+00
2.583787738697075e+02 5.593342688632937e+00 7.512399447135173e+00 1.424024926423635e+00 -3.771269703741059e-02 1.424282630905440e+00
2.614587010084225e+02 6.837137519425435e+00 4.838461751923289e+00 1.101104360495615e+00 9.551571911780499e-02 2.763470747879240e+00
2.751350813627862e+02 -4.124961984491228e+00 -3.511374137283596e+00 1.272389545462116e+00 4.366209693703339e-01 2.546719603663682e+00
2.417232420169259e+02 1.123814623035960e-01 -3.014772869115107e+00 -6.382592684137765e+00 -2.586302104603604e-01 2.740662006678718e+00
2.311529035572167e+02 -1.938710591240278e+00 2.405761968872592e+00 1.605891529279758e+00 -1.417754566987648e-01 3.936003125617210e+00
2.518825082097914e+02 1.007777123726200e+01 9.785757348499445e+00 1.221389780302165e+00 -1.690406183866444e-01 2.437189756937558e+00
2.544093073920751e+02 1.247320235191745e+00 -2.136526973017624e+00 1.865408476949928e+00 2.430703646966587e-01 3.933211492761373e+00
2.510701625012300e+02 -5.777295666538174e-01 4.361914628297656e-01 -1.881495292326975e+00 1.255576671519240e+00 3.170067113043045e+00
2.447674858942991e+02 -2.444001090826402e+00 1.469581219013453e+00 2.154807984927084e+00 -1.384643788976916e-01 -1.948759734819642e+00
2.585683460418230e+02 4.428619355561799e+00 4.320190522179608e+00 1.704301732924448e+00 -3.714342697094866e-02 3.403298960612303e+00
2.670216465257465e+02 5.172260727042372e+00 4.044364843682336e+00 -7.467744358830927e-01 -4.256894767883123e-01 2.611762606227046e+00
2.583787738697075e+02 5.593342688632937e+00 7.512399447135173e+00 1.424024926423635e+00 -3.771269703741059e-02 1.424282630905440e+00
2.751350813627862e+02 -4.124961984491228e+00 -3.511374137283596e+00 1.272389545462116e+00 4.366209693703339e-01 2.546719603663682e+00
2.446494249872864e+02 -2.832459056803635e+00 -7.624401858905864e-01 1.298613898730900e+00 -2.099409924845189e-01 -7.538156355377486e+00
2.417232420169259e+02 1.123814623035960e-01 -3.014772869115107e+00 -6.382592684137765e+00 -2.586302104603604e-01 2.740662006678718e+00
2.518825082097914e+02 1.007777123726200e+01 9.785757348499445e+00 1.221389780302165e+00 -1.690406183866444e-01 2.437189756937558e+00
2.570388134533140e+02 -1.795530266388837e+00 1.389334853293002e+00 1.912348053215719e+00 1.250413868647620e-01 1.582575660926900e+00
2.583780637678307e+02 -1.899321645097177e+00 -2.517149275828356e+00 -2.972043369984695e+00 -1.853684086264546e+00 -2.732559158295187e+00
2.544093073920751e+02 1.247320235191745e+00 -2.136526973017624e+00 1.865408476949928e+00 2.430703646966587e-01 3.933211492761373e+00
2.585683460418230e+02 4.428619355561799e+00 4.320190522179608e+00 1.704301732924448e+00 -3.714342697094866e-02 3.403298960612303e+00
2.695101051265197e+02 3.993603797050007e+00 4.197972648472858e+00 1.272179781399062e+00 -2.927149006203245e-01 -7.053408381123542e-01
2.670216465257465e+02 5.172260727042372e+00 4.044364843682336e+00 -7.467744358830927e-01 -4.256894767883123e-01 2.611762606227046e+00
        </DataArray>
  </PointData>
  <CellData>
        <DataArray type="Float64" Name="element_GL_strains_xyz" NumberOfComponents="6" format="ascii">
2.967992012097692e-02 1.655970189908690e-02 1.662498213011335e-02 4.475501748317394e-03 2.981854359038805e-05 8.950993876564655e-03
3.044483999540085e-02 -2.657540130751368e-03 -2.656246315654136e-03 4.675791170054017e-03 -2.604684137139694e-05 9.351595017302270e-03
1.395146199923928e-01 -2.672154582718529e-02 -2.665099919533576e-02 1.930973696886610e-03 5.244441333088544e-05 3.861480483449406e-03
4.157774316046770e-02 2.445618424090101e-02 -1.966728349891367e-03 -1.767939490917897e-02 3.463039769810269e-03 2.501347208516650e-02
4.124418774374203e-02 -4.088876128216928e-03 2.611334402915119e-02 1.268416514949146e-02 1.813103986547817e-03 -6.768322731105112e-03
4.222433118555372e-02 2.153297776887583e-02 1.386377544294895e-03 3.853297240678149e-02 -3.205709841536293e-03 2.434288685903924e-02
4.253819183555196e-02 2.678639336981786e-03 2.020326063874697e-02 1.201326542316156e-02 -1.555259048736074e-03 4.850256438495315e-02
5.381395069046760e-02 3.010991844048708e-02 4.943492669864977e-03 -3.056907283878088e-02 -2.485498927179138e-02 5.621326866668257e-02
5.106373475580583e-02 1.671914067162364e-02 2.597629892840983e-02 -2.536152922663141e-02 3.126986461678594e-02 -1.610079818713514e-02
5.244066802855230e-02 6.187706280883415e-03 3.258136883245399e-02 4.576733122017752e-02 -2.797931176252017e-02 -1.908109142721752e-02
5.518868084801731e-02 1.978667545901146e-02 1.176574588090092e-02 4.958423552245343e-02 2.184521708022998e-02 5.780225412237960e-02
1.577250270941754e-01 -2.891639835952965e-02 -2.702479123219170e-02 4.049599869579327e-03 4.960427009505179e-04 1.049423775209328e-02
1.537180936661929e-01 -2.732622299305004e-02 -2.869884813098156e-02 5.296882610186215e-03 4.089317508820550e-04 7.057951840577294e-03
1.657537297594296e-01 -2.859437070620963e-02 -2.757373237140462e-02 1.892401305601324e-03 1.089734374789208e-04 1.031518372120195e-02
1.697580997865690e-01 -2.835669928410123e-02 -2.808513326309485e-02 5.117087188783381e-03 1.969840431788616e-04 4.832081441616043e-03
3.687599510711839e-02 9.622534758675541e-03 8.997321219145205e-06 -7.445225825994630e-03 -1.279533975501601e-03 4.113994158059774e-02
3.671750284912742e-02 3.472835800342508e-03 6.932179493334106e-03 -5.747964620814773e-03 5.542616863220805e-03 5.968988846079172e-03
3.680250681368533e-02 -6.240400789447875e-06 9.953173877192689e-03 2.952428802661866e-02 -3.313898242239868e-03 4.885297919363613e-03
3.693495419360213e-02 6.279775868058904e-03 3.169140822948585e-03 3.032796086287810e-02 -6.377975891915595e-04 4.133009647585912e-02
1.591809332278516e-01 -2.776247636624828e-02 -2.762414239876584e-02 5.451273068133300e-03 2.319990539670662e-05 6.514752656578449e-03
1.484338438042871e-01 -2.711347733840105e-02 -2.690087010527935e-02 5.673264252338545e-03 -3.518140575339448e-04 9.790275349560836e-03
1.539314979559704e-01 -2.751296241630070e-02 -2.727572400882593e-02 2.533361316097932e-03 3.107170065088637e-04 9.623513810158916e-03
1.642049539052216e-01 -2.799918251141366e-02 -2.783539469535380e-02 2.534774209053382e-03 4.875634232607957e-04 6.461455456266727e-03
4.972959751119069e-02 -1.518011493609676e-02 -1.602805932091947e-02 1.426562990114785e-02 1.785459714350787e-03 2.078419885627349e-02
4.821801550974025e-02 -1.499098487040477e-02 -1.469747428149761e-02 1.448571890104830e-02 -1.291995073539398e-03 2.640366451751192e-02
4.897329501004452e-02 -1.566463538969490e-02 -1.480678064745575e-02 9.216177930668304e-03 1.552310888636536e-03 2.618565060273137e-02
5.048788294702017e-02 -1.580443896802590e-02 -1.608760024199113e-02 9.017619760404891e-03 -2.010012996639914e-03 2.058393658256626e-02
1.675820227533885e-01 -2.684772432957420e-02 -2.728677331413532e-02 2.631706127130948e-03 1.752109164451032e-03 1.181417662487401e-02
1.646008640715209e-01 -2.666067748166047e-02 -2.630004826654875e-02 2.800978865729037e-03 -1.500761981334820e-03 7.741091670525403e-03
1.660900737526271e-01 -2.716238391025728e-02 -2.640809033376640e-02 7.028313586941036e-03 1.727308920593114e-03 7.603977009396849e-03
1.690717144838881e-01 -2.730307375948719e-02 -2.734799462936673e-02 7.001771988981343e-03 -1.587949741365560e-03 1.175581824138930e-02
        </DataArray>
        <DataArray type="Float64" Name="element_cauchy_stresses_xyz" NumberOfComponents="6" format="ascii">
1.887756423663729e+02 1.470974487950709e-01 1.462191521641831e-01 1.300950525984210e-03 -8.098570061840444e-04 2.607194724819066e-03
1.961676193930231e+02 -3.196310939240673e+00 -3.198422230375795e+00 -3.104187688540888e-02 -1.838367411838765e-03 -6.207297338179235e-02
2.061033043274305e+02 2.739921252839095e+00 2.741997026538521e+00 3.214579724028679e-02 3.565898582449711e-03 6.406047152094102e-02
2.321034330511236e+02 -1.848890839595642e+00 -2.394315854834836e+00 2.140298306723658e+00 1.008855940601090e-01 1.681660296860324e-01
2.308512160695459e+02 -2.307013709465598e+00 -1.707291795417100e+00 9.876565133282450e-02 4.732615149745881e-02 2.048320588293522e+00
2.345232382779501e+02 -2.132486824695651e+00 -2.534495837600594e+00 -2.388829840969740e+00 -1.125516429526595e-01 1.083020436358781e-01
2.356945590051945e+02 -2.589697578452151e+00 -2.275139231326839e+00 3.897571117649348e-02 -5.893018648808072e-02 -2.545846671471527e+00
2.599072846229079e+02 -2.680775787332422e+00 -3.123683642134169e+00 4.134099905417902e+00 -5.341383307099420e-01 -7.197252637906507e+00
2.491369142362231e+02 -1.728805828520016e+00 -1.566208597734184e+00 2.743399378559431e+00 5.355916801549423e-01 1.844530194706088e+00
2.545510795029902e+02 -2.534137859307326e+00 -2.065833034119603e+00 -5.377232493504129e+00 -5.233986749245759e-01 2.495698023800381e+00
2.652181581369299e+02 -3.389829332081425e+00 -3.527078618483154e+00 -6.931180191109289e+00 5.715008052132524e-01 -8.011516735177160e+00
2.431873860933752e+02 1.250044388810041e+00 3.061606447417021e+00 3.318519715634219e-01 3.607411332453195e-01 2.698385958593496e+00
2.345165258403749e+02 2.459325317861400e+00 5.764346152390056e-01 1.453107251186895e+00 2.635286305319897e-01 -5.423942364624521e-01
2.596769881080771e+02 3.117631770551753e+00 3.780105421425613e+00 -2.403359296339503e+00 -1.836075771989255e-02 2.310034225938197e+00
2.675332230989710e+02 3.897862015504711e+00 4.306365853865730e+00 1.064872795925947e+00 7.838822794095865e-02 -3.582639282004446e+00
2.237184219248755e+02 -2.637803852170450e+00 -2.903001469790811e+00 2.868359151651906e+00 -2.913605951777470e-02 -2.036560381386145e+00
2.218467118997423e+02 -2.428818129676028e+00 -2.357237364659037e+00 2.563779269163604e+00 1.341539766040807e-01 2.877398301342496e+00
2.228029543077389e+02 -2.707327267721090e+00 -2.467914640373654e+00 -2.130100309129769e+00 -8.943558009667545e-02 3.015136000664104e+00
2.245825072876002e+02 -2.892247004009245e+00 -2.989531238054632e+00 -2.489116110546063e+00 -4.762370508262179e-02 -2.228645867760873e+00
2.456566319741875e+02 3.759280290647832e+00 3.875417219961971e+00 2.174714601938454e+00 -2.629911529572073e-01 -1.055358284591651e+00
2.247010788274030e+02 3.240546846779307e+00 3.062355048244773e+00 2.370078773249054e+00 -7.482876950241057e-01 3.054638480056328e+00
2.352620787732340e+02 3.629708016299818e+00 3.325170521071385e+00 -1.257462001941592e+00 1.673076764498134e-01 2.830333874327163e+00
2.559000076115320e+02 4.166342995931219e+00 4.154667203118157e+00 -1.525002228098959e+00 5.819219190324916e-01 -1.294386996813804e+00
2.620140166569338e+02 -7.208560010914274e+00 -7.229540912245497e+00 2.213578983798887e+00 1.008641000356999e-02 -2.238350220294902e+00
2.576455896848329e+02 -7.003169466724425e+00 -7.015760112169752e+00 2.215618221833915e+00 -2.431286285212069e-02 2.234844838990166e+00
2.598304758403397e+02 -7.112230295137535e+00 -7.119986683644667e+00 -2.202283323180863e+00 7.544929138715338e-03 2.218610158440487e+00
2.641955491426216e+02 -7.309907620023176e+00 -7.326064739514255e+00 -2.261573062120837e+00 -3.079769254344036e-02 -2.283282239958672e+00
2.638019213428981e+02 7.719992453102816e+00 6.381077257005352e+00 -3.380749931763882e-01 2.104745164535726e+00 4.004858792157910e+00
2.569334393412760e+02 8.974087081760764e+00 9.068487142632470e+00 -2.727313790566949e-01 -2.107275764796887e+00 1.132755109092085e+00
2.603460426418875e+02 7.595297694520016e+00 8.419201133210215e+00 2.908798639300272e+00 1.924993710691798e+00 1.030338842265620e+00
2.673034220202960e+02 6.450568637411671e+00 5.840879742884888e+00 2.709723287955321e+00 -2.624040035789166e+00 3.843317550523918e+00
        </DataArray>
      </CellData>

    </Piece>
  </UnstructuredGrid>
</VTKFile>
