<?xml version="1.0" ?> 
<!-- 
# vtk DataFile Version 3.0
-->
<VTKFile type="UnstructuredGrid" version="0.1" compressor="vtkZLibDataCompressor" byte_order="LittleEndian">
  <UnstructuredGrid>
    <FieldData>
      <DataArray type="Float64" Name="TIME" NumberOfTuples="1" format="ascii">
2.500000000000000e+01 
      </DataArray>
    </FieldData>

    <Piece NumberOfPoints="24" NumberOfCells="3" >
      <Points>
        <DataArray type="Float64" NumberOfComponents="3" format="ascii">
0.000000000000000e+00 0.000000000000000e+00 0.000000000000000e+00
1.000000000000000e+00 0.000000000000000e+00 0.000000000000000e+00
1.000000000000000e+00 1.000000000000000e+00 0.000000000000000e+00
0.000000000000000e+00 1.000000000000000e+00 0.000000000000000e+00
0.000000000000000e+00 0.000000000000000e+00 1.000000000000000e+00
1.000000000000000e+00 0.000000000000000e+00 1.000000000000000e+00
1.000000000000000e+00 1.000000000000000e+00 1.000000000000000e+00
0.000000000000000e+00 1.000000000000000e+00 1.000000000000000e+00
1.000000000000000e+00 0.000000000000000e+00 0.000000000000000e+00
2.000000000000000e+00 0.000000000000000e+00 0.000000000000000e+00
2.000000000000000e+00 1.000000000000000e+00 0.000000000000000e+00
1.000000000000000e+00 1.000000000000000e+00 0.000000000000000e+00
1.000000000000000e+00 0.000000000000000e+00 1.000000000000000e+00
2.000000000000000e+00 0.000000000000000e+00 1.000000000000000e+00
2.000000000000000e+00 1.000000000000000e+00 1.000000000000000e+00
1.000000000000000e+00 1.000000000000000e+00 1.000000000000000e+00
2.000000000000000e+00 0.000000000000000e+00 0.000000000000000e+00
3.000000000000000e+00 0.000000000000000e+00 0.000000000000000e+00
3.000000000000000e+00 1.000000000000000e+00 0.000000000000000e+00
2.000000000000000e+00 1.000000000000000e+00 0.000000000000000e+00
2.000000000000000e+00 0.000000000000000e+00 1.000000000000000e+00
3.000000000000000e+00 0.000000000000000e+00 1.000000000000000e+00
3.000000000000000e+00 1.000000000000000e+00 1.000000000000000e+00
2.000000000000000e+00 1.000000000000000e+00 1.000000000000000e+00
        </DataArray>
      </Points>

      <Cells>
        <DataArray type="Int32" Name="connectivity" format="ascii">
0 1 2 3 4 5 6 7 8 9 10 11 12 13 14 15 16 17 18 19 20 21 22 23 
        </DataArray>
        <DataArray type="Int32" Name="offsets" format="ascii">
8 16 24 
        </DataArray>
        <DataArray type="UInt8" Name="types" format="ascii">
12 12 12 
        </DataArray>
      </Cells>

  <PointData>
        <DataArray type="Float64" Name="current_reference_density" format="ascii">
1.091271781806737e+00
1.092189763704156e+00
1.094043971036752e+00
1.092628871533262e+00
1.093971415398667e+00
1.095868745886156e+00
1.097663893813493e+00
1.095299566169485e+00
1.092189763704156e+00
1.093107745601573e+00
1.095459070540242e+00
1.094043971036752e+00
1.095868745886156e+00
1.097766076373649e+00
1.100028221457501e+00
1.097663893813493e+00
1.093107745601573e+00
0.000000000000000e+00
0.000000000000000e+00
1.095459070540242e+00
1.097766076373649e+00
0.000000000000000e+00
0.000000000000000e+00
1.100028221457501e+00
        </DataArray>
        <DataArray type="Float64" Name="displacement" NumberOfComponents="3" format="ascii">
9.371495042942433e-01 -1.092171234959147e-02 -1.105430983870799e-02
9.762735650992358e-01 -1.541268797639145e-02 -1.589844844415015e-02
9.854151592735051e-01 1.472743246798130e-02 -1.626023326970657e-02
9.457572809491999e-01 1.095709649778403e-02 -1.139146269034751e-02
9.543038840573410e-01 -1.156093661018986e-02 1.108969398690052e-02
9.944892105424933e-01 -1.606991391232200e-02 1.446063265363312e-02
1.003495798167480e+00 1.525008800801332e-02 1.468789311643886e-02
9.627893306992177e-01 1.152555246199732e-02 1.135607854215497e-02
9.762735650992358e-01 -1.541268797639145e-02 -1.589844844415015e-02
1.015959563732314e+00 1.090853263153054e-02 1.026458952821293e-02
1.025990209033669e+00 -1.260407987560400e-02 1.046833660929329e-02
9.854151592735051e-01 1.472743246798130e-02 -1.626023326970657e-02
9.944892105424933e-01 -1.606991391232200e-02 1.446063265363312e-02
1.035926457994556e+00 1.149159381727323e-02 -1.382621693871986e-02
1.045768168504222e+00 -1.352825539987262e-02 -1.437095636705793e-02
1.003495798167480e+00 1.525008800801332e-02 1.468789311643886e-02
1.015959563732314e+00 1.090853263153054e-02 1.026458952821293e-02
1.137251442477053e+00 2.438529404983425e-03 -9.353047696741281e-03
1.153585811822051e+00 -2.650830259012481e-02 -9.058246876910404e-03
1.025990209033669e+00 -1.260407987560400e-02 1.046833660929329e-02
1.035926457994556e+00 1.149159381727323e-02 -1.382621693871986e-02
1.169656115886824e+00 3.104936551846130e-03 -3.885860138618807e-02
1.185474720302978e+00 -2.732599074378353e-02 -3.930424002626493e-02
1.045768168504222e+00 -1.352825539987262e-02 -1.437095636705793e-02
        </DataArray>
        <DataArray type="Float64" Name="mixture_constituent_elasthyper_prestretch" NumberOfComponents="9" format="ascii">
1.000000000000000e+00 1.000000000000000e+00 1.000000000000000e+00 0.000000000000000e+00 0.000000000000000e+00 0.000000000000000e+00 0.000000000000000e+00 0.000000000000000e+00 0.000000000000000e+00
1.000000000000000e+00 1.000000000000000e+00 1.000000000000000e+00 0.000000000000000e+00 0.000000000000000e+00 0.000000000000000e+00 0.000000000000000e+00 0.000000000000000e+00 0.000000000000000e+00
1.000000000000000e+00 1.000000000000000e+00 1.000000000000000e+00 0.000000000000000e+00 0.000000000000000e+00 0.000000000000000e+00 0.000000000000000e+00 0.000000000000000e+00 0.000000000000000e+00
9.999999999999999e-01 9.999999999999999e-01 9.999999999999999e-01 0.000000000000000e+00 0.000000000000000e+00 0.000000000000000e+00 0.000000000000000e+00 0.000000000000000e+00 0.000000000000000e+00
9.999999999999999e-01 9.999999999999999e-01 9.999999999999999e-01 0.000000000000000e+00 0.000000000000000e+00 0.000000000000000e+00 0.000000000000000e+00 0.000000000000000e+00 0.000000000000000e+00
1.000000000000000e+00 1.000000000000000e+00 1.000000000000000e+00 0.000000000000000e+00 0.000000000000000e+00 0.000000000000000e+00 0.000000000000000e+00 0.000000000000000e+00 0.000000000000000e+00
1.000000000000000e+00 1.000000000000000e+00 1.000000000000000e+00 0.000000000000000e+00 0.000000000000000e+00 0.000000000000000e+00 0.000000000000000e+00 0.000000000000000e+00 0.000000000000000e+00
1.000000000000000e+00 1.000000000000000e+00 1.000000000000000e+00 0.000000000000000e+00 0.000000000000000e+00 0.000000000000000e+00 0.000000000000000e+00 0.000000000000000e+00 0.000000000000000e+00
1.000000000000000e+00 1.000000000000000e+00 1.000000000000000e+00 0.000000000000000e+00 0.000000000000000e+00 0.000000000000000e+00 0.000000000000000e+00 0.000000000000000e+00 0.000000000000000e+00
1.000000000000000e+00 1.000000000000000e+00 1.000000000000000e+00 0.000000000000000e+00 0.000000000000000e+00 0.000000000000000e+00 0.000000000000000e+00 0.000000000000000e+00 0.000000000000000e+00
1.000000000000000e+00 1.000000000000000e+00 1.000000000000000e+00 0.000000000000000e+00 0.000000000000000e+00 0.000000000000000e+00 0.000000000000000e+00 0.000000000000000e+00 0.000000000000000e+00
1.000000000000000e+00 1.000000000000000e+00 1.000000000000000e+00 0.000000000000000e+00 0.000000000000000e+00 0.000000000000000e+00 0.000000000000000e+00 0.000000000000000e+00 0.000000000000000e+00
1.000000000000000e+00 1.000000000000000e+00 1.000000000000000e+00 0.000000000000000e+00 0.000000000000000e+00 0.000000000000000e+00 0.000000000000000e+00 0.000000000000000e+00 0.000000000000000e+00
1.000000000000000e+00 1.000000000000000e+00 1.000000000000000e+00 0.000000000000000e+00 0.000000000000000e+00 0.000000000000000e+00 0.000000000000000e+00 0.000000000000000e+00 0.000000000000000e+00
9.999999999999999e-01 9.999999999999999e-01 9.999999999999999e-01 0.000000000000000e+00 0.000000000000000e+00 0.000000000000000e+00 0.000000000000000e+00 0.000000000000000e+00 0.000000000000000e+00
1.000000000000000e+00 1.000000000000000e+00 1.000000000000000e+00 0.000000000000000e+00 0.000000000000000e+00 0.000000000000000e+00 0.000000000000000e+00 0.000000000000000e+00 0.000000000000000e+00
1.000000000000000e+00 1.000000000000000e+00 1.000000000000000e+00 0.000000000000000e+00 0.000000000000000e+00 0.000000000000000e+00 0.000000000000000e+00 0.000000000000000e+00 0.000000000000000e+00
0.000000000000000e+00 0.000000000000000e+00 0.000000000000000e+00 0.000000000000000e+00 0.000000000000000e+00 0.000000000000000e+00 0.000000000000000e+00 0.000000000000000e+00 0.000000000000000e+00
0.000000000000000e+00 0.000000000000000e+00 0.000000000000000e+00 0.000000000000000e+00 0.000000000000000e+00 0.000000000000000e+00 0.000000000000000e+00 0.000000000000000e+00 0.000000000000000e+00
1.000000000000000e+00 1.000000000000000e+00 1.000000000000000e+00 0.000000000000000e+00 0.000000000000000e+00 0.000000000000000e+00 0.000000000000000e+00 0.000000000000000e+00 0.000000000000000e+00
1.000000000000000e+00 1.000000000000000e+00 1.000000000000000e+00 0.000000000000000e+00 0.000000000000000e+00 0.000000000000000e+00 0.000000000000000e+00 0.000000000000000e+00 0.000000000000000e+00
0.000000000000000e+00 0.000000000000000e+00 0.000000000000000e+00 0.000000000000000e+00 0.000000000000000e+00 0.000000000000000e+00 0.000000000000000e+00 0.000000000000000e+00 0.000000000000000e+00
0.000000000000000e+00 0.000000000000000e+00 0.000000000000000e+00 0.000000000000000e+00 0.000000000000000e+00 0.000000000000000e+00 0.000000000000000e+00 0.000000000000000e+00 0.000000000000000e+00
9.999999999999999e-01 9.999999999999999e-01 9.999999999999999e-01 0.000000000000000e+00 0.000000000000000e+00 0.000000000000000e+00 0.000000000000000e+00 0.000000000000000e+00 0.000000000000000e+00
        </DataArray>
        <DataArray type="Float64" Name="nodal_GL_strains_xyz" NumberOfComponents="6" format="ascii">
3.989979507987627e-02 2.214938936781257e-02 2.253065198580660e-02 2.178073566507416e-03 -4.251016652801268e-04 6.437671397802578e-03
4.028731847475236e-02 3.051325564085654e-02 3.085937126308299e-02 1.037212456521174e-02 -4.376596259112945e-04 1.495688653541734e-02
4.104055828987815e-02 3.051325564085663e-02 3.145779540293121e-02 -1.314387321712357e-03 1.633745719165769e-04 1.503621253409356e-02
4.045180500434414e-02 2.214938936781252e-02 2.314562441594023e-02 6.401408234313866e-03 1.913411846346305e-04 6.364237680992452e-03
4.099721395563519e-02 2.338319382913043e-02 2.253065198580583e-02 2.106730101976015e-03 -1.180748309572701e-04 1.064527921328660e-02
4.178046414846889e-02 3.171582712858748e-02 3.085937126308308e-02 1.063038785744180e-02 -1.386991020250089e-04 3.060045764595052e-03
4.250699060723066e-02 3.171582712858712e-02 3.145779540293085e-02 -1.769695344743080e-03 4.628381878783639e-04 2.783706338330741e-03
4.153609438386406e-02 2.338319382913063e-02 2.314562441594060e-02 6.320737221540771e-03 4.992867804463751e-04 1.056672202305978e-02
4.028731847475236e-02 3.051325564085654e-02 3.085937126308299e-02 1.037212456521174e-02 -4.376596259112945e-04 1.495688653541734e-02
8.476488497868777e-02 -2.330891407779882e-02 -2.373268272621335e-02 9.775534037241891e-03 4.849991312918821e-04 1.238290182380949e-02
8.881605465851991e-02 -2.330891407779895e-02 -2.447217620643801e-02 -4.631023191736570e-03 -2.578060740481936e-04 1.248216497226224e-02
4.104055828987815e-02 3.051325564085663e-02 3.145779540293121e-02 -1.314387321712357e-03 1.633745719165769e-04 1.503621253409356e-02
4.178046414846889e-02 3.171582712858748e-02 3.085937126308308e-02 1.063038785744180e-02 -1.386991020250089e-04 3.060045764595052e-03
9.278145471754941e-02 -2.479347063977084e-02 -2.373268272621288e-02 1.003120450119597e-02 1.147254668255793e-04 -2.151901157050266e-03
9.666467292817568e-02 -2.479347063977080e-02 -2.447217620643814e-02 -5.003637717127942e-03 -6.270258898065252e-04 -2.367987480260948e-03
4.250699060723066e-02 3.171582712858712e-02 3.145779540293085e-02 -1.769695344743080e-03 4.628381878783639e-04 2.783706338330741e-03
8.476488497868777e-02 -2.330891407779882e-02 -2.373268272621335e-02 9.775534037241891e-03 4.849991312918821e-04 1.238290182380949e-02
1.288549280877468e-01 -2.840044609486449e-02 -2.856059666854910e-02 5.042705245564388e-03 7.248097522477282e-04 8.644926820255382e-03
1.360027977416284e-01 -2.840044609486477e-02 -2.929470736055960e-02 2.455733631836660e-03 1.026479651255861e-07 8.516194341578189e-03
8.881605465851991e-02 -2.330891407779895e-02 -2.447217620643801e-02 -4.631023191736570e-03 -2.578060740481936e-04 1.248216497226224e-02
9.278145471754941e-02 -2.479347063977084e-02 -2.373268272621288e-02 1.003120450119597e-02 1.147254668255793e-04 -2.151901157050266e-03
1.429991950937970e-01 -2.984836085348969e-02 -2.856059666854999e-02 4.907077212372732e-03 3.570046812728227e-04 6.218973934463438e-03
1.498514590257538e-01 -2.984836085348961e-02 -2.929470736055936e-02 2.331110524772432e-03 -3.662029730697088e-04 6.087658010088975e-03
9.666467292817568e-02 -2.479347063977080e-02 -2.447217620643814e-02 -5.003637717127942e-03 -6.270258898065252e-04 -2.367987480260948e-03
        </DataArray>
        <DataArray type="Float64" Name="nodal_cauchy_stresses_xyz" NumberOfComponents="6" format="ascii">
1.841954724576884e+02 -5.315185707054945e-01 -5.266318219105190e-01 -7.660568901585028e-01 -3.958659571936003e-03 -7.640087749470875e-01
1.833140860532311e+02 7.645781618153376e-01 7.665144971379588e-01 2.095164210846495e+00 5.665144812318258e-02 2.127151684841552e+00
1.848389471602361e+02 7.399684997794849e-01 7.477091053316127e-01 -2.116898927097401e+00 -6.643294662518788e-02 2.194416494146742e+00
1.853411549363135e+02 -5.549939866558489e-01 -5.392549769650548e-01 7.720658177567550e-01 -1.417580634277330e-03 -7.744866748575630e-01
1.864721500808035e+02 -5.559525794423258e-01 -5.727561905976257e-01 -7.794886756593724e-01 -5.726474340621287e-03 7.683222056470995e-01
1.863318529730314e+02 7.296022734292419e-01 7.199867998495075e-01 2.245643533962696e+00 -7.443998423311325e-02 -2.186248271002921e+00
1.877929569031114e+02 7.101442695111055e-01 7.063353024415752e-01 -2.298662976860276e+00 8.074468402758726e-02 -2.284794582945601e+00
1.875886307994346e+02 -5.778396732368661e-01 -5.837895972000670e-01 7.700720238434682e-01 8.983755756514708e-03 7.633748648632176e-01
1.833140860532311e+02 7.645781618153376e-01 7.665144971379588e-01 2.095164210846495e+00 5.665144812318258e-02 2.127151684841552e+00
1.922042873343788e+02 1.014052932928251e+00 7.651453327950790e-01 2.861669049668227e+00 3.479977447607866e-01 2.077775277081686e+00
1.998578580703538e+02 1.888910768863892e+00 1.155131040772491e+00 -4.545529113475761e+00 -2.033434163845442e-01 2.086041674446732e+00
1.848389471602361e+02 7.399684997794849e-01 7.477091053316127e-01 -2.116898927097401e+00 -6.643294662518788e-02 2.194416494146742e+00
1.863318529730314e+02 7.296022734292419e-01 7.199867998495075e-01 2.245643533962696e+00 -7.443998423311325e-02 -2.186248271002921e+00
2.074913152335969e+02 1.660972950935883e+00 2.385641610592044e+00 2.985020806190280e+00 -1.790806509537363e-03 -5.553956355997498e+00
2.151130379538190e+02 2.282600983863650e+00 2.522504161062704e+00 -4.890208019617109e+00 -2.551120897056732e-01 -5.783311190877434e+00
1.877929569031114e+02 7.101442695111055e-01 7.063353024415752e-01 -2.298662976860276e+00 8.074468402758726e-02 -2.284794582945601e+00
1.922042873343788e+02 1.014052932928251e+00 7.651453327950790e-01 2.861669049668227e+00 3.479977447607866e-01 2.077775277081686e+00
1.853285990448524e+02 -6.240345902080890e+00 -6.717278510835868e+00 3.873343137287475e+00 6.716656987070270e-01 5.731666395427288e+00
1.986925014282184e+02 -4.629824386791578e+00 -6.079509754452666e+00 8.975936462293388e-02 -1.415908834114525e-01 5.489308649323303e+00
1.998578580703538e+02 1.888910768863892e+00 1.155131040772491e+00 -4.545529113475761e+00 -2.033434163845442e-01 2.086041674446732e+00
2.074913152335969e+02 1.660972950935883e+00 2.385641610592044e+00 2.985020806190280e+00 -1.790806509537363e-03 -5.553956355997498e+00
2.121308873995694e+02 -5.235305149003023e+00 -3.766158438526601e+00 3.667901446597814e+00 2.704657690127549e-01 1.906099138576687e+00
2.255682066101572e+02 -4.158119069196916e+00 -3.661722951272848e+00 -2.706197291192780e-01 -5.590742235671957e-01 1.582581406387729e+00
2.151130379538190e+02 2.282600983863650e+00 2.522504161062704e+00 -4.890208019617109e+00 -2.551120897056732e-01 -5.783311190877434e+00
        </DataArray>
  </PointData>
  <CellData>
        <DataArray type="Float64" Name="element_GL_strains_xyz" NumberOfComponents="6" format="ascii">
4.072122710592996e-02 2.700203728071457e-02 2.706030489915698e-02 4.388098575171778e-03 2.493036416847842e-05 8.776191110695122e-03
4.208643865423498e-02 3.408408504547766e-03 3.406510990305880e-03 4.668335283224958e-03 -2.839294594467169e-05 9.336701909470961e-03
1.394270949872315e-01 -2.652615269717805e-02 -2.645541892962202e-02 1.934139955406662e-03 5.254494546398532e-05 3.867822240324144e-03
        </DataArray>
        <DataArray type="Float64" Name="element_cauchy_stresses_xyz" NumberOfComponents="6" format="ascii">
1.850347369507594e+02 1.293396268747968e-01 1.285009039526197e-01 1.084943580149038e-03 -7.758059168950190e-04 2.174604530793517e-03
1.938477736875753e+02 -3.826743438962927e+00 -3.828752809501775e+00 -3.653576521844182e-02 -1.756476663154840e-03 -7.306211735075197e-02
2.060182751267346e+02 3.334624107730725e+00 3.336606087824741e+00 3.912252443899178e-02 3.519366187276669e-03 7.801334654585718e-02
        </DataArray>
      </CellData>

    </Piece>
  </UnstructuredGrid>
</VTKFile>
