<?xml version="1.0" ?> 
<!-- 
# vtk DataFile Version 3.0
-->
<VTKFile type="UnstructuredGrid" version="0.1" compressor="vtkZLibDataCompressor" byte_order="LittleEndian">
  <UnstructuredGrid>
    <FieldData>
      <DataArray type="Float64" Name="TIME" NumberOfTuples="1" format="ascii">
0.000000000000000e+00 
      </DataArray>
    </FieldData>

    <Piece NumberOfPoints="304" NumberOfCells="31" >
      <Points>
        <DataArray type="Float64" NumberOfComponents="3" format="ascii">
0.000000000000000e+00 0.000000000000000e+00 0.000000000000000e+00
1.000000000000000e+00 0.000000000000000e+00 0.000000000000000e+00
1.000000000000000e+00 1.000000000000000e+00 0.000000000000000e+00
0.000000000000000e+00 1.000000000000000e+00 0.000000000000000e+00
0.000000000000000e+00 0.000000000000000e+00 1.000000000000000e+00
1.000000000000000e+00 0.000000000000000e+00 1.000000000000000e+00
1.000000000000000e+00 1.000000000000000e+00 1.000000000000000e+00
0.000000000000000e+00 1.000000000000000e+00 1.000000000000000e+00
1.000000000000000e+00 0.000000000000000e+00 0.000000000000000e+00
2.000000000000000e+00 0.000000000000000e+00 0.000000000000000e+00
2.000000000000000e+00 1.000000000000000e+00 0.000000000000000e+00
1.000000000000000e+00 1.000000000000000e+00 0.000000000000000e+00
1.000000000000000e+00 0.000000000000000e+00 1.000000000000000e+00
2.000000000000000e+00 0.000000000000000e+00 1.000000000000000e+00
2.000000000000000e+00 1.000000000000000e+00 1.000000000000000e+00
1.000000000000000e+00 1.000000000000000e+00 1.000000000000000e+00
2.000000000000000e+00 0.000000000000000e+00 0.000000000000000e+00
3.000000000000000e+00 0.000000000000000e+00 0.000000000000000e+00
3.000000000000000e+00 1.000000000000000e+00 0.000000000000000e+00
2.000000000000000e+00 1.000000000000000e+00 0.000000000000000e+00
2.000000000000000e+00 0.000000000000000e+00 1.000000000000000e+00
3.000000000000000e+00 0.000000000000000e+00 1.000000000000000e+00
3.000000000000000e+00 1.000000000000000e+00 1.000000000000000e+00
2.000000000000000e+00 1.000000000000000e+00 1.000000000000000e+00
0.000000000000000e+00 1.500000000000000e+00 1.000000000000000e+00
0.000000000000000e+00 1.500000000000000e+00 0.000000000000000e+00
0.000000000000000e+00 2.000000000000000e+00 5.000000000000000e-01
5.000000000000000e-01 1.500000000000000e+00 5.000000000000000e-01
0.000000000000000e+00 1.500000000000000e+00 5.000000000000000e-01
0.000000000000000e+00 1.750000000000000e+00 2.500000000000000e-01
0.000000000000000e+00 1.750000000000000e+00 7.500000000000000e-01
2.500000000000000e-01 1.500000000000000e+00 7.500000000000000e-01
2.500000000000000e-01 1.500000000000000e+00 2.500000000000000e-01
2.500000000000000e-01 1.750000000000000e+00 5.000000000000000e-01
0.000000000000000e+00 1.500000000000000e+00 0.000000000000000e+00
0.000000000000000e+00 2.500000000000000e+00 0.000000000000000e+00
0.000000000000000e+00 2.000000000000000e+00 5.000000000000000e-01
5.000000000000000e-01 2.000000000000000e+00 0.000000000000000e+00
0.000000000000000e+00 2.000000000000000e+00 0.000000000000000e+00
0.000000000000000e+00 2.250000000000000e+00 2.500000000000000e-01
0.000000000000000e+00 1.750000000000000e+00 2.500000000000000e-01
2.500000000000000e-01 1.750000000000000e+00 0.000000000000000e+00
2.500000000000000e-01 2.250000000000000e+00 0.000000000000000e+00
2.500000000000000e-01 2.000000000000000e+00 2.500000000000000e-01
0.000000000000000e+00 2.500000000000000e+00 0.000000000000000e+00
0.000000000000000e+00 2.500000000000000e+00 1.000000000000000e+00
0.000000000000000e+00 2.000000000000000e+00 5.000000000000000e-01
5.000000000000000e-01 2.500000000000000e+00 5.000000000000000e-01
0.000000000000000e+00 2.500000000000000e+00 5.000000000000000e-01
0.000000000000000e+00 2.250000000000000e+00 7.500000000000000e-01
0.000000000000000e+00 2.250000000000000e+00 2.500000000000000e-01
2.500000000000000e-01 2.500000000000000e+00 2.500000000000000e-01
2.500000000000000e-01 2.500000000000000e+00 7.500000000000000e-01
2.500000000000000e-01 2.250000000000000e+00 5.000000000000000e-01
0.000000000000000e+00 2.500000000000000e+00 1.000000000000000e+00
0.000000000000000e+00 1.500000000000000e+00 1.000000000000000e+00
0.000000000000000e+00 2.000000000000000e+00 5.000000000000000e-01
5.000000000000000e-01 2.000000000000000e+00 1.000000000000000e+00
0.000000000000000e+00 2.000000000000000e+00 1.000000000000000e+00
0.000000000000000e+00 1.750000000000000e+00 7.500000000000000e-01
0.000000000000000e+00 2.250000000000000e+00 7.500000000000000e-01
2.500000000000000e-01 2.250000000000000e+00 1.000000000000000e+00
2.500000000000000e-01 1.750000000000000e+00 1.000000000000000e+00
2.500000000000000e-01 2.000000000000000e+00 7.500000000000000e-01
0.000000000000000e+00 1.500000000000000e+00 1.000000000000000e+00
1.000000000000000e+00 1.500000000000000e+00 1.000000000000000e+00
5.000000000000000e-01 1.500000000000000e+00 5.000000000000000e-01
5.000000000000000e-01 2.000000000000000e+00 1.000000000000000e+00
5.000000000000000e-01 1.500000000000000e+00 1.000000000000000e+00
7.500000000000000e-01 1.500000000000000e+00 7.500000000000000e-01
2.500000000000000e-01 1.500000000000000e+00 7.500000000000000e-01
2.500000000000000e-01 1.750000000000000e+00 1.000000000000000e+00
7.500000000000000e-01 1.750000000000000e+00 1.000000000000000e+00
5.000000000000000e-01 1.750000000000000e+00 7.500000000000000e-01
0.000000000000000e+00 1.500000000000000e+00 0.000000000000000e+00
1.000000000000000e+00 1.500000000000000e+00 0.000000000000000e+00
5.000000000000000e-01 2.000000000000000e+00 0.000000000000000e+00
5.000000000000000e-01 1.500000000000000e+00 5.000000000000000e-01
5.000000000000000e-01 1.500000000000000e+00 0.000000000000000e+00
7.500000000000000e-01 1.750000000000000e+00 0.000000000000000e+00
2.500000000000000e-01 1.750000000000000e+00 0.000000000000000e+00
2.500000000000000e-01 1.500000000000000e+00 2.500000000000000e-01
7.500000000000000e-01 1.500000000000000e+00 2.500000000000000e-01
5.000000000000000e-01 1.750000000000000e+00 2.500000000000000e-01
0.000000000000000e+00 2.500000000000000e+00 0.000000000000000e+00
1.000000000000000e+00 2.500000000000000e+00 0.000000000000000e+00
5.000000000000000e-01 2.500000000000000e+00 5.000000000000000e-01
5.000000000000000e-01 2.000000000000000e+00 0.000000000000000e+00
5.000000000000000e-01 2.500000000000000e+00 0.000000000000000e+00
7.500000000000000e-01 2.500000000000000e+00 2.500000000000000e-01
2.500000000000000e-01 2.500000000000000e+00 2.500000000000000e-01
2.500000000000000e-01 2.250000000000000e+00 0.000000000000000e+00
7.500000000000000e-01 2.250000000000000e+00 0.000000000000000e+00
5.000000000000000e-01 2.250000000000000e+00 2.500000000000000e-01
0.000000000000000e+00 2.500000000000000e+00 1.000000000000000e+00
1.000000000000000e+00 2.500000000000000e+00 1.000000000000000e+00
5.000000000000000e-01 2.000000000000000e+00 1.000000000000000e+00
5.000000000000000e-01 2.500000000000000e+00 5.000000000000000e-01
5.000000000000000e-01 2.500000000000000e+00 1.000000000000000e+00
7.500000000000000e-01 2.250000000000000e+00 1.000000000000000e+00
2.500000000000000e-01 2.250000000000000e+00 1.000000000000000e+00
2.500000000000000e-01 2.500000000000000e+00 7.500000000000000e-01
7.500000000000000e-01 2.500000000000000e+00 7.500000000000000e-01
5.000000000000000e-01 2.250000000000000e+00 7.500000000000000e-01
1.000000000000000e+00 1.500000000000000e+00 1.000000000000000e+00
1.000000000000000e+00 1.500000000000000e+00 0.000000000000000e+00
5.000000000000000e-01 1.500000000000000e+00 5.000000000000000e-01
1.000000000000000e+00 2.000000000000000e+00 5.000000000000000e-01
1.000000000000000e+00 1.500000000000000e+00 5.000000000000000e-01
7.500000000000000e-01 1.500000000000000e+00 2.500000000000000e-01
7.500000000000000e-01 1.500000000000000e+00 7.500000000000000e-01
1.000000000000000e+00 1.750000000000000e+00 7.500000000000000e-01
1.000000000000000e+00 1.750000000000000e+00 2.500000000000000e-01
7.500000000000000e-01 1.750000000000000e+00 5.000000000000000e-01
1.000000000000000e+00 1.500000000000000e+00 0.000000000000000e+00
1.000000000000000e+00 2.500000000000000e+00 0.000000000000000e+00
5.000000000000000e-01 2.000000000000000e+00 0.000000000000000e+00
1.000000000000000e+00 2.000000000000000e+00 5.000000000000000e-01
1.000000000000000e+00 2.000000000000000e+00 0.000000000000000e+00
7.500000000000000e-01 2.250000000000000e+00 0.000000000000000e+00
7.500000000000000e-01 1.750000000000000e+00 0.000000000000000e+00
1.000000000000000e+00 1.750000000000000e+00 2.500000000000000e-01
1.000000000000000e+00 2.250000000000000e+00 2.500000000000000e-01
7.500000000000000e-01 2.000000000000000e+00 2.500000000000000e-01
1.000000000000000e+00 2.500000000000000e+00 0.000000000000000e+00
1.000000000000000e+00 2.500000000000000e+00 1.000000000000000e+00
5.000000000000000e-01 2.500000000000000e+00 5.000000000000000e-01
1.000000000000000e+00 2.000000000000000e+00 5.000000000000000e-01
1.000000000000000e+00 2.500000000000000e+00 5.000000000000000e-01
7.500000000000000e-01 2.500000000000000e+00 7.500000000000000e-01
7.500000000000000e-01 2.500000000000000e+00 2.500000000000000e-01
1.000000000000000e+00 2.250000000000000e+00 2.500000000000000e-01
1.000000000000000e+00 2.250000000000000e+00 7.500000000000000e-01
7.500000000000000e-01 2.250000000000000e+00 5.000000000000000e-01
1.000000000000000e+00 2.500000000000000e+00 1.000000000000000e+00
1.000000000000000e+00 1.500000000000000e+00 1.000000000000000e+00
5.000000000000000e-01 2.000000000000000e+00 1.000000000000000e+00
1.000000000000000e+00 2.000000000000000e+00 5.000000000000000e-01
1.000000000000000e+00 2.000000000000000e+00 1.000000000000000e+00
7.500000000000000e-01 1.750000000000000e+00 1.000000000000000e+00
7.500000000000000e-01 2.250000000000000e+00 1.000000000000000e+00
1.000000000000000e+00 2.250000000000000e+00 7.500000000000000e-01
1.000000000000000e+00 1.750000000000000e+00 7.500000000000000e-01
7.500000000000000e-01 2.000000000000000e+00 7.500000000000000e-01
0.000000000000000e+00 2.000000000000000e+00 5.000000000000000e-01
5.000000000000000e-01 1.500000000000000e+00 5.000000000000000e-01
5.000000000000000e-01 2.000000000000000e+00 1.000000000000000e+00
0.000000000000000e+00 1.500000000000000e+00 1.000000000000000e+00
2.500000000000000e-01 1.750000000000000e+00 5.000000000000000e-01
5.000000000000000e-01 1.750000000000000e+00 7.500000000000000e-01
2.500000000000000e-01 2.000000000000000e+00 7.500000000000000e-01
0.000000000000000e+00 1.750000000000000e+00 7.500000000000000e-01
2.500000000000000e-01 1.500000000000000e+00 7.500000000000000e-01
2.500000000000000e-01 1.750000000000000e+00 1.000000000000000e+00
0.000000000000000e+00 2.000000000000000e+00 5.000000000000000e-01
5.000000000000000e-01 2.000000000000000e+00 0.000000000000000e+00
5.000000000000000e-01 1.500000000000000e+00 5.000000000000000e-01
0.000000000000000e+00 1.500000000000000e+00 0.000000000000000e+00
2.500000000000000e-01 2.000000000000000e+00 2.500000000000000e-01
5.000000000000000e-01 1.750000000000000e+00 2.500000000000000e-01
2.500000000000000e-01 1.750000000000000e+00 5.000000000000000e-01
0.000000000000000e+00 1.750000000000000e+00 2.500000000000000e-01
2.500000000000000e-01 1.750000000000000e+00 0.000000000000000e+00
2.500000000000000e-01 1.500000000000000e+00 2.500000000000000e-01
0.000000000000000e+00 2.000000000000000e+00 5.000000000000000e-01
5.000000000000000e-01 2.500000000000000e+00 5.000000000000000e-01
5.000000000000000e-01 2.000000000000000e+00 0.000000000000000e+00
0.000000000000000e+00 2.500000000000000e+00 0.000000000000000e+00
2.500000000000000e-01 2.250000000000000e+00 5.000000000000000e-01
5.000000000000000e-01 2.250000000000000e+00 2.500000000000000e-01
2.500000000000000e-01 2.000000000000000e+00 2.500000000000000e-01
0.000000000000000e+00 2.250000000000000e+00 2.500000000000000e-01
2.500000000000000e-01 2.500000000000000e+00 2.500000000000000e-01
2.500000000000000e-01 2.250000000000000e+00 0.000000000000000e+00
0.000000000000000e+00 2.000000000000000e+00 5.000000000000000e-01
5.000000000000000e-01 2.000000000000000e+00 1.000000000000000e+00
5.000000000000000e-01 2.500000000000000e+00 5.000000000000000e-01
0.000000000000000e+00 2.500000000000000e+00 1.000000000000000e+00
2.500000000000000e-01 2.000000000000000e+00 7.500000000000000e-01
5.000000000000000e-01 2.250000000000000e+00 7.500000000000000e-01
2.500000000000000e-01 2.250000000000000e+00 5.000000000000000e-01
0.000000000000000e+00 2.250000000000000e+00 7.500000000000000e-01
2.500000000000000e-01 2.250000000000000e+00 1.000000000000000e+00
2.500000000000000e-01 2.500000000000000e+00 7.500000000000000e-01
1.000000000000000e+00 2.000000000000000e+00 5.000000000000000e-01
5.000000000000000e-01 2.000000000000000e+00 1.000000000000000e+00
5.000000000000000e-01 1.500000000000000e+00 5.000000000000000e-01
1.000000000000000e+00 1.500000000000000e+00 1.000000000000000e+00
7.500000000000000e-01 2.000000000000000e+00 7.500000000000000e-01
5.000000000000000e-01 1.750000000000000e+00 7.500000000000000e-01
7.500000000000000e-01 1.750000000000000e+00 5.000000000000000e-01
1.000000000000000e+00 1.750000000000000e+00 7.500000000000000e-01
7.500000000000000e-01 1.750000000000000e+00 1.000000000000000e+00
7.500000000000000e-01 1.500000000000000e+00 7.500000000000000e-01
1.000000000000000e+00 2.000000000000000e+00 5.000000000000000e-01
5.000000000000000e-01 1.500000000000000e+00 5.000000000000000e-01
5.000000000000000e-01 2.000000000000000e+00 0.000000000000000e+00
1.000000000000000e+00 1.500000000000000e+00 0.000000000000000e+00
7.500000000000000e-01 1.750000000000000e+00 5.000000000000000e-01
5.000000000000000e-01 1.750000000000000e+00 2.500000000000000e-01
7.500000000000000e-01 2.000000000000000e+00 2.500000000000000e-01
1.000000000000000e+00 1.750000000000000e+00 2.500000000000000e-01
7.500000000000000e-01 1.500000000000000e+00 2.500000000000000e-01
7.500000000000000e-01 1.750000000000000e+00 0.000000000000000e+00
1.000000000000000e+00 2.000000000000000e+00 5.000000000000000e-01
5.000000000000000e-01 2.000000000000000e+00 0.000000000000000e+00
5.000000000000000e-01 2.500000000000000e+00 5.000000000000000e-01
1.000000000000000e+00 2.500000000000000e+00 0.000000000000000e+00
7.500000000000000e-01 2.000000000000000e+00 2.500000000000000e-01
5.000000000000000e-01 2.250000000000000e+00 2.500000000000000e-01
7.500000000000000e-01 2.250000000000000e+00 5.000000000000000e-01
1.000000000000000e+00 2.250000000000000e+00 2.500000000000000e-01
7.500000000000000e-01 2.250000000000000e+00 0.000000000000000e+00
7.500000000000000e-01 2.500000000000000e+00 2.500000000000000e-01
1.000000000000000e+00 2.000000000000000e+00 5.000000000000000e-01
5.000000000000000e-01 2.500000000000000e+00 5.000000000000000e-01
5.000000000000000e-01 2.000000000000000e+00 1.000000000000000e+00
1.000000000000000e+00 2.500000000000000e+00 1.000000000000000e+00
7.500000000000000e-01 2.250000000000000e+00 5.000000000000000e-01
5.000000000000000e-01 2.250000000000000e+00 7.500000000000000e-01
7.500000000000000e-01 2.000000000000000e+00 7.500000000000000e-01
1.000000000000000e+00 2.250000000000000e+00 7.500000000000000e-01
7.500000000000000e-01 2.500000000000000e+00 7.500000000000000e-01
7.500000000000000e-01 2.250000000000000e+00 1.000000000000000e+00
0.000000000000000e+00 2.000000000000000e+00 5.000000000000000e-01
5.000000000000000e-01 2.000000000000000e+00 1.000000000000000e+00
5.000000000000000e-01 1.500000000000000e+00 5.000000000000000e-01
5.000000000000000e-01 2.000000000000000e+00 5.000000000000000e-01
2.500000000000000e-01 2.000000000000000e+00 7.500000000000000e-01
5.000000000000000e-01 1.750000000000000e+00 7.500000000000000e-01
2.500000000000000e-01 1.750000000000000e+00 5.000000000000000e-01
2.500000000000000e-01 2.000000000000000e+00 5.000000000000000e-01
5.000000000000000e-01 2.000000000000000e+00 7.500000000000000e-01
5.000000000000000e-01 1.750000000000000e+00 5.000000000000000e-01
0.000000000000000e+00 2.000000000000000e+00 5.000000000000000e-01
5.000000000000000e-01 1.500000000000000e+00 5.000000000000000e-01
5.000000000000000e-01 2.000000000000000e+00 0.000000000000000e+00
5.000000000000000e-01 2.000000000000000e+00 5.000000000000000e-01
2.500000000000000e-01 1.750000000000000e+00 5.000000000000000e-01
5.000000000000000e-01 1.750000000000000e+00 2.500000000000000e-01
2.500000000000000e-01 2.000000000000000e+00 2.500000000000000e-01
2.500000000000000e-01 2.000000000000000e+00 5.000000000000000e-01
5.000000000000000e-01 1.750000000000000e+00 5.000000000000000e-01
5.000000000000000e-01 2.000000000000000e+00 2.500000000000000e-01
0.000000000000000e+00 2.000000000000000e+00 5.000000000000000e-01
5.000000000000000e-01 2.000000000000000e+00 0.000000000000000e+00
5.000000000000000e-01 2.500000000000000e+00 5.000000000000000e-01
5.000000000000000e-01 2.000000000000000e+00 5.000000000000000e-01
2.500000000000000e-01 2.000000000000000e+00 2.500000000000000e-01
5.000000000000000e-01 2.250000000000000e+00 2.500000000000000e-01
2.500000000000000e-01 2.250000000000000e+00 5.000000000000000e-01
2.500000000000000e-01 2.000000000000000e+00 5.000000000000000e-01
5.000000000000000e-01 2.000000000000000e+00 2.500000000000000e-01
5.000000000000000e-01 2.250000000000000e+00 5.000000000000000e-01
0.000000000000000e+00 2.000000000000000e+00 5.000000000000000e-01
5.000000000000000e-01 2.500000000000000e+00 5.000000000000000e-01
5.000000000000000e-01 2.000000000000000e+00 1.000000000000000e+00
5.000000000000000e-01 2.000000000000000e+00 5.000000000000000e-01
2.500000000000000e-01 2.250000000000000e+00 5.000000000000000e-01
5.000000000000000e-01 2.250000000000000e+00 7.500000000000000e-01
2.500000000000000e-01 2.000000000000000e+00 7.500000000000000e-01
2.500000000000000e-01 2.000000000000000e+00 5.000000000000000e-01
5.000000000000000e-01 2.250000000000000e+00 5.000000000000000e-01
5.000000000000000e-01 2.000000000000000e+00 7.500000000000000e-01
1.000000000000000e+00 2.000000000000000e+00 5.000000000000000e-01
5.000000000000000e-01 1.500000000000000e+00 5.000000000000000e-01
5.000000000000000e-01 2.000000000000000e+00 1.000000000000000e+00
5.000000000000000e-01 2.000000000000000e+00 5.000000000000000e-01
7.500000000000000e-01 1.750000000000000e+00 5.000000000000000e-01
5.000000000000000e-01 1.750000000000000e+00 7.500000000000000e-01
7.500000000000000e-01 2.000000000000000e+00 7.500000000000000e-01
7.500000000000000e-01 2.000000000000000e+00 5.000000000000000e-01
5.000000000000000e-01 1.750000000000000e+00 5.000000000000000e-01
5.000000000000000e-01 2.000000000000000e+00 7.500000000000000e-01
1.000000000000000e+00 2.000000000000000e+00 5.000000000000000e-01
5.000000000000000e-01 2.000000000000000e+00 0.000000000000000e+00
5.000000000000000e-01 1.500000000000000e+00 5.000000000000000e-01
5.000000000000000e-01 2.000000000000000e+00 5.000000000000000e-01
7.500000000000000e-01 2.000000000000000e+00 2.500000000000000e-01
5.000000000000000e-01 1.750000000000000e+00 2.500000000000000e-01
7.500000000000000e-01 1.750000000000000e+00 5.000000000000000e-01
7.500000000000000e-01 2.000000000000000e+00 5.000000000000000e-01
5.000000000000000e-01 2.000000000000000e+00 2.500000000000000e-01
5.000000000000000e-01 1.750000000000000e+00 5.000000000000000e-01
1.000000000000000e+00 2.000000000000000e+00 5.000000000000000e-01
5.000000000000000e-01 2.500000000000000e+00 5.000000000000000e-01
5.000000000000000e-01 2.000000000000000e+00 0.000000000000000e+00
5.000000000000000e-01 2.000000000000000e+00 5.000000000000000e-01
7.500000000000000e-01 2.250000000000000e+00 5.000000000000000e-01
5.000000000000000e-01 2.250000000000000e+00 2.500000000000000e-01
7.500000000000000e-01 2.000000000000000e+00 2.500000000000000e-01
7.500000000000000e-01 2.000000000000000e+00 5.000000000000000e-01
5.000000000000000e-01 2.250000000000000e+00 5.000000000000000e-01
5.000000000000000e-01 2.000000000000000e+00 2.500000000000000e-01
1.000000000000000e+00 2.000000000000000e+00 5.000000000000000e-01
5.000000000000000e-01 2.000000000000000e+00 1.000000000000000e+00
5.000000000000000e-01 2.500000000000000e+00 5.000000000000000e-01
5.000000000000000e-01 2.000000000000000e+00 5.000000000000000e-01
7.500000000000000e-01 2.000000000000000e+00 7.500000000000000e-01
5.000000000000000e-01 2.250000000000000e+00 7.500000000000000e-01
7.500000000000000e-01 2.250000000000000e+00 5.000000000000000e-01
7.500000000000000e-01 2.000000000000000e+00 5.000000000000000e-01
5.000000000000000e-01 2.000000000000000e+00 7.500000000000000e-01
5.000000000000000e-01 2.250000000000000e+00 5.000000000000000e-01
        </DataArray>
      </Points>

      <Cells>
        <DataArray type="Int32" Name="connectivity" format="ascii">
0 1 2 3 4 5 6 7 8 9 10 11 12 13 14 15 16 17 18 19 20 21 22 23 24 25 26 27 28 29 30 31 32 33 34 35 36 37 38 39 40 41 42 43 44 45 46 47 48 49 50 51 52 53 54 55 56 57 58 59 60 61 62 63 64 65 66 67 68 69 70 71 72 73 74 75 76 77 78 79 80 81 82 83 84 85 86 87 88 89 90 91 92 93 94 95 96 97 98 99 100 101 102 103 104 105 106 107 108 109 110 111 112 113 114 115 116 117 118 119 120 121 122 123 124 125 126 127 128 129 130 131 132 133 134 135 136 137 138 139 140 141 142 143 144 145 146 147 148 149 150 151 152 153 154 155 156 157 158 159 160 161 162 163 164 165 166 167 168 169 170 171 172 173 174 175 176 177 178 179 180 181 182 183 184 185 186 187 188 189 190 191 192 193 194 195 196 197 198 199 200 201 202 203 204 205 206 207 208 209 210 211 212 213 214 215 216 217 218 219 220 221 222 223 224 225 226 227 228 229 230 231 232 233 234 235 236 237 238 239 240 241 242 243 244 245 246 247 248 249 250 251 252 253 254 255 256 257 258 259 260 261 262 263 264 265 266 267 268 269 270 271 272 273 274 275 276 277 278 279 280 281 282 283 284 285 286 287 288 289 290 291 292 293 294 295 296 297 298 299 300 301 302 303 
        </DataArray>
        <DataArray type="Int32" Name="offsets" format="ascii">
8 16 24 34 44 54 64 74 84 94 104 114 124 134 144 154 164 174 184 194 204 214 224 234 244 254 264 274 284 294 304 
        </DataArray>
        <DataArray type="UInt8" Name="types" format="ascii">
12 12 12 24 24 24 24 24 24 24 24 24 24 24 24 24 24 24 24 24 24 24 24 24 24 24 24 24 24 24 24 
        </DataArray>
      </Cells>

  <PointData>
        <DataArray type="Float64" Name="displacement" NumberOfComponents="3" format="ascii">
0.000000000000000e+00 0.000000000000000e+00 0.000000000000000e+00
0.000000000000000e+00 0.000000000000000e+00 0.000000000000000e+00
0.000000000000000e+00 0.000000000000000e+00 0.000000000000000e+00
0.000000000000000e+00 0.000000000000000e+00 0.000000000000000e+00
0.000000000000000e+00 0.000000000000000e+00 0.000000000000000e+00
0.000000000000000e+00 0.000000000000000e+00 0.000000000000000e+00
0.000000000000000e+00 0.000000000000000e+00 0.000000000000000e+00
0.000000000000000e+00 0.000000000000000e+00 0.000000000000000e+00
0.000000000000000e+00 0.000000000000000e+00 0.000000000000000e+00
0.000000000000000e+00 0.000000000000000e+00 0.000000000000000e+00
0.000000000000000e+00 0.000000000000000e+00 0.000000000000000e+00
0.000000000000000e+00 0.000000000000000e+00 0.000000000000000e+00
0.000000000000000e+00 0.000000000000000e+00 0.000000000000000e+00
0.000000000000000e+00 0.000000000000000e+00 0.000000000000000e+00
0.000000000000000e+00 0.000000000000000e+00 0.000000000000000e+00
0.000000000000000e+00 0.000000000000000e+00 0.000000000000000e+00
0.000000000000000e+00 0.000000000000000e+00 0.000000000000000e+00
0.000000000000000e+00 0.000000000000000e+00 0.000000000000000e+00
0.000000000000000e+00 0.000000000000000e+00 0.000000000000000e+00
0.000000000000000e+00 0.000000000000000e+00 0.000000000000000e+00
0.000000000000000e+00 0.000000000000000e+00 0.000000000000000e+00
0.000000000000000e+00 0.000000000000000e+00 0.000000000000000e+00
0.000000000000000e+00 0.000000000000000e+00 0.000000000000000e+00
0.000000000000000e+00 0.000000000000000e+00 0.000000000000000e+00
0.000000000000000e+00 0.000000000000000e+00 0.000000000000000e+00
0.000000000000000e+00 0.000000000000000e+00 0.000000000000000e+00
0.000000000000000e+00 0.000000000000000e+00 0.000000000000000e+00
0.000000000000000e+00 0.000000000000000e+00 0.000000000000000e+00
0.000000000000000e+00 0.000000000000000e+00 0.000000000000000e+00
0.000000000000000e+00 0.000000000000000e+00 0.000000000000000e+00
0.000000000000000e+00 0.000000000000000e+00 0.000000000000000e+00
0.000000000000000e+00 0.000000000000000e+00 0.000000000000000e+00
0.000000000000000e+00 0.000000000000000e+00 0.000000000000000e+00
0.000000000000000e+00 0.000000000000000e+00 0.000000000000000e+00
0.000000000000000e+00 0.000000000000000e+00 0.000000000000000e+00
0.000000000000000e+00 0.000000000000000e+00 0.000000000000000e+00
0.000000000000000e+00 0.000000000000000e+00 0.000000000000000e+00
0.000000000000000e+00 0.000000000000000e+00 0.000000000000000e+00
0.000000000000000e+00 0.000000000000000e+00 0.000000000000000e+00
0.000000000000000e+00 0.000000000000000e+00 0.000000000000000e+00
0.000000000000000e+00 0.000000000000000e+00 0.000000000000000e+00
0.000000000000000e+00 0.000000000000000e+00 0.000000000000000e+00
0.000000000000000e+00 0.000000000000000e+00 0.000000000000000e+00
0.000000000000000e+00 0.000000000000000e+00 0.000000000000000e+00
0.000000000000000e+00 0.000000000000000e+00 0.000000000000000e+00
0.000000000000000e+00 0.000000000000000e+00 0.000000000000000e+00
0.000000000000000e+00 0.000000000000000e+00 0.000000000000000e+00
0.000000000000000e+00 0.000000000000000e+00 0.000000000000000e+00
0.000000000000000e+00 0.000000000000000e+00 0.000000000000000e+00
0.000000000000000e+00 0.000000000000000e+00 0.000000000000000e+00
0.000000000000000e+00 0.000000000000000e+00 0.000000000000000e+00
0.000000000000000e+00 0.000000000000000e+00 0.000000000000000e+00
0.000000000000000e+00 0.000000000000000e+00 0.000000000000000e+00
0.000000000000000e+00 0.000000000000000e+00 0.000000000000000e+00
0.000000000000000e+00 0.000000000000000e+00 0.000000000000000e+00
0.000000000000000e+00 0.000000000000000e+00 0.000000000000000e+00
0.000000000000000e+00 0.000000000000000e+00 0.000000000000000e+00
0.000000000000000e+00 0.000000000000000e+00 0.000000000000000e+00
0.000000000000000e+00 0.000000000000000e+00 0.000000000000000e+00
0.000000000000000e+00 0.000000000000000e+00 0.000000000000000e+00
0.000000000000000e+00 0.000000000000000e+00 0.000000000000000e+00
0.000000000000000e+00 0.000000000000000e+00 0.000000000000000e+00
0.000000000000000e+00 0.000000000000000e+00 0.000000000000000e+00
0.000000000000000e+00 0.000000000000000e+00 0.000000000000000e+00
0.000000000000000e+00 0.000000000000000e+00 0.000000000000000e+00
0.000000000000000e+00 0.000000000000000e+00 0.000000000000000e+00
0.000000000000000e+00 0.000000000000000e+00 0.000000000000000e+00
0.000000000000000e+00 0.000000000000000e+00 0.000000000000000e+00
0.000000000000000e+00 0.000000000000000e+00 0.000000000000000e+00
0.000000000000000e+00 0.000000000000000e+00 0.000000000000000e+00
0.000000000000000e+00 0.000000000000000e+00 0.000000000000000e+00
0.000000000000000e+00 0.000000000000000e+00 0.000000000000000e+00
0.000000000000000e+00 0.000000000000000e+00 0.000000000000000e+00
0.000000000000000e+00 0.000000000000000e+00 0.000000000000000e+00
0.000000000000000e+00 0.000000000000000e+00 0.000000000000000e+00
0.000000000000000e+00 0.000000000000000e+00 0.000000000000000e+00
0.000000000000000e+00 0.000000000000000e+00 0.000000000000000e+00
0.000000000000000e+00 0.000000000000000e+00 0.000000000000000e+00
0.000000000000000e+00 0.000000000000000e+00 0.000000000000000e+00
0.000000000000000e+00 0.000000000000000e+00 0.000000000000000e+00
0.000000000000000e+00 0.000000000000000e+00 0.000000000000000e+00
0.000000000000000e+00 0.000000000000000e+00 0.000000000000000e+00
0.000000000000000e+00 0.000000000000000e+00 0.000000000000000e+00
0.000000000000000e+00 0.000000000000000e+00 0.000000000000000e+00
0.000000000000000e+00 0.000000000000000e+00 0.000000000000000e+00
0.000000000000000e+00 0.000000000000000e+00 0.000000000000000e+00
0.000000000000000e+00 0.000000000000000e+00 0.000000000000000e+00
0.000000000000000e+00 0.000000000000000e+00 0.000000000000000e+00
0.000000000000000e+00 0.000000000000000e+00 0.000000000000000e+00
0.000000000000000e+00 0.000000000000000e+00 0.000000000000000e+00
0.000000000000000e+00 0.000000000000000e+00 0.000000000000000e+00
0.000000000000000e+00 0.000000000000000e+00 0.000000000000000e+00
0.000000000000000e+00 0.000000000000000e+00 0.000000000000000e+00
0.000000000000000e+00 0.000000000000000e+00 0.000000000000000e+00
0.000000000000000e+00 0.000000000000000e+00 0.000000000000000e+00
0.000000000000000e+00 0.000000000000000e+00 0.000000000000000e+00
0.000000000000000e+00 0.000000000000000e+00 0.000000000000000e+00
0.000000000000000e+00 0.000000000000000e+00 0.000000000000000e+00
0.000000000000000e+00 0.000000000000000e+00 0.000000000000000e+00
0.000000000000000e+00 0.000000000000000e+00 0.000000000000000e+00
0.000000000000000e+00 0.000000000000000e+00 0.000000000000000e+00
0.000000000000000e+00 0.000000000000000e+00 0.000000000000000e+00
0.000000000000000e+00 0.000000000000000e+00 0.000000000000000e+00
0.000000000000000e+00 0.000000000000000e+00 0.000000000000000e+00
0.000000000000000e+00 0.000000000000000e+00 0.000000000000000e+00
0.000000000000000e+00 0.000000000000000e+00 0.000000000000000e+00
0.000000000000000e+00 0.000000000000000e+00 0.000000000000000e+00
0.000000000000000e+00 0.000000000000000e+00 0.000000000000000e+00
0.000000000000000e+00 0.000000000000000e+00 0.000000000000000e+00
0.000000000000000e+00 0.000000000000000e+00 0.000000000000000e+00
0.000000000000000e+00 0.000000000000000e+00 0.000000000000000e+00
0.000000000000000e+00 0.000000000000000e+00 0.000000000000000e+00
0.000000000000000e+00 0.000000000000000e+00 0.000000000000000e+00
0.000000000000000e+00 0.000000000000000e+00 0.000000000000000e+00
0.000000000000000e+00 0.000000000000000e+00 0.000000000000000e+00
0.000000000000000e+00 0.000000000000000e+00 0.000000000000000e+00
0.000000000000000e+00 0.000000000000000e+00 0.000000000000000e+00
0.000000000000000e+00 0.000000000000000e+00 0.000000000000000e+00
0.000000000000000e+00 0.000000000000000e+00 0.000000000000000e+00
0.000000000000000e+00 0.000000000000000e+00 0.000000000000000e+00
0.000000000000000e+00 0.000000000000000e+00 0.000000000000000e+00
0.000000000000000e+00 0.000000000000000e+00 0.000000000000000e+00
0.000000000000000e+00 0.000000000000000e+00 0.000000000000000e+00
0.000000000000000e+00 0.000000000000000e+00 0.000000000000000e+00
0.000000000000000e+00 0.000000000000000e+00 0.000000000000000e+00
0.000000000000000e+00 0.000000000000000e+00 0.000000000000000e+00
0.000000000000000e+00 0.000000000000000e+00 0.000000000000000e+00
0.000000000000000e+00 0.000000000000000e+00 0.000000000000000e+00
0.000000000000000e+00 0.000000000000000e+00 0.000000000000000e+00
0.000000000000000e+00 0.000000000000000e+00 0.000000000000000e+00
0.000000000000000e+00 0.000000000000000e+00 0.000000000000000e+00
0.000000000000000e+00 0.000000000000000e+00 0.000000000000000e+00
0.000000000000000e+00 0.000000000000000e+00 0.000000000000000e+00
0.000000000000000e+00 0.000000000000000e+00 0.000000000000000e+00
0.000000000000000e+00 0.000000000000000e+00 0.000000000000000e+00
0.000000000000000e+00 0.000000000000000e+00 0.000000000000000e+00
0.000000000000000e+00 0.000000000000000e+00 0.000000000000000e+00
0.000000000000000e+00 0.000000000000000e+00 0.000000000000000e+00
0.000000000000000e+00 0.000000000000000e+00 0.000000000000000e+00
0.000000000000000e+00 0.000000000000000e+00 0.000000000000000e+00
0.000000000000000e+00 0.000000000000000e+00 0.000000000000000e+00
0.000000000000000e+00 0.000000000000000e+00 0.000000000000000e+00
0.000000000000000e+00 0.000000000000000e+00 0.000000000000000e+00
0.000000000000000e+00 0.000000000000000e+00 0.000000000000000e+00
0.000000000000000e+00 0.000000000000000e+00 0.000000000000000e+00
0.000000000000000e+00 0.000000000000000e+00 0.000000000000000e+00
0.000000000000000e+00 0.000000000000000e+00 0.000000000000000e+00
0.000000000000000e+00 0.000000000000000e+00 0.000000000000000e+00
0.000000000000000e+00 0.000000000000000e+00 0.000000000000000e+00
0.000000000000000e+00 0.000000000000000e+00 0.000000000000000e+00
0.000000000000000e+00 0.000000000000000e+00 0.000000000000000e+00
0.000000000000000e+00 0.000000000000000e+00 0.000000000000000e+00
0.000000000000000e+00 0.000000000000000e+00 0.000000000000000e+00
0.000000000000000e+00 0.000000000000000e+00 0.000000000000000e+00
0.000000000000000e+00 0.000000000000000e+00 0.000000000000000e+00
0.000000000000000e+00 0.000000000000000e+00 0.000000000000000e+00
0.000000000000000e+00 0.000000000000000e+00 0.000000000000000e+00
0.000000000000000e+00 0.000000000000000e+00 0.000000000000000e+00
0.000000000000000e+00 0.000000000000000e+00 0.000000000000000e+00
0.000000000000000e+00 0.000000000000000e+00 0.000000000000000e+00
0.000000000000000e+00 0.000000000000000e+00 0.000000000000000e+00
0.000000000000000e+00 0.000000000000000e+00 0.000000000000000e+00
0.000000000000000e+00 0.000000000000000e+00 0.000000000000000e+00
0.000000000000000e+00 0.000000000000000e+00 0.000000000000000e+00
0.000000000000000e+00 0.000000000000000e+00 0.000000000000000e+00
0.000000000000000e+00 0.000000000000000e+00 0.000000000000000e+00
0.000000000000000e+00 0.000000000000000e+00 0.000000000000000e+00
0.000000000000000e+00 0.000000000000000e+00 0.000000000000000e+00
0.000000000000000e+00 0.000000000000000e+00 0.000000000000000e+00
0.000000000000000e+00 0.000000000000000e+00 0.000000000000000e+00
0.000000000000000e+00 0.000000000000000e+00 0.000000000000000e+00
0.000000000000000e+00 0.000000000000000e+00 0.000000000000000e+00
0.000000000000000e+00 0.000000000000000e+00 0.000000000000000e+00
0.000000000000000e+00 0.000000000000000e+00 0.000000000000000e+00
0.000000000000000e+00 0.000000000000000e+00 0.000000000000000e+00
0.000000000000000e+00 0.000000000000000e+00 0.000000000000000e+00
0.000000000000000e+00 0.000000000000000e+00 0.000000000000000e+00
0.000000000000000e+00 0.000000000000000e+00 0.000000000000000e+00
0.000000000000000e+00 0.000000000000000e+00 0.000000000000000e+00
0.000000000000000e+00 0.000000000000000e+00 0.000000000000000e+00
0.000000000000000e+00 0.000000000000000e+00 0.000000000000000e+00
0.000000000000000e+00 0.000000000000000e+00 0.000000000000000e+00
0.000000000000000e+00 0.000000000000000e+00 0.000000000000000e+00
0.000000000000000e+00 0.000000000000000e+00 0.000000000000000e+00
0.000000000000000e+00 0.000000000000000e+00 0.000000000000000e+00
0.000000000000000e+00 0.000000000000000e+00 0.000000000000000e+00
0.000000000000000e+00 0.000000000000000e+00 0.000000000000000e+00
0.000000000000000e+00 0.000000000000000e+00 0.000000000000000e+00
0.000000000000000e+00 0.000000000000000e+00 0.000000000000000e+00
0.000000000000000e+00 0.000000000000000e+00 0.000000000000000e+00
0.000000000000000e+00 0.000000000000000e+00 0.000000000000000e+00
0.000000000000000e+00 0.000000000000000e+00 0.000000000000000e+00
0.000000000000000e+00 0.000000000000000e+00 0.000000000000000e+00
0.000000000000000e+00 0.000000000000000e+00 0.000000000000000e+00
0.000000000000000e+00 0.000000000000000e+00 0.000000000000000e+00
0.000000000000000e+00 0.000000000000000e+00 0.000000000000000e+00
0.000000000000000e+00 0.000000000000000e+00 0.000000000000000e+00
0.000000000000000e+00 0.000000000000000e+00 0.000000000000000e+00
0.000000000000000e+00 0.000000000000000e+00 0.000000000000000e+00
0.000000000000000e+00 0.000000000000000e+00 0.000000000000000e+00
0.000000000000000e+00 0.000000000000000e+00 0.000000000000000e+00
0.000000000000000e+00 0.000000000000000e+00 0.000000000000000e+00
0.000000000000000e+00 0.000000000000000e+00 0.000000000000000e+00
0.000000000000000e+00 0.000000000000000e+00 0.000000000000000e+00
0.000000000000000e+00 0.000000000000000e+00 0.000000000000000e+00
0.000000000000000e+00 0.000000000000000e+00 0.000000000000000e+00
0.000000000000000e+00 0.000000000000000e+00 0.000000000000000e+00
0.000000000000000e+00 0.000000000000000e+00 0.000000000000000e+00
0.000000000000000e+00 0.000000000000000e+00 0.000000000000000e+00
0.000000000000000e+00 0.000000000000000e+00 0.000000000000000e+00
0.000000000000000e+00 0.000000000000000e+00 0.000000000000000e+00
0.000000000000000e+00 0.000000000000000e+00 0.000000000000000e+00
0.000000000000000e+00 0.000000000000000e+00 0.000000000000000e+00
0.000000000000000e+00 0.000000000000000e+00 0.000000000000000e+00
0.000000000000000e+00 0.000000000000000e+00 0.000000000000000e+00
0.000000000000000e+00 0.000000000000000e+00 0.000000000000000e+00
0.000000000000000e+00 0.000000000000000e+00 0.000000000000000e+00
0.000000000000000e+00 0.000000000000000e+00 0.000000000000000e+00
0.000000000000000e+00 0.000000000000000e+00 0.000000000000000e+00
0.000000000000000e+00 0.000000000000000e+00 0.000000000000000e+00
0.000000000000000e+00 0.000000000000000e+00 0.000000000000000e+00
0.000000000000000e+00 0.000000000000000e+00 0.000000000000000e+00
0.000000000000000e+00 0.000000000000000e+00 0.000000000000000e+00
0.000000000000000e+00 0.000000000000000e+00 0.000000000000000e+00
0.000000000000000e+00 0.000000000000000e+00 0.000000000000000e+00
0.000000000000000e+00 0.000000000000000e+00 0.000000000000000e+00
0.000000000000000e+00 0.000000000000000e+00 0.000000000000000e+00
0.000000000000000e+00 0.000000000000000e+00 0.000000000000000e+00
0.000000000000000e+00 0.000000000000000e+00 0.000000000000000e+00
0.000000000000000e+00 0.000000000000000e+00 0.000000000000000e+00
0.000000000000000e+00 0.000000000000000e+00 0.000000000000000e+00
0.000000000000000e+00 0.000000000000000e+00 0.000000000000000e+00
0.000000000000000e+00 0.000000000000000e+00 0.000000000000000e+00
0.000000000000000e+00 0.000000000000000e+00 0.000000000000000e+00
0.000000000000000e+00 0.000000000000000e+00 0.000000000000000e+00
0.000000000000000e+00 0.000000000000000e+00 0.000000000000000e+00
0.000000000000000e+00 0.000000000000000e+00 0.000000000000000e+00
0.000000000000000e+00 0.000000000000000e+00 0.000000000000000e+00
0.000000000000000e+00 0.000000000000000e+00 0.000000000000000e+00
0.000000000000000e+00 0.000000000000000e+00 0.000000000000000e+00
0.000000000000000e+00 0.000000000000000e+00 0.000000000000000e+00
0.000000000000000e+00 0.000000000000000e+00 0.000000000000000e+00
0.000000000000000e+00 0.000000000000000e+00 0.000000000000000e+00
0.000000000000000e+00 0.000000000000000e+00 0.000000000000000e+00
0.000000000000000e+00 0.000000000000000e+00 0.000000000000000e+00
0.000000000000000e+00 0.000000000000000e+00 0.000000000000000e+00
0.000000000000000e+00 0.000000000000000e+00 0.000000000000000e+00
0.000000000000000e+00 0.000000000000000e+00 0.000000000000000e+00
0.000000000000000e+00 0.000000000000000e+00 0.000000000000000e+00
0.000000000000000e+00 0.000000000000000e+00 0.000000000000000e+00
0.000000000000000e+00 0.000000000000000e+00 0.000000000000000e+00
0.000000000000000e+00 0.000000000000000e+00 0.000000000000000e+00
0.000000000000000e+00 0.000000000000000e+00 0.000000000000000e+00
0.000000000000000e+00 0.000000000000000e+00 0.000000000000000e+00
0.000000000000000e+00 0.000000000000000e+00 0.000000000000000e+00
0.000000000000000e+00 0.000000000000000e+00 0.000000000000000e+00
0.000000000000000e+00 0.000000000000000e+00 0.000000000000000e+00
0.000000000000000e+00 0.000000000000000e+00 0.000000000000000e+00
0.000000000000000e+00 0.000000000000000e+00 0.000000000000000e+00
0.000000000000000e+00 0.000000000000000e+00 0.000000000000000e+00
0.000000000000000e+00 0.000000000000000e+00 0.000000000000000e+00
0.000000000000000e+00 0.000000000000000e+00 0.000000000000000e+00
0.000000000000000e+00 0.000000000000000e+00 0.000000000000000e+00
0.000000000000000e+00 0.000000000000000e+00 0.000000000000000e+00
0.000000000000000e+00 0.000000000000000e+00 0.000000000000000e+00
0.000000000000000e+00 0.000000000000000e+00 0.000000000000000e+00
0.000000000000000e+00 0.000000000000000e+00 0.000000000000000e+00
0.000000000000000e+00 0.000000000000000e+00 0.000000000000000e+00
0.000000000000000e+00 0.000000000000000e+00 0.000000000000000e+00
0.000000000000000e+00 0.000000000000000e+00 0.000000000000000e+00
0.000000000000000e+00 0.000000000000000e+00 0.000000000000000e+00
0.000000000000000e+00 0.000000000000000e+00 0.000000000000000e+00
0.000000000000000e+00 0.000000000000000e+00 0.000000000000000e+00
0.000000000000000e+00 0.000000000000000e+00 0.000000000000000e+00
0.000000000000000e+00 0.000000000000000e+00 0.000000000000000e+00
0.000000000000000e+00 0.000000000000000e+00 0.000000000000000e+00
0.000000000000000e+00 0.000000000000000e+00 0.000000000000000e+00
0.000000000000000e+00 0.000000000000000e+00 0.000000000000000e+00
0.000000000000000e+00 0.000000000000000e+00 0.000000000000000e+00
0.000000000000000e+00 0.000000000000000e+00 0.000000000000000e+00
0.000000000000000e+00 0.000000000000000e+00 0.000000000000000e+00
0.000000000000000e+00 0.000000000000000e+00 0.000000000000000e+00
0.000000000000000e+00 0.000000000000000e+00 0.000000000000000e+00
0.000000000000000e+00 0.000000000000000e+00 0.000000000000000e+00
0.000000000000000e+00 0.000000000000000e+00 0.000000000000000e+00
0.000000000000000e+00 0.000000000000000e+00 0.000000000000000e+00
0.000000000000000e+00 0.000000000000000e+00 0.000000000000000e+00
0.000000000000000e+00 0.000000000000000e+00 0.000000000000000e+00
0.000000000000000e+00 0.000000000000000e+00 0.000000000000000e+00
0.000000000000000e+00 0.000000000000000e+00 0.000000000000000e+00
0.000000000000000e+00 0.000000000000000e+00 0.000000000000000e+00
0.000000000000000e+00 0.000000000000000e+00 0.000000000000000e+00
0.000000000000000e+00 0.000000000000000e+00 0.000000000000000e+00
0.000000000000000e+00 0.000000000000000e+00 0.000000000000000e+00
0.000000000000000e+00 0.000000000000000e+00 0.000000000000000e+00
0.000000000000000e+00 0.000000000000000e+00 0.000000000000000e+00
0.000000000000000e+00 0.000000000000000e+00 0.000000000000000e+00
0.000000000000000e+00 0.000000000000000e+00 0.000000000000000e+00
0.000000000000000e+00 0.000000000000000e+00 0.000000000000000e+00
0.000000000000000e+00 0.000000000000000e+00 0.000000000000000e+00
0.000000000000000e+00 0.000000000000000e+00 0.000000000000000e+00
0.000000000000000e+00 0.000000000000000e+00 0.000000000000000e+00
0.000000000000000e+00 0.000000000000000e+00 0.000000000000000e+00
0.000000000000000e+00 0.000000000000000e+00 0.000000000000000e+00
        </DataArray>
        <DataArray type="Float64" Name="nodal_GL_strains_xyz" NumberOfComponents="6" format="ascii">
1.922962686383564e-16 1.219109492637611e-16 1.219109492637611e-16 0.000000000000000e+00 8.549069837943660e-18 -1.104329371660960e-17
-4.335914478823174e-17 -2.911665646578460e-16 -1.516592855504360e-16 5.688891828805462e-17 -3.082247858407341e-17 5.557506152215723e-17
-4.714922371357354e-18 4.651371024232881e-16 3.737038904754674e-16 5.828337155149250e-17 1.491528465207232e-17 -1.230262080698945e-17
-3.142072179021175e-16 -3.142072179021175e-16 -1.922962686383564e-16 0.000000000000000e+00 -8.889340050482580e-18 2.959041633145232e-18
-4.549778566513081e-16 -1.922962686383564e-16 -3.142072179021175e-16 0.000000000000000e+00 -8.889340050482580e-18 -2.225672253948866e-17
1.266258716351185e-16 3.947517830486929e-16 -9.070381091855546e-17 -2.930347777869516e-17 1.796997246946987e-18 -5.731425605372825e-17
1.489371238501247e-16 -3.967445437197389e-16 -1.868519452377337e-16 -2.409930735076474e-17 5.901397059649369e-18 5.141285899407890e-17
1.922962686383564e-16 1.922962686383564e-16 1.922962686383564e-16 0.000000000000000e+00 4.149987377031455e-18 5.963670830619551e-18
-4.335914478823174e-17 -2.911665646578460e-16 -1.516592855504360e-16 5.688891828805462e-17 -3.082247858407341e-17 5.557506152215723e-17
4.745669471660029e-16 -4.714922371357385e-18 -2.071704367816939e-16 -2.006218717102491e-16 -9.138435134363297e-18 -7.961492963761686e-17
1.361080850155685e-17 -2.450852581693028e-16 -1.462149621498133e-16 1.092321723026348e-17 2.560162194950187e-17 4.387521917837012e-17
-4.714922371357354e-18 4.651371024232881e-16 3.737038904754674e-16 5.828337155149250e-17 1.491528465207232e-17 -1.230262080698945e-17
1.266258716351185e-16 3.947517830486929e-16 -9.070381091855546e-17 -2.930347777869516e-17 1.796997246946987e-18 -5.731425605372825e-17
-5.280853377262148e-16 -1.395072791074099e-16 3.791482138760901e-16 -1.242484512029401e-16 1.438819312662280e-17 1.378661267915638e-17
2.822706785276465e-16 2.579666656415943e-16 -1.367851174070986e-16 -1.125034597990175e-16 -3.237038074713957e-17 -3.498736374550830e-16
1.489371238501247e-16 -3.967445437197389e-16 -1.868519452377337e-16 -2.409930735076474e-17 5.901397059649369e-18 5.141285899407890e-17
4.745669471660029e-16 -4.714922371357385e-18 -2.071704367816939e-16 -2.006218717102491e-16 -9.138435134363297e-18 -7.961492963761686e-17
9.397040495892911e-16 4.063698308792038e-17 6.066371422017441e-16 9.388184826215781e-17 2.509121663069344e-17 2.617096379795229e-16
1.327995960650066e-16 4.063698308792038e-17 -3.033185711008720e-16 -2.809340279795847e-16 -2.196203989127888e-17 1.771485751090444e-16
1.361080850155685e-17 -2.450852581693028e-16 -1.462149621498133e-16 1.092321723026348e-17 2.560162194950187e-17 4.387521917837012e-17
-5.280853377262148e-16 -1.395072791074099e-16 3.791482138760901e-16 -1.242484512029401e-16 1.438819312662280e-17 1.378661267915638e-17
-1.020978015765132e-15 -1.516592855504360e-16 -1.110223024625157e-16 3.628885345805030e-16 2.664358984935578e-18 1.097712863747214e-15
1.705189750358655e-16 -1.516592855504360e-16 -1.110223024625156e-16 -2.028136688452522e-16 -5.758614491977354e-17 -5.345016111602666e-16
2.822706785276465e-16 2.579666656415943e-16 -1.367851174070986e-16 -1.125034597990175e-16 -3.237038074713957e-17 -3.498736374550830e-16
8.124198489292253e-17 -7.709690563738780e-16 7.402327853282221e-16 -4.385924773627030e-17 5.053094452070131e-17 -2.167092452522870e-16
-1.155497631084754e-16 3.835726212348137e-17 1.498575413240283e-16 -4.996255917547553e-16 1.076186124634724e-15 -1.072118069236012e-17
-5.717963035925495e-18 -8.735737398618491e-16 6.543792375445556e-17 -3.497063179537907e-16 -8.024421463734128e-17 3.899678416841493e-18
-2.654073044325037e-16 1.158684142671628e-16 -1.377467012675226e-16 -3.103922268333412e-16 -1.198612463312995e-16 -2.677252325288522e-17
-1.453300806780685e-16 2.620881039969608e-17 3.935834960027959e-16 -1.265563980071207e-15 5.774965088080259e-17 -4.610798026091290e-16
-1.197585725957477e-16 -2.885978077348933e-16 -1.850371707708592e-17 -1.134033072424468e-16 4.614969223911289e-16 1.227328431859789e-16
5.987928629787383e-17 -1.829748171496156e-16 2.095775020425584e-16 -6.428503303176974e-17 -3.356161166570518e-17 -1.280116681863682e-16
-6.861555643110579e-17 4.050194220746466e-16 5.503495027527156e-16 3.507076521435789e-17 -1.819099994410804e-16 -2.184646875306557e-16
-1.469985598060656e-16 1.230955308517417e-16 -7.131521236972477e-17 -7.751274045142791e-16 3.199585314183332e-16 2.708066163097434e-17
-8.819913588363935e-17 -1.380973013831341e-15 -2.320554796930131e-17 -2.598787563097453e-16 2.041375177480356e-16 7.910219927373197e-17
-1.155497631084754e-16 3.835726212348137e-17 1.498575413240283e-16 -4.996255917547553e-16 1.076186124634724e-15 -1.072118069236012e-17
2.775557561562891e-17 2.959975187836826e-15 1.882148034475097e-16 -2.791466750507338e-16 -3.268858026778631e-16 -1.013795475077499e-16
-5.717963035925495e-18 -8.735737398618491e-16 6.543792375445556e-17 -3.497063179537907e-16 -8.024421463734128e-17 3.899678416841493e-18
-1.369124617035241e-16 5.892333282181109e-17 2.611984949452315e-16 3.608928600474640e-16 4.272069573168750e-16 1.694732078651866e-16
-2.694567883404322e-16 3.239587126342764e-17 6.861555643110583e-17 -8.981892944681076e-16 1.634399232619080e-16 1.196628522228381e-30
-8.981892944681073e-17 4.407522515940684e-16 -9.148740857480773e-17 -4.513583775570333e-16 -3.334399906624716e-16 4.661357013399934e-17
-1.197585725957477e-16 -2.885978077348933e-16 -1.850371707708592e-17 -1.134033072424468e-16 4.614969223911289e-16 1.227328431859789e-16
1.012548555186617e-16 3.734112997977128e-16 6.861555643110583e-17 3.196567007086026e-16 5.260902109724243e-16 7.515093858207289e-17
1.413558201046996e-17 1.710290492238645e-15 -6.162975822039155e-33 -3.313964428748668e-16 -2.289154586836425e-16 4.359526303669282e-17
8.557825484366975e-17 -1.008308916915912e-16 1.210331772304978e-17 1.361457135379908e-16 7.632352302942189e-17 -7.603673698660262e-17
2.775557561562891e-17 2.959975187836826e-15 1.882148034475097e-16 -2.791466750507338e-16 -3.268858026778631e-16 -1.013795475077499e-16
2.674320463864680e-16 1.796378588936214e-15 -2.870886541862400e-16 -5.147421235718501e-16 3.555090244125320e-16 -3.594816787759525e-16
-5.717963035925495e-18 -8.735737398618491e-16 6.543792375445556e-17 -3.497063179537907e-16 -8.024421463734128e-17 3.899678416841493e-18
-1.355626337342146e-16 5.524118563739592e-16 1.111727491316344e-17 -3.589808359238933e-17 3.943811165918546e-16 1.803453039124095e-16
-1.796378588936215e-16 3.729988290734642e-15 7.528592137900388e-16 5.913311974802569e-16 8.749107181515677e-16 -5.028608689675404e-16
2.287185214370193e-17 9.688672045204570e-16 2.149768139197963e-16 -7.771793625263620e-16 4.129789181579880e-17 -2.836364068579772e-16
-8.981892944681073e-17 4.407522515940684e-16 -9.148740857480773e-17 -4.513583775570333e-16 -3.334399906624716e-16 4.661357013399934e-17
8.545079438019474e-17 1.287798529897534e-15 1.867056498988564e-16 2.323456877583679e-16 -3.248254344413025e-16 -7.310937617915224e-17
2.210134281144093e-16 1.676620016340467e-15 8.098967815856886e-18 8.452451103268014e-17 6.004445216577787e-16 -1.673540852287128e-16
2.220446049250311e-17 5.349092267736715e-16 7.833431781013416e-17 -2.072457315742833e-16 -7.246948348797401e-16 3.722984748127273e-17
2.674320463864680e-16 1.796378588936214e-15 -2.870886541862400e-16 -5.147421235718501e-16 3.555090244125320e-16 -3.594816787759525e-16
8.124198489292253e-17 -7.709690563738780e-16 7.402327853282221e-16 -4.385924773627030e-17 5.053094452070131e-17 -2.167092452522870e-16
-5.717963035925495e-18 -8.735737398618491e-16 6.543792375445556e-17 -3.497063179537907e-16 -8.024421463734128e-17 3.899678416841493e-18
-1.934171780781242e-16 4.077190780132656e-16 -2.257002143397128e-16 1.701858506885580e-16 -7.337016082894939e-16 -2.521247678196714e-16
3.430777821555291e-17 -1.319893507822725e-15 -1.796378588936215e-16 -2.002225258229533e-15 8.557825484366975e-16 -3.835726212348264e-17
5.987928629787383e-17 -1.829748171496156e-16 2.095775020425584e-16 -6.428503303176974e-17 -3.356161166570518e-17 -1.280116681863682e-16
2.287185214370193e-17 9.688672045204570e-16 2.149768139197963e-16 -7.771793625263620e-16 4.129789181579880e-17 -2.836364068579772e-16
2.699655938618984e-18 -5.031807471614427e-16 -3.027333897453632e-16 -2.627996922774007e-16 -5.877288615269439e-18 -1.251954961402665e-17
1.153904375291317e-16 3.906978777541560e-17 1.937734409040916e-16 4.825577902764471e-16 4.812470906733510e-17 1.064488199247975e-16
4.016824638186528e-17 -8.602595477357870e-16 2.135632557187494e-16 3.449896891076577e-17 -5.718518332024451e-16 -1.087472886393512e-16
8.124198489292253e-17 -7.709690563738780e-16 7.402327853282221e-16 -4.385924773627030e-17 5.053094452070131e-17 -2.167092452522870e-16
7.190294123125173e-16 -3.834597862329750e-16 -5.050837752033427e-16 3.246473030283188e-16 2.700164132528185e-16 1.210895947314181e-16
-2.654073044325037e-16 1.158684142671628e-16 -1.377467012675226e-16 -3.103922268333412e-16 -1.198612463312995e-16 -2.677252325288522e-17
-1.934171780781242e-16 4.077190780132656e-16 -2.257002143397128e-16 1.701858506885580e-16 -7.337016082894939e-16 -2.521247678196714e-16
3.935834960027959e-16 -7.971778667735742e-16 7.185514355744861e-16 -4.464524568095442e-17 7.210541542664808e-16 1.909312798350856e-16
4.534627823006698e-16 1.045825156591548e-15 -3.555448850380019e-16 -2.356982394281044e-16 -1.538357726667635e-16 1.649866884778406e-16
-6.861555643110579e-17 4.050194220746466e-16 5.503495027527156e-16 3.507076521435789e-17 -1.819099994410804e-16 -2.184646875306557e-16
1.153904375291317e-16 3.906978777541560e-17 1.937734409040916e-16 4.825577902764471e-16 4.812470906733510e-17 1.064488199247975e-16
-1.611341418165355e-16 5.073054544039302e-16 -6.620091075326060e-16 -2.965463288816365e-17 3.579258898179337e-16 -3.778675078784786e-16
-1.832598274103893e-16 -3.192322187153162e-17 -2.143280184995993e-16 -1.076707903536948e-16 -3.295909955652564e-16 -4.448590187655996e-16
-1.155497631084754e-16 3.835726212348137e-17 1.498575413240283e-16 -4.996255917547553e-16 1.076186124634724e-15 -1.072118069236012e-17
-5.146166732332930e-17 -5.050837752033430e-16 1.412805967701401e-16 -4.307146294537152e-16 -4.959472057370681e-16 -6.417834719036290e-16
-1.369124617035241e-16 5.892333282181109e-17 2.611984949452315e-16 3.608928600474640e-16 4.272069573168750e-16 1.694732078651866e-16
-2.654073044325037e-16 1.158684142671628e-16 -1.377467012675226e-16 -3.103922268333412e-16 -1.198612463312995e-16 -2.677252325288522e-17
3.935834960027959e-16 2.620881039969608e-17 3.430777821555291e-17 -1.687719533433183e-16 -7.266504033903419e-16 -1.873093113183181e-16
9.418706451342677e-17 1.796378588936213e-16 1.998100550987044e-16 -8.516578411942110e-17 1.744963412190395e-16 -2.321475234765300e-16
1.012548555186617e-16 3.734112997977128e-16 6.861555643110583e-17 3.196567007086026e-16 5.260902109724243e-16 7.515093858207289e-17
-1.469985598060656e-16 1.230955308517417e-16 -7.131521236972477e-17 -7.751274045142791e-16 3.199585314183332e-16 2.708066163097434e-17
-3.767482580537068e-16 3.915211423815517e-16 1.143592607185093e-17 -2.863256671874352e-16 -3.410570109709308e-16 -1.983281176081697e-16
-4.240674603141024e-18 5.187112911419575e-16 1.097848902897693e-16 4.708514077966481e-16 1.104314907226454e-17 3.040412603294300e-16
2.775557561562891e-17 2.959975187836826e-15 1.882148034475097e-16 -2.791466750507338e-16 -3.268858026778631e-16 -1.013795475077499e-16
-5.551115123125781e-17 9.143872300998212e-16 1.967917480013979e-16 5.088816554055375e-16 1.612890279407658e-17 3.247935169247757e-16
-1.355626337342146e-16 5.524118563739592e-16 1.111727491316344e-17 -3.589808359238933e-17 3.943811165918546e-16 1.803453039124095e-16
-1.369124617035241e-16 5.892333282181109e-17 2.611984949452315e-16 3.608928600474640e-16 4.272069573168750e-16 1.694732078651866e-16
7.528592137900388e-16 4.311308613446916e-15 3.430777821555291e-17 7.401823239813511e-16 6.237270687436873e-16 -2.015990211035507e-16
-2.993964314893690e-16 8.773797959456495e-16 2.699655938618984e-18 6.943297554614714e-17 -3.562742311388936e-16 5.088002415740578e-17
8.545079438019474e-17 1.287798529897534e-15 1.867056498988564e-16 2.323456877583679e-16 -3.248254344413025e-16 -7.310937617915224e-17
1.413558201046996e-17 1.710290492238645e-15 -6.162975822039155e-33 -3.313964428748668e-16 -2.289154586836425e-16 4.359526303669282e-17
-9.418706451342663e-17 1.492333099696384e-17 9.418706451342672e-17 5.255954137854362e-16 4.639051432291784e-16 2.193125351237139e-16
-3.808614721933729e-16 -2.413015916801454e-16 1.737773907273091e-16 -4.192218529996024e-16 3.825177799301614e-16 1.221233414779555e-16
2.674320463864680e-16 1.796378588936214e-15 -2.870886541862400e-16 -5.147421235718501e-16 3.555090244125320e-16 -3.594816787759525e-16
3.981109566487556e-16 8.376727058528584e-16 5.949027046501536e-16 5.793817790294731e-17 1.093597573602281e-15 4.421965774173228e-16
-1.934171780781242e-16 4.077190780132656e-16 -2.257002143397128e-16 1.701858506885580e-16 -7.337016082894939e-16 -2.521247678196714e-16
-1.355626337342146e-16 5.524118563739592e-16 1.111727491316344e-17 -3.589808359238933e-17 3.943811165918546e-16 1.803453039124095e-16
7.528592137900388e-16 2.789392250235124e-15 -4.278912742183489e-16 9.304218693828251e-16 -1.283673822655047e-15 3.177240025381535e-16
9.688672045204575e-17 1.567660067499195e-15 4.574370428740383e-17 8.983972066513357e-17 5.930748999428134e-16 1.366818835589865e-16
2.699655938618984e-18 -5.031807471614427e-16 -3.027333897453632e-16 -2.627996922774007e-16 -5.877288615269439e-18 -1.251954961402665e-17
2.210134281144093e-16 1.676620016340467e-15 8.098967815856886e-18 8.452451103268014e-17 6.004445216577787e-16 -1.673540852287128e-16
6.694707730310883e-17 3.983455055626586e-16 3.663435087924779e-16 1.666759588241602e-16 8.855460455573331e-16 1.848946656404725e-16
-2.185686931027404e-16 1.481872864139861e-16 7.309255573019498e-17 3.570271258683246e-16 -1.325124615210388e-16 1.598681348805622e-16
7.190294123125173e-16 -3.834597862329750e-16 -5.050837752033427e-16 3.246473030283188e-16 2.700164132528185e-16 1.210895947314181e-16
-5.146166732332930e-17 -5.050837752033430e-16 1.412805967701401e-16 -4.307146294537152e-16 -4.959472057370681e-16 -6.417834719036290e-16
-2.654073044325037e-16 1.158684142671628e-16 -1.377467012675226e-16 -3.103922268333412e-16 -1.198612463312995e-16 -2.677252325288522e-17
-1.232924680983651e-16 -2.345958100522888e-16 2.196636001450998e-16 -2.574023657848495e-17 -7.676278930056439e-16 -7.030803919732341e-17
7.528592137900390e-16 -1.690361723857690e-15 2.139456371091744e-16 8.451808619288442e-16 -4.281554932607994e-16 2.329105104753347e-16
-3.767482580537068e-16 3.915211423815517e-16 1.143592607185093e-17 -2.863256671874352e-16 -3.410570109709308e-16 -1.983281176081697e-16
4.534627823006698e-16 1.045825156591548e-15 -3.555448850380019e-16 -2.356982394281044e-16 -1.538357726667635e-16 1.649866884778406e-16
5.792579690910305e-16 -3.696804670484721e-16 8.005148250295682e-17 1.788036193296228e-16 -2.581089352827320e-16 2.161009718854332e-17
-1.170589166571285e-16 -6.821813037376894e-16 -1.540663508113006e-16 -3.939021471614836e-16 -4.141015594246842e-16 -6.419081638927171e-16
-3.834823532333425e-16 -2.720776693804020e-16 1.130244774161121e-16 -2.815601060634823e-16 -1.989874961118257e-16 -1.553192984650449e-16
-5.146166732332930e-17 -5.050837752033430e-16 1.412805967701401e-16 -4.307146294537152e-16 -4.959472057370681e-16 -6.417834719036290e-16
-5.551115123125781e-17 9.143872300998212e-16 1.967917480013979e-16 5.088816554055375e-16 1.612890279407658e-17 3.247935169247757e-16
-1.369124617035241e-16 5.892333282181109e-17 2.611984949452315e-16 3.608928600474640e-16 4.272069573168750e-16 1.694732078651866e-16
-1.232924680983651e-16 -2.345958100522888e-16 2.196636001450998e-16 -2.574023657848495e-17 -7.676278930056439e-16 -7.030803919732341e-17
1.796378588936215e-16 3.239587126342764e-17 3.430777821555291e-17 2.120337301570483e-17 7.609581816058959e-16 -4.049483907927593e-18
-9.418706451342663e-17 1.492333099696384e-17 9.418706451342672e-17 5.255954137854362e-16 4.639051432291784e-16 2.193125351237139e-16
9.418706451342677e-17 1.796378588936213e-16 1.998100550987044e-16 -8.516578411942110e-17 1.744963412190395e-16 -2.321475234765300e-16
-1.170589166571285e-16 -6.821813037376894e-16 -1.540663508113006e-16 -3.939021471614836e-16 -4.141015594246842e-16 -6.419081638927171e-16
6.036614194613015e-18 9.405960404995172e-16 2.699655938618999e-18 2.538729097373409e-16 -1.553721422735350e-16 1.374176544996741e-16
-4.200286310984400e-16 -7.909908059098443e-17 -4.440892098500632e-17 1.139664837189227e-16 -4.827246381892451e-16 1.749975632458331e-17
-5.551115123125781e-17 9.143872300998212e-16 1.967917480013979e-16 5.088816554055375e-16 1.612890279407658e-17 3.247935169247757e-16
3.981109566487556e-16 8.376727058528584e-16 5.949027046501536e-16 5.793817790294731e-17 1.093597573602281e-15 4.421965774173228e-16
-1.355626337342146e-16 5.524118563739592e-16 1.111727491316344e-17 -3.589808359238933e-17 3.943811165918546e-16 1.803453039124095e-16
-1.232924680983651e-16 -2.345958100522888e-16 2.196636001450998e-16 -2.574023657848495e-17 -7.676278930056439e-16 -7.030803919732341e-17
-4.359902420342058e-16 -8.557825484366974e-16 7.528592137900388e-16 -1.533474003195707e-15 7.270779187815013e-16 1.961000135677857e-16
6.694707730310883e-17 3.983455055626586e-16 3.663435087924779e-16 1.666759588241602e-16 8.855460455573331e-16 1.848946656404725e-16
-2.993964314893690e-16 8.773797959456495e-16 2.699655938618984e-18 6.943297554614714e-17 -3.562742311388936e-16 5.088002415740578e-17
6.036614194613015e-18 9.405960404995172e-16 2.699655938618999e-18 2.538729097373409e-16 -1.553721422735350e-16 1.374176544996741e-16
4.453638144848128e-16 3.526018012752548e-16 3.565760618486240e-16 3.398912705686552e-17 2.703118191227528e-16 1.788916923437727e-16
-1.025409532562337e-16 -3.810075288878501e-16 5.188918271449005e-17 -7.091313725463625e-17 6.239951426900113e-16 1.757002999681689e-16
3.981109566487556e-16 8.376727058528584e-16 5.949027046501536e-16 5.793817790294731e-17 1.093597573602281e-15 4.421965774173228e-16
7.190294123125173e-16 -3.834597862329750e-16 -5.050837752033427e-16 3.246473030283188e-16 2.700164132528185e-16 1.210895947314181e-16
-1.934171780781242e-16 4.077190780132656e-16 -2.257002143397128e-16 1.701858506885580e-16 -7.337016082894939e-16 -2.521247678196714e-16
-1.232924680983651e-16 -2.345958100522888e-16 2.196636001450998e-16 -2.574023657848495e-17 -7.676278930056439e-16 -7.030803919732341e-17
-7.185514355744858e-16 -1.319893507822725e-15 -8.481349206281965e-17 1.215058266223940e-15 1.463311681548668e-15 5.146166732333103e-17
-1.611341418165355e-16 5.073054544039302e-16 -6.620091075326060e-16 -2.965463288816365e-17 3.579258898179337e-16 -3.778675078784786e-16
9.688672045204575e-17 1.567660067499195e-15 4.574370428740383e-17 8.983972066513357e-17 5.930748999428134e-16 1.366818835589865e-16
4.453638144848128e-16 3.526018012752548e-16 3.565760618486240e-16 3.398912705686552e-17 2.703118191227528e-16 1.788916923437727e-16
5.792579690910305e-16 -3.696804670484721e-16 8.005148250295682e-17 1.788036193296228e-16 -2.581089352827320e-16 2.161009718854332e-17
-1.626751604810575e-16 9.934863106908053e-16 3.285899080884579e-16 -4.429075863703252e-17 -5.862075977482918e-16 -1.077827153361729e-16
-5.717963035925495e-18 -8.735737398618491e-16 6.543792375445556e-17 -3.497063179537907e-16 -8.024421463734128e-17 3.899678416841493e-18
-2.654073044325037e-16 1.158684142671628e-16 -1.377467012675226e-16 -3.103922268333412e-16 -1.198612463312995e-16 -2.677252325288522e-17
-1.934171780781242e-16 4.077190780132656e-16 -2.257002143397128e-16 1.701858506885580e-16 -7.337016082894939e-16 -2.521247678196714e-16
8.124198489292253e-17 -7.709690563738780e-16 7.402327853282221e-16 -4.385924773627030e-17 5.053094452070131e-17 -2.167092452522870e-16
-8.819913588363935e-17 -1.380973013831341e-15 -2.320554796930131e-17 -2.598787563097453e-16 2.041375177480356e-16 7.910219927373197e-17
-1.832598274103893e-16 -3.192322187153162e-17 -2.143280184995993e-16 -1.076707903536948e-16 -3.295909955652564e-16 -4.448590187655996e-16
4.016824638186528e-17 -8.602595477357870e-16 2.135632557187494e-16 3.449896891076577e-17 -5.718518332024451e-16 -1.087472886393512e-16
5.987928629787383e-17 -1.829748171496156e-16 2.095775020425584e-16 -6.428503303176974e-17 -3.356161166570518e-17 -1.280116681863682e-16
-6.861555643110579e-17 4.050194220746466e-16 5.503495027527156e-16 3.507076521435789e-17 -1.819099994410804e-16 -2.184646875306557e-16
1.153904375291317e-16 3.906978777541560e-17 1.937734409040916e-16 4.825577902764471e-16 4.812470906733510e-17 1.064488199247975e-16
-5.717963035925495e-18 -8.735737398618491e-16 6.543792375445556e-17 -3.497063179537907e-16 -8.024421463734128e-17 3.899678416841493e-18
-1.369124617035241e-16 5.892333282181109e-17 2.611984949452315e-16 3.608928600474640e-16 4.272069573168750e-16 1.694732078651866e-16
-2.654073044325037e-16 1.158684142671628e-16 -1.377467012675226e-16 -3.103922268333412e-16 -1.198612463312995e-16 -2.677252325288522e-17
-1.155497631084754e-16 3.835726212348137e-17 1.498575413240283e-16 -4.996255917547553e-16 1.076186124634724e-15 -1.072118069236012e-17
8.557825484366975e-17 -1.008308916915912e-16 1.210331772304978e-17 1.361457135379908e-16 7.632352302942189e-17 -7.603673698660262e-17
-4.240674603141024e-18 5.187112911419575e-16 1.097848902897693e-16 4.708514077966481e-16 1.104314907226454e-17 3.040412603294300e-16
-8.819913588363935e-17 -1.380973013831341e-15 -2.320554796930131e-17 -2.598787563097453e-16 2.041375177480356e-16 7.910219927373197e-17
-1.197585725957477e-16 -2.885978077348933e-16 -1.850371707708592e-17 -1.134033072424468e-16 4.614969223911289e-16 1.227328431859789e-16
1.012548555186617e-16 3.734112997977128e-16 6.861555643110583e-17 3.196567007086026e-16 5.260902109724243e-16 7.515093858207289e-17
-1.469985598060656e-16 1.230955308517417e-16 -7.131521236972477e-17 -7.751274045142791e-16 3.199585314183332e-16 2.708066163097434e-17
-5.717963035925495e-18 -8.735737398618491e-16 6.543792375445556e-17 -3.497063179537907e-16 -8.024421463734128e-17 3.899678416841493e-18
-1.355626337342146e-16 5.524118563739592e-16 1.111727491316344e-17 -3.589808359238933e-17 3.943811165918546e-16 1.803453039124095e-16
-1.369124617035241e-16 5.892333282181109e-17 2.611984949452315e-16 3.608928600474640e-16 4.272069573168750e-16 1.694732078651866e-16
2.775557561562891e-17 2.959975187836826e-15 1.882148034475097e-16 -2.791466750507338e-16 -3.268858026778631e-16 -1.013795475077499e-16
2.220446049250311e-17 5.349092267736715e-16 7.833431781013416e-17 -2.072457315742833e-16 -7.246948348797401e-16 3.722984748127273e-17
-3.808614721933729e-16 -2.413015916801454e-16 1.737773907273091e-16 -4.192218529996024e-16 3.825177799301614e-16 1.221233414779555e-16
8.557825484366975e-17 -1.008308916915912e-16 1.210331772304978e-17 1.361457135379908e-16 7.632352302942189e-17 -7.603673698660262e-17
-8.981892944681073e-17 4.407522515940684e-16 -9.148740857480773e-17 -4.513583775570333e-16 -3.334399906624716e-16 4.661357013399934e-17
8.545079438019474e-17 1.287798529897534e-15 1.867056498988564e-16 2.323456877583679e-16 -3.248254344413025e-16 -7.310937617915224e-17
1.413558201046996e-17 1.710290492238645e-15 -6.162975822039155e-33 -3.313964428748668e-16 -2.289154586836425e-16 4.359526303669282e-17
-5.717963035925495e-18 -8.735737398618491e-16 6.543792375445556e-17 -3.497063179537907e-16 -8.024421463734128e-17 3.899678416841493e-18
-1.934171780781242e-16 4.077190780132656e-16 -2.257002143397128e-16 1.701858506885580e-16 -7.337016082894939e-16 -2.521247678196714e-16
-1.355626337342146e-16 5.524118563739592e-16 1.111727491316344e-17 -3.589808359238933e-17 3.943811165918546e-16 1.803453039124095e-16
2.674320463864680e-16 1.796378588936214e-15 -2.870886541862400e-16 -5.147421235718501e-16 3.555090244125320e-16 -3.594816787759525e-16
4.016824638186528e-17 -8.602595477357870e-16 2.135632557187494e-16 3.449896891076577e-17 -5.718518332024451e-16 -1.087472886393512e-16
-2.185686931027404e-16 1.481872864139861e-16 7.309255573019498e-17 3.570271258683246e-16 -1.325124615210388e-16 1.598681348805622e-16
2.220446049250311e-17 5.349092267736715e-16 7.833431781013416e-17 -2.072457315742833e-16 -7.246948348797401e-16 3.722984748127273e-17
2.287185214370193e-17 9.688672045204570e-16 2.149768139197963e-16 -7.771793625263620e-16 4.129789181579880e-17 -2.836364068579772e-16
2.699655938618984e-18 -5.031807471614427e-16 -3.027333897453632e-16 -2.627996922774007e-16 -5.877288615269439e-18 -1.251954961402665e-17
2.210134281144093e-16 1.676620016340467e-15 8.098967815856886e-18 8.452451103268014e-17 6.004445216577787e-16 -1.673540852287128e-16
-1.232924680983651e-16 -2.345958100522888e-16 2.196636001450998e-16 -2.574023657848495e-17 -7.676278930056439e-16 -7.030803919732341e-17
-1.934171780781242e-16 4.077190780132656e-16 -2.257002143397128e-16 1.701858506885580e-16 -7.337016082894939e-16 -2.521247678196714e-16
-2.654073044325037e-16 1.158684142671628e-16 -1.377467012675226e-16 -3.103922268333412e-16 -1.198612463312995e-16 -2.677252325288522e-17
7.190294123125173e-16 -3.834597862329750e-16 -5.050837752033427e-16 3.246473030283188e-16 2.700164132528185e-16 1.210895947314181e-16
-1.626751604810575e-16 9.934863106908053e-16 3.285899080884579e-16 -4.429075863703252e-17 -5.862075977482918e-16 -1.077827153361729e-16
-1.832598274103893e-16 -3.192322187153162e-17 -2.143280184995993e-16 -1.076707903536948e-16 -3.295909955652564e-16 -4.448590187655996e-16
-3.834823532333425e-16 -2.720776693804020e-16 1.130244774161121e-16 -2.815601060634823e-16 -1.989874961118257e-16 -1.553192984650449e-16
5.792579690910305e-16 -3.696804670484721e-16 8.005148250295682e-17 1.788036193296228e-16 -2.581089352827320e-16 2.161009718854332e-17
-1.611341418165355e-16 5.073054544039302e-16 -6.620091075326060e-16 -2.965463288816365e-17 3.579258898179337e-16 -3.778675078784786e-16
4.534627823006698e-16 1.045825156591548e-15 -3.555448850380019e-16 -2.356982394281044e-16 -1.538357726667635e-16 1.649866884778406e-16
-1.232924680983651e-16 -2.345958100522888e-16 2.196636001450998e-16 -2.574023657848495e-17 -7.676278930056439e-16 -7.030803919732341e-17
-2.654073044325037e-16 1.158684142671628e-16 -1.377467012675226e-16 -3.103922268333412e-16 -1.198612463312995e-16 -2.677252325288522e-17
-1.369124617035241e-16 5.892333282181109e-17 2.611984949452315e-16 3.608928600474640e-16 4.272069573168750e-16 1.694732078651866e-16
-5.146166732332930e-17 -5.050837752033430e-16 1.412805967701401e-16 -4.307146294537152e-16 -4.959472057370681e-16 -6.417834719036290e-16
-3.834823532333425e-16 -2.720776693804020e-16 1.130244774161121e-16 -2.815601060634823e-16 -1.989874961118257e-16 -1.553192984650449e-16
-4.240674603141024e-18 5.187112911419575e-16 1.097848902897693e-16 4.708514077966481e-16 1.104314907226454e-17 3.040412603294300e-16
-4.200286310984400e-16 -7.909908059098443e-17 -4.440892098500632e-17 1.139664837189227e-16 -4.827246381892451e-16 1.749975632458331e-17
-1.170589166571285e-16 -6.821813037376894e-16 -1.540663508113006e-16 -3.939021471614836e-16 -4.141015594246842e-16 -6.419081638927171e-16
-3.767482580537068e-16 3.915211423815517e-16 1.143592607185093e-17 -2.863256671874352e-16 -3.410570109709308e-16 -1.983281176081697e-16
9.418706451342677e-17 1.796378588936213e-16 1.998100550987044e-16 -8.516578411942110e-17 1.744963412190395e-16 -2.321475234765300e-16
-1.232924680983651e-16 -2.345958100522888e-16 2.196636001450998e-16 -2.574023657848495e-17 -7.676278930056439e-16 -7.030803919732341e-17
-1.369124617035241e-16 5.892333282181109e-17 2.611984949452315e-16 3.608928600474640e-16 4.272069573168750e-16 1.694732078651866e-16
-1.355626337342146e-16 5.524118563739592e-16 1.111727491316344e-17 -3.589808359238933e-17 3.943811165918546e-16 1.803453039124095e-16
-5.551115123125781e-17 9.143872300998212e-16 1.967917480013979e-16 5.088816554055375e-16 1.612890279407658e-17 3.247935169247757e-16
-4.200286310984400e-16 -7.909908059098443e-17 -4.440892098500632e-17 1.139664837189227e-16 -4.827246381892451e-16 1.749975632458331e-17
-3.808614721933729e-16 -2.413015916801454e-16 1.737773907273091e-16 -4.192218529996024e-16 3.825177799301614e-16 1.221233414779555e-16
-1.025409532562337e-16 -3.810075288878501e-16 5.188918271449005e-17 -7.091313725463625e-17 6.239951426900113e-16 1.757002999681689e-16
6.036614194613015e-18 9.405960404995172e-16 2.699655938618999e-18 2.538729097373409e-16 -1.553721422735350e-16 1.374176544996741e-16
-9.418706451342663e-17 1.492333099696384e-17 9.418706451342672e-17 5.255954137854362e-16 4.639051432291784e-16 2.193125351237139e-16
-2.993964314893690e-16 8.773797959456495e-16 2.699655938618984e-18 6.943297554614714e-17 -3.562742311388936e-16 5.088002415740578e-17
-1.232924680983651e-16 -2.345958100522888e-16 2.196636001450998e-16 -2.574023657848495e-17 -7.676278930056439e-16 -7.030803919732341e-17
-1.355626337342146e-16 5.524118563739592e-16 1.111727491316344e-17 -3.589808359238933e-17 3.943811165918546e-16 1.803453039124095e-16
-1.934171780781242e-16 4.077190780132656e-16 -2.257002143397128e-16 1.701858506885580e-16 -7.337016082894939e-16 -2.521247678196714e-16
3.981109566487556e-16 8.376727058528584e-16 5.949027046501536e-16 5.793817790294731e-17 1.093597573602281e-15 4.421965774173228e-16
-1.025409532562337e-16 -3.810075288878501e-16 5.188918271449005e-17 -7.091313725463625e-17 6.239951426900113e-16 1.757002999681689e-16
-2.185686931027404e-16 1.481872864139861e-16 7.309255573019498e-17 3.570271258683246e-16 -1.325124615210388e-16 1.598681348805622e-16
-1.626751604810575e-16 9.934863106908053e-16 3.285899080884579e-16 -4.429075863703252e-17 -5.862075977482918e-16 -1.077827153361729e-16
4.453638144848128e-16 3.526018012752548e-16 3.565760618486240e-16 3.398912705686552e-17 2.703118191227528e-16 1.788916923437727e-16
6.694707730310883e-17 3.983455055626586e-16 3.663435087924779e-16 1.666759588241602e-16 8.855460455573331e-16 1.848946656404725e-16
9.688672045204575e-17 1.567660067499195e-15 4.574370428740383e-17 8.983972066513357e-17 5.930748999428134e-16 1.366818835589865e-16
-5.717963035925495e-18 -8.735737398618491e-16 6.543792375445556e-17 -3.497063179537907e-16 -8.024421463734128e-17 3.899678416841493e-18
-1.934171780781242e-16 4.077190780132656e-16 -2.257002143397128e-16 1.701858506885580e-16 -7.337016082894939e-16 -2.521247678196714e-16
-2.654073044325037e-16 1.158684142671628e-16 -1.377467012675226e-16 -3.103922268333412e-16 -1.198612463312995e-16 -2.677252325288522e-17
6.549413165273711e-16 1.138343741976978e-15 -2.204978397090983e-16 7.832436614648351e-17 3.920964778791170e-16 -1.583149916934080e-16
4.016824638186528e-17 -8.602595477357870e-16 2.135632557187494e-16 3.449896891076577e-17 -5.718518332024451e-16 -1.087472886393512e-16
-1.832598274103893e-16 -3.192322187153162e-17 -2.143280184995993e-16 -1.076707903536948e-16 -3.295909955652564e-16 -4.448590187655996e-16
-8.819913588363935e-17 -1.380973013831341e-15 -2.320554796930131e-17 -2.598787563097453e-16 2.041375177480356e-16 7.910219927373197e-17
3.103167691559090e-17 -3.835726212348147e-17 9.511977270073696e-17 -1.355930622122313e-16 4.634678457464636e-16 5.921958655222780e-17
2.707081476864299e-16 5.358200462489983e-16 5.956063513918633e-17 5.372539764630974e-17 -9.243068194337551e-16 -1.508699123010090e-16
2.151969964551721e-16 -4.319407581262773e-16 -3.294954002176498e-16 -3.137405733908381e-16 1.786711306336624e-16 -3.773158245048324e-17
-5.717963035925495e-18 -8.735737398618491e-16 6.543792375445556e-17 -3.497063179537907e-16 -8.024421463734128e-17 3.899678416841493e-18
-2.654073044325037e-16 1.158684142671628e-16 -1.377467012675226e-16 -3.103922268333412e-16 -1.198612463312995e-16 -2.677252325288522e-17
-1.369124617035241e-16 5.892333282181109e-17 2.611984949452315e-16 3.608928600474640e-16 4.272069573168750e-16 1.694732078651866e-16
6.549413165273711e-16 1.138343741976978e-15 -2.204978397090983e-16 7.832436614648351e-17 3.920964778791170e-16 -1.583149916934080e-16
-8.819913588363935e-17 -1.380973013831341e-15 -2.320554796930131e-17 -2.598787563097453e-16 2.041375177480356e-16 7.910219927373197e-17
-4.240674603141024e-18 5.187112911419575e-16 1.097848902897693e-16 4.708514077966481e-16 1.104314907226454e-17 3.040412603294300e-16
8.557825484366975e-17 -1.008308916915912e-16 1.210331772304978e-17 1.361457135379908e-16 7.632352302942189e-17 -7.603673698660262e-17
3.103167691559090e-17 -3.835726212348147e-17 9.511977270073696e-17 -1.355930622122313e-16 4.634678457464636e-16 5.921958655222780e-17
2.151969964551721e-16 -4.319407581262773e-16 -3.294954002176498e-16 -3.137405733908381e-16 1.786711306336624e-16 -3.773158245048324e-17
2.633825624785394e-16 8.719804840684112e-16 -6.611283773911031e-17 2.891133961402028e-16 4.051693447371719e-16 -1.502442326280107e-16
-5.717963035925495e-18 -8.735737398618491e-16 6.543792375445556e-17 -3.497063179537907e-16 -8.024421463734128e-17 3.899678416841493e-18
-1.369124617035241e-16 5.892333282181109e-17 2.611984949452315e-16 3.608928600474640e-16 4.272069573168750e-16 1.694732078651866e-16
-1.355626337342146e-16 5.524118563739592e-16 1.111727491316344e-17 -3.589808359238933e-17 3.943811165918546e-16 1.803453039124095e-16
6.549413165273711e-16 1.138343741976978e-15 -2.204978397090983e-16 7.832436614648351e-17 3.920964778791170e-16 -1.583149916934080e-16
8.557825484366975e-17 -1.008308916915912e-16 1.210331772304978e-17 1.361457135379908e-16 7.632352302942189e-17 -7.603673698660262e-17
-3.808614721933729e-16 -2.413015916801454e-16 1.737773907273091e-16 -4.192218529996024e-16 3.825177799301614e-16 1.221233414779555e-16
2.220446049250311e-17 5.349092267736715e-16 7.833431781013416e-17 -2.072457315742833e-16 -7.246948348797401e-16 3.722984748127273e-17
3.103167691559090e-17 -3.835726212348147e-17 9.511977270073696e-17 -1.355930622122313e-16 4.634678457464636e-16 5.921958655222780e-17
2.633825624785394e-16 8.719804840684112e-16 -6.611283773911031e-17 2.891133961402028e-16 4.051693447371719e-16 -1.502442326280107e-16
4.430204213721609e-16 1.343234457794232e-15 -1.115002792005469e-16 -1.060168650785103e-17 4.115738444021247e-16 5.469212590626412e-17
-5.717963035925495e-18 -8.735737398618491e-16 6.543792375445556e-17 -3.497063179537907e-16 -8.024421463734128e-17 3.899678416841493e-18
-1.355626337342146e-16 5.524118563739592e-16 1.111727491316344e-17 -3.589808359238933e-17 3.943811165918546e-16 1.803453039124095e-16
-1.934171780781242e-16 4.077190780132656e-16 -2.257002143397128e-16 1.701858506885580e-16 -7.337016082894939e-16 -2.521247678196714e-16
6.549413165273711e-16 1.138343741976978e-15 -2.204978397090983e-16 7.832436614648351e-17 3.920964778791170e-16 -1.583149916934080e-16
2.220446049250311e-17 5.349092267736715e-16 7.833431781013416e-17 -2.072457315742833e-16 -7.246948348797401e-16 3.722984748127273e-17
-2.185686931027404e-16 1.481872864139861e-16 7.309255573019498e-17 3.570271258683246e-16 -1.325124615210388e-16 1.598681348805622e-16
4.016824638186528e-17 -8.602595477357870e-16 2.135632557187494e-16 3.449896891076577e-17 -5.718518332024451e-16 -1.087472886393512e-16
3.103167691559090e-17 -3.835726212348147e-17 9.511977270073696e-17 -1.355930622122313e-16 4.634678457464636e-16 5.921958655222780e-17
4.430204213721609e-16 1.343234457794232e-15 -1.115002792005469e-16 -1.060168650785103e-17 4.115738444021247e-16 5.469212590626412e-17
2.707081476864299e-16 5.358200462489983e-16 5.956063513918633e-17 5.372539764630974e-17 -9.243068194337551e-16 -1.508699123010090e-16
-1.232924680983651e-16 -2.345958100522888e-16 2.196636001450998e-16 -2.574023657848495e-17 -7.676278930056439e-16 -7.030803919732341e-17
-2.654073044325037e-16 1.158684142671628e-16 -1.377467012675226e-16 -3.103922268333412e-16 -1.198612463312995e-16 -2.677252325288522e-17
-1.934171780781242e-16 4.077190780132656e-16 -2.257002143397128e-16 1.701858506885580e-16 -7.337016082894939e-16 -2.521247678196714e-16
6.549413165273711e-16 1.138343741976978e-15 -2.204978397090983e-16 7.832436614648351e-17 3.920964778791170e-16 -1.583149916934080e-16
-3.834823532333425e-16 -2.720776693804020e-16 1.130244774161121e-16 -2.815601060634823e-16 -1.989874961118257e-16 -1.553192984650449e-16
-1.832598274103893e-16 -3.192322187153162e-17 -2.143280184995993e-16 -1.076707903536948e-16 -3.295909955652564e-16 -4.448590187655996e-16
-1.626751604810575e-16 9.934863106908053e-16 3.285899080884579e-16 -4.429075863703252e-17 -5.862075977482918e-16 -1.077827153361729e-16
-2.447947431566706e-17 3.290174234796185e-16 2.245473236170276e-17 -8.013832848189302e-17 -5.171301667091835e-16 -1.819015892166007e-16
2.151969964551721e-16 -4.319407581262773e-16 -3.294954002176498e-16 -3.137405733908381e-16 1.786711306336624e-16 -3.773158245048324e-17
2.707081476864299e-16 5.358200462489983e-16 5.956063513918633e-17 5.372539764630974e-17 -9.243068194337551e-16 -1.508699123010090e-16
-1.232924680983651e-16 -2.345958100522888e-16 2.196636001450998e-16 -2.574023657848495e-17 -7.676278930056439e-16 -7.030803919732341e-17
-1.369124617035241e-16 5.892333282181109e-17 2.611984949452315e-16 3.608928600474640e-16 4.272069573168750e-16 1.694732078651866e-16
-2.654073044325037e-16 1.158684142671628e-16 -1.377467012675226e-16 -3.103922268333412e-16 -1.198612463312995e-16 -2.677252325288522e-17
6.549413165273711e-16 1.138343741976978e-15 -2.204978397090983e-16 7.832436614648351e-17 3.920964778791170e-16 -1.583149916934080e-16
-4.200286310984400e-16 -7.909908059098443e-17 -4.440892098500632e-17 1.139664837189227e-16 -4.827246381892451e-16 1.749975632458331e-17
-4.240674603141024e-18 5.187112911419575e-16 1.097848902897693e-16 4.708514077966481e-16 1.104314907226454e-17 3.040412603294300e-16
-3.834823532333425e-16 -2.720776693804020e-16 1.130244774161121e-16 -2.815601060634823e-16 -1.989874961118257e-16 -1.553192984650449e-16
-2.447947431566706e-17 3.290174234796185e-16 2.245473236170276e-17 -8.013832848189302e-17 -5.171301667091835e-16 -1.819015892166007e-16
2.633825624785394e-16 8.719804840684112e-16 -6.611283773911031e-17 2.891133961402028e-16 4.051693447371719e-16 -1.502442326280107e-16
2.151969964551721e-16 -4.319407581262773e-16 -3.294954002176498e-16 -3.137405733908381e-16 1.786711306336624e-16 -3.773158245048324e-17
-1.232924680983651e-16 -2.345958100522888e-16 2.196636001450998e-16 -2.574023657848495e-17 -7.676278930056439e-16 -7.030803919732341e-17
-1.355626337342146e-16 5.524118563739592e-16 1.111727491316344e-17 -3.589808359238933e-17 3.943811165918546e-16 1.803453039124095e-16
-1.369124617035241e-16 5.892333282181109e-17 2.611984949452315e-16 3.608928600474640e-16 4.272069573168750e-16 1.694732078651866e-16
6.549413165273711e-16 1.138343741976978e-15 -2.204978397090983e-16 7.832436614648351e-17 3.920964778791170e-16 -1.583149916934080e-16
-1.025409532562337e-16 -3.810075288878501e-16 5.188918271449005e-17 -7.091313725463625e-17 6.239951426900113e-16 1.757002999681689e-16
-3.808614721933729e-16 -2.413015916801454e-16 1.737773907273091e-16 -4.192218529996024e-16 3.825177799301614e-16 1.221233414779555e-16
-4.200286310984400e-16 -7.909908059098443e-17 -4.440892098500632e-17 1.139664837189227e-16 -4.827246381892451e-16 1.749975632458331e-17
-2.447947431566706e-17 3.290174234796185e-16 2.245473236170276e-17 -8.013832848189302e-17 -5.171301667091835e-16 -1.819015892166007e-16
4.430204213721609e-16 1.343234457794232e-15 -1.115002792005469e-16 -1.060168650785103e-17 4.115738444021247e-16 5.469212590626412e-17
2.633825624785394e-16 8.719804840684112e-16 -6.611283773911031e-17 2.891133961402028e-16 4.051693447371719e-16 -1.502442326280107e-16
-1.232924680983651e-16 -2.345958100522888e-16 2.196636001450998e-16 -2.574023657848495e-17 -7.676278930056439e-16 -7.030803919732341e-17
-1.934171780781242e-16 4.077190780132656e-16 -2.257002143397128e-16 1.701858506885580e-16 -7.337016082894939e-16 -2.521247678196714e-16
-1.355626337342146e-16 5.524118563739592e-16 1.111727491316344e-17 -3.589808359238933e-17 3.943811165918546e-16 1.803453039124095e-16
6.549413165273711e-16 1.138343741976978e-15 -2.204978397090983e-16 7.832436614648351e-17 3.920964778791170e-16 -1.583149916934080e-16
-1.626751604810575e-16 9.934863106908053e-16 3.285899080884579e-16 -4.429075863703252e-17 -5.862075977482918e-16 -1.077827153361729e-16
-2.185686931027404e-16 1.481872864139861e-16 7.309255573019498e-17 3.570271258683246e-16 -1.325124615210388e-16 1.598681348805622e-16
-1.025409532562337e-16 -3.810075288878501e-16 5.188918271449005e-17 -7.091313725463625e-17 6.239951426900113e-16 1.757002999681689e-16
-2.447947431566706e-17 3.290174234796185e-16 2.245473236170276e-17 -8.013832848189302e-17 -5.171301667091835e-16 -1.819015892166007e-16
2.707081476864299e-16 5.358200462489983e-16 5.956063513918633e-17 5.372539764630974e-17 -9.243068194337551e-16 -1.508699123010090e-16
4.430204213721609e-16 1.343234457794232e-15 -1.115002792005469e-16 -1.060168650785103e-17 4.115738444021247e-16 5.469212590626412e-17
        </DataArray>
        <DataArray type="Float64" Name="nodal_cauchy_stresses_xyz" NumberOfComponents="6" format="ascii">
1.000000000000016e+02 3.717383534363483e-14 3.717383534363483e-14 8.666684749742561e-34 1.538832570829859e-16 -1.987792868989728e-16
1.000000000000004e+02 -4.466835582545908e-14 -4.265945100631238e-14 1.024000529184984e-15 -5.548046145133216e-16 1.000351107398830e-15
1.000000000000005e+02 7.683596020628482e-14 7.551932195423620e-14 1.049100687926865e-15 2.684751237373018e-16 -2.214471745258098e-16
9.999999999999891e+01 -7.077361509954480e-14 -6.901809743014667e-14 -2.322231179748645e-34 -1.600081209086864e-16 5.326274939661420e-17
9.999999999999811e+01 -8.118068061807671e-14 -8.293619828747486e-14 8.666684749742565e-34 -1.600081209086864e-16 -4.006210057107957e-16
1.000000000000013e+02 4.336222094823188e-14 3.637166039510348e-14 -5.274626000165129e-16 3.234595044504575e-17 -1.031656608967109e-15
1.000000000000014e+02 -4.123009000202932e-14 -3.820763658388844e-14 -4.337875323137651e-16 1.062251470736885e-16 9.254314618934193e-16
1.000000000000016e+02 4.933641853156489e-14 4.933641853156489e-14 -2.322231179748646e-34 7.469977278656616e-17 1.073460749511519e-16
1.000000000000004e+02 -4.466835582545908e-14 -4.265945100631238e-14 1.024000529184984e-15 -5.548046145133216e-16 1.000351107398830e-15
5.000000000000118e+01 3.637172890932353e-13 2.842443223398663e-13 -2.123629023548347e-13 -1.958765137226799e-14 -7.798896988222145e-14
5.000000000000002e+01 -8.603269289192512e-14 -1.611665679751046e-13 4.292681945905075e-15 7.670121200533850e-15 5.292670117832923e-14
1.000000000000005e+02 7.683596020628482e-14 7.551932195423620e-14 1.049100687926865e-15 2.684751237373018e-16 -2.214471745258098e-16
1.000000000000013e+02 4.336222094823188e-14 3.637166039510348e-14 -5.274626000165129e-16 3.234595044504575e-17 -1.031656608967109e-15
4.999999999999928e+01 -4.217947151672140e-13 -2.967413705968272e-13 -1.726310844507483e-13 4.228355249260216e-15 -9.865628052418168e-14
5.000000000000147e+01 -3.281677580875068e-14 -4.399779038992061e-14 -1.418134647106088e-13 5.836028768382448e-15 -1.876056097778228e-13
1.000000000000014e+02 -4.123009000202932e-14 -3.820763658388844e-14 -4.337875323137651e-16 1.062251470736885e-16 9.254314618934193e-16
5.000000000000118e+01 3.637172890932353e-13 2.842443223398663e-13 -2.123629023548347e-13 -1.958765137226799e-14 -7.798896988222145e-14
2.043775718442722e-12 1.123131042345317e-12 1.702715205277873e-12 9.388184826215662e-14 2.509121663069347e-14 2.617096379795202e-13
-1.010430500892050e-13 -1.954175657777413e-13 -5.476280532670648e-13 -2.809340279795830e-13 -2.196203989127865e-14 1.771485751090441e-13
5.000000000000002e+01 -8.603269289192512e-14 -1.611665679751046e-13 4.292681945905075e-15 7.670121200533850e-15 5.292670117832923e-14
4.999999999999928e+01 -4.217947151672140e-13 -2.967413705968272e-13 -1.726310844507483e-13 4.228355249260216e-15 -9.865628052418168e-14
-1.873245461860296e-12 -9.830630821204495e-13 -9.414508114384190e-13 3.628885345805053e-13 2.664358984935369e-15 1.097712863747222e-12
1.994987396320431e-13 -1.304117992083290e-13 -8.879952852629853e-14 -2.028136688452533e-13 -5.758614491977361e-14 -5.345016111602684e-13
5.000000000000147e+01 -3.281677580875068e-14 -4.399779038992061e-14 -1.418134647106088e-13 5.836028768382448e-15 -1.876056097778228e-13
1.000000000000010e+02 -6.643909017941190e-15 2.007999098471834e-14 -1.107423072188856e-14 9.095570013725883e-16 -5.489269212013718e-14
9.999999999999989e+01 1.468330288856953e-15 3.197442310920447e-15 -1.104312937179175e-13 1.937135024342503e-14 -5.823957703728491e-15
1.000000000000005e+02 -8.356256218676842e-14 -6.583868628075877e-14 -7.586571491404923e-14 -1.444395863472131e-15 -1.999524541218364e-15
5.833333333333272e+01 1.513878742231606e-13 -2.484871908114065e-14 -1.406721749684597e-13 -4.802459507342267e-14 -2.804749211593528e-14
9.999999999999979e+01 2.409094317234661e-14 2.968646721645659e-14 -2.758929476555221e-13 1.039493715854508e-15 -9.861890963217460e-14
9.999999999999983e+01 -4.341975363452721e-14 -3.827588119053709e-14 -3.185344221582604e-14 8.306944603040323e-15 2.923829396779080e-14
1.000000000000008e+02 5.331236950235975e-15 1.310076960781073e-14 -1.080176613270228e-14 -6.041090099827049e-16 -2.471723041085779e-14
1.000000000000001e+02 7.969630820380866e-14 8.189083755604825e-14 1.804087796245783e-14 -3.274379989939441e-15 -5.412466067311722e-14
9.999999999999966e+01 -6.023149544787657e-15 -9.810728259785081e-15 -1.751325507267000e-13 5.759253565529998e-15 -5.388551737952715e-15
1.000000000000000e+02 -1.511932918173298e-13 -1.264301292858051e-13 -5.789483595214890e-14 3.674475319464678e-15 9.520754189262694e-15
9.999999999999989e+01 1.468330288856953e-15 3.197442310920447e-15 -1.104312937179175e-13 1.937135024342503e-14 -5.823957703728491e-15
1.000000000000011e+02 3.168726753992953e-13 2.667648494775276e-13 -7.401115386653582e-14 -5.883944448201574e-15 -8.368203719361177e-15
1.000000000000005e+02 -8.356256218676842e-14 -6.583868628075877e-14 -7.586571491404923e-14 -1.444395863472131e-15 -1.999524541218364e-15
5.833333333333400e+01 5.335536731664928e-13 4.049965233933655e-13 2.393470173764004e-13 2.799686228772195e-13 1.621017381205631e-13
9.999999999999909e+01 -2.253026955899808e-14 -2.212533122913223e-14 -1.958052661940462e-13 2.941918618714334e-15 2.550767111618152e-45
1.000000000000001e+02 2.997860184861642e-14 2.104498425759332e-14 -1.098418992416156e-13 -6.001919831924462e-15 6.640431254737277e-15
9.999999999999983e+01 -4.341975363452721e-14 -3.827588119053709e-14 -3.185344221582604e-14 8.306944603040323e-15 2.923829396779080e-14
1.000000000000014e+02 4.993342982495196e-14 4.501146406865273e-14 7.594305497812565e-14 9.469623797503648e-15 9.032976620588862e-15
1.000000000000008e+02 1.775616748004222e-13 1.465294299369734e-13 -7.116832333800176e-14 -4.120478256305581e-15 2.944042408619066e-15
1.000000000000012e+02 -3.318670274528819e-16 2.113668117535907e-15 3.398370548038575e-14 1.373823414529566e-15 -6.171750215936225e-15
1.000000000000011e+02 3.168726753992953e-13 2.667648494775276e-13 -7.401115386653582e-14 -5.883944448201574e-15 -8.368203719361177e-15
1.000000000000025e+02 1.796888422873250e-13 1.418322067647170e-13 -1.128451043617555e-13 6.399162439425585e-15 -6.196296874701022e-14
1.000000000000005e+02 -8.356256218676842e-14 -6.583868628075877e-14 -7.586571491404923e-14 -1.444395863472131e-15 -1.999524541218364e-15
5.833333333333324e+01 -2.493546496488477e-13 -1.861405630494774e-13 -1.650293575513026e-13 8.896549861980058e-13 1.224313951936998e-13
9.999999999999955e+01 4.094944017543904e-13 3.557825703678100e-13 1.289102010506963e-13 1.574839292672813e-14 -1.099726553344776e-13
1.000000000000007e+02 1.167390200980073e-13 1.027633062534688e-13 -1.607965976363283e-13 7.433620526844216e-16 -6.511972441824827e-14
1.000000000000001e+02 2.997860184861642e-14 2.104498425759332e-14 -1.098418992416156e-13 -6.001919831924462e-15 6.640431254737277e-15
1.000000000000012e+02 1.529561788829965e-13 1.330796124229209e-13 4.552112575692591e-14 -5.846857819943446e-15 -3.834129207068764e-15
1.000000000000020e+02 1.899124749580208e-13 1.596223613200464e-13 1.344702458559036e-14 1.080800138983995e-14 -2.479427103299692e-14
1.000000000000007e+02 6.369227091800358e-14 5.560326181506188e-14 -4.491157326179812e-14 -1.304450702783523e-14 1.334489612489620e-14
1.000000000000025e+02 1.796888422873250e-13 1.418322067647170e-13 -1.128451043617555e-13 6.399162439425585e-15 -6.196296874701022e-14
1.000000000000010e+02 -6.643909017941190e-15 2.007999098471834e-14 -1.107423072188856e-14 9.095570013725883e-16 -5.489269212013718e-14
1.000000000000005e+02 -8.356256218676842e-14 -6.583868628075877e-14 -7.586571491404923e-14 -1.444395863472131e-15 -1.999524541218364e-15
5.833333333333385e+01 1.014084097966172e-12 1.917328461645107e-14 2.257754390418821e-14 -4.308230269593620e-13 -2.441551047790183e-13
1.000000000000008e+02 -1.423322639498649e-13 -1.224543585611589e-13 -4.364851062940402e-13 1.540408587186060e-14 -8.361883142918999e-15
1.000000000000008e+02 5.331236950235975e-15 1.310076960781073e-14 -1.080176613270228e-14 -6.041090099827049e-16 -2.471723041085779e-14
1.000000000000007e+02 1.167390200980073e-13 1.027633062534688e-13 -1.607965976363283e-13 7.433620526844216e-16 -6.511972441824827e-14
1.000000000000008e+02 -7.744289449250580e-14 -7.367016472358220e-14 -5.399453789185009e-14 -1.057911950748001e-16 -1.267905941007650e-15
1.000000000000015e+02 2.898837140397295e-14 3.177303716028906e-14 9.283648635456125e-14 8.662447632120006e-16 2.064869193537431e-14
1.000000000000010e+02 -6.958452102103287e-14 -4.954074072271652e-14 1.713876935769913e-14 -1.029333299764398e-14 -2.407501389245446e-14
1.000000000000010e+02 -6.643909017941190e-15 2.007999098471834e-14 -1.107423072188856e-14 9.095570013725883e-16 -5.489269212013718e-14
2.500000000000110e+01 -9.304392299005330e-13 -3.791720325374486e-13 4.105700589997529e-13 -4.413136190959834e-14 5.222925414176223e-14
5.833333333333272e+01 1.513878742231606e-13 -2.484871908114065e-14 -1.406721749684597e-13 -4.802459507342267e-14 -2.804749211593528e-14
5.833333333333385e+01 1.014084097966172e-12 1.917328461645107e-14 2.257754390418821e-14 -4.308230269593620e-13 -2.441551047790183e-13
1.000000000000028e+02 1.820308914902066e-14 4.459250429611691e-14 3.043558282341773e-14 1.297897477679667e-14 1.443321021984897e-16
3.333333333333438e+01 6.760018616272315e-13 3.202848339322556e-13 -1.174540929663583e-13 -1.460759786477753e-13 1.147899755108425e-13
1.000000000000001e+02 7.969630820380866e-14 8.189083755604825e-14 1.804087796245783e-14 -3.274379989939441e-15 -5.412466067311722e-14
1.000000000000015e+02 2.898837140397295e-14 3.177303716028906e-14 9.283648635456125e-14 8.662447632120006e-16 2.064869193537431e-14
3.333333333333342e+01 1.150909563493951e-13 -5.759629698036537e-13 7.327895623956045e-15 1.219008299880389e-13 -4.077488163580687e-13
6.000000000000050e+01 4.194429999335627e-13 -8.222351598942175e-14 6.231901090249797e-14 -1.685571353822319e-13 -3.113790133456192e-13
9.999999999999989e+01 1.468330288856953e-15 3.197442310920447e-15 -1.104312937179175e-13 1.937135024342503e-14 -5.823957703728491e-15
2.500000000000037e+01 -5.219241589398652e-13 -4.954551930918325e-14 -3.752649802133939e-13 1.700151759930250e-13 -5.039055939474951e-13
5.833333333333400e+01 5.335536731664928e-13 4.049965233933655e-13 2.393470173764004e-13 2.799686228772195e-13 1.621017381205631e-13
5.833333333333272e+01 1.513878742231606e-13 -2.484871908114065e-14 -1.406721749684597e-13 -4.802459507342267e-14 -2.804749211593528e-14
1.000000000000028e+02 3.961165418075484e-14 4.003360788872919e-14 2.820130208549523e-14 -1.307970726102617e-14 -1.475080267113652e-15
3.333333333333416e+01 9.563577978048964e-13 6.625840406258884e-13 -2.786785111989573e-14 5.342456668532518e-13 -1.481794344943408e-13
1.000000000000014e+02 4.993342982495196e-14 4.501146406865273e-14 7.594305497812565e-14 9.469623797503648e-15 9.032976620588862e-15
9.999999999999966e+01 -6.023149544787657e-15 -9.810728259785081e-15 -1.751325507267000e-13 5.759253565529998e-15 -5.388551737952715e-15
3.333333333333344e+01 5.266343911831642e-13 9.888575270035579e-14 -2.696585431627243e-13 2.218463595373522e-13 -1.346754331133875e-13
6.000000000000070e+01 2.192273311801040e-13 3.531048307721113e-13 4.436615458721780e-13 8.834294768721459e-14 2.581904032683203e-13
1.000000000000011e+02 3.168726753992953e-13 2.667648494775276e-13 -7.401115386653582e-14 -5.883944448201574e-15 -8.368203719361177e-15
2.500000000000182e+01 1.099287597341998e-12 6.864844536718828e-13 1.572772935735436e-13 4.584254780416434e-14 3.281922277819908e-13
5.833333333333324e+01 -2.493546496488477e-13 -1.861405630494774e-13 -1.650293575513026e-13 8.896549861980058e-13 1.224313951936998e-13
5.833333333333400e+01 5.335536731664928e-13 4.049965233933655e-13 2.393470173764004e-13 2.799686228772195e-13 1.621017381205631e-13
1.000000000000064e+02 5.072706746745663e-13 4.301611516388225e-13 1.399651829170218e-13 1.122708723738621e-14 -3.279796480309684e-15
3.333333333333405e+01 1.382106097063810e-12 4.851128623366305e-13 -1.306394048086286e-13 -2.353944198424827e-13 5.604021890293196e-14
1.000000000000012e+02 1.529561788829965e-13 1.330796124229209e-13 4.552112575692591e-14 -5.846857819943446e-15 -3.834129207068764e-15
1.000000000000008e+02 1.775616748004222e-13 1.465294299369734e-13 -7.116832333800176e-14 -4.120478256305581e-15 2.944042408619066e-15
3.333333333333402e+01 8.649337234881979e-14 1.128555011268126e-13 3.458384379180663e-13 2.597384827270785e-13 1.432111119196124e-13
5.999999999999920e+01 -4.784869566408093e-13 -1.653950134229696e-13 -5.272022267106147e-13 5.690292288260046e-13 1.077320357653127e-13
1.000000000000025e+02 1.796888422873250e-13 1.418322067647170e-13 -1.128451043617555e-13 6.399162439425585e-15 -6.196296874701022e-14
2.500000000000204e+01 1.471130628555012e-13 6.945509551899883e-13 -3.251334389595552e-13 1.286847070139651e-12 1.678442376791421e-13
5.833333333333385e+01 1.014084097966172e-12 1.917328461645107e-14 2.257754390418821e-14 -4.308230269593620e-13 -2.441551047790183e-13
5.833333333333324e+01 -2.493546496488477e-13 -1.861405630494774e-13 -1.650293575513026e-13 8.896549861980058e-13 1.224313951936998e-13
1.000000000000065e+02 3.131281465547973e-13 2.554640591177857e-13 1.433894947342481e-13 -2.310612880779078e-14 1.799335592520109e-14
3.333333333333479e+01 2.121809192991101e-12 6.834719387246131e-13 -1.318735952429124e-13 6.069560414770913e-13 -8.512075890310487e-14
1.000000000000008e+02 -7.744289449250580e-14 -7.367016472358220e-14 -5.399453789185009e-14 -1.057911950748001e-16 -1.267905941007650e-15
1.000000000000020e+02 1.899124749580208e-13 1.596223613200464e-13 1.344702458559036e-14 1.080800138983995e-14 -2.479427103299692e-14
3.333333333333410e+01 -1.651026852295823e-13 1.256901115816588e-13 -3.472195259647808e-14 8.181655691419868e-13 3.722832153194017e-15
5.999999999999987e+01 6.750512314682801e-13 1.292898577756377e-13 1.372466172581692e-13 1.138682583034547e-13 3.105080349946434e-14
2.500000000000110e+01 -9.304392299005330e-13 -3.791720325374486e-13 4.105700589997529e-13 -4.413136190959834e-14 5.222925414176223e-14
2.500000000000037e+01 -5.219241589398652e-13 -4.954551930918325e-14 -3.752649802133939e-13 1.700151759930250e-13 -5.039055939474951e-13
5.833333333333272e+01 1.513878742231606e-13 -2.484871908114065e-14 -1.406721749684597e-13 -4.802459507342267e-14 -2.804749211593528e-14
-2.084689295056265e-13 -3.045324132599359e-13 1.412542858384848e-13 -2.574023657848420e-14 -7.676278930056461e-13 -7.030803919732356e-14
2.382298024272763e-13 -2.217641145847232e-12 -2.676304082171652e-13 8.451808619288448e-13 -4.281554932608001e-13 2.329105104753361e-13
3.333333333333344e+01 5.266343911831642e-13 9.888575270035579e-14 -2.696585431627243e-13 2.218463595373522e-13 -1.346754331133875e-13
3.333333333333438e+01 6.760018616272315e-13 3.202848339322556e-13 -1.174540929663583e-13 -1.460759786477753e-13 1.147899755108425e-13
7.852010071591786e-13 -1.653276600066244e-13 2.893426621852462e-13 1.788036193296241e-13 -2.581089352827302e-13 2.161009718854270e-14
-7.138827523196503e-13 -1.277238979397886e-12 -7.576335590423103e-13 -3.939021471614837e-13 -4.141015594246856e-13 -6.419081638927165e-13
-7.686356112798669e-13 -6.453597566390970e-13 -2.637257331840975e-13 -2.815601060634815e-13 -1.989874961118273e-13 -1.553192984650452e-13
2.500000000000037e+01 -5.219241589398652e-13 -4.954551930918325e-14 -3.752649802133939e-13 1.700151759930250e-13 -5.039055939474951e-13
2.500000000000182e+01 1.099287597341998e-12 6.864844536718828e-13 1.572772935735436e-13 4.584254780416434e-14 3.281922277819908e-13
5.833333333333400e+01 5.335536731664928e-13 4.049965233933655e-13 2.393470173764004e-13 2.799686228772195e-13 1.621017381205631e-13
-2.084689295056265e-13 -3.045324132599359e-13 1.412542858384848e-13 -2.574023657848420e-14 -7.676278930056461e-13 -7.030803919732356e-14
4.237628575154594e-13 2.905526446285052e-13 2.749448549011146e-13 2.120337301570603e-14 7.609581816058954e-13 -4.049483907928529e-15
3.333333333333402e+01 8.649337234881979e-14 1.128555011268126e-13 3.458384379180663e-13 2.597384827270785e-13 1.432111119196124e-13
3.333333333333416e+01 9.563577978048964e-13 6.625840406258884e-13 -2.786785111989573e-14 5.342456668532518e-13 -1.481794344943408e-13
-7.138827523196503e-13 -1.277238979397886e-12 -7.576335590423103e-13 -3.939021471614837e-13 -4.141015594246856e-13 -6.419081638927165e-13
6.892814156244680e-13 1.652125462309481e-12 6.858643703703299e-13 2.538729097373413e-13 -1.553721422735346e-13 1.374176544996738e-13
-8.171109060696654e-13 -4.644859298607557e-13 -4.324763229135101e-13 1.139664837189240e-13 -4.827246381892492e-13 1.749975632458201e-14
2.500000000000182e+01 1.099287597341998e-12 6.864844536718828e-13 1.572772935735436e-13 4.584254780416434e-14 3.281922277819908e-13
2.500000000000204e+01 1.471130628555012e-13 6.945509551899883e-13 -3.251334389595552e-13 1.286847070139651e-12 1.678442376791421e-13
5.833333333333324e+01 -2.493546496488477e-13 -1.861405630494774e-13 -1.650293575513026e-13 8.896549861980058e-13 1.224313951936998e-13
-2.084689295056265e-13 -3.045324132599359e-13 1.412542858384848e-13 -2.574023657848420e-14 -7.676278930056461e-13 -7.030803919732356e-14
-7.575089239963532e-13 -1.141388953875731e-12 4.598729187676723e-13 -1.533474003195706e-12 7.270779187815034e-13 1.961000135677858e-13
3.333333333333410e+01 -1.651026852295823e-13 1.256901115816588e-13 -3.472195259647808e-14 8.181655691419868e-13 3.722832153194017e-15
3.333333333333405e+01 1.382106097063810e-12 4.851128623366305e-13 -1.306394048086286e-13 -2.353944198424827e-13 5.604021890293196e-14
6.892814156244680e-13 1.652125462309481e-12 6.858643703703299e-13 2.538729097373413e-13 -1.553721422735346e-13 1.374176544996738e-13
1.263167470900251e-12 1.164560460378987e-12 1.172248812200792e-12 3.398912705686462e-14 2.703118191227524e-13 1.788916923437728e-13
-3.275491678066980e-13 -6.021595917856421e-13 -1.694127085726770e-13 -7.091313725463936e-14 6.239951426900149e-13 1.757002999681701e-13
2.500000000000204e+01 1.471130628555012e-13 6.945509551899883e-13 -3.251334389595552e-13 1.286847070139651e-12 1.678442376791421e-13
2.500000000000110e+01 -9.304392299005330e-13 -3.791720325374486e-13 4.105700589997529e-13 -4.413136190959834e-14 5.222925414176223e-14
5.833333333333385e+01 1.014084097966172e-12 1.917328461645107e-14 2.257754390418821e-14 -4.308230269593620e-13 -2.441551047790183e-13
-2.084689295056265e-13 -3.045324132599359e-13 1.412542858384848e-13 -2.574023657848420e-14 -7.676278930056461e-13 -7.030803919732356e-14
-2.083825941738651e-12 -2.664469058828118e-12 -1.434878287582706e-12 1.215058266223941e-12 1.463311681548665e-12 5.146166732332750e-14
3.333333333333342e+01 1.150909563493951e-13 -5.759629698036537e-13 7.327895623956045e-15 1.219008299880389e-13 -4.077488163580687e-13
3.333333333333479e+01 2.121809192991101e-12 6.834719387246131e-13 -1.318735952429124e-13 6.069560414770913e-13 -8.512075890310487e-14
1.263167470900251e-12 1.164560460378987e-12 1.172248812200792e-12 3.398912705686462e-14 2.703118191227524e-13 1.788916923437728e-13
7.852010071591786e-13 -1.653276600066244e-13 2.893426621852462e-13 1.788036193296241e-13 -2.581089352827302e-13 2.161009718854270e-14
5.731681979454921e-13 1.727313943902617e-12 1.076223628160676e-12 -4.429075863703177e-14 -5.862075977482900e-13 -1.077827153361719e-13
1.000000000000005e+02 -8.356256218676842e-14 -6.583868628075877e-14 -7.586571491404923e-14 -1.444395863472131e-15 -1.999524541218364e-15
5.833333333333272e+01 1.513878742231606e-13 -2.484871908114065e-14 -1.406721749684597e-13 -4.802459507342267e-14 -2.804749211593528e-14
5.833333333333385e+01 1.014084097966172e-12 1.917328461645107e-14 2.257754390418821e-14 -4.308230269593620e-13 -2.441551047790183e-13
1.000000000000010e+02 -6.643909017941190e-15 2.007999098471834e-14 -1.107423072188856e-14 9.095570013725883e-16 -5.489269212013718e-14
1.000000000000000e+02 -1.511932918173298e-13 -1.264301292858051e-13 -5.789483595214890e-14 3.674475319464678e-15 9.520754189262694e-15
6.000000000000050e+01 4.194429999335627e-13 -8.222351598942175e-14 6.231901090249797e-14 -1.685571353822319e-13 -3.113790133456192e-13
1.000000000000010e+02 -6.958452102103287e-14 -4.954074072271652e-14 1.713876935769913e-14 -1.029333299764398e-14 -2.407501389245446e-14
1.000000000000008e+02 5.331236950235975e-15 1.310076960781073e-14 -1.080176613270228e-14 -6.041090099827049e-16 -2.471723041085779e-14
1.000000000000001e+02 7.969630820380866e-14 8.189083755604825e-14 1.804087796245783e-14 -3.274379989939441e-15 -5.412466067311722e-14
1.000000000000015e+02 2.898837140397295e-14 3.177303716028906e-14 9.283648635456125e-14 8.662447632120006e-16 2.064869193537431e-14
1.000000000000005e+02 -8.356256218676842e-14 -6.583868628075877e-14 -7.586571491404923e-14 -1.444395863472131e-15 -1.999524541218364e-15
5.833333333333400e+01 5.335536731664928e-13 4.049965233933655e-13 2.393470173764004e-13 2.799686228772195e-13 1.621017381205631e-13
5.833333333333272e+01 1.513878742231606e-13 -2.484871908114065e-14 -1.406721749684597e-13 -4.802459507342267e-14 -2.804749211593528e-14
9.999999999999989e+01 1.468330288856953e-15 3.197442310920447e-15 -1.104312937179175e-13 1.937135024342503e-14 -5.823957703728491e-15
1.000000000000012e+02 -3.318670274528819e-16 2.113668117535907e-15 3.398370548038575e-14 1.373823414529566e-15 -6.171750215936225e-15
6.000000000000070e+01 2.192273311801040e-13 3.531048307721113e-13 4.436615458721780e-13 8.834294768721459e-14 2.581904032683203e-13
1.000000000000000e+02 -1.511932918173298e-13 -1.264301292858051e-13 -5.789483595214890e-14 3.674475319464678e-15 9.520754189262694e-15
9.999999999999983e+01 -4.341975363452721e-14 -3.827588119053709e-14 -3.185344221582604e-14 8.306944603040323e-15 2.923829396779080e-14
1.000000000000014e+02 4.993342982495196e-14 4.501146406865273e-14 7.594305497812565e-14 9.469623797503648e-15 9.032976620588862e-15
9.999999999999966e+01 -6.023149544787657e-15 -9.810728259785081e-15 -1.751325507267000e-13 5.759253565529998e-15 -5.388551737952715e-15
1.000000000000005e+02 -8.356256218676842e-14 -6.583868628075877e-14 -7.586571491404923e-14 -1.444395863472131e-15 -1.999524541218364e-15
5.833333333333324e+01 -2.493546496488477e-13 -1.861405630494774e-13 -1.650293575513026e-13 8.896549861980058e-13 1.224313951936998e-13
5.833333333333400e+01 5.335536731664928e-13 4.049965233933655e-13 2.393470173764004e-13 2.799686228772195e-13 1.621017381205631e-13
1.000000000000011e+02 3.168726753992953e-13 2.667648494775276e-13 -7.401115386653582e-14 -5.883944448201574e-15 -8.368203719361177e-15
1.000000000000007e+02 6.369227091800358e-14 5.560326181506188e-14 -4.491157326179812e-14 -1.304450702783523e-14 1.334489612489620e-14
5.999999999999920e+01 -4.784869566408093e-13 -1.653950134229696e-13 -5.272022267106147e-13 5.690292288260046e-13 1.077320357653127e-13
1.000000000000012e+02 -3.318670274528819e-16 2.113668117535907e-15 3.398370548038575e-14 1.373823414529566e-15 -6.171750215936225e-15
1.000000000000001e+02 2.997860184861642e-14 2.104498425759332e-14 -1.098418992416156e-13 -6.001919831924462e-15 6.640431254737277e-15
1.000000000000012e+02 1.529561788829965e-13 1.330796124229209e-13 4.552112575692591e-14 -5.846857819943446e-15 -3.834129207068764e-15
1.000000000000008e+02 1.775616748004222e-13 1.465294299369734e-13 -7.116832333800176e-14 -4.120478256305581e-15 2.944042408619066e-15
1.000000000000005e+02 -8.356256218676842e-14 -6.583868628075877e-14 -7.586571491404923e-14 -1.444395863472131e-15 -1.999524541218364e-15
5.833333333333385e+01 1.014084097966172e-12 1.917328461645107e-14 2.257754390418821e-14 -4.308230269593620e-13 -2.441551047790183e-13
5.833333333333324e+01 -2.493546496488477e-13 -1.861405630494774e-13 -1.650293575513026e-13 8.896549861980058e-13 1.224313951936998e-13
1.000000000000025e+02 1.796888422873250e-13 1.418322067647170e-13 -1.128451043617555e-13 6.399162439425585e-15 -6.196296874701022e-14
1.000000000000010e+02 -6.958452102103287e-14 -4.954074072271652e-14 1.713876935769913e-14 -1.029333299764398e-14 -2.407501389245446e-14
5.999999999999987e+01 6.750512314682801e-13 1.292898577756377e-13 1.372466172581692e-13 1.138682583034547e-13 3.105080349946434e-14
1.000000000000007e+02 6.369227091800358e-14 5.560326181506188e-14 -4.491157326179812e-14 -1.304450702783523e-14 1.334489612489620e-14
1.000000000000007e+02 1.167390200980073e-13 1.027633062534688e-13 -1.607965976363283e-13 7.433620526844216e-16 -6.511972441824827e-14
1.000000000000008e+02 -7.744289449250580e-14 -7.367016472358220e-14 -5.399453789185009e-14 -1.057911950748001e-16 -1.267905941007650e-15
1.000000000000020e+02 1.899124749580208e-13 1.596223613200464e-13 1.344702458559036e-14 1.080800138983995e-14 -2.479427103299692e-14
-2.084689295056265e-13 -3.045324132599359e-13 1.412542858384848e-13 -2.574023657848420e-14 -7.676278930056461e-13 -7.030803919732356e-14
5.833333333333385e+01 1.014084097966172e-12 1.917328461645107e-14 2.257754390418821e-14 -4.308230269593620e-13 -2.441551047790183e-13
5.833333333333272e+01 1.513878742231606e-13 -2.484871908114065e-14 -1.406721749684597e-13 -4.802459507342267e-14 -2.804749211593528e-14
2.500000000000110e+01 -9.304392299005330e-13 -3.791720325374486e-13 4.105700589997529e-13 -4.413136190959834e-14 5.222925414176223e-14
5.731681979454921e-13 1.727313943902617e-12 1.076223628160676e-12 -4.429075863703177e-14 -5.862075977482900e-13 -1.077827153361719e-13
6.000000000000050e+01 4.194429999335627e-13 -8.222351598942175e-14 6.231901090249797e-14 -1.685571353822319e-13 -3.113790133456192e-13
-7.686356112798669e-13 -6.453597566390970e-13 -2.637257331840975e-13 -2.815601060634815e-13 -1.989874961118273e-13 -1.553192984650452e-13
7.852010071591786e-13 -1.653276600066244e-13 2.893426621852462e-13 1.788036193296241e-13 -2.581089352827302e-13 2.161009718854270e-14
3.333333333333342e+01 1.150909563493951e-13 -5.759629698036537e-13 7.327895623956045e-15 1.219008299880389e-13 -4.077488163580687e-13
3.333333333333438e+01 6.760018616272315e-13 3.202848339322556e-13 -1.174540929663583e-13 -1.460759786477753e-13 1.147899755108425e-13
-2.084689295056265e-13 -3.045324132599359e-13 1.412542858384848e-13 -2.574023657848420e-14 -7.676278930056461e-13 -7.030803919732356e-14
5.833333333333272e+01 1.513878742231606e-13 -2.484871908114065e-14 -1.406721749684597e-13 -4.802459507342267e-14 -2.804749211593528e-14
5.833333333333400e+01 5.335536731664928e-13 4.049965233933655e-13 2.393470173764004e-13 2.799686228772195e-13 1.621017381205631e-13
2.500000000000037e+01 -5.219241589398652e-13 -4.954551930918325e-14 -3.752649802133939e-13 1.700151759930250e-13 -5.039055939474951e-13
-7.686356112798669e-13 -6.453597566390970e-13 -2.637257331840975e-13 -2.815601060634815e-13 -1.989874961118273e-13 -1.553192984650452e-13
6.000000000000070e+01 2.192273311801040e-13 3.531048307721113e-13 4.436615458721780e-13 8.834294768721459e-14 2.581904032683203e-13
-8.171109060696654e-13 -4.644859298607557e-13 -4.324763229135101e-13 1.139664837189240e-13 -4.827246381892492e-13 1.749975632458201e-14
-7.138827523196503e-13 -1.277238979397886e-12 -7.576335590423103e-13 -3.939021471614837e-13 -4.141015594246856e-13 -6.419081638927165e-13
3.333333333333344e+01 5.266343911831642e-13 9.888575270035579e-14 -2.696585431627243e-13 2.218463595373522e-13 -1.346754331133875e-13
3.333333333333416e+01 9.563577978048964e-13 6.625840406258884e-13 -2.786785111989573e-14 5.342456668532518e-13 -1.481794344943408e-13
-2.084689295056265e-13 -3.045324132599359e-13 1.412542858384848e-13 -2.574023657848420e-14 -7.676278930056461e-13 -7.030803919732356e-14
5.833333333333400e+01 5.335536731664928e-13 4.049965233933655e-13 2.393470173764004e-13 2.799686228772195e-13 1.621017381205631e-13
5.833333333333324e+01 -2.493546496488477e-13 -1.861405630494774e-13 -1.650293575513026e-13 8.896549861980058e-13 1.224313951936998e-13
2.500000000000182e+01 1.099287597341998e-12 6.864844536718828e-13 1.572772935735436e-13 4.584254780416434e-14 3.281922277819908e-13
-8.171109060696654e-13 -4.644859298607557e-13 -4.324763229135101e-13 1.139664837189240e-13 -4.827246381892492e-13 1.749975632458201e-14
5.999999999999920e+01 -4.784869566408093e-13 -1.653950134229696e-13 -5.272022267106147e-13 5.690292288260046e-13 1.077320357653127e-13
-3.275491678066980e-13 -6.021595917856421e-13 -1.694127085726770e-13 -7.091313725463936e-14 6.239951426900149e-13 1.757002999681701e-13
6.892814156244680e-13 1.652125462309481e-12 6.858643703703299e-13 2.538729097373413e-13 -1.553721422735346e-13 1.374176544996738e-13
3.333333333333402e+01 8.649337234881979e-14 1.128555011268126e-13 3.458384379180663e-13 2.597384827270785e-13 1.432111119196124e-13
3.333333333333405e+01 1.382106097063810e-12 4.851128623366305e-13 -1.306394048086286e-13 -2.353944198424827e-13 5.604021890293196e-14
-2.084689295056265e-13 -3.045324132599359e-13 1.412542858384848e-13 -2.574023657848420e-14 -7.676278930056461e-13 -7.030803919732356e-14
5.833333333333324e+01 -2.493546496488477e-13 -1.861405630494774e-13 -1.650293575513026e-13 8.896549861980058e-13 1.224313951936998e-13
5.833333333333385e+01 1.014084097966172e-12 1.917328461645107e-14 2.257754390418821e-14 -4.308230269593620e-13 -2.441551047790183e-13
2.500000000000204e+01 1.471130628555012e-13 6.945509551899883e-13 -3.251334389595552e-13 1.286847070139651e-12 1.678442376791421e-13
-3.275491678066980e-13 -6.021595917856421e-13 -1.694127085726770e-13 -7.091313725463936e-14 6.239951426900149e-13 1.757002999681701e-13
5.999999999999987e+01 6.750512314682801e-13 1.292898577756377e-13 1.372466172581692e-13 1.138682583034547e-13 3.105080349946434e-14
5.731681979454921e-13 1.727313943902617e-12 1.076223628160676e-12 -4.429075863703177e-14 -5.862075977482900e-13 -1.077827153361719e-13
1.263167470900251e-12 1.164560460378987e-12 1.172248812200792e-12 3.398912705686462e-14 2.703118191227524e-13 1.788916923437728e-13
3.333333333333410e+01 -1.651026852295823e-13 1.256901115816588e-13 -3.472195259647808e-14 8.181655691419868e-13 3.722832153194017e-15
3.333333333333479e+01 2.121809192991101e-12 6.834719387246131e-13 -1.318735952429124e-13 6.069560414770913e-13 -8.512075890310487e-14
1.000000000000005e+02 -8.356256218676842e-14 -6.583868628075877e-14 -7.586571491404923e-14 -1.444395863472131e-15 -1.999524541218364e-15
5.833333333333385e+01 1.014084097966172e-12 1.917328461645107e-14 2.257754390418821e-14 -4.308230269593620e-13 -2.441551047790183e-13
5.833333333333272e+01 1.513878742231606e-13 -2.484871908114065e-14 -1.406721749684597e-13 -4.802459507342267e-14 -2.804749211593528e-14
5.000000000000204e+01 1.102454575249775e-12 2.926978276328949e-13 8.768909902709561e-14 -6.782367320711351e-14 -1.955280884392826e-13
1.000000000000010e+02 -6.958452102103287e-14 -4.954074072271652e-14 1.713876935769913e-14 -1.029333299764398e-14 -2.407501389245446e-14
6.000000000000050e+01 4.194429999335627e-13 -8.222351598942175e-14 6.231901090249797e-14 -1.685571353822319e-13 -3.113790133456192e-13
1.000000000000000e+02 -1.511932918173298e-13 -1.264301292858051e-13 -5.789483595214890e-14 3.674475319464678e-15 9.520754189262694e-15
1.000000000000010e+02 8.497149669133104e-15 1.081889925946710e-14 -2.882672904147627e-14 8.342421223436311e-15 -2.933578719405763e-15
5.000000000000094e+01 2.923955160545033e-13 -1.348124926434556e-13 1.121281584138737e-13 -7.736394938127181e-13 2.078292793418858e-14
4.999999999999977e+01 -6.057861183498087e-13 -4.510763704074915e-13 -3.797037861137031e-13 1.696141126786688e-14 -5.962294988233305e-14
1.000000000000005e+02 -8.356256218676842e-14 -6.583868628075877e-14 -7.586571491404923e-14 -1.444395863472131e-15 -1.999524541218364e-15
5.833333333333272e+01 1.513878742231606e-13 -2.484871908114065e-14 -1.406721749684597e-13 -4.802459507342267e-14 -2.804749211593528e-14
5.833333333333400e+01 5.335536731664928e-13 4.049965233933655e-13 2.393470173764004e-13 2.799686228772195e-13 1.621017381205631e-13
5.000000000000204e+01 1.102454575249775e-12 2.926978276328949e-13 8.768909902709561e-14 -6.782367320711351e-14 -1.955280884392826e-13
1.000000000000000e+02 -1.511932918173298e-13 -1.264301292858051e-13 -5.789483595214890e-14 3.674475319464678e-15 9.520754189262694e-15
6.000000000000070e+01 2.192273311801040e-13 3.531048307721113e-13 4.436615458721780e-13 8.834294768721459e-14 2.581904032683203e-13
1.000000000000012e+02 -3.318670274528819e-16 2.113668117535907e-15 3.398370548038575e-14 1.373823414529566e-15 -6.171750215936225e-15
1.000000000000010e+02 8.497149669133104e-15 1.081889925946710e-14 -2.882672904147627e-14 8.342421223436311e-15 -2.933578719405763e-15
4.999999999999977e+01 -6.057861183498087e-13 -4.510763704074915e-13 -3.797037861137031e-13 1.696141126786688e-14 -5.962294988233305e-14
5.000000000000197e+01 2.122387071760579e-12 8.452285678667777e-13 1.162521438121475e-13 1.498173220008751e-13 -1.529573401444384e-13
1.000000000000005e+02 -8.356256218676842e-14 -6.583868628075877e-14 -7.586571491404923e-14 -1.444395863472131e-15 -1.999524541218364e-15
5.833333333333400e+01 5.335536731664928e-13 4.049965233933655e-13 2.393470173764004e-13 2.799686228772195e-13 1.621017381205631e-13
5.833333333333324e+01 -2.493546496488477e-13 -1.861405630494774e-13 -1.650293575513026e-13 8.896549861980058e-13 1.224313951936998e-13
5.000000000000204e+01 1.102454575249775e-12 2.926978276328949e-13 8.768909902709561e-14 -6.782367320711351e-14 -1.955280884392826e-13
1.000000000000012e+02 -3.318670274528819e-16 2.113668117535907e-15 3.398370548038575e-14 1.373823414529566e-15 -6.171750215936225e-15
5.999999999999920e+01 -4.784869566408093e-13 -1.653950134229696e-13 -5.272022267106147e-13 5.690292288260046e-13 1.077320357653127e-13
1.000000000000007e+02 6.369227091800358e-14 5.560326181506188e-14 -4.491157326179812e-14 -1.304450702783523e-14 1.334489612489620e-14
1.000000000000010e+02 8.497149669133104e-15 1.081889925946710e-14 -2.882672904147627e-14 8.342421223436311e-15 -2.933578719405763e-15
5.000000000000197e+01 2.122387071760579e-12 8.452285678667777e-13 1.162521438121475e-13 1.498173220008751e-13 -1.529573401444384e-13
5.000000000000170e+01 5.472695799677132e-13 3.428519832559910e-13 -5.627308274616473e-14 9.866416810815426e-13 -3.396357208337843e-14
1.000000000000005e+02 -8.356256218676842e-14 -6.583868628075877e-14 -7.586571491404923e-14 -1.444395863472131e-15 -1.999524541218364e-15
5.833333333333324e+01 -2.493546496488477e-13 -1.861405630494774e-13 -1.650293575513026e-13 8.896549861980058e-13 1.224313951936998e-13
5.833333333333385e+01 1.014084097966172e-12 1.917328461645107e-14 2.257754390418821e-14 -4.308230269593620e-13 -2.441551047790183e-13
5.000000000000204e+01 1.102454575249775e-12 2.926978276328949e-13 8.768909902709561e-14 -6.782367320711351e-14 -1.955280884392826e-13
1.000000000000007e+02 6.369227091800358e-14 5.560326181506188e-14 -4.491157326179812e-14 -1.304450702783523e-14 1.334489612489620e-14
5.999999999999987e+01 6.750512314682801e-13 1.292898577756377e-13 1.372466172581692e-13 1.138682583034547e-13 3.105080349946434e-14
1.000000000000010e+02 -6.958452102103287e-14 -4.954074072271652e-14 1.713876935769913e-14 -1.029333299764398e-14 -2.407501389245446e-14
1.000000000000010e+02 8.497149669133104e-15 1.081889925946710e-14 -2.882672904147627e-14 8.342421223436311e-15 -2.933578719405763e-15
5.000000000000170e+01 5.472695799677132e-13 3.428519832559910e-13 -5.627308274616473e-14 9.866416810815426e-13 -3.396357208337843e-14
5.000000000000094e+01 2.923955160545033e-13 -1.348124926434556e-13 1.121281584138737e-13 -7.736394938127181e-13 2.078292793418858e-14
-2.084689295056265e-13 -3.045324132599359e-13 1.412542858384848e-13 -2.574023657848420e-14 -7.676278930056461e-13 -7.030803919732356e-14
5.833333333333272e+01 1.513878742231606e-13 -2.484871908114065e-14 -1.406721749684597e-13 -4.802459507342267e-14 -2.804749211593528e-14
5.833333333333385e+01 1.014084097966172e-12 1.917328461645107e-14 2.257754390418821e-14 -4.308230269593620e-13 -2.441551047790183e-13
5.000000000000204e+01 1.102454575249775e-12 2.926978276328949e-13 8.768909902709561e-14 -6.782367320711351e-14 -1.955280884392826e-13
-7.686356112798669e-13 -6.453597566390970e-13 -2.637257331840975e-13 -2.815601060634815e-13 -1.989874961118273e-13 -1.553192984650452e-13
6.000000000000050e+01 4.194429999335627e-13 -8.222351598942175e-14 6.231901090249797e-14 -1.685571353822319e-13 -3.113790133456192e-13
5.731681979454921e-13 1.727313943902617e-12 1.076223628160676e-12 -4.429075863703177e-14 -5.862075977482900e-13 -1.077827153361719e-13
2.353645228758567e-13 5.946313144722139e-13 2.834251505134827e-13 -8.013832848189195e-14 -5.171301667091879e-13 -1.819015892166009e-13
4.999999999999977e+01 -6.057861183498087e-13 -4.510763704074915e-13 -3.797037861137031e-13 1.696141126786688e-14 -5.962294988233305e-14
5.000000000000094e+01 2.923955160545033e-13 -1.348124926434556e-13 1.121281584138737e-13 -7.736394938127181e-13 2.078292793418858e-14
-2.084689295056265e-13 -3.045324132599359e-13 1.412542858384848e-13 -2.574023657848420e-14 -7.676278930056461e-13 -7.030803919732356e-14
5.833333333333400e+01 5.335536731664928e-13 4.049965233933655e-13 2.393470173764004e-13 2.799686228772195e-13 1.621017381205631e-13
5.833333333333272e+01 1.513878742231606e-13 -2.484871908114065e-14 -1.406721749684597e-13 -4.802459507342267e-14 -2.804749211593528e-14
5.000000000000204e+01 1.102454575249775e-12 2.926978276328949e-13 8.768909902709561e-14 -6.782367320711351e-14 -1.955280884392826e-13
-8.171109060696654e-13 -4.644859298607557e-13 -4.324763229135101e-13 1.139664837189240e-13 -4.827246381892492e-13 1.749975632458201e-14
6.000000000000070e+01 2.192273311801040e-13 3.531048307721113e-13 4.436615458721780e-13 8.834294768721459e-14 2.581904032683203e-13
-7.686356112798669e-13 -6.453597566390970e-13 -2.637257331840975e-13 -2.815601060634815e-13 -1.989874961118273e-13 -1.553192984650452e-13
2.353645228758567e-13 5.946313144722139e-13 2.834251505134827e-13 -8.013832848189195e-14 -5.171301667091879e-13 -1.819015892166009e-13
5.000000000000197e+01 2.122387071760579e-12 8.452285678667777e-13 1.162521438121475e-13 1.498173220008751e-13 -1.529573401444384e-13
4.999999999999977e+01 -6.057861183498087e-13 -4.510763704074915e-13 -3.797037861137031e-13 1.696141126786688e-14 -5.962294988233305e-14
-2.084689295056265e-13 -3.045324132599359e-13 1.412542858384848e-13 -2.574023657848420e-14 -7.676278930056461e-13 -7.030803919732356e-14
5.833333333333324e+01 -2.493546496488477e-13 -1.861405630494774e-13 -1.650293575513026e-13 8.896549861980058e-13 1.224313951936998e-13
5.833333333333400e+01 5.335536731664928e-13 4.049965233933655e-13 2.393470173764004e-13 2.799686228772195e-13 1.621017381205631e-13
5.000000000000204e+01 1.102454575249775e-12 2.926978276328949e-13 8.768909902709561e-14 -6.782367320711351e-14 -1.955280884392826e-13
-3.275491678066980e-13 -6.021595917856421e-13 -1.694127085726770e-13 -7.091313725463936e-14 6.239951426900149e-13 1.757002999681701e-13
5.999999999999920e+01 -4.784869566408093e-13 -1.653950134229696e-13 -5.272022267106147e-13 5.690292288260046e-13 1.077320357653127e-13
-8.171109060696654e-13 -4.644859298607557e-13 -4.324763229135101e-13 1.139664837189240e-13 -4.827246381892492e-13 1.749975632458201e-14
2.353645228758567e-13 5.946313144722139e-13 2.834251505134827e-13 -8.013832848189195e-14 -5.171301667091879e-13 -1.819015892166009e-13
5.000000000000170e+01 5.472695799677132e-13 3.428519832559910e-13 -5.627308274616473e-14 9.866416810815426e-13 -3.396357208337843e-14
5.000000000000197e+01 2.122387071760579e-12 8.452285678667777e-13 1.162521438121475e-13 1.498173220008751e-13 -1.529573401444384e-13
-2.084689295056265e-13 -3.045324132599359e-13 1.412542858384848e-13 -2.574023657848420e-14 -7.676278930056461e-13 -7.030803919732356e-14
5.833333333333385e+01 1.014084097966172e-12 1.917328461645107e-14 2.257754390418821e-14 -4.308230269593620e-13 -2.441551047790183e-13
5.833333333333324e+01 -2.493546496488477e-13 -1.861405630494774e-13 -1.650293575513026e-13 8.896549861980058e-13 1.224313951936998e-13
5.000000000000204e+01 1.102454575249775e-12 2.926978276328949e-13 8.768909902709561e-14 -6.782367320711351e-14 -1.955280884392826e-13
5.731681979454921e-13 1.727313943902617e-12 1.076223628160676e-12 -4.429075863703177e-14 -5.862075977482900e-13 -1.077827153361719e-13
5.999999999999987e+01 6.750512314682801e-13 1.292898577756377e-13 1.372466172581692e-13 1.138682583034547e-13 3.105080349946434e-14
-3.275491678066980e-13 -6.021595917856421e-13 -1.694127085726770e-13 -7.091313725463936e-14 6.239951426900149e-13 1.757002999681701e-13
2.353645228758567e-13 5.946313144722139e-13 2.834251505134827e-13 -8.013832848189195e-14 -5.171301667091879e-13 -1.819015892166009e-13
5.000000000000094e+01 2.923955160545033e-13 -1.348124926434556e-13 1.121281584138737e-13 -7.736394938127181e-13 2.078292793418858e-14
5.000000000000170e+01 5.472695799677132e-13 3.428519832559910e-13 -5.627308274616473e-14 9.866416810815426e-13 -3.396357208337843e-14
        </DataArray>
  </PointData>
  <CellData>
        <DataArray type="Float64" Name="current_reference_density" format="ascii">
1.000000000000000e+00
1.000000000000000e+00
0.000000000000000e+00
1.000000000000000e+00
1.000000000000000e+00
1.000000000000000e+00
1.000000000000000e+00
1.000000000000000e+00
1.000000000000000e+00
1.000000000000000e+00
1.000000000000000e+00
0.000000000000000e+00
0.000000000000000e+00
0.000000000000000e+00
0.000000000000000e+00
1.000000000000000e+00
1.000000000000000e+00
1.000000000000000e+00
1.000000000000000e+00
0.000000000000000e+00
0.000000000000000e+00
0.000000000000000e+00
0.000000000000000e+00
1.000000000000000e+00
1.000000000000000e+00
1.000000000000000e+00
1.000000000000000e+00
0.000000000000000e+00
0.000000000000000e+00
0.000000000000000e+00
0.000000000000000e+00
        </DataArray>
        <DataArray type="Float64" Name="element_GL_strains_xyz" NumberOfComponents="6" format="ascii">
0.000000000000000e+00 0.000000000000000e+00 0.000000000000000e+00 0.000000000000000e+00 1.734723475976807e-18 2.168404344971009e-18
4.163336342344337e-17 1.387778780781446e-17 -2.775557561562891e-17 3.989863994746656e-17 -4.336808689942018e-18 -1.127570259384925e-17
5.551115123125783e-17 -5.551115123125783e-17 -2.775557561562891e-17 -1.344410693882025e-16 -6.938893903907203e-18 4.770489558936218e-17
-8.326672684688674e-17 -2.220446049250313e-16 8.326672684688674e-17 -5.828670879282071e-16 -2.051163858209322e-17 1.094755372465839e-17
-8.326672684688674e-17 7.771561172376096e-16 -5.551115123125783e-17 -2.775557561562892e-16 -3.330669073875473e-16 3.697785493223493e-31
-5.551115123125783e-17 9.992007221626409e-16 1.942890293094024e-16 -2.775557561562889e-16 2.511836494078835e-16 -1.937498164406050e-16
-2.775557561562891e-17 6.661338147750939e-16 -5.551115123125783e-17 -3.885780586188044e-16 1.110223024625154e-16 -6.938893903907267e-17
8.326672684688674e-17 4.440892098500626e-16 2.220446049250313e-16 -9.051066388042239e-17 6.938893903907177e-17 7.817964128854083e-17
8.326672684688674e-17 -2.220446049250313e-16 -2.775557561562891e-17 -9.051066388042244e-17 -4.163336342344335e-16 -3.870312934028731e-17
1.942890293094024e-16 1.332267629550188e-15 -2.775557561562891e-17 2.095502859844400e-16 4.996003610813214e-16 1.441700067661191e-17
1.942890293094024e-16 5.551115123125783e-16 -5.551115123125783e-17 3.066948006391412e-16 -1.665334536937736e-16 2.132539026755625e-16
1.942890293094024e-16 -1.387778780781446e-16 2.775557561562891e-17 6.938893903907182e-17 2.112172484135020e-17 -1.198130047119842e-16
5.551115123125783e-17 7.771561172376096e-16 -2.775557561562891e-17 8.326672684688684e-17 3.885780586188051e-16 -9.714451465470078e-17
-2.498001805406602e-16 -1.110223024625157e-16 1.942890293094024e-16 -4.163336342344337e-16 3.205725884469552e-16 6.059823678960355e-17
-2.220446049250313e-16 6.661338147750939e-16 -3.330669073875470e-16 2.220446049250311e-16 2.220446049250309e-16 -4.163336342344293e-17
1.665334536937735e-16 0.000000000000000e+00 1.665334536937735e-16 1.734723475976809e-16 3.053113317719178e-16 -1.006139616066551e-16
5.551115123125783e-17 -5.551115123125783e-17 -8.326672684688674e-17 -6.938893903907219e-17 3.261280134836397e-16 6.245004513516509e-17
5.551115123125783e-17 1.665334536937735e-16 8.326672684688674e-17 2.949029909160574e-16 -2.636779683484751e-16 5.551115123125743e-17
2.775557561562891e-17 0.000000000000000e+00 4.440892098500626e-16 -2.844946500601962e-16 2.706168622523820e-16 -3.816391647148965e-17
2.775557561562891e-17 -3.330669073875470e-16 1.110223024625157e-16 2.775557561562879e-17 -5.551115123125810e-17 -2.081668171172167e-16
-1.665334536937735e-16 -3.885780586188048e-16 -2.775557561562891e-17 -7.395570986446986e-32 -6.938893903907177e-17 -4.857225732735060e-17
-2.220446049250313e-16 6.661338147750939e-16 2.775557561562891e-17 -6.938893903907179e-18 -2.567390744445676e-16 -2.081668171172176e-17
1.942890293094024e-16 9.992007221626409e-16 2.775557561562891e-16 5.134781488891352e-16 5.134781488891355e-16 -8.326672684688635e-17
0.000000000000000e+00 -1.942890293094024e-15 2.220446049250313e-16 -4.302114220422468e-16 -2.636779683484745e-16 -3.053113317719180e-16
-8.326672684688674e-17 7.771561172376096e-16 -1.942890293094024e-16 1.526556658859591e-16 6.938893903907413e-18 -2.927413515468598e-31
1.110223024625157e-16 1.554312234475219e-15 0.000000000000000e+00 2.775557561562885e-16 -4.718447854656927e-16 1.387778780781423e-17
-2.775557561562891e-17 -6.661338147750939e-16 1.665334536937735e-16 3.885780586188043e-16 -8.465450562766810e-16 1.249000902703282e-16
-1.387778780781446e-16 5.551115123125783e-16 -5.551115123125783e-17 -3.747002708109907e-16 -2.775557561562896e-17 -1.249000902703304e-16
2.775557561562891e-17 0.000000000000000e+00 -1.110223024625157e-16 1.110223024625156e-16 -1.179611963664227e-16 5.669937756276022e-31
-3.053113317719180e-16 -3.330669073875470e-16 -8.326672684688674e-17 -8.743006318923098e-16 3.261280134836376e-16 -1.804112415015905e-16
1.942890293094024e-16 7.216449660063518e-16 2.775557561562891e-16 4.163336342344394e-17 -1.387778780781442e-16 2.914335439641045e-16
        </DataArray>
        <DataArray type="Float64" Name="element_cauchy_stresses_xyz" NumberOfComponents="6" format="ascii">
1.000000000000006e+02 5.995204332975840e-16 5.995204332975832e-16 -4.333342374871281e-34 3.122502256758252e-17 3.903127820947814e-17
1.000000000000008e+02 3.397282455352979e-15 2.797762022055393e-15 7.181755190543981e-16 -7.806255641895627e-17 -2.029626466892861e-16
4.263256414560645e-14 -7.105427357601009e-14 -4.263256414560611e-14 -1.344410693882024e-13 -6.938893903907222e-15 4.770489558936241e-14
1.000000000000001e+02 -2.238209617644285e-14 -1.678657213233234e-14 -1.270650251683488e-13 -3.692094944776564e-16 2.972613528606809e-15
1.000000000000001e+02 6.594724766273455e-14 5.115907697472716e-14 -6.050715484207068e-14 -5.995204332975837e-15 7.882303861827073e-46
1.000000000000003e+02 1.083133582824308e-13 9.392486788328804e-14 -6.050715484207154e-14 4.521305689341880e-15 -4.234530255781129e-14
1.000000000000004e+02 5.875300246316382e-14 4.556355293061635e-14 -8.471001677890021e-14 1.998401444325308e-15 -1.512678871051785e-14
1.000000000000010e+02 6.914468997365485e-14 6.514788708500417e-14 8.024250889696995e-15 1.249000902703312e-15 3.898164315245277e-16
1.000000000000011e+02 -1.758593271006242e-14 -1.358912982141193e-14 8.024250889697013e-15 -7.494005416219810e-15 -1.106095114939230e-16
1.000000000000022e+02 1.506794689021268e-13 1.262989712813573e-13 4.290640478304648e-14 8.992806499463736e-15 3.673485859384997e-16
1.000000000000022e+02 6.914468997365495e-14 5.795364188543298e-14 4.465500604683102e-14 -2.997602166487905e-15 7.631544921392291e-15
2.700062395888391e-13 -5.684341886080632e-14 1.136868377216164e-13 6.938893903907138e-14 2.112172484135071e-14 -1.198130047119840e-13
5.826450433232826e-13 1.307398633798589e-12 4.973799150320696e-13 8.326672684688683e-14 3.885780586188042e-13 -9.714451465470097e-14
-3.126388037344433e-13 -1.563194018672192e-13 1.421085471520204e-13 -4.163336342344335e-13 3.205725884469555e-13 6.059823678960355e-14
-1.136868377216163e-13 7.673861546209132e-13 -2.273736754432324e-13 2.220446049250318e-13 2.220446049250311e-13 -4.163336342344382e-14
1.000000000000018e+02 2.877698079828417e-14 3.197442310920452e-14 3.504141421473216e-14 5.495603971894537e-15 -1.915828606868771e-14
1.000000000000012e+02 -7.593925488435901e-15 -7.993605777301167e-15 -1.790234627207954e-14 5.870304242705522e-15 8.062994716340419e-15
1.000000000000009e+02 2.917666108714931e-14 2.797762022055388e-14 5.943162628696613e-14 -4.746203430272536e-15 1.071365218763286e-14
1.000000000000008e+02 3.836930773104561e-14 4.636291350834643e-14 -5.785649737077839e-14 4.871103520542889e-15 -1.317695952351971e-14
-5.684341886080695e-14 -4.121147867408564e-13 2.842170943040426e-14 2.775557561562903e-14 -5.551115123125770e-14 -2.081668171172160e-13
-6.110667527536865e-13 -8.242295734817121e-13 -4.689582056016672e-13 -1.009741958682895e-28 -6.938893903907261e-14 -4.857225732735098e-14
1.136868377216158e-13 1.008970684779345e-12 3.694822225952512e-13 -6.938893903907506e-15 -2.567390744445676e-13 -2.081668171172138e-14
1.165290086646563e-12 1.961097950697882e-12 1.250555214937775e-12 5.134781488891340e-13 5.134781488891337e-13 -8.326672684688613e-14
1.000000000000006e+02 -1.782574088338143e-13 -1.390887405250400e-13 -7.990830219739621e-14 -4.746203430272495e-15 -5.268008251846435e-14
1.000000000000001e+02 5.355715870791779e-14 3.597122599785497e-14 2.495226247845046e-14 1.249000902703185e-16 -5.551115123125794e-15
1.000000000000015e+02 1.682654016121899e-13 1.402877813916340e-13 7.160938508832426e-14 -8.493206138382397e-15 8.576472865229614e-15
1.000000000000005e+02 -5.515587986337713e-14 -4.036770917537085e-14 9.581224702515156e-14 -1.523781101298017e-14 2.445266211736922e-14
8.526512829121209e-14 7.673861546209143e-13 1.705302565824249e-13 -3.747002708109888e-13 -2.775557561563002e-14 -1.249000902703294e-13
2.842170943040466e-14 3.736045247126712e-27 -1.136868377216161e-13 1.110223024625154e-13 -1.179611963664228e-13 -2.524354896707238e-29
-7.673861546209096e-13 -7.958078640512903e-13 -5.400124791776788e-13 -8.743006318923120e-13 3.261280134836452e-13 -1.804112415015874e-13
1.023181539494544e-12 1.548983163957024e-12 1.108446667785755e-12 4.163336342344324e-14 -1.387778780781437e-13 2.914335439641027e-13
        </DataArray>
        <DataArray type="Float64" Name="mixture_constituent_0_growth_scalar" format="ascii">
1.000000000000000e+00
1.000000000000000e+00
0.000000000000000e+00
1.000000000000000e+00
1.000000000000000e+00
1.000000000000000e+00
1.000000000000000e+00
1.000000000000000e+00
1.000000000000000e+00
1.000000000000000e+00
1.000000000000000e+00
0.000000000000000e+00
0.000000000000000e+00
0.000000000000000e+00
0.000000000000000e+00
1.000000000000000e+00
1.000000000000000e+00
1.000000000000000e+00
1.000000000000000e+00
0.000000000000000e+00
0.000000000000000e+00
0.000000000000000e+00
0.000000000000000e+00
1.000000000000000e+00
1.000000000000000e+00
1.000000000000000e+00
1.000000000000000e+00
0.000000000000000e+00
0.000000000000000e+00
0.000000000000000e+00
0.000000000000000e+00
        </DataArray>
        <DataArray type="Float64" Name="mixture_constituent_0_lambda_r" format="ascii">
8.486320981870809e-01
8.486320981870809e-01
0.000000000000000e+00
8.486320981870809e-01
8.486320981870809e-01
8.486320981870809e-01
8.486320981870809e-01
8.486320981870809e-01
8.486320981870809e-01
8.486320981870809e-01
8.486320981870809e-01
0.000000000000000e+00
0.000000000000000e+00
0.000000000000000e+00
0.000000000000000e+00
8.486320981870809e-01
8.486320981870809e-01
8.486320981870809e-01
8.486320981870809e-01
0.000000000000000e+00
0.000000000000000e+00
0.000000000000000e+00
0.000000000000000e+00
8.486320981870809e-01
8.486320981870809e-01
8.486320981870809e-01
8.486320981870809e-01
0.000000000000000e+00
0.000000000000000e+00
0.000000000000000e+00
0.000000000000000e+00
        </DataArray>
        <DataArray type="Float64" Name="mixture_constituent_0_sig" format="ascii">
1.000000000000006e+03
1.000000000000008e+03
0.000000000000000e+00
1.000000000000001e+03
1.000000000000001e+03
1.000000000000003e+03
1.000000000000004e+03
1.000000000000011e+03
1.000000000000011e+03
1.000000000000022e+03
1.000000000000022e+03
0.000000000000000e+00
0.000000000000000e+00
0.000000000000000e+00
0.000000000000000e+00
1.000000000000018e+03
1.000000000000012e+03
1.000000000000009e+03
1.000000000000008e+03
0.000000000000000e+00
0.000000000000000e+00
0.000000000000000e+00
0.000000000000000e+00
1.000000000000006e+03
1.000000000000001e+03
1.000000000000015e+03
1.000000000000004e+03
0.000000000000000e+00
0.000000000000000e+00
0.000000000000000e+00
0.000000000000000e+00
        </DataArray>
        <DataArray type="Float64" Name="mixture_constituent_0_sig_h" format="ascii">
1.000000000000006e+03
1.000000000000006e+03
0.000000000000000e+00
1.000000000000006e+03
1.000000000000006e+03
1.000000000000006e+03
1.000000000000006e+03
1.000000000000006e+03
1.000000000000006e+03
1.000000000000006e+03
1.000000000000006e+03
0.000000000000000e+00
0.000000000000000e+00
0.000000000000000e+00
0.000000000000000e+00
1.000000000000006e+03
1.000000000000006e+03
1.000000000000006e+03
1.000000000000006e+03
0.000000000000000e+00
0.000000000000000e+00
0.000000000000000e+00
0.000000000000000e+00
1.000000000000006e+03
1.000000000000006e+03
1.000000000000006e+03
1.000000000000006e+03
0.000000000000000e+00
0.000000000000000e+00
0.000000000000000e+00
0.000000000000000e+00
        </DataArray>
        <DataArray type="Float64" Name="mixture_constituent_1_elasthyper_prestretch" NumberOfComponents="9" format="ascii">
1.000000000000000e+00 1.000000000000000e+00 1.000000000000000e+00 0.000000000000000e+00 0.000000000000000e+00 0.000000000000000e+00 0.000000000000000e+00 0.000000000000000e+00 0.000000000000000e+00
1.000000000000000e+00 1.000000000000000e+00 1.000000000000000e+00 0.000000000000000e+00 0.000000000000000e+00 0.000000000000000e+00 0.000000000000000e+00 0.000000000000000e+00 0.000000000000000e+00
0.000000000000000e+00 0.000000000000000e+00 0.000000000000000e+00 0.000000000000000e+00 0.000000000000000e+00 0.000000000000000e+00 0.000000000000000e+00 0.000000000000000e+00 0.000000000000000e+00
1.000000000000000e+00 1.000000000000000e+00 1.000000000000000e+00 0.000000000000000e+00 0.000000000000000e+00 0.000000000000000e+00 0.000000000000000e+00 0.000000000000000e+00 0.000000000000000e+00
1.000000000000000e+00 1.000000000000000e+00 1.000000000000000e+00 0.000000000000000e+00 0.000000000000000e+00 0.000000000000000e+00 0.000000000000000e+00 0.000000000000000e+00 0.000000000000000e+00
1.000000000000000e+00 1.000000000000000e+00 1.000000000000000e+00 0.000000000000000e+00 0.000000000000000e+00 0.000000000000000e+00 0.000000000000000e+00 0.000000000000000e+00 0.000000000000000e+00
1.000000000000000e+00 1.000000000000000e+00 1.000000000000000e+00 0.000000000000000e+00 0.000000000000000e+00 0.000000000000000e+00 0.000000000000000e+00 0.000000000000000e+00 0.000000000000000e+00
1.000000000000000e+00 1.000000000000000e+00 1.000000000000000e+00 0.000000000000000e+00 0.000000000000000e+00 0.000000000000000e+00 0.000000000000000e+00 0.000000000000000e+00 0.000000000000000e+00
1.000000000000000e+00 1.000000000000000e+00 1.000000000000000e+00 0.000000000000000e+00 0.000000000000000e+00 0.000000000000000e+00 0.000000000000000e+00 0.000000000000000e+00 0.000000000000000e+00
1.000000000000000e+00 1.000000000000000e+00 1.000000000000000e+00 0.000000000000000e+00 0.000000000000000e+00 0.000000000000000e+00 0.000000000000000e+00 0.000000000000000e+00 0.000000000000000e+00
1.000000000000000e+00 1.000000000000000e+00 1.000000000000000e+00 0.000000000000000e+00 0.000000000000000e+00 0.000000000000000e+00 0.000000000000000e+00 0.000000000000000e+00 0.000000000000000e+00
0.000000000000000e+00 0.000000000000000e+00 0.000000000000000e+00 0.000000000000000e+00 0.000000000000000e+00 0.000000000000000e+00 0.000000000000000e+00 0.000000000000000e+00 0.000000000000000e+00
0.000000000000000e+00 0.000000000000000e+00 0.000000000000000e+00 0.000000000000000e+00 0.000000000000000e+00 0.000000000000000e+00 0.000000000000000e+00 0.000000000000000e+00 0.000000000000000e+00
0.000000000000000e+00 0.000000000000000e+00 0.000000000000000e+00 0.000000000000000e+00 0.000000000000000e+00 0.000000000000000e+00 0.000000000000000e+00 0.000000000000000e+00 0.000000000000000e+00
0.000000000000000e+00 0.000000000000000e+00 0.000000000000000e+00 0.000000000000000e+00 0.000000000000000e+00 0.000000000000000e+00 0.000000000000000e+00 0.000000000000000e+00 0.000000000000000e+00
1.000000000000000e+00 1.000000000000000e+00 1.000000000000000e+00 0.000000000000000e+00 0.000000000000000e+00 0.000000000000000e+00 0.000000000000000e+00 0.000000000000000e+00 0.000000000000000e+00
1.000000000000000e+00 1.000000000000000e+00 1.000000000000000e+00 0.000000000000000e+00 0.000000000000000e+00 0.000000000000000e+00 0.000000000000000e+00 0.000000000000000e+00 0.000000000000000e+00
1.000000000000000e+00 1.000000000000000e+00 1.000000000000000e+00 0.000000000000000e+00 0.000000000000000e+00 0.000000000000000e+00 0.000000000000000e+00 0.000000000000000e+00 0.000000000000000e+00
1.000000000000000e+00 1.000000000000000e+00 1.000000000000000e+00 0.000000000000000e+00 0.000000000000000e+00 0.000000000000000e+00 0.000000000000000e+00 0.000000000000000e+00 0.000000000000000e+00
0.000000000000000e+00 0.000000000000000e+00 0.000000000000000e+00 0.000000000000000e+00 0.000000000000000e+00 0.000000000000000e+00 0.000000000000000e+00 0.000000000000000e+00 0.000000000000000e+00
0.000000000000000e+00 0.000000000000000e+00 0.000000000000000e+00 0.000000000000000e+00 0.000000000000000e+00 0.000000000000000e+00 0.000000000000000e+00 0.000000000000000e+00 0.000000000000000e+00
0.000000000000000e+00 0.000000000000000e+00 0.000000000000000e+00 0.000000000000000e+00 0.000000000000000e+00 0.000000000000000e+00 0.000000000000000e+00 0.000000000000000e+00 0.000000000000000e+00
0.000000000000000e+00 0.000000000000000e+00 0.000000000000000e+00 0.000000000000000e+00 0.000000000000000e+00 0.000000000000000e+00 0.000000000000000e+00 0.000000000000000e+00 0.000000000000000e+00
1.000000000000000e+00 1.000000000000000e+00 1.000000000000000e+00 0.000000000000000e+00 0.000000000000000e+00 0.000000000000000e+00 0.000000000000000e+00 0.000000000000000e+00 0.000000000000000e+00
1.000000000000000e+00 1.000000000000000e+00 1.000000000000000e+00 0.000000000000000e+00 0.000000000000000e+00 0.000000000000000e+00 0.000000000000000e+00 0.000000000000000e+00 0.000000000000000e+00
1.000000000000000e+00 1.000000000000000e+00 1.000000000000000e+00 0.000000000000000e+00 0.000000000000000e+00 0.000000000000000e+00 0.000000000000000e+00 0.000000000000000e+00 0.000000000000000e+00
1.000000000000000e+00 1.000000000000000e+00 1.000000000000000e+00 0.000000000000000e+00 0.000000000000000e+00 0.000000000000000e+00 0.000000000000000e+00 0.000000000000000e+00 0.000000000000000e+00
0.000000000000000e+00 0.000000000000000e+00 0.000000000000000e+00 0.000000000000000e+00 0.000000000000000e+00 0.000000000000000e+00 0.000000000000000e+00 0.000000000000000e+00 0.000000000000000e+00
0.000000000000000e+00 0.000000000000000e+00 0.000000000000000e+00 0.000000000000000e+00 0.000000000000000e+00 0.000000000000000e+00 0.000000000000000e+00 0.000000000000000e+00 0.000000000000000e+00
0.000000000000000e+00 0.000000000000000e+00 0.000000000000000e+00 0.000000000000000e+00 0.000000000000000e+00 0.000000000000000e+00 0.000000000000000e+00 0.000000000000000e+00 0.000000000000000e+00
0.000000000000000e+00 0.000000000000000e+00 0.000000000000000e+00 0.000000000000000e+00 0.000000000000000e+00 0.000000000000000e+00 0.000000000000000e+00 0.000000000000000e+00 0.000000000000000e+00
        </DataArray>
      </CellData>

    </Piece>
  </UnstructuredGrid>
</VTKFile>
