<?xml version="1.0" ?> 
<!-- 
# vtk DataFile Version 3.0
-->
<VTKFile type="UnstructuredGrid" version="0.1" compressor="vtkZLibDataCompressor" byte_order="LittleEndian">
  <UnstructuredGrid>
    <FieldData>
      <DataArray type="Float64" Name="TIME" NumberOfTuples="1" format="ascii">
1.000000000000000e+00 
      </DataArray>
    </FieldData>

    <Piece NumberOfPoints="16" NumberOfCells="2" >
      <Points>
        <DataArray type="Float64" NumberOfComponents="3" format="ascii">
0.000000000000000e+00 0.000000000000000e+00 0.000000000000000e+00
1.000000000000000e+00 0.000000000000000e+00 0.000000000000000e+00
1.000000000000000e+00 1.000000000000000e+00 0.000000000000000e+00
0.000000000000000e+00 1.000000000000000e+00 0.000000000000000e+00
0.000000000000000e+00 0.000000000000000e+00 1.000000000000000e+00
1.000000000000000e+00 0.000000000000000e+00 1.000000000000000e+00
1.000000000000000e+00 1.000000000000000e+00 1.000000000000000e+00
0.000000000000000e+00 1.000000000000000e+00 1.000000000000000e+00
1.000000000000000e+00 0.000000000000000e+00 0.000000000000000e+00
2.000000000000000e+00 0.000000000000000e+00 0.000000000000000e+00
2.000000000000000e+00 1.000000000000000e+00 0.000000000000000e+00
1.000000000000000e+00 1.000000000000000e+00 0.000000000000000e+00
1.000000000000000e+00 0.000000000000000e+00 1.000000000000000e+00
2.000000000000000e+00 0.000000000000000e+00 1.000000000000000e+00
2.000000000000000e+00 1.000000000000000e+00 1.000000000000000e+00
1.000000000000000e+00 1.000000000000000e+00 1.000000000000000e+00
        </DataArray>
      </Points>

      <Cells>
        <DataArray type="Int32" Name="connectivity" format="ascii">
0 1 2 3 4 5 6 7 8 9 10 11 12 13 14 15 
        </DataArray>
        <DataArray type="Int32" Name="offsets" format="ascii">
8 16 
        </DataArray>
        <DataArray type="UInt8" Name="types" format="ascii">
12 12 
        </DataArray>
      </Cells>

  <PointData>
        <DataArray type="Float64" Name="displacement" NumberOfComponents="3" format="ascii">
0.000000000000000e+00 0.000000000000000e+00 0.000000000000000e+00
1.049010313847101e-01 -1.761485545356203e-03 -3.527845132589258e-03
1.088740601412542e-01 -1.775544201569817e-03 -3.565630590980140e-03
0.000000000000000e+00 0.000000000000000e+00 0.000000000000000e+00
0.000000000000000e+00 0.000000000000000e+00 0.000000000000000e+00
1.128452946227664e-01 -1.799233221649422e-03 -3.584002383477622e-03
1.168146115836495e-01 -1.813216156936134e-03 -3.621636404402252e-03
0.000000000000000e+00 0.000000000000000e+00 0.000000000000000e+00
1.049010313847101e-01 -1.761485545356203e-03 -3.527845132589258e-03
2.044293211796398e-01 -8.666068354391172e-03 -1.732282808228804e-02
2.159404293599619e-01 -8.696865097653416e-03 -1.736713810248734e-02
1.088740601412542e-01 -1.775544201569817e-03 -3.565630590980140e-03
1.128452946227664e-01 -1.799233221649422e-03 -3.584002383477622e-03
2.273319980309422e-01 -8.709432387887336e-03 -1.744411926149638e-02
2.386077114852244e-01 -8.738366589102878e-03 -1.748470443226631e-02
1.168146115836495e-01 -1.813216156936134e-03 -3.621636404402252e-03
        </DataArray>
        <DataArray type="Float64" Name="nodal_GL_strains_xyz" NumberOfComponents="6" format="ascii">
1.104043436323427e-01 -1.315548381695682e-06 -5.259657884491018e-06 -8.807427726780744e-04 -2.630453241941872e-06 -1.763922566294595e-03
1.074905900178032e-01 -9.190390749581599e-06 -3.655202681220260e-05 2.324582166289525e-05 -2.799733404669131e-05 4.776144596306108e-05
1.138482808405466e-01 -9.190390749257961e-06 -3.614103984085317e-05 2.698061717584777e-05 -2.789346503658028e-05 5.748957034836682e-05
1.148022034753009e-01 -1.315548382439105e-06 -5.254742561508046e-06 -8.877721007848757e-04 -2.629223753782257e-06 -1.782815295490156e-03
1.192137932900176e-01 -1.313090556809059e-06 -5.259657885234441e-06 -8.996166108247204e-04 -2.627995004962618e-06 -1.792001191738914e-03
1.201754658729727e-01 -8.984883607336683e-06 -3.655202681232106e-05 3.308668428613371e-05 -2.779072512188275e-05 6.292695023409935e-05
1.264732509536539e-01 -8.984883607589938e-06 -3.614103984103259e-05 3.704280070432830e-05 -2.768908698992657e-05 7.309766837218339e-05
1.236390724915979e-01 -1.313090556520615e-06 -5.254742561219600e-06 -9.066080784680700e-04 -2.626766667337039e-06 -1.810818202201072e-03
1.074905900178032e-01 -9.190390749581599e-06 -3.655202681220260e-05 2.324582166289525e-05 -2.799733404669131e-05 4.776144596306108e-05
1.045768364032635e-01 3.071839813813229e-05 1.223330126808649e-04 2.876808537107423e-03 7.858740445157240e-05 5.694713263625873e-03
1.128943582057917e-01 3.071839813803614e-05 1.212670417881415e-04 2.911821173602221e-03 7.830927865533624e-05 5.647441897644882e-03
1.138482808405466e-01 -9.190390749257961e-06 -3.614103984085317e-05 2.698061717584777e-05 -2.789346503658028e-05 5.748957034836682e-05
1.201754658729727e-01 -8.984883607336683e-06 -3.655202681232106e-05 3.308668428613371e-05 -2.779072512188275e-05 6.292695023409935e-05
1.211371384559294e-01 3.018538614454198e-05 1.223330126815826e-04 2.828891451881315e-03 7.804279920588471e-05 5.833439681790584e-03
1.293074294157097e-01 3.018538614456775e-05 1.212670417882823e-04 2.862603965594220e-03 7.778791300791647e-05 5.783568271108042e-03
1.264732509536539e-01 -8.984883607589938e-06 -3.614103984103259e-05 3.704280070432830e-05 -2.768908698992657e-05 7.309766837218339e-05
        </DataArray>
        <DataArray type="Float64" Name="nodal_cauchy_stresses_xyz" NumberOfComponents="6" format="ascii">
1.219567678443659e+01 1.927065028562675e-04 7.745922499932569e-04 -1.075092416359789e-01 3.863659406348521e-04 -2.153209270329763e-01
1.184195623857551e+01 -5.267344299271048e-06 -1.492168883463450e-05 -4.350478377315796e-02 -8.861685153961988e-04 -8.681436419140004e-02
1.260763518923160e+01 8.990690574935296e-06 5.519560662244462e-05 -4.656536427868756e-02 -8.497394359886978e-04 -9.260847338675214e-02
1.272720079879350e+01 1.982457106539839e-04 8.041421690155500e-04 -1.091482361294166e-01 3.992878843756422e-04 -2.191954654056006e-01
1.326372891881628e+01 2.075253693477400e-04 8.190805634343757e-04 -1.113983836598821e-01 4.123021296908942e-04 -2.219060517576989e-01
1.337703447242966e+01 2.930211227518940e-05 9.716257984050724e-05 -4.927249611270072e-02 -8.144744946343937e-04 -9.900304943291073e-02
1.415042660891040e+01 4.258579566147370e-05 1.633830048885210e-04 -5.228114455630833e-02 -7.803489569916167e-04 -1.046932935782727e-01
1.380526309504013e+01 2.131525443623813e-04 8.489823429721041e-04 -1.130666135427549e-01 4.254093036771868e-04 -2.258390605898853e-01
1.184195623857551e+01 -5.267344299271048e-06 -1.492168883463450e-05 -4.350478377315796e-02 -8.861685153961988e-04 -8.681436419140004e-02
1.151852735686035e+01 -3.660051115767550e-04 -1.354819305712507e-03 2.154926056883775e-01 8.669488632230471e-04 4.252009617589387e-01
1.251776234737796e+01 -3.777911794957438e-04 -1.185888103684725e-03 2.130616876793183e-01 8.859362116527593e-04 4.089276562309839e-01
1.260763518923160e+01 8.990690574935296e-06 5.519560662244462e-05 -4.656536427868756e-02 -8.497394359886978e-04 -9.260847338675214e-02
1.337703447242966e+01 2.930211227518940e-05 9.716257984050724e-05 -4.927249611270072e-02 -8.144744946343937e-04 -9.900304943291073e-02
1.352064254231466e+01 -2.807139017498658e-04 -1.445802646594360e-03 1.991977924642193e-01 9.076386682431040e-04 4.154354739295412e-01
1.452527099421547e+01 -2.908657633643783e-04 -1.270334909157342e-03 1.967297634478665e-01 9.320269907007744e-04 3.990878682082679e-01
1.415042660891040e+01 4.258579566147370e-05 1.633830048885210e-04 -5.228114455630833e-02 -7.803489569916167e-04 -1.046932935782727e-01
        </DataArray>
  </PointData>
  <CellData>
        <DataArray type="Float64" Name="element_GL_strains_xyz" NumberOfComponents="6" format="ascii">
1.170148532223149e-01 -4.381758936480851e-06 -1.752636563143173e-05 2.092074898784339e-04 -1.359766953787811e-05 4.184005203154400e-04
1.169789406201734e-01 9.862908094016021e-06 3.945124581063164e-05 8.090546867575472e-04 2.353163632069364e-05 1.618119120719568e-03
        </DataArray>
        <DataArray type="Float64" Name="element_cauchy_stresses_xyz" NumberOfComponents="6" format="ascii">
1.300082060849403e+01 -4.280463636803152e-04 -1.712227568097319e-03 -7.354050440465387e-06 -1.291312392200952e-03 -1.125145265330404e-05
1.300270162352463e+01 3.839809486126009e-04 1.536176488759822e-03 2.132865919547873e-05 1.110619040473008e-03 3.026322301572654e-05
        </DataArray>
      </CellData>

    </Piece>
  </UnstructuredGrid>
</VTKFile>
