<?xml version="1.0" ?> 
<!-- 
# vtk DataFile Version 3.0
-->
<VTKFile type="UnstructuredGrid" version="0.1" compressor="vtkZLibDataCompressor" byte_order="LittleEndian">
  <UnstructuredGrid>
    <FieldData>
      <DataArray type="Float64" Name="TIME" NumberOfTuples="1" format="ascii">
0.000000000000000e+00 
      </DataArray>
    </FieldData>

    <Piece NumberOfPoints="16" NumberOfCells="2" >
      <Points>
        <DataArray type="Float64" NumberOfComponents="3" format="ascii">
0.000000000000000e+00 0.000000000000000e+00 0.000000000000000e+00
1.000000000000000e+00 0.000000000000000e+00 0.000000000000000e+00
1.000000000000000e+00 1.000000000000000e+00 0.000000000000000e+00
0.000000000000000e+00 1.000000000000000e+00 0.000000000000000e+00
0.000000000000000e+00 0.000000000000000e+00 1.000000000000000e+00
1.000000000000000e+00 0.000000000000000e+00 1.000000000000000e+00
1.000000000000000e+00 1.000000000000000e+00 1.000000000000000e+00
0.000000000000000e+00 1.000000000000000e+00 1.000000000000000e+00
1.000000000000000e+00 0.000000000000000e+00 0.000000000000000e+00
2.000000000000000e+00 0.000000000000000e+00 0.000000000000000e+00
2.000000000000000e+00 1.000000000000000e+00 0.000000000000000e+00
1.000000000000000e+00 1.000000000000000e+00 0.000000000000000e+00
1.000000000000000e+00 0.000000000000000e+00 1.000000000000000e+00
2.000000000000000e+00 0.000000000000000e+00 1.000000000000000e+00
2.000000000000000e+00 1.000000000000000e+00 1.000000000000000e+00
1.000000000000000e+00 1.000000000000000e+00 1.000000000000000e+00
        </DataArray>
      </Points>

      <Cells>
        <DataArray type="Int32" Name="connectivity" format="ascii">
0 1 2 3 4 5 6 7 8 9 10 11 12 13 14 15 
        </DataArray>
        <DataArray type="Int32" Name="offsets" format="ascii">
8 16 
        </DataArray>
        <DataArray type="UInt8" Name="types" format="ascii">
12 12 
        </DataArray>
      </Cells>

  <PointData>
        <DataArray type="Float64" Name="displacement" NumberOfComponents="3" format="ascii">
0.000000000000000e+00 0.000000000000000e+00 0.000000000000000e+00
0.000000000000000e+00 0.000000000000000e+00 0.000000000000000e+00
0.000000000000000e+00 0.000000000000000e+00 0.000000000000000e+00
0.000000000000000e+00 0.000000000000000e+00 0.000000000000000e+00
0.000000000000000e+00 0.000000000000000e+00 0.000000000000000e+00
0.000000000000000e+00 0.000000000000000e+00 0.000000000000000e+00
0.000000000000000e+00 0.000000000000000e+00 0.000000000000000e+00
0.000000000000000e+00 0.000000000000000e+00 0.000000000000000e+00
0.000000000000000e+00 0.000000000000000e+00 0.000000000000000e+00
0.000000000000000e+00 0.000000000000000e+00 0.000000000000000e+00
0.000000000000000e+00 0.000000000000000e+00 0.000000000000000e+00
0.000000000000000e+00 0.000000000000000e+00 0.000000000000000e+00
0.000000000000000e+00 0.000000000000000e+00 0.000000000000000e+00
0.000000000000000e+00 0.000000000000000e+00 0.000000000000000e+00
0.000000000000000e+00 0.000000000000000e+00 0.000000000000000e+00
0.000000000000000e+00 0.000000000000000e+00 0.000000000000000e+00
        </DataArray>
        <DataArray type="Float64" Name="nodal_GL_strains_xyz" NumberOfComponents="6" format="ascii">
1.922962686383564e-16 1.219109492637611e-16 1.219109492637611e-16 0.000000000000000e+00 8.549069837943660e-18 -1.104329371660960e-17
-4.335914478823174e-17 -2.911665646578460e-16 -1.516592855504360e-16 5.688891828805462e-17 -3.082247858407341e-17 5.557506152215723e-17
-4.714922371357354e-18 4.651371024232881e-16 3.737038904754674e-16 5.828337155149250e-17 1.491528465207232e-17 -1.230262080698945e-17
-3.142072179021175e-16 -3.142072179021175e-16 -1.922962686383564e-16 0.000000000000000e+00 -8.889340050482580e-18 2.959041633145232e-18
-4.549778566513081e-16 -1.922962686383564e-16 -3.142072179021175e-16 0.000000000000000e+00 -8.889340050482580e-18 -2.225672253948866e-17
1.266258716351185e-16 3.947517830486929e-16 -9.070381091855546e-17 -2.930347777869516e-17 1.796997246946987e-18 -5.731425605372825e-17
1.489371238501247e-16 -3.967445437197389e-16 -1.868519452377337e-16 -2.409930735076474e-17 5.901397059649369e-18 5.141285899407890e-17
1.922962686383564e-16 1.922962686383564e-16 1.922962686383564e-16 0.000000000000000e+00 4.149987377031455e-18 5.963670830619551e-18
-4.335914478823174e-17 -2.911665646578460e-16 -1.516592855504360e-16 5.688891828805462e-17 -3.082247858407341e-17 5.557506152215723e-17
9.429844742714720e-18 -5.006682783063515e-17 -3.033185711008721e-16 2.391248603785418e-17 2.128149946620098e-17 -3.311526996731025e-18
-1.055779790618929e-16 -5.308074994265260e-16 -1.814076218371109e-16 1.350414518199332e-17 3.652036812417112e-17 -1.843479022394923e-17
-4.714922371357354e-18 4.651371024232881e-16 3.737038904754674e-16 5.828337155149250e-17 1.491528465207232e-17 -1.230262080698945e-17
1.266258716351185e-16 3.947517830486929e-16 -9.070381091855546e-17 -2.930347777869516e-17 1.796997246946987e-18 -5.731425605372825e-17
-3.519265968729765e-17 -1.273552726643838e-16 6.770224615763394e-16 9.853896791813908e-17 2.069213416978133e-17 2.290079291310323e-16
3.940223820194275e-16 6.675926168336246e-16 -1.110223024625156e-16 5.969451102157152e-17 -7.781346133507561e-17 -3.304847814200813e-16
1.489371238501247e-16 -3.967445437197389e-16 -1.868519452377337e-16 -2.409930735076474e-17 5.901397059649369e-18 5.141285899407890e-17
        </DataArray>
        <DataArray type="Float64" Name="nodal_cauchy_stresses_xyz" NumberOfComponents="6" format="ascii">
1.922962686383564e-14 1.219109492637611e-14 1.219109492637611e-14 2.325621565234026e-32 8.549069837943661e-16 -1.104329371660960e-15
-4.335914478823173e-15 -2.911665646578460e-14 -1.516592855504360e-14 5.688891828805460e-15 -3.082247858407341e-15 5.557506152215722e-15
-4.714922371357373e-16 4.651371024232883e-14 3.737038904754674e-14 5.828337155149254e-15 1.491528465207233e-15 -1.230262080698945e-15
-3.142072179021175e-14 -3.142072179021175e-14 -1.922962686383564e-14 -6.231484203048608e-33 -8.889340050482585e-16 2.959041633145233e-16
-4.549778566513081e-14 -1.922962686383564e-14 -3.142072179021175e-14 -1.844139079137217e-32 -8.889340050482583e-16 -2.225672253948865e-15
1.266258716351185e-14 3.947517830486929e-14 -9.070381091855549e-15 -2.930347777869514e-15 1.796997246946996e-16 -5.731425605372824e-15
1.489371238501247e-14 -3.967445437197389e-14 -1.868519452377337e-14 -2.409930735076476e-15 5.901397059649366e-16 5.141285899407890e-15
1.922962686383564e-14 1.922962686383564e-14 1.922962686383564e-14 4.941355769854916e-33 4.149987377031457e-16 5.963670830619549e-16
-4.335914478823173e-15 -2.911665646578460e-14 -1.516592855504360e-14 5.688891828805460e-15 -3.082247858407341e-15 5.557506152215722e-15
9.429844742714721e-16 -5.006682783063511e-15 -3.033185711008721e-14 2.391248603785419e-15 2.128149946620098e-15 -3.311526996731053e-16
-1.055779790618929e-14 -5.308074994265262e-14 -1.814076218371109e-14 1.350414518199326e-15 3.652036812417111e-15 -1.843479022394923e-15
-4.714922371357373e-16 4.651371024232883e-14 3.737038904754674e-14 5.828337155149254e-15 1.491528465207233e-15 -1.230262080698945e-15
1.266258716351185e-14 3.947517830486929e-14 -9.070381091855549e-15 -2.930347777869514e-15 1.796997246946996e-16 -5.731425605372824e-15
-3.519265968729763e-15 -1.273552726643839e-14 6.770224615763395e-14 9.853896791813901e-15 2.069213416978134e-15 2.290079291310323e-14
3.940223820194277e-14 6.675926168336247e-14 -1.110223024625157e-14 5.969451102157160e-15 -7.781346133507561e-15 -3.304847814200813e-14
1.489371238501247e-14 -3.967445437197389e-14 -1.868519452377337e-14 -2.409930735076476e-15 5.901397059649366e-16 5.141285899407890e-15
        </DataArray>
  </PointData>
  <CellData>
        <DataArray type="Float64" Name="element_GL_strains_xyz" NumberOfComponents="6" format="ascii">
0.000000000000000e+00 0.000000000000000e+00 0.000000000000000e+00 0.000000000000000e+00 1.734723475976807e-18 2.168404344971009e-18
4.163336342344337e-17 1.387778780781446e-17 -2.775557561562891e-17 3.989863994746656e-17 -4.336808689942018e-18 -1.127570259384925e-17
        </DataArray>
        <DataArray type="Float64" Name="element_cauchy_stresses_xyz" NumberOfComponents="6" format="ascii">
3.944304526105059e-31 3.944304526105059e-31 7.888609052210118e-31 -1.203706215242023e-33 1.734723475976808e-16 2.168404344971009e-16
4.163336342344340e-15 1.387778780781447e-15 -2.775557561562891e-15 3.989863994746657e-15 -4.336808689942019e-16 -1.127570259384924e-15
        </DataArray>
      </CellData>

    </Piece>
  </UnstructuredGrid>
</VTKFile>
