<?xml version="1.0" ?> 
<!-- 
# vtk DataFile Version 3.0
-->
<VTKFile type="UnstructuredGrid" version="0.1" compressor="vtkZLibDataCompressor" byte_order="LittleEndian">
  <UnstructuredGrid>
    <FieldData>
      <DataArray type="Float64" Name="TIME" NumberOfTuples="1" format="ascii">
5.000000000000000e-01 
      </DataArray>
    </FieldData>

    <Piece NumberOfPoints="16" NumberOfCells="2" >
      <Points>
        <DataArray type="Float64" NumberOfComponents="3" format="ascii">
0.000000000000000e+00 0.000000000000000e+00 0.000000000000000e+00
1.000000000000000e+00 0.000000000000000e+00 0.000000000000000e+00
1.000000000000000e+00 1.000000000000000e+00 0.000000000000000e+00
0.000000000000000e+00 1.000000000000000e+00 0.000000000000000e+00
0.000000000000000e+00 0.000000000000000e+00 1.000000000000000e+00
1.000000000000000e+00 0.000000000000000e+00 1.000000000000000e+00
1.000000000000000e+00 1.000000000000000e+00 1.000000000000000e+00
0.000000000000000e+00 1.000000000000000e+00 1.000000000000000e+00
1.000000000000000e+00 0.000000000000000e+00 0.000000000000000e+00
2.000000000000000e+00 0.000000000000000e+00 0.000000000000000e+00
2.000000000000000e+00 1.000000000000000e+00 0.000000000000000e+00
1.000000000000000e+00 1.000000000000000e+00 0.000000000000000e+00
1.000000000000000e+00 0.000000000000000e+00 1.000000000000000e+00
2.000000000000000e+00 0.000000000000000e+00 1.000000000000000e+00
2.000000000000000e+00 1.000000000000000e+00 1.000000000000000e+00
1.000000000000000e+00 1.000000000000000e+00 1.000000000000000e+00
        </DataArray>
      </Points>

      <Cells>
        <DataArray type="Int32" Name="connectivity" format="ascii">
0 1 2 3 4 5 6 7 8 9 10 11 12 13 14 15 
        </DataArray>
        <DataArray type="Int32" Name="offsets" format="ascii">
8 16 
        </DataArray>
        <DataArray type="UInt8" Name="types" format="ascii">
12 12 
        </DataArray>
      </Cells>

  <PointData>
        <DataArray type="Float64" Name="displacement" NumberOfComponents="3" format="ascii">
0.000000000000000e+00 0.000000000000000e+00 0.000000000000000e+00
5.488100299292963e-02 -1.457876980081170e-03 -2.917655902785389e-03
5.800053963365886e-02 -1.465515730868176e-03 -2.936734771659353e-03
0.000000000000000e+00 0.000000000000000e+00 0.000000000000000e+00
0.000000000000000e+00 0.000000000000000e+00 0.000000000000000e+00
6.111828653212783e-02 -1.476942599548655e-03 -2.948183819083553e-03
6.423425262480686e-02 -1.484554801637479e-03 -2.967209591030626e-03
0.000000000000000e+00 0.000000000000000e+00 0.000000000000000e+00
5.488100299292963e-02 -1.457876980081170e-03 -2.917655902785389e-03
1.074662474084319e-01 -6.558218412974492e-03 -1.311279671694037e-02
1.152191664297063e-01 -6.574390266628754e-03 -1.313829061042274e-02
5.800053963365886e-02 -1.465515730868176e-03 -2.936734771659353e-03
6.111828653212783e-02 -1.476942599548655e-03 -2.948183819083553e-03
1.229247016886599e-01 -6.583446187369747e-03 -1.317695060298704e-02
1.305839044285902e-01 -6.599090939451803e-03 -1.320139032142666e-02
6.423425262480686e-02 -1.484554801637479e-03 -2.967209591030626e-03
        </DataArray>
        <DataArray type="Float64" Name="nodal_GL_strains_xyz" NumberOfComponents="6" format="ascii">
5.638823122077297e-02 -8.109940898418358e-07 -3.242083272655472e-06 -7.289384900405921e-04 -1.621513551207302e-06 -1.458827951392735e-03
5.520609097251084e-02 -4.072741277712323e-06 -1.623936679440709e-05 4.102309678407615e-06 -1.193414790286420e-05 8.149443571345608e-06
5.929793462842717e-02 -4.072741277244462e-06 -1.613774543351386e-05 6.105863541035130e-06 -1.190857547197483e-05 1.197718944535115e-05
5.968390763979994e-02 -8.109940902264280e-07 -3.238372227915575e-06 -7.327578654340975e-04 -1.620585245300856e-06 -1.468367385829644e-03
6.298739435808456e-02 -8.091385410832206e-07 -3.242083273065828e-06 -7.384712997742684e-04 -1.619657497273960e-06 -1.474091909541814e-03
6.338018605409573e-02 -4.021929217028370e-06 -1.623936679431095e-05 7.956304113383229e-06 -1.188317082186836e-05 1.621625858702776e-05
6.745314960886220e-02 -4.021929217364889e-06 -1.613774543387269e-05 1.001170217515481e-05 -1.185793119235085e-05 2.014768777395929e-05
6.629872883685307e-02 -8.091385408909241e-07 -3.238372227627131e-06 -7.422774008187280e-04 -1.618730254088995e-06 -1.483604795515153e-03
5.520609097251084e-02 -4.072741277712323e-06 -1.623936679440709e-05 4.102309678407615e-06 -1.193414790286420e-05 8.149443571345608e-06
5.402395072424909e-02 1.209283077137778e-05 4.824384539599287e-05 1.530376580639291e-03 3.100380340382416e-05 3.038527581643761e-03
5.891196161705366e-02 1.209283077108933e-05 4.799149309206124e-05 1.544070595050813e-03 3.093885664905210e-05 3.021586824899876e-03
5.929793462842717e-02 -4.072741277244462e-06 -1.613774543351386e-05 6.105863541035130e-06 -1.190857547197483e-05 1.197718944535115e-05
6.338018605409573e-02 -4.021929217028370e-06 -1.623936679431095e-05 7.956304113383229e-06 -1.188317082186836e-05 1.621625858702776e-05
6.377297775010612e-02 1.196665203518081e-05 4.824384539635168e-05 1.513280465002861e-03 3.087576986533418e-05 3.092987572151647e-03
6.860757038087170e-02 1.196665203559117e-05 4.799149309196509e-05 1.526662400166152e-03 3.081453788374595e-05 3.075422677648919e-03
6.745314960886220e-02 -4.021929217364889e-06 -1.613774543387269e-05 1.001170217515481e-05 -1.185793119235085e-05 2.014768777395929e-05
        </DataArray>
        <DataArray type="Float64" Name="nodal_cauchy_stresses_xyz" NumberOfComponents="6" format="ascii">
5.946574945442343e+00 1.359496843615901e-04 5.451060610416028e-04 -8.110959510935174e-02 2.722281075004604e-04 -1.623265139922171e-01
5.814611885145387e+00 -6.544664826173426e-07 -5.486943803394238e-07 -1.747648210882943e-02 -3.615490368306655e-04 -3.494313742042035e-02
6.268668719625129e+00 4.077020410501152e-06 2.267475044043774e-05 -1.881082381447475e-02 -3.496760298865370e-04 -3.760873098690574e-02
6.312845226089036e+00 1.384475229137345e-04 5.576884406625185e-04 -8.201758911854434e-02 2.778708566898609e-04 -1.643558856578525e-01
6.681989872749567e+00 1.422524214925683e-04 5.651344773449596e-04 -8.314503503788342e-02 2.835372548152065e-04 -1.659705897203881e-01
6.724810680047200e+00 1.087178483273930e-05 3.695827058749113e-05 -2.013792390319644e-02 -3.380058861692463e-04 -4.027205574521907e-02
7.183101169427685e+00 1.543279146991176e-05 5.949983218578011e-05 -2.146410924302884e-02 -3.265355912990955e-04 -4.292133620607934e-02
7.054017119684616e+00 1.447733345723243e-04 5.778091533990575e-04 -8.406517449723486e-02 2.892275000349439e-04 -1.680242521292071e-01
5.814611885145387e+00 -6.544664826173426e-07 -5.486943803394238e-07 -1.747648210882943e-02 -3.615490368306655e-04 -3.494313742042035e-02
5.693896565247893e+00 -2.007617910273397e-04 -7.695398364638631e-04 1.254882279888989e-01 2.575450666649292e-04 2.487719977026665e-01
6.235598714597067e+00 -2.030719601525089e-04 -7.122425536118558e-04 1.243142802886869e-01 2.665773757952660e-04 2.420571009651653e-01
6.268668719625129e+00 4.077020410501152e-06 2.267475044043774e-05 -1.881082381447475e-02 -3.496760298865370e-04 -3.760873098690574e-02
6.724810680047200e+00 1.087178483273930e-05 3.695827058749113e-05 -2.013792390319644e-02 -3.380058861692463e-04 -4.027205574521907e-02
6.778884884453841e+00 -1.719720603271612e-04 -7.874574334064492e-04 1.187668593613403e-01 2.760739346129674e-04 2.440635160310446e-01
7.323293766262527e+00 -1.740027848546005e-04 -7.290423795274299e-04 1.175811534694998e-01 2.860307339073128e-04 2.373250944159123e-01
7.183101169427685e+00 1.543279146991176e-05 5.949983218578011e-05 -2.146410924302884e-02 -3.265355912990955e-04 -4.292133620607934e-02
        </DataArray>
  </PointData>
  <CellData>
        <DataArray type="Float64" Name="element_GL_strains_xyz" NumberOfComponents="6" format="ascii">
6.133956551387779e-02 -2.192605587938989e-06 -8.770228416846160e-06 9.026509820746187e-05 -6.285923108339414e-06 1.805250312258413e-04
6.132911511807010e-02 3.755107884501063e-06 1.502039304970837e-05 3.132720697684622e-04 9.034026917835516e-06 6.265516903766866e-04
        </DataArray>
        <DataArray type="Float64" Name="element_cauchy_stresses_xyz" NumberOfComponents="6" format="ascii">
6.500338467795497e+00 -2.194540454016795e-04 -8.778180483630280e-04 -2.866388620390015e-06 -6.183042692704358e-04 -4.614133459368563e-06
6.500847282581714e+00 2.033376238316391e-04 8.133960792511878e-04 7.172539414455545e-06 5.504989869766681e-04 1.085749569376335e-05
        </DataArray>
      </CellData>

    </Piece>
  </UnstructuredGrid>
</VTKFile>
