<?xml version="1.0" ?> 
<!-- 
# vtk DataFile Version 3.0
-->
<VTKFile type="UnstructuredGrid" version="0.1" compressor="vtkZLibDataCompressor" byte_order="LittleEndian">
  <UnstructuredGrid>
    <FieldData>
      <DataArray type="Float64" Name="TIME" NumberOfTuples="1" format="ascii">
5.000000000000000e-01 
      </DataArray>
    </FieldData>

    <Piece NumberOfPoints="60" NumberOfCells="12" >
      <Points>
        <DataArray type="Float64" NumberOfComponents="3" format="ascii">
0.000000000000000e+00 0.000000000000000e+00 0.000000000000000e+00
1.000000000000000e+00 0.000000000000000e+00 0.000000000000000e+00
1.000000000000000e+00 1.000000000000000e+00 0.000000000000000e+00
0.000000000000000e+00 1.000000000000000e+00 0.000000000000000e+00
5.000000000000000e-01 5.000000000000000e-01 5.000000000000000e-01
0.000000000000000e+00 0.000000000000000e+00 1.000000000000000e+00
1.000000000000000e+00 0.000000000000000e+00 1.000000000000000e+00
1.000000000000000e+00 0.000000000000000e+00 0.000000000000000e+00
0.000000000000000e+00 0.000000000000000e+00 0.000000000000000e+00
5.000000000000000e-01 5.000000000000000e-01 5.000000000000000e-01
1.000000000000000e+00 0.000000000000000e+00 1.000000000000000e+00
1.000000000000000e+00 1.000000000000000e+00 1.000000000000000e+00
1.000000000000000e+00 1.000000000000000e+00 0.000000000000000e+00
1.000000000000000e+00 0.000000000000000e+00 0.000000000000000e+00
5.000000000000000e-01 5.000000000000000e-01 5.000000000000000e-01
1.000000000000000e+00 1.000000000000000e+00 1.000000000000000e+00
0.000000000000000e+00 1.000000000000000e+00 1.000000000000000e+00
0.000000000000000e+00 1.000000000000000e+00 0.000000000000000e+00
1.000000000000000e+00 1.000000000000000e+00 0.000000000000000e+00
5.000000000000000e-01 5.000000000000000e-01 5.000000000000000e-01
0.000000000000000e+00 1.000000000000000e+00 1.000000000000000e+00
0.000000000000000e+00 0.000000000000000e+00 1.000000000000000e+00
0.000000000000000e+00 0.000000000000000e+00 0.000000000000000e+00
0.000000000000000e+00 1.000000000000000e+00 0.000000000000000e+00
5.000000000000000e-01 5.000000000000000e-01 5.000000000000000e-01
0.000000000000000e+00 0.000000000000000e+00 1.000000000000000e+00
0.000000000000000e+00 1.000000000000000e+00 1.000000000000000e+00
1.000000000000000e+00 1.000000000000000e+00 1.000000000000000e+00
1.000000000000000e+00 0.000000000000000e+00 1.000000000000000e+00
5.000000000000000e-01 5.000000000000000e-01 5.000000000000000e-01
0.000000000000000e+00 0.000000000000000e+00 1.000000000000000e+00
2.000000000000000e+00 0.000000000000000e+00 1.000000000000000e+00
2.000000000000000e+00 0.000000000000000e+00 0.000000000000000e+00
1.000000000000000e+00 0.000000000000000e+00 0.000000000000000e+00
1.500000000000000e+00 5.000000000000000e-01 5.000000000000000e-01
2.000000000000000e+00 0.000000000000000e+00 1.000000000000000e+00
2.000000000000000e+00 1.000000000000000e+00 1.000000000000000e+00
2.000000000000000e+00 1.000000000000000e+00 0.000000000000000e+00
2.000000000000000e+00 0.000000000000000e+00 0.000000000000000e+00
1.500000000000000e+00 5.000000000000000e-01 5.000000000000000e-01
2.000000000000000e+00 1.000000000000000e+00 1.000000000000000e+00
1.000000000000000e+00 1.000000000000000e+00 1.000000000000000e+00
1.000000000000000e+00 1.000000000000000e+00 0.000000000000000e+00
2.000000000000000e+00 1.000000000000000e+00 0.000000000000000e+00
1.500000000000000e+00 5.000000000000000e-01 5.000000000000000e-01
1.000000000000000e+00 1.000000000000000e+00 1.000000000000000e+00
1.000000000000000e+00 0.000000000000000e+00 1.000000000000000e+00
1.000000000000000e+00 0.000000000000000e+00 0.000000000000000e+00
1.000000000000000e+00 1.000000000000000e+00 0.000000000000000e+00
1.500000000000000e+00 5.000000000000000e-01 5.000000000000000e-01
1.000000000000000e+00 0.000000000000000e+00 0.000000000000000e+00
2.000000000000000e+00 0.000000000000000e+00 0.000000000000000e+00
2.000000000000000e+00 1.000000000000000e+00 0.000000000000000e+00
1.000000000000000e+00 1.000000000000000e+00 0.000000000000000e+00
1.500000000000000e+00 5.000000000000000e-01 5.000000000000000e-01
1.000000000000000e+00 0.000000000000000e+00 1.000000000000000e+00
1.000000000000000e+00 1.000000000000000e+00 1.000000000000000e+00
2.000000000000000e+00 1.000000000000000e+00 1.000000000000000e+00
2.000000000000000e+00 0.000000000000000e+00 1.000000000000000e+00
1.500000000000000e+00 5.000000000000000e-01 5.000000000000000e-01
        </DataArray>
      </Points>

      <Cells>
        <DataArray type="Int32" Name="connectivity" format="ascii">
0 1 2 3 4 5 6 7 8 9 10 11 12 13 14 15 16 17 18 19 20 21 22 23 24 25 26 27 28 29 30 31 32 33 34 35 36 37 38 39 40 41 42 43 44 45 46 47 48 49 50 51 52 53 54 55 56 57 58 59 
        </DataArray>
        <DataArray type="Int32" Name="offsets" format="ascii">
5 10 15 20 25 30 35 40 45 50 55 60 
        </DataArray>
        <DataArray type="UInt8" Name="types" format="ascii">
14 14 14 14 14 14 14 14 14 14 14 14 
        </DataArray>
      </Cells>

  <PointData>
        <DataArray type="Float64" Name="displacement" NumberOfComponents="3" format="ascii">
0.000000000000000e+00 0.000000000000000e+00 0.000000000000000e+00
5.414127578866450e-02 -5.762058997780971e-03 1.578892334321204e-03
6.137808353641169e-02 -5.686424792263501e-03 2.122254726219070e-03
0.000000000000000e+00 0.000000000000000e+00 0.000000000000000e+00
2.769306708316553e-02 -2.150576353911749e-03 6.172287374986999e-04
0.000000000000000e+00 0.000000000000000e+00 0.000000000000000e+00
4.384413376838042e-02 -6.083168390622487e-03 1.537828081985915e-03
5.414127578866450e-02 -5.762058997780971e-03 1.578892334321204e-03
0.000000000000000e+00 0.000000000000000e+00 0.000000000000000e+00
2.769306708316553e-02 -2.150576353911749e-03 6.172287374986999e-04
4.384413376838042e-02 -6.083168390622487e-03 1.537828081985915e-03
6.208034624873074e-02 -6.227199274667281e-03 2.189394929599703e-03
6.137808353641169e-02 -5.686424792263501e-03 2.122254726219070e-03
5.414127578866450e-02 -5.762058997780971e-03 1.578892334321204e-03
2.769306708316553e-02 -2.150576353911749e-03 6.172287374986999e-04
6.208034624873074e-02 -6.227199274667281e-03 2.189394929599703e-03
0.000000000000000e+00 0.000000000000000e+00 0.000000000000000e+00
0.000000000000000e+00 0.000000000000000e+00 0.000000000000000e+00
6.137808353641169e-02 -5.686424792263501e-03 2.122254726219070e-03
2.769306708316553e-02 -2.150576353911749e-03 6.172287374986999e-04
0.000000000000000e+00 0.000000000000000e+00 0.000000000000000e+00
0.000000000000000e+00 0.000000000000000e+00 0.000000000000000e+00
0.000000000000000e+00 0.000000000000000e+00 0.000000000000000e+00
0.000000000000000e+00 0.000000000000000e+00 0.000000000000000e+00
2.769306708316553e-02 -2.150576353911749e-03 6.172287374986999e-04
0.000000000000000e+00 0.000000000000000e+00 0.000000000000000e+00
0.000000000000000e+00 0.000000000000000e+00 0.000000000000000e+00
6.208034624873074e-02 -6.227199274667281e-03 2.189394929599703e-03
4.384413376838042e-02 -6.083168390622487e-03 1.537828081985915e-03
2.769306708316553e-02 -2.150576353911749e-03 6.172287374986999e-04
0.000000000000000e+00 0.000000000000000e+00 0.000000000000000e+00
1.115974832816491e-01 -1.818442584185260e-02 4.154731577259150e-04
1.073986378360617e-01 -1.524015022931402e-02 -1.575845538012424e-05
5.414127578866450e-02 -5.762058997780971e-03 1.578892334321204e-03
8.577821989505263e-02 -1.178436128073889e-02 2.113522269502162e-03
1.115974832816491e-01 -1.818442584185260e-02 4.154731577259150e-04
1.246398480997604e-01 -1.850573139864273e-02 1.805868157567911e-03
1.191549999791388e-01 -1.649325542366801e-02 1.893908644474251e-03
1.073986378360617e-01 -1.524015022931402e-02 -1.575845538012424e-05
8.577821989505263e-02 -1.178436128073889e-02 2.113522269502162e-03
1.246398480997604e-01 -1.850573139864273e-02 1.805868157567911e-03
6.208034624873074e-02 -6.227199274667281e-03 2.189394929599703e-03
6.137808353641169e-02 -5.686424792263501e-03 2.122254726219070e-03
1.191549999791388e-01 -1.649325542366801e-02 1.893908644474251e-03
8.577821989505263e-02 -1.178436128073889e-02 2.113522269502162e-03
6.208034624873074e-02 -6.227199274667281e-03 2.189394929599703e-03
4.384413376838042e-02 -6.083168390622487e-03 1.537828081985915e-03
5.414127578866450e-02 -5.762058997780971e-03 1.578892334321204e-03
6.137808353641169e-02 -5.686424792263501e-03 2.122254726219070e-03
8.577821989505263e-02 -1.178436128073889e-02 2.113522269502162e-03
5.414127578866450e-02 -5.762058997780971e-03 1.578892334321204e-03
1.073986378360617e-01 -1.524015022931402e-02 -1.575845538012424e-05
1.191549999791388e-01 -1.649325542366801e-02 1.893908644474251e-03
6.137808353641169e-02 -5.686424792263501e-03 2.122254726219070e-03
8.577821989505263e-02 -1.178436128073889e-02 2.113522269502162e-03
4.384413376838042e-02 -6.083168390622487e-03 1.537828081985915e-03
6.208034624873074e-02 -6.227199274667281e-03 2.189394929599703e-03
1.246398480997604e-01 -1.850573139864273e-02 1.805868157567911e-03
1.115974832816491e-01 -1.818442584185260e-02 4.154731577259150e-04
8.577821989505263e-02 -1.178436128073889e-02 2.113522269502162e-03
        </DataArray>
        <DataArray type="Float64" Name="nodal_GL_strains_xyz" NumberOfComponents="6" format="ascii">
5.605541583935175e-02 4.893155768097141e-04 -1.265403071544723e-04 -2.283445406768128e-03 1.906680443509934e-04 8.163992800982890e-04
5.501949165585932e-02 4.601482035733254e-04 -1.660249324545823e-04 -1.155146729787571e-03 7.188258231106262e-05 -3.287040401995679e-04
5.909826216935001e-02 -3.516710007776970e-04 3.248614694738056e-06 -5.399119310319431e-04 -7.919458000663854e-05 -3.923698891056703e-04
6.116192613102242e-02 -6.260138597437043e-04 -2.623013387219561e-04 -1.375629105372315e-03 3.073445874173925e-04 2.801966412467675e-05
5.984651372756762e-02 3.105079995965762e-05 1.463489148380677e-05 9.736907850133351e-04 7.245646386649709e-05 -2.819250589033973e-04
5.124556557148069e-02 5.369918162772258e-04 -2.000870807643444e-04 -1.009608581015184e-03 -4.251670057321187e-04 -6.185192826407857e-04
5.812217916474278e-02 3.722502640159781e-04 -1.243695905103667e-04 4.509788713349521e-03 -1.451004382304463e-04 2.722609521694424e-04
5.501949165585932e-02 4.601482035733254e-04 -1.660249324545823e-04 -1.155146729787571e-03 7.188258231106262e-05 -3.287040401995679e-04
5.605541583935175e-02 4.893155768097141e-04 -1.265403071544723e-04 -2.283445406768128e-03 1.906680443509934e-04 8.163992800982890e-04
5.984651372756762e-02 3.105079995965762e-05 1.463489148380677e-05 9.736907850133351e-04 7.245646386649709e-05 -2.819250589033973e-04
5.812217916474278e-02 3.722502640159781e-04 -1.243695905103667e-04 4.509788713349521e-03 -1.451004382304463e-04 2.722609521694424e-04
6.240225536743071e-02 -8.643725363795683e-05 -1.026705728008100e-04 3.166493304158861e-03 -2.316856774930300e-04 8.171749620532937e-04
5.909826216935001e-02 -3.516710007776970e-04 3.248614694738056e-06 -5.399119310319431e-04 -7.919458000663854e-05 -3.923698891056703e-04
5.501949165585932e-02 4.601482035733254e-04 -1.660249324545823e-04 -1.155146729787571e-03 7.188258231106262e-05 -3.287040401995679e-04
5.984651372756762e-02 3.105079995965762e-05 1.463489148380677e-05 9.736907850133351e-04 7.245646386649709e-05 -2.819250589033973e-04
6.240225536743071e-02 -8.643725363795683e-05 -1.026705728008100e-04 3.166493304158861e-03 -2.316856774930300e-04 8.171749620532937e-04
5.553095025636613e-02 -4.723759300052125e-04 1.418763609423132e-04 -1.701754484349080e-03 -2.434198833789782e-04 -9.251210718656293e-04
6.116192613102242e-02 -6.260138597437043e-04 -2.623013387219561e-04 -1.375629105372315e-03 3.073445874173925e-04 2.801966412467675e-05
5.909826216935001e-02 -3.516710007776970e-04 3.248614694738056e-06 -5.399119310319431e-04 -7.919458000663854e-05 -3.923698891056703e-04
5.984651372756762e-02 3.105079995965762e-05 1.463489148380677e-05 9.736907850133351e-04 7.245646386649709e-05 -2.819250589033973e-04
5.553095025636613e-02 -4.723759300052125e-04 1.418763609423132e-04 -1.701754484349080e-03 -2.434198833789782e-04 -9.251210718656293e-04
5.124556557148069e-02 5.369918162772258e-04 -2.000870807643444e-04 -1.009608581015184e-03 -4.251670057321187e-04 -6.185192826407857e-04
5.605541583935175e-02 4.893155768097141e-04 -1.265403071544723e-04 -2.283445406768128e-03 1.906680443509934e-04 8.163992800982890e-04
6.116192613102242e-02 -6.260138597437043e-04 -2.623013387219561e-04 -1.375629105372315e-03 3.073445874173925e-04 2.801966412467675e-05
5.984651372756762e-02 3.105079995965762e-05 1.463489148380677e-05 9.736907850133351e-04 7.245646386649709e-05 -2.819250589033973e-04
5.124556557148069e-02 5.369918162772258e-04 -2.000870807643444e-04 -1.009608581015184e-03 -4.251670057321187e-04 -6.185192826407857e-04
5.553095025636613e-02 -4.723759300052125e-04 1.418763609423132e-04 -1.701754484349080e-03 -2.434198833789782e-04 -9.251210718656293e-04
6.240225536743071e-02 -8.643725363795683e-05 -1.026705728008100e-04 3.166493304158861e-03 -2.316856774930300e-04 8.171749620532937e-04
5.812217916474278e-02 3.722502640159781e-04 -1.243695905103667e-04 4.509788713349521e-03 -1.451004382304463e-04 2.722609521694424e-04
5.984651372756762e-02 3.105079995965762e-05 1.463489148380677e-05 9.736907850133351e-04 7.245646386649709e-05 -2.819250589033973e-04
5.124556557148069e-02 5.369918162772258e-04 -2.000870807643444e-04 -1.009608581015184e-03 -4.251670057321187e-04 -6.185192826407857e-04
6.326269774960605e-02 -3.962295762340597e-05 -5.481274740786580e-04 3.734774948482062e-04 -3.909295408166384e-04 7.564737186849095e-05
5.697400500450002e-02 -2.414901729018333e-05 -8.470225447938470e-05 1.323631453777511e-04 -2.293908749920375e-04 3.605578305526600e-04
5.501949165585932e-02 4.601482035733254e-04 -1.660249324545823e-04 -1.155146729787571e-03 7.188258231106262e-05 -3.287040401995679e-04
6.037896787164055e-02 -2.785399943784610e-04 2.470782373400177e-04 1.035050594436344e-03 1.035695336329630e-04 -6.730057311621264e-04
6.326269774960605e-02 -3.962295762340597e-05 -5.481274740786580e-04 3.734774948482062e-04 -3.909295408166384e-04 7.564737186849095e-05
6.559182419467370e-02 1.193629275827538e-04 -1.860928345616262e-04 6.083657076474012e-04 -5.276147692978372e-04 5.436434930068197e-04
6.002503573980983e-02 -5.324579894389410e-04 3.896058713866398e-04 4.550164414931745e-04 -6.482217426938925e-04 1.021605748714417e-03
5.697400500450002e-02 -2.414901729018333e-05 -8.470225447938470e-05 1.323631453777511e-04 -2.293908749920375e-04 3.605578305526600e-04
6.037896787164055e-02 -2.785399943784610e-04 2.470782373400177e-04 1.035050594436344e-03 1.035695336329630e-04 -6.730057311621264e-04
6.559182419467370e-02 1.193629275827538e-04 -1.860928345616262e-04 6.083657076474012e-04 -5.276147692978372e-04 5.436434930068197e-04
6.240225536743071e-02 -8.643725363795683e-05 -1.026705728008100e-04 3.166493304158861e-03 -2.316856774930300e-04 8.171749620532937e-04
5.909826216935001e-02 -3.516710007776970e-04 3.248614694738056e-06 -5.399119310319431e-04 -7.919458000663854e-05 -3.923698891056703e-04
6.002503573980983e-02 -5.324579894389410e-04 3.896058713866398e-04 4.550164414931745e-04 -6.482217426938925e-04 1.021605748714417e-03
6.037896787164055e-02 -2.785399943784610e-04 2.470782373400177e-04 1.035050594436344e-03 1.035695336329630e-04 -6.730057311621264e-04
6.240225536743071e-02 -8.643725363795683e-05 -1.026705728008100e-04 3.166493304158861e-03 -2.316856774930300e-04 8.171749620532937e-04
5.812217916474278e-02 3.722502640159781e-04 -1.243695905103667e-04 4.509788713349521e-03 -1.451004382304463e-04 2.722609521694424e-04
5.501949165585932e-02 4.601482035733254e-04 -1.660249324545823e-04 -1.155146729787571e-03 7.188258231106262e-05 -3.287040401995679e-04
5.909826216935001e-02 -3.516710007776970e-04 3.248614694738056e-06 -5.399119310319431e-04 -7.919458000663854e-05 -3.923698891056703e-04
6.037896787164055e-02 -2.785399943784610e-04 2.470782373400177e-04 1.035050594436344e-03 1.035695336329630e-04 -6.730057311621264e-04
5.501949165585932e-02 4.601482035733254e-04 -1.660249324545823e-04 -1.155146729787571e-03 7.188258231106262e-05 -3.287040401995679e-04
5.697400500450002e-02 -2.414901729018333e-05 -8.470225447938470e-05 1.323631453777511e-04 -2.293908749920375e-04 3.605578305526600e-04
6.002503573980983e-02 -5.324579894389410e-04 3.896058713866398e-04 4.550164414931745e-04 -6.482217426938925e-04 1.021605748714417e-03
5.909826216935001e-02 -3.516710007776970e-04 3.248614694738056e-06 -5.399119310319431e-04 -7.919458000663854e-05 -3.923698891056703e-04
6.037896787164055e-02 -2.785399943784610e-04 2.470782373400177e-04 1.035050594436344e-03 1.035695336329630e-04 -6.730057311621264e-04
5.812217916474278e-02 3.722502640159781e-04 -1.243695905103667e-04 4.509788713349521e-03 -1.451004382304463e-04 2.722609521694424e-04
6.240225536743071e-02 -8.643725363795683e-05 -1.026705728008100e-04 3.166493304158861e-03 -2.316856774930300e-04 8.171749620532937e-04
6.559182419467370e-02 1.193629275827538e-04 -1.860928345616262e-04 6.083657076474012e-04 -5.276147692978372e-04 5.436434930068197e-04
6.326269774960605e-02 -3.962295762340597e-05 -5.481274740786580e-04 3.734774948482062e-04 -3.909295408166384e-04 7.564737186849095e-05
6.037896787164055e-02 -2.785399943784610e-04 2.470782373400177e-04 1.035050594436344e-03 1.035695336329630e-04 -6.730057311621264e-04
        </DataArray>
        <DataArray type="Float64" Name="nodal_cauchy_stresses_xyz" NumberOfComponents="6" format="ascii">
5.906368781141001e+00 4.900070949619469e-02 -1.175402515404162e-02 -2.577897907184530e-01 1.727723261241726e-02 8.974671870225097e-02
5.792094693058165e+00 4.580779791308891e-02 -1.567286912354434e-02 -1.606730459375549e-01 7.094532643359540e-03 -3.012794158384646e-02
6.252498005925050e+00 -3.170137775304339e-02 3.801257510982134e-05 -1.053656364838040e-01 -7.544152902471617e-03 -3.292669693510776e-02
6.486336944332650e+00 -5.735964703522831e-02 -2.467561855596282e-02 -1.704557143952474e-01 2.859990931225737e-02 1.436364080963786e-02
6.336802680476770e+00 2.294835890594341e-03 1.383163529893481e-03 6.174317678479943e-02 7.072701905591604e-03 -1.610741760808140e-02
5.380907587960818e+00 5.302890824793170e-02 -1.920919492079355e-02 -1.330982332550615e-01 -4.029235668769023e-02 -5.673938939233714e-02
6.162086660383673e+00 2.905911382174674e-02 -1.133354771420930e-02 3.974954279464305e-01 -1.357635026350279e-02 3.236983919993321e-02
5.792094693058165e+00 4.580779791308891e-02 -1.567286912354434e-02 -1.606730459375549e-01 7.094532643359540e-03 -3.012794158384646e-02
5.906368781141001e+00 4.900070949619469e-02 -1.175402515404162e-02 -2.577897907184530e-01 1.727723261241726e-02 8.974671870225097e-02
6.336802680476770e+00 2.294835890594341e-03 1.383163529893481e-03 6.174317678479943e-02 7.072701905591604e-03 -1.610741760808140e-02
6.162086660383673e+00 2.905911382174674e-02 -1.133354771420930e-02 3.974954279464305e-01 -1.357635026350279e-02 3.236983919993321e-02
6.634492157227655e+00 -1.257678168930429e-02 -9.294331643683387e-03 2.563373565186465e-01 -2.235735503078447e-02 8.670394653316511e-02
6.252498005925050e+00 -3.170137775304339e-02 3.801257510982134e-05 -1.053656364838040e-01 -7.544152902471617e-03 -3.292669693510776e-02
5.792094693058165e+00 4.580779791308891e-02 -1.567286912354434e-02 -1.606730459375549e-01 7.094532643359540e-03 -3.012794158384646e-02
6.336802680476770e+00 2.294835890594341e-03 1.383163529893481e-03 6.174317678479943e-02 7.072701905591604e-03 -1.610741760808140e-02
6.634492157227655e+00 -1.257678168930429e-02 -9.294331643683387e-03 2.563373565186465e-01 -2.235735503078447e-02 8.670394653316511e-02
5.859102794118007e+00 -4.243676637534714e-02 1.333163236594368e-02 -2.005163333468437e-01 -2.316495202472278e-02 -8.330815187736466e-02
6.486336944332650e+00 -5.735964703522831e-02 -2.467561855596282e-02 -1.704557143952474e-01 2.859990931225737e-02 1.436364080963786e-02
6.252498005925050e+00 -3.170137775304339e-02 3.801257510982134e-05 -1.053656364838040e-01 -7.544152902471617e-03 -3.292669693510776e-02
6.336802680476770e+00 2.294835890594341e-03 1.383163529893481e-03 6.174317678479943e-02 7.072701905591604e-03 -1.610741760808140e-02
5.859102794118007e+00 -4.243676637534714e-02 1.333163236594368e-02 -2.005163333468437e-01 -2.316495202472278e-02 -8.330815187736466e-02
5.380907587960818e+00 5.302890824793170e-02 -1.920919492079355e-02 -1.330982332550615e-01 -4.029235668769023e-02 -5.673938939233714e-02
5.906368781141001e+00 4.900070949619469e-02 -1.175402515404162e-02 -2.577897907184530e-01 1.727723261241726e-02 8.974671870225097e-02
6.486336944332650e+00 -5.735964703522831e-02 -2.467561855596282e-02 -1.704557143952474e-01 2.859990931225737e-02 1.436364080963786e-02
6.336802680476770e+00 2.294835890594341e-03 1.383163529893481e-03 6.174317678479943e-02 7.072701905591604e-03 -1.610741760808140e-02
5.380907587960818e+00 5.302890824793170e-02 -1.920919492079355e-02 -1.330982332550615e-01 -4.029235668769023e-02 -5.673938939233714e-02
5.859102794118007e+00 -4.243676637534714e-02 1.333163236594368e-02 -2.005163333468437e-01 -2.316495202472278e-02 -8.330815187736466e-02
6.634492157227655e+00 -1.257678168930429e-02 -9.294331643683387e-03 2.563373565186465e-01 -2.235735503078447e-02 8.670394653316511e-02
6.162086660383673e+00 2.905911382174674e-02 -1.133354771420930e-02 3.974954279464305e-01 -1.357635026350279e-02 3.236983919993321e-02
6.336802680476770e+00 2.294835890594341e-03 1.383163529893481e-03 6.174317678479943e-02 7.072701905591604e-03 -1.610741760808140e-02
5.380907587960818e+00 5.302890824793170e-02 -1.920919492079355e-02 -1.330982332550615e-01 -4.029235668769023e-02 -5.673938939233714e-02
6.722279025557174e+00 -3.646492066636448e-03 -5.178284262081319e-02 -3.011170806774581e-02 -3.690010745822993e-02 3.319255250010117e-04
6.014636474481170e+00 -1.640009506482382e-03 -7.749479107979684e-03 -4.410302152791260e-02 -2.180961647556098e-02 2.677124368840484e-02
5.792094693058165e+00 4.580779791308891e-02 -1.567286912354434e-02 -1.606730459375549e-01 7.094532643359540e-03 -3.012794158384646e-02
6.397912656781660e+00 -2.790459892528880e-02 2.329620382760225e-02 3.675514276301767e-02 1.051629426123656e-02 -7.049355547467512e-02
6.722279025557174e+00 -3.646492066636448e-03 -5.178284262081319e-02 -3.011170806774581e-02 -3.690010745822993e-02 3.319255250010117e-04
6.979531108261618e+00 1.114448039354143e-02 -1.744740886037186e-02 -1.540013738399735e-02 -5.038851637369712e-02 4.569021766257653e-02
6.355474937023192e+00 -5.029800430733605e-02 3.659387769124019e-02 -2.082227894361836e-02 -6.240966426706897e-02 9.655681087853185e-02
6.014636474481170e+00 -1.640009506482382e-03 -7.749479107979684e-03 -4.410302152791260e-02 -2.180961647556098e-02 2.677124368840484e-02
6.397912656781660e+00 -2.790459892528880e-02 2.329620382760225e-02 3.675514276301767e-02 1.051629426123656e-02 -7.049355547467512e-02
6.979531108261618e+00 1.114448039354143e-02 -1.744740886037186e-02 -1.540013738399735e-02 -5.038851637369712e-02 4.569021766257653e-02
6.634492157227655e+00 -1.257678168930429e-02 -9.294331643683387e-03 2.563373565186465e-01 -2.235735503078447e-02 8.670394653316511e-02
6.252498005925050e+00 -3.170137775304339e-02 3.801257510982134e-05 -1.053656364838040e-01 -7.544152902471617e-03 -3.292669693510776e-02
6.355474937023192e+00 -5.029800430733605e-02 3.659387769124019e-02 -2.082227894361836e-02 -6.240966426706897e-02 9.655681087853185e-02
6.397912656781660e+00 -2.790459892528880e-02 2.329620382760225e-02 3.675514276301767e-02 1.051629426123656e-02 -7.049355547467512e-02
6.634492157227655e+00 -1.257678168930429e-02 -9.294331643683387e-03 2.563373565186465e-01 -2.235735503078447e-02 8.670394653316511e-02
6.162086660383673e+00 2.905911382174674e-02 -1.133354771420930e-02 3.974954279464305e-01 -1.357635026350279e-02 3.236983919993321e-02
5.792094693058165e+00 4.580779791308891e-02 -1.567286912354434e-02 -1.606730459375549e-01 7.094532643359540e-03 -3.012794158384646e-02
6.252498005925050e+00 -3.170137775304339e-02 3.801257510982134e-05 -1.053656364838040e-01 -7.544152902471617e-03 -3.292669693510776e-02
6.397912656781660e+00 -2.790459892528880e-02 2.329620382760225e-02 3.675514276301767e-02 1.051629426123656e-02 -7.049355547467512e-02
5.792094693058165e+00 4.580779791308891e-02 -1.567286912354434e-02 -1.606730459375549e-01 7.094532643359540e-03 -3.012794158384646e-02
6.014636474481170e+00 -1.640009506482382e-03 -7.749479107979684e-03 -4.410302152791260e-02 -2.180961647556098e-02 2.677124368840484e-02
6.355474937023192e+00 -5.029800430733605e-02 3.659387769124019e-02 -2.082227894361836e-02 -6.240966426706897e-02 9.655681087853185e-02
6.252498005925050e+00 -3.170137775304339e-02 3.801257510982134e-05 -1.053656364838040e-01 -7.544152902471617e-03 -3.292669693510776e-02
6.397912656781660e+00 -2.790459892528880e-02 2.329620382760225e-02 3.675514276301767e-02 1.051629426123656e-02 -7.049355547467512e-02
6.162086660383673e+00 2.905911382174674e-02 -1.133354771420930e-02 3.974954279464305e-01 -1.357635026350279e-02 3.236983919993321e-02
6.634492157227655e+00 -1.257678168930429e-02 -9.294331643683387e-03 2.563373565186465e-01 -2.235735503078447e-02 8.670394653316511e-02
6.979531108261618e+00 1.114448039354143e-02 -1.744740886037186e-02 -1.540013738399735e-02 -5.038851637369712e-02 4.569021766257653e-02
6.722279025557174e+00 -3.646492066636448e-03 -5.178284262081319e-02 -3.011170806774581e-02 -3.690010745822993e-02 3.319255250010117e-04
6.397912656781660e+00 -2.790459892528880e-02 2.329620382760225e-02 3.675514276301767e-02 1.051629426123656e-02 -7.049355547467512e-02
        </DataArray>
  </PointData>
  <CellData>
        <DataArray type="Float64" Name="element_GL_strains_xyz" NumberOfComponents="6" format="ascii">
5.944806042496281e-02 4.659582769195314e-05 -6.113652448362372e-04 -9.482769403590514e-04 8.430341834463509e-04 -3.346767341357367e-04
5.021602258950553e-02 1.644740090559038e-03 -2.842804284086675e-06 3.869695239764667e-04 -2.588140687715259e-04 -1.920767157262153e-03
5.690028092531146e-02 5.213369182080485e-05 2.968224900337657e-05 2.932381299895724e-03 5.272128534317547e-05 -1.289942029147780e-03
6.365456139491671e-02 -1.633735952433546e-03 3.370178798434154e-05 3.948354220075099e-04 3.268429829004469e-04 1.265157132119762e-03
5.692995799521328e-02 0.000000000000000e+00 0.000000000000000e+00 -2.150576353911748e-03 0.000000000000000e+00 6.172287374986984e-04
5.439929430692486e-02 -1.651465370897109e-05 6.386333610355344e-04 1.723444070333670e-03 -7.750052693174514e-04 -3.380365575133389e-04
5.636713712818769e-02 6.802394882712837e-04 -8.072056437879033e-04 -6.280715400124386e-04 1.410546535983150e-04 1.059047008288386e-03
6.168844688976793e-02 -7.085458001191425e-04 1.865195197481295e-04 1.251528162402833e-03 -3.830373984863940e-04 1.490141683802188e-03
6.204602368432147e-02 1.856408818415034e-04 -3.805862385714009e-06 6.262650744947385e-04 -7.303789552068486e-04 1.494245777110122e-03
6.275507208720063e-02 5.213369182086036e-05 2.968224900334882e-05 9.113694654820225e-04 5.272128534315470e-05 -2.285692997657304e-03
5.711106823781542e-02 -5.417150114501446e-04 1.440854088456900e-03 -5.689974840537578e-05 -3.716990264137207e-04 -1.719711081511185e-04
6.735483386953310e-02 -1.086782212965931e-04 -1.251048033785812e-03 2.235230736553979e-03 4.047085532251756e-05 -6.235802057041548e-04
        </DataArray>
        <DataArray type="Float64" Name="element_cauchy_stresses_xyz" NumberOfComponents="6" format="ascii">
6.292216259343839e+00 5.846632118951940e-03 -5.780828128520348e-02 -1.291417711646747e-01 7.957346309805663e-02 -2.198128052124460e-02
5.263611666123716e+00 1.567844075489563e-01 -8.127367020426168e-04 1.022251640173869e-02 -2.362548854484475e-02 -1.841071395034094e-01
6.015588685739268e+00 1.033524473519956e-03 2.246400839081739e-03 2.501107680843780e-01 6.510154632155778e-03 -1.146214883809356e-01
6.769728394950302e+00 -1.538503967287191e-01 3.778935415328247e-03 4.940631043132394e-04 2.993143208411789e-02 1.406994662569033e-01
6.008308828681975e+00 1.852697637861963e-03 1.526114404139489e-04 -2.395440796899138e-01 -5.317357004806381e-04 6.875063496971774e-02
5.734631888751533e+00 -3.112685898385285e-03 6.055013247189045e-02 1.389382940194902e-01 -7.326759668353687e-02 -2.419773706585084e-02
5.946075741474463e+00 6.605898318908154e-02 -7.630597522705623e-02 -1.147283564841876e-01 1.299045143418188e-02 1.029367483400878e-01
6.545673153200034e+00 -6.843123871629118e-02 1.691284303182887e-02 5.805519356482693e-02 -3.791959621090750e-02 1.354974487848577e-01
6.579288295790382e+00 1.714728063254657e-02 -4.136425151806472e-04 -9.326170228623185e-03 -7.050669461710317e-02 1.466298217842107e-01
6.663474155957758e+00 3.707943575338101e-03 2.584452684392546e-03 1.784195078594145e-02 7.496040550865159e-03 -2.252042256247954e-01
6.022786762398658e+00 -5.037607721057507e-02 1.367540142705738e-01 -6.413835517188317e-02 -3.535863112169878e-02 -2.255543640232023e-02
7.191340673066829e+00 -1.440028923816986e-02 -1.172018930645167e-01 1.414258022315881e-01 4.506164440938036e-03 -6.717464168894892e-02
        </DataArray>
      </CellData>

    </Piece>
  </UnstructuredGrid>
</VTKFile>
