<?xml version="1.0" ?> 
<!-- 
# vtk DataFile Version 3.0
-->
<VTKFile type="UnstructuredGrid" version="0.1" compressor="vtkZLibDataCompressor" byte_order="LittleEndian">
  <UnstructuredGrid>
    <FieldData>
      <DataArray type="Float64" Name="TIME" NumberOfTuples="1" format="ascii">
1.000000000000000e+00 
      </DataArray>
    </FieldData>

    <Piece NumberOfPoints="60" NumberOfCells="12" >
      <Points>
        <DataArray type="Float64" NumberOfComponents="3" format="ascii">
0.000000000000000e+00 0.000000000000000e+00 0.000000000000000e+00
1.000000000000000e+00 0.000000000000000e+00 0.000000000000000e+00
1.000000000000000e+00 1.000000000000000e+00 0.000000000000000e+00
0.000000000000000e+00 1.000000000000000e+00 0.000000000000000e+00
5.000000000000000e-01 5.000000000000000e-01 5.000000000000000e-01
0.000000000000000e+00 0.000000000000000e+00 1.000000000000000e+00
1.000000000000000e+00 0.000000000000000e+00 1.000000000000000e+00
1.000000000000000e+00 0.000000000000000e+00 0.000000000000000e+00
0.000000000000000e+00 0.000000000000000e+00 0.000000000000000e+00
5.000000000000000e-01 5.000000000000000e-01 5.000000000000000e-01
1.000000000000000e+00 0.000000000000000e+00 1.000000000000000e+00
1.000000000000000e+00 1.000000000000000e+00 1.000000000000000e+00
1.000000000000000e+00 1.000000000000000e+00 0.000000000000000e+00
1.000000000000000e+00 0.000000000000000e+00 0.000000000000000e+00
5.000000000000000e-01 5.000000000000000e-01 5.000000000000000e-01
1.000000000000000e+00 1.000000000000000e+00 1.000000000000000e+00
0.000000000000000e+00 1.000000000000000e+00 1.000000000000000e+00
0.000000000000000e+00 1.000000000000000e+00 0.000000000000000e+00
1.000000000000000e+00 1.000000000000000e+00 0.000000000000000e+00
5.000000000000000e-01 5.000000000000000e-01 5.000000000000000e-01
0.000000000000000e+00 1.000000000000000e+00 1.000000000000000e+00
0.000000000000000e+00 0.000000000000000e+00 1.000000000000000e+00
0.000000000000000e+00 0.000000000000000e+00 0.000000000000000e+00
0.000000000000000e+00 1.000000000000000e+00 0.000000000000000e+00
5.000000000000000e-01 5.000000000000000e-01 5.000000000000000e-01
0.000000000000000e+00 0.000000000000000e+00 1.000000000000000e+00
0.000000000000000e+00 1.000000000000000e+00 1.000000000000000e+00
1.000000000000000e+00 1.000000000000000e+00 1.000000000000000e+00
1.000000000000000e+00 0.000000000000000e+00 1.000000000000000e+00
5.000000000000000e-01 5.000000000000000e-01 5.000000000000000e-01
0.000000000000000e+00 0.000000000000000e+00 1.000000000000000e+00
2.000000000000000e+00 0.000000000000000e+00 1.000000000000000e+00
2.000000000000000e+00 0.000000000000000e+00 0.000000000000000e+00
1.000000000000000e+00 0.000000000000000e+00 0.000000000000000e+00
1.500000000000000e+00 5.000000000000000e-01 5.000000000000000e-01
2.000000000000000e+00 0.000000000000000e+00 1.000000000000000e+00
2.000000000000000e+00 1.000000000000000e+00 1.000000000000000e+00
2.000000000000000e+00 1.000000000000000e+00 0.000000000000000e+00
2.000000000000000e+00 0.000000000000000e+00 0.000000000000000e+00
1.500000000000000e+00 5.000000000000000e-01 5.000000000000000e-01
2.000000000000000e+00 1.000000000000000e+00 1.000000000000000e+00
1.000000000000000e+00 1.000000000000000e+00 1.000000000000000e+00
1.000000000000000e+00 1.000000000000000e+00 0.000000000000000e+00
2.000000000000000e+00 1.000000000000000e+00 0.000000000000000e+00
1.500000000000000e+00 5.000000000000000e-01 5.000000000000000e-01
1.000000000000000e+00 1.000000000000000e+00 1.000000000000000e+00
1.000000000000000e+00 0.000000000000000e+00 1.000000000000000e+00
1.000000000000000e+00 0.000000000000000e+00 0.000000000000000e+00
1.000000000000000e+00 1.000000000000000e+00 0.000000000000000e+00
1.500000000000000e+00 5.000000000000000e-01 5.000000000000000e-01
1.000000000000000e+00 0.000000000000000e+00 0.000000000000000e+00
2.000000000000000e+00 0.000000000000000e+00 0.000000000000000e+00
2.000000000000000e+00 1.000000000000000e+00 0.000000000000000e+00
1.000000000000000e+00 1.000000000000000e+00 0.000000000000000e+00
1.500000000000000e+00 5.000000000000000e-01 5.000000000000000e-01
1.000000000000000e+00 0.000000000000000e+00 1.000000000000000e+00
1.000000000000000e+00 1.000000000000000e+00 1.000000000000000e+00
2.000000000000000e+00 1.000000000000000e+00 1.000000000000000e+00
2.000000000000000e+00 0.000000000000000e+00 1.000000000000000e+00
1.500000000000000e+00 5.000000000000000e-01 5.000000000000000e-01
        </DataArray>
      </Points>

      <Cells>
        <DataArray type="Int32" Name="connectivity" format="ascii">
0 1 2 3 4 5 6 7 8 9 10 11 12 13 14 15 16 17 18 19 20 21 22 23 24 25 26 27 28 29 30 31 32 33 34 35 36 37 38 39 40 41 42 43 44 45 46 47 48 49 50 51 52 53 54 55 56 57 58 59 
        </DataArray>
        <DataArray type="Int32" Name="offsets" format="ascii">
5 10 15 20 25 30 35 40 45 50 55 60 
        </DataArray>
        <DataArray type="UInt8" Name="types" format="ascii">
14 14 14 14 14 14 14 14 14 14 14 14 
        </DataArray>
      </Cells>

  <PointData>
        <DataArray type="Float64" Name="displacement" NumberOfComponents="3" format="ascii">
0.000000000000000e+00 0.000000000000000e+00 0.000000000000000e+00
1.028322223334768e-01 -8.357585416940186e-03 2.902025081256728e-03
1.124345367706898e-01 -8.251746021167404e-03 3.537110625265015e-03
0.000000000000000e+00 0.000000000000000e+00 0.000000000000000e+00
5.169676107472530e-02 -2.989260811565147e-03 1.038536671747025e-03
0.000000000000000e+00 0.000000000000000e+00 0.000000000000000e+00
8.431068640871731e-02 -8.619809501194963e-03 2.781559923141031e-03
1.028322223334768e-01 -8.357585416940186e-03 2.902025081256728e-03
0.000000000000000e+00 0.000000000000000e+00 0.000000000000000e+00
5.169676107472530e-02 -2.989260811565147e-03 1.038536671747025e-03
8.431068640871731e-02 -8.619809501194963e-03 2.781559923141031e-03
1.137677045741458e-01 -8.928377946116874e-03 3.619263660379258e-03
1.124345367706898e-01 -8.251746021167404e-03 3.537110625265015e-03
1.028322223334768e-01 -8.357585416940186e-03 2.902025081256728e-03
5.169676107472530e-02 -2.989260811565147e-03 1.038536671747025e-03
1.137677045741458e-01 -8.928377946116874e-03 3.619263660379258e-03
0.000000000000000e+00 0.000000000000000e+00 0.000000000000000e+00
0.000000000000000e+00 0.000000000000000e+00 0.000000000000000e+00
1.124345367706898e-01 -8.251746021167404e-03 3.537110625265015e-03
5.169676107472530e-02 -2.989260811565147e-03 1.038536671747025e-03
0.000000000000000e+00 0.000000000000000e+00 0.000000000000000e+00
0.000000000000000e+00 0.000000000000000e+00 0.000000000000000e+00
0.000000000000000e+00 0.000000000000000e+00 0.000000000000000e+00
0.000000000000000e+00 0.000000000000000e+00 0.000000000000000e+00
5.169676107472530e-02 -2.989260811565147e-03 1.038536671747025e-03
0.000000000000000e+00 0.000000000000000e+00 0.000000000000000e+00
0.000000000000000e+00 0.000000000000000e+00 0.000000000000000e+00
1.137677045741458e-01 -8.928377946116874e-03 3.619263660379258e-03
8.431068640871731e-02 -8.619809501194963e-03 2.781559923141031e-03
5.169676107472530e-02 -2.989260811565147e-03 1.038536671747025e-03
0.000000000000000e+00 0.000000000000000e+00 0.000000000000000e+00
2.102074908692588e-01 -2.595217354088387e-02 1.250564332841424e-03
2.030373890181388e-01 -2.134725343677906e-02 5.640750106762363e-04
1.028322223334768e-01 -8.357585416940186e-03 2.902025081256728e-03
1.598867344645079e-01 -1.681804571862805e-02 3.770552247353414e-03
2.102074908692588e-01 -2.595217354088387e-02 1.250564332841424e-03
2.291443219208496e-01 -2.636534781109258e-02 3.052423014997600e-03
2.197139846937335e-01 -2.332170092045822e-02 3.162682911042233e-03
2.030373890181388e-01 -2.134725343677906e-02 5.640750106762363e-04
1.598867344645079e-01 -1.681804571862805e-02 3.770552247353414e-03
2.291443219208496e-01 -2.636534781109258e-02 3.052423014997600e-03
1.137677045741458e-01 -8.928377946116874e-03 3.619263660379258e-03
1.124345367706898e-01 -8.251746021167404e-03 3.537110625265015e-03
2.197139846937335e-01 -2.332170092045822e-02 3.162682911042233e-03
1.598867344645079e-01 -1.681804571862805e-02 3.770552247353414e-03
1.137677045741458e-01 -8.928377946116874e-03 3.619263660379258e-03
8.431068640871731e-02 -8.619809501194963e-03 2.781559923141031e-03
1.028322223334768e-01 -8.357585416940186e-03 2.902025081256728e-03
1.124345367706898e-01 -8.251746021167404e-03 3.537110625265015e-03
1.598867344645079e-01 -1.681804571862805e-02 3.770552247353414e-03
1.028322223334768e-01 -8.357585416940186e-03 2.902025081256728e-03
2.030373890181388e-01 -2.134725343677906e-02 5.640750106762363e-04
2.197139846937335e-01 -2.332170092045822e-02 3.162682911042233e-03
1.124345367706898e-01 -8.251746021167404e-03 3.537110625265015e-03
1.598867344645079e-01 -1.681804571862805e-02 3.770552247353414e-03
8.431068640871731e-02 -8.619809501194963e-03 2.781559923141031e-03
1.137677045741458e-01 -8.928377946116874e-03 3.619263660379258e-03
2.291443219208496e-01 -2.636534781109258e-02 3.052423014997600e-03
2.102074908692588e-01 -2.595217354088387e-02 1.250564332841424e-03
1.598867344645079e-01 -1.681804571862805e-02 3.770552247353414e-03
        </DataArray>
        <DataArray type="Float64" Name="nodal_GL_strains_xyz" NumberOfComponents="6" format="ascii">
1.083465099921491e-01 7.875165265488771e-04 -2.947185753733626e-04 -3.448931710102792e-03 2.707302753234732e-04 1.190133836571916e-03
1.059941877966067e-01 5.815511626202011e-04 -3.295766744042676e-04 -1.659825444645777e-03 1.787970544023892e-04 -8.154821324011608e-04
1.120174867970031e-01 -5.361473663714846e-04 4.173251897023799e-05 -5.175767722341196e-04 -1.408203588771956e-04 -6.631041795827098e-04
1.154473189425253e-01 -9.543375163754437e-04 -4.401588665839626e-04 -1.751788057916835e-03 5.327716720291033e-04 1.622352920513032e-04
1.136738199292989e-01 5.175558974260164e-05 1.554708637453950e-05 1.932634228478786e-03 8.745549854863153e-05 -6.881685028863140e-04
9.925146261616585e-02 8.463515151581500e-04 -2.795601447975012e-04 -1.182295464482662e-03 -6.350591213558725e-04 -1.069038034951208e-03
1.117983868714299e-01 6.249879999063008e-04 -2.223563763465032e-04 8.807328208121495e-03 -2.829065406773276e-04 4.015632123448817e-04
1.059941877966067e-01 5.815511626202011e-04 -3.295766744042676e-04 -1.659825444645777e-03 1.787970544023892e-04 -8.154821324011608e-04
1.083465099921491e-01 7.875165265488771e-04 -2.947185753733626e-04 -3.448931710102792e-03 2.707302753234732e-04 1.190133836571916e-03
1.136738199292989e-01 5.175558974260164e-05 1.554708637453950e-05 1.932634228478786e-03 8.745549854863153e-05 -6.881685028863140e-04
1.117983868714299e-01 6.249879999063008e-04 -2.223563763465032e-04 8.807328208121495e-03 -2.829065406773276e-04 4.015632123448817e-04
1.189298163183255e-01 -8.766796640845130e-05 -1.777920606713993e-04 6.359668251870342e-03 -3.996264332742912e-04 1.396983200934114e-03
1.120174867970031e-01 -5.361473663714846e-04 4.173251897023799e-05 -5.175767722341196e-04 -1.408203588771956e-04 -6.631041795827098e-04
1.059941877966067e-01 5.815511626202011e-04 -3.295766744042676e-04 -1.659825444645777e-03 1.787970544023892e-04 -8.154821324011608e-04
1.136738199292989e-01 5.175558974260164e-05 1.554708637453950e-05 1.932634228478786e-03 8.745549854863153e-05 -6.881685028863140e-04
1.189298163183255e-01 -8.766796640845130e-05 -1.777920606713993e-04 6.359668251870342e-03 -3.996264332742912e-04 1.396983200934114e-03
1.060960726480723e-01 -7.767203226013969e-04 3.014143690676746e-04 -2.229946263048777e-03 -3.261535791564814e-04 -1.577673251521786e-03
1.154473189425253e-01 -9.543375163754437e-04 -4.401588665839626e-04 -1.751788057916835e-03 5.327716720291033e-04 1.622352920513032e-04
1.120174867970031e-01 -5.361473663714846e-04 4.173251897023799e-05 -5.175767722341196e-04 -1.408203588771956e-04 -6.631041795827098e-04
1.136738199292989e-01 5.175558974260164e-05 1.554708637453950e-05 1.932634228478786e-03 8.745549854863153e-05 -6.881685028863140e-04
1.060960726480723e-01 -7.767203226013969e-04 3.014143690676746e-04 -2.229946263048777e-03 -3.261535791564814e-04 -1.577673251521786e-03
9.925146261616585e-02 8.463515151581500e-04 -2.795601447975012e-04 -1.182295464482662e-03 -6.350591213558725e-04 -1.069038034951208e-03
1.083465099921491e-01 7.875165265488771e-04 -2.947185753733626e-04 -3.448931710102792e-03 2.707302753234732e-04 1.190133836571916e-03
1.154473189425253e-01 -9.543375163754437e-04 -4.401588665839626e-04 -1.751788057916835e-03 5.327716720291033e-04 1.622352920513032e-04
1.136738199292989e-01 5.175558974260164e-05 1.554708637453950e-05 1.932634228478786e-03 8.745549854863153e-05 -6.881685028863140e-04
9.925146261616585e-02 8.463515151581500e-04 -2.795601447975012e-04 -1.182295464482662e-03 -6.350591213558725e-04 -1.069038034951208e-03
1.060960726480723e-01 -7.767203226013969e-04 3.014143690676746e-04 -2.229946263048777e-03 -3.261535791564814e-04 -1.577673251521786e-03
1.189298163183255e-01 -8.766796640845130e-05 -1.777920606713993e-04 6.359668251870342e-03 -3.996264332742912e-04 1.396983200934114e-03
1.117983868714299e-01 6.249879999063008e-04 -2.223563763465032e-04 8.807328208121495e-03 -2.829065406773276e-04 4.015632123448817e-04
1.136738199292989e-01 5.175558974260164e-05 1.554708637453950e-05 1.932634228478786e-03 8.745549854863153e-05 -6.881685028863140e-04
9.925146261616585e-02 8.463515151581500e-04 -2.795601447975012e-04 -1.182295464482662e-03 -6.350591213558725e-04 -1.069038034951208e-03
1.210998494277698e-01 7.128974681942216e-05 -9.893548830628832e-04 8.042216127750216e-04 -6.303888874889233e-04 4.429576769448542e-05
1.092986508759090e-01 -3.141841928812433e-04 -1.579177454790945e-04 6.757152766732603e-04 -2.418982930438873e-04 6.060114137151226e-04
1.059941877966067e-01 5.815511626202011e-04 -3.295766744042676e-04 -1.659825444645777e-03 1.787970544023892e-04 -8.154821324011608e-04
1.150087189163056e-01 -4.239740146784003e-04 4.097617557907079e-04 2.335042894621919e-03 4.004649644456889e-05 -1.211992395614207e-03
1.210998494277698e-01 7.128974681942216e-05 -9.893548830628832e-04 8.042216127750216e-04 -6.303888874889233e-04 4.429576769448542e-05
1.247841508792288e-01 3.007096260657169e-04 -3.707354381778357e-04 1.521948357852175e-03 -9.737961063820130e-04 9.704522466810782e-04
1.142444399263256e-01 -8.077272079398699e-04 7.301409324804967e-04 1.263068969311414e-03 -1.143174516308594e-03 1.938665863872546e-03
1.092986508759090e-01 -3.141841928812433e-04 -1.579177454790945e-04 6.757152766732603e-04 -2.418982930438873e-04 6.060114137151226e-04
1.150087189163056e-01 -4.239740146784003e-04 4.097617557907079e-04 2.335042894621919e-03 4.004649644456889e-05 -1.211992395614207e-03
1.247841508792288e-01 3.007096260657169e-04 -3.707354381778357e-04 1.521948357852175e-03 -9.737961063820130e-04 9.704522466810782e-04
1.189298163183255e-01 -8.766796640845130e-05 -1.777920606713993e-04 6.359668251870342e-03 -3.996264332742912e-04 1.396983200934114e-03
1.120174867970031e-01 -5.361473663714846e-04 4.173251897023799e-05 -5.175767722341196e-04 -1.408203588771956e-04 -6.631041795827098e-04
1.142444399263256e-01 -8.077272079398699e-04 7.301409324804967e-04 1.263068969311414e-03 -1.143174516308594e-03 1.938665863872546e-03
1.150087189163056e-01 -4.239740146784003e-04 4.097617557907079e-04 2.335042894621919e-03 4.004649644456889e-05 -1.211992395614207e-03
1.189298163183255e-01 -8.766796640845130e-05 -1.777920606713993e-04 6.359668251870342e-03 -3.996264332742912e-04 1.396983200934114e-03
1.117983868714299e-01 6.249879999063008e-04 -2.223563763465032e-04 8.807328208121495e-03 -2.829065406773276e-04 4.015632123448817e-04
1.059941877966067e-01 5.815511626202011e-04 -3.295766744042676e-04 -1.659825444645777e-03 1.787970544023892e-04 -8.154821324011608e-04
1.120174867970031e-01 -5.361473663714846e-04 4.173251897023799e-05 -5.175767722341196e-04 -1.408203588771956e-04 -6.631041795827098e-04
1.150087189163056e-01 -4.239740146784003e-04 4.097617557907079e-04 2.335042894621919e-03 4.004649644456889e-05 -1.211992395614207e-03
1.059941877966067e-01 5.815511626202011e-04 -3.295766744042676e-04 -1.659825444645777e-03 1.787970544023892e-04 -8.154821324011608e-04
1.092986508759090e-01 -3.141841928812433e-04 -1.579177454790945e-04 6.757152766732603e-04 -2.418982930438873e-04 6.060114137151226e-04
1.142444399263256e-01 -8.077272079398699e-04 7.301409324804967e-04 1.263068969311414e-03 -1.143174516308594e-03 1.938665863872546e-03
1.120174867970031e-01 -5.361473663714846e-04 4.173251897023799e-05 -5.175767722341196e-04 -1.408203588771956e-04 -6.631041795827098e-04
1.150087189163056e-01 -4.239740146784003e-04 4.097617557907079e-04 2.335042894621919e-03 4.004649644456889e-05 -1.211992395614207e-03
1.117983868714299e-01 6.249879999063008e-04 -2.223563763465032e-04 8.807328208121495e-03 -2.829065406773276e-04 4.015632123448817e-04
1.189298163183255e-01 -8.766796640845130e-05 -1.777920606713993e-04 6.359668251870342e-03 -3.996264332742912e-04 1.396983200934114e-03
1.247841508792288e-01 3.007096260657169e-04 -3.707354381778357e-04 1.521948357852175e-03 -9.737961063820130e-04 9.704522466810782e-04
1.210998494277698e-01 7.128974681942216e-05 -9.893548830628832e-04 8.042216127750216e-04 -6.303888874889233e-04 4.429576769448542e-05
1.150087189163056e-01 -4.239740146784003e-04 4.097617557907079e-04 2.335042894621919e-03 4.004649644456889e-05 -1.211992395614207e-03
        </DataArray>
        <DataArray type="Float64" Name="nodal_cauchy_stresses_xyz" NumberOfComponents="6" format="ascii">
1.193670203515637e+01 7.712103076486181e-02 -2.603364168009599e-02 -4.267526985186074e-01 2.257263595829265e-02 1.473309490010784e-01
1.165806935528920e+01 5.746479797581118e-02 -2.975197161950235e-02 -2.891185719936383e-01 1.678635304963151e-02 -6.948309210851165e-02
1.240283002957394e+01 -4.517800410874545e-02 2.999222924833542e-03 -1.901157154959255e-01 -1.293819394087405e-02 -4.539747392731834e-02
1.282968313903985e+01 -8.258320927261115e-02 -3.933577988262658e-02 -2.639838116662112e-01 4.693075057198690e-02 5.256978733282424e-02
1.260527354777625e+01 2.954041451827657e-03 1.327108921788153e-03 9.580153057494474e-02 8.551314358374904e-03 -2.999715240556804e-02
1.086628624848272e+01 8.116994330469912e-02 -2.586950685505899e-02 -2.066821440055895e-01 -5.756654516283455e-02 -8.827855554334837e-02
1.243354887524860e+01 4.002079934346064e-02 -1.905880791504496e-02 7.337923532421431e-01 -2.486556030185123e-02 5.949812484597171e-02
1.165806935528920e+01 5.746479797581118e-02 -2.975197161950235e-02 -2.891185719936383e-01 1.678635304963151e-02 -6.948309210851165e-02
1.193670203515637e+01 7.712103076486181e-02 -2.603364168009599e-02 -4.267526985186074e-01 2.257263595829265e-02 1.473309490010784e-01
1.260527354777625e+01 2.954041451827657e-03 1.327108921788153e-03 9.580153057494474e-02 8.551314358374904e-03 -2.999715240556804e-02
1.243354887524860e+01 4.002079934346064e-02 -1.905880791504496e-02 7.337923532421431e-01 -2.486556030185123e-02 5.949812484597171e-02
1.328359497900933e+01 -1.995468660927255e-02 -1.501722598540019e-02 4.716274807632588e-01 -3.694082397889114e-02 1.577882862940820e-01
1.240283002957394e+01 -4.517800410874545e-02 2.999222924833542e-03 -1.901157154959255e-01 -1.293819394087405e-02 -4.539747392731834e-02
1.165806935528920e+01 5.746479797581118e-02 -2.975197161950235e-02 -2.891185719936383e-01 1.678635304963151e-02 -6.948309210851165e-02
1.260527354777625e+01 2.954041451827657e-03 1.327108921788153e-03 9.580153057494474e-02 8.551314358374904e-03 -2.999715240556804e-02
1.328359497900933e+01 -1.995468660927255e-02 -1.501722598540019e-02 4.716274807632588e-01 -3.694082397889114e-02 1.577882862940820e-01
1.169783433864824e+01 -6.578793619143794e-02 2.705447945141608e-02 -3.051580188022435e-01 -2.990236099752056e-02 -1.277986963980742e-01
1.282968313903985e+01 -8.258320927261115e-02 -3.933577988262658e-02 -2.639838116662112e-01 4.693075057198690e-02 5.256978733282424e-02
1.240283002957394e+01 -4.517800410874545e-02 2.999222924833542e-03 -1.901157154959255e-01 -1.293819394087405e-02 -4.539747392731834e-02
1.260527354777625e+01 2.954041451827657e-03 1.327108921788153e-03 9.580153057494474e-02 8.551314358374904e-03 -2.999715240556804e-02
1.169783433864824e+01 -6.578793619143794e-02 2.705447945141608e-02 -3.051580188022435e-01 -2.990236099752056e-02 -1.277986963980742e-01
1.086628624848272e+01 8.116994330469912e-02 -2.586950685505899e-02 -2.066821440055895e-01 -5.756654516283455e-02 -8.827855554334837e-02
1.193670203515637e+01 7.712103076486181e-02 -2.603364168009599e-02 -4.267526985186074e-01 2.257263595829265e-02 1.473309490010784e-01
1.282968313903985e+01 -8.258320927261115e-02 -3.933577988262658e-02 -2.639838116662112e-01 4.693075057198690e-02 5.256978733282424e-02
1.260527354777625e+01 2.954041451827657e-03 1.327108921788153e-03 9.580153057494474e-02 8.551314358374904e-03 -2.999715240556804e-02
1.086628624848272e+01 8.116994330469912e-02 -2.586950685505899e-02 -2.066821440055895e-01 -5.756654516283455e-02 -8.827855554334837e-02
1.169783433864824e+01 -6.578793619143794e-02 2.705447945141608e-02 -3.051580188022435e-01 -2.990236099752056e-02 -1.277986963980742e-01
1.328359497900933e+01 -1.995468660927255e-02 -1.501722598540019e-02 4.716274807632588e-01 -3.694082397889114e-02 1.577882862940820e-01
1.243354887524860e+01 4.002079934346064e-02 -1.905880791504496e-02 7.337923532421431e-01 -2.486556030185123e-02 5.949812484597171e-02
1.260527354777625e+01 2.954041451827657e-03 1.327108921788153e-03 9.580153057494474e-02 8.551314358374904e-03 -2.999715240556804e-02
1.086628624848272e+01 8.116994330469912e-02 -2.586950685505899e-02 -2.066821440055895e-01 -5.756654516283455e-02 -8.827855554334837e-02
1.352089325725402e+01 7.066045015987258e-03 -8.895843443853019e-02 -1.022136508995513e-01 -5.648245813005998e-02 -1.522183632362679e-02
1.207410247818171e+01 -2.765425266029480e-02 -1.343868282196517e-02 -8.530328866377881e-02 -2.220781641451402e-02 3.398512772322738e-02
1.165806935528920e+01 5.746479797581118e-02 -2.975197161950235e-02 -2.891185719936383e-01 1.678635304963151e-02 -6.948309210851165e-02
1.277366968802914e+01 -4.261794720106429e-02 3.658973813681859e-02 5.510472254995508e-02 5.463660552408441e-03 -1.301354820879595e-01
1.352089325725402e+01 7.066045015987258e-03 -8.895843443853019e-02 -1.022136508995513e-01 -5.648245813005998e-02 -1.522183632362679e-02
1.395991321992565e+01 2.653952430993532e-02 -3.292877024914181e-02 -5.289334647476159e-02 -8.897935502776695e-02 7.206607009313309e-02
1.267064272286769e+01 -7.323561679189898e-02 6.536584446923478e-02 -5.006646252066613e-02 -1.060150250092109e-01 1.769175257538606e-01
1.207410247818171e+01 -2.765425266029480e-02 -1.343868282196517e-02 -8.530328866377881e-02 -2.220781641451402e-02 3.398512772322738e-02
1.277366968802914e+01 -4.261794720106429e-02 3.658973813681859e-02 5.510472254995508e-02 5.463660552408441e-03 -1.301354820879595e-01
1.395991321992565e+01 2.653952430993532e-02 -3.292877024914181e-02 -5.289334647476159e-02 -8.897935502776695e-02 7.206607009313309e-02
1.328359497900933e+01 -1.995468660927255e-02 -1.501722598540019e-02 4.716274807632588e-01 -3.694082397889114e-02 1.577882862940820e-01
1.240283002957394e+01 -4.517800410874545e-02 2.999222924833542e-03 -1.901157154959255e-01 -1.293819394087405e-02 -4.539747392731834e-02
1.267064272286769e+01 -7.323561679189898e-02 6.536584446923478e-02 -5.006646252066613e-02 -1.060150250092109e-01 1.769175257538606e-01
1.277366968802914e+01 -4.261794720106429e-02 3.658973813681859e-02 5.510472254995508e-02 5.463660552408441e-03 -1.301354820879595e-01
1.328359497900933e+01 -1.995468660927255e-02 -1.501722598540019e-02 4.716274807632588e-01 -3.694082397889114e-02 1.577882862940820e-01
1.243354887524860e+01 4.002079934346064e-02 -1.905880791504496e-02 7.337923532421431e-01 -2.486556030185123e-02 5.949812484597171e-02
1.165806935528920e+01 5.746479797581118e-02 -2.975197161950235e-02 -2.891185719936383e-01 1.678635304963151e-02 -6.948309210851165e-02
1.240283002957394e+01 -4.517800410874545e-02 2.999222924833542e-03 -1.901157154959255e-01 -1.293819394087405e-02 -4.539747392731834e-02
1.277366968802914e+01 -4.261794720106429e-02 3.658973813681859e-02 5.510472254995508e-02 5.463660552408441e-03 -1.301354820879595e-01
1.165806935528920e+01 5.746479797581118e-02 -2.975197161950235e-02 -2.891185719936383e-01 1.678635304963151e-02 -6.948309210851165e-02
1.207410247818171e+01 -2.765425266029480e-02 -1.343868282196517e-02 -8.530328866377881e-02 -2.220781641451402e-02 3.398512772322738e-02
1.267064272286769e+01 -7.323561679189898e-02 6.536584446923478e-02 -5.006646252066613e-02 -1.060150250092109e-01 1.769175257538606e-01
1.240283002957394e+01 -4.517800410874545e-02 2.999222924833542e-03 -1.901157154959255e-01 -1.293819394087405e-02 -4.539747392731834e-02
1.277366968802914e+01 -4.261794720106429e-02 3.658973813681859e-02 5.510472254995508e-02 5.463660552408441e-03 -1.301354820879595e-01
1.243354887524860e+01 4.002079934346064e-02 -1.905880791504496e-02 7.337923532421431e-01 -2.486556030185123e-02 5.949812484597171e-02
1.328359497900933e+01 -1.995468660927255e-02 -1.501722598540019e-02 4.716274807632588e-01 -3.694082397889114e-02 1.577882862940820e-01
1.395991321992565e+01 2.653952430993532e-02 -3.292877024914181e-02 -5.289334647476159e-02 -8.897935502776695e-02 7.206607009313309e-02
1.352089325725402e+01 7.066045015987258e-03 -8.895843443853019e-02 -1.022136508995513e-01 -5.648245813005998e-02 -1.522183632362679e-02
1.277366968802914e+01 -4.261794720106429e-02 3.658973813681859e-02 5.510472254995508e-02 5.463660552408441e-03 -1.301354820879595e-01
        </DataArray>
  </PointData>
  <CellData>
        <DataArray type="Float64" Name="element_GL_strains_xyz" NumberOfComponents="6" format="ascii">
1.134693774180088e-01 6.835619424910844e-05 -1.128861819642668e-03 -1.493080426573933e-03 1.311545476961145e-03 -7.498179590815843e-04
9.800362689917741e-02 2.566620935028241e-03 -3.044151335063194e-06 1.114477094913113e-03 -4.935370723555245e-04 -3.642288592523319e-03
1.086888504188110e-01 1.060499362678102e-04 3.431855514182680e-05 5.225378591966680e-03 4.957928305501466e-05 -2.566874689897958e-03
1.195404421283303e-01 -2.559853745397661e-03 4.145017026968567e-05 1.121640685488414e-03 5.851069760355650e-04 2.161607782706274e-03
1.087586608379214e-01 0.000000000000000e+00 0.000000000000000e+00 -2.989260811565142e-03 0.000000000000000e+00 1.038536671747026e-03
1.040233783280988e-01 -9.532075588458699e-06 1.149419763813719e-03 3.707904626042947e-03 -1.219975573281103e-03 -7.785200590693288e-04
1.086323807168703e-01 7.505545490416043e-04 -1.343255822616851e-03 -9.119763475565116e-04 4.257992917489167e-04 1.858082811974936e-03
1.175862329793389e-01 -1.031797374092813e-03 3.302564894086812e-04 2.470521349972189e-03 -7.355255925507114e-04 2.876711260772288e-03
1.176601631586549e-01 3.615324224621186e-04 5.125188296178917e-06 1.738641997812798e-03 -1.310152866650983e-03 2.770249287526518e-03
1.196399791502052e-01 1.060499362678657e-04 3.431855514182680e-05 2.591830469577990e-03 4.957928305498490e-05 -4.218659055729559e-03
1.092253040813588e-01 -8.438116594877837e-04 2.466770684789843e-03 2.418381705615317e-04 -6.816417297491489e-04 -2.368862966731148e-04
1.280696329693276e-01 -6.253913226930696e-05 -2.183851658760366e-03 4.868092170436281e-03 -2.506139679549766e-06 -1.105061498284006e-03
        </DataArray>
        <DataArray type="Float64" Name="element_cauchy_stresses_xyz" NumberOfComponents="6" format="ascii">
1.258253998436794e+01 9.680872275106575e-03 -1.020377642226623e-01 -2.444283205644931e-01 1.180236736886528e-01 -3.732985243489164e-02
1.070635969887400e+01 2.342125596446053e-01 -2.024886222172164e-03 3.129712719999869e-02 -4.240803924009141e-02 -3.359910516773937e-01
1.202337329835660e+01 3.058212719661590e-04 1.285478392474418e-03 4.018143378086581e-01 8.662438566220275e-03 -2.089026430380032e-01
1.334186214625356e+01 -2.303107153095460e-01 5.423512884048957e-03 6.909728906710058e-03 5.056976681827585e-02 2.602774870754573e-01
1.200036018462116e+01 3.591651613991307e-03 4.335211196354423e-04 -3.639476817087348e-01 -1.247820832106098e-03 1.264436387047583e-01
1.145014289427882e+01 -5.433088458498211e-03 1.042744003873992e-01 2.796635116358649e-01 -1.098437608075204e-01 -4.602629603995685e-02
1.199142036120043e+01 7.163258948109079e-02 -1.209631640555566e-01 -2.324146762567457e-01 3.744792752616849e-02 1.799619088108693e-01
1.308902953690780e+01 -9.637075599715214e-02 2.777469752201889e-02 6.878074390719469e-02 -7.059084878805116e-02 2.459972989979727e-01
1.308059469984174e+01 3.079848247194245e-02 4.311029960439919e-04 -1.835227539926453e-02 -1.219215468666034e-01 2.690939514308255e-01
1.334066090365155e+01 4.754076994237767e-03 2.253570803320989e-03 6.111937599860534e-02 1.078608871167366e-02 -4.080676830808373e-01
1.203692369934847e+01 -7.439763598628114e-02 2.241600084139734e-01 -1.301297202325543e-01 -6.215685632151729e-02 -3.881990188470041e-02
1.440948058501365e+01 -1.726280799885472e-02 -1.942129289898124e-01 2.644134411534007e-01 1.475450945168101e-03 -1.233405416589432e-01
        </DataArray>
      </CellData>

    </Piece>
  </UnstructuredGrid>
</VTKFile>
