<?xml version="1.0" ?> 
<!-- 
# vtk DataFile Version 3.0
-->
<VTKFile type="UnstructuredGrid" version="0.1" compressor="vtkZLibDataCompressor" byte_order="LittleEndian">
  <UnstructuredGrid>
    <FieldData>
      <DataArray type="Float64" Name="TIME" NumberOfTuples="1" format="ascii">
0.000000000000000e+00 
      </DataArray>
    </FieldData>

    <Piece NumberOfPoints="60" NumberOfCells="12" >
      <Points>
        <DataArray type="Float64" NumberOfComponents="3" format="ascii">
0.000000000000000e+00 0.000000000000000e+00 0.000000000000000e+00
1.000000000000000e+00 0.000000000000000e+00 0.000000000000000e+00
1.000000000000000e+00 1.000000000000000e+00 0.000000000000000e+00
0.000000000000000e+00 1.000000000000000e+00 0.000000000000000e+00
5.000000000000000e-01 5.000000000000000e-01 5.000000000000000e-01
0.000000000000000e+00 0.000000000000000e+00 1.000000000000000e+00
1.000000000000000e+00 0.000000000000000e+00 1.000000000000000e+00
1.000000000000000e+00 0.000000000000000e+00 0.000000000000000e+00
0.000000000000000e+00 0.000000000000000e+00 0.000000000000000e+00
5.000000000000000e-01 5.000000000000000e-01 5.000000000000000e-01
1.000000000000000e+00 0.000000000000000e+00 1.000000000000000e+00
1.000000000000000e+00 1.000000000000000e+00 1.000000000000000e+00
1.000000000000000e+00 1.000000000000000e+00 0.000000000000000e+00
1.000000000000000e+00 0.000000000000000e+00 0.000000000000000e+00
5.000000000000000e-01 5.000000000000000e-01 5.000000000000000e-01
1.000000000000000e+00 1.000000000000000e+00 1.000000000000000e+00
0.000000000000000e+00 1.000000000000000e+00 1.000000000000000e+00
0.000000000000000e+00 1.000000000000000e+00 0.000000000000000e+00
1.000000000000000e+00 1.000000000000000e+00 0.000000000000000e+00
5.000000000000000e-01 5.000000000000000e-01 5.000000000000000e-01
0.000000000000000e+00 1.000000000000000e+00 1.000000000000000e+00
0.000000000000000e+00 0.000000000000000e+00 1.000000000000000e+00
0.000000000000000e+00 0.000000000000000e+00 0.000000000000000e+00
0.000000000000000e+00 1.000000000000000e+00 0.000000000000000e+00
5.000000000000000e-01 5.000000000000000e-01 5.000000000000000e-01
0.000000000000000e+00 0.000000000000000e+00 1.000000000000000e+00
0.000000000000000e+00 1.000000000000000e+00 1.000000000000000e+00
1.000000000000000e+00 1.000000000000000e+00 1.000000000000000e+00
1.000000000000000e+00 0.000000000000000e+00 1.000000000000000e+00
5.000000000000000e-01 5.000000000000000e-01 5.000000000000000e-01
0.000000000000000e+00 0.000000000000000e+00 1.000000000000000e+00
2.000000000000000e+00 0.000000000000000e+00 1.000000000000000e+00
2.000000000000000e+00 0.000000000000000e+00 0.000000000000000e+00
1.000000000000000e+00 0.000000000000000e+00 0.000000000000000e+00
1.500000000000000e+00 5.000000000000000e-01 5.000000000000000e-01
2.000000000000000e+00 0.000000000000000e+00 1.000000000000000e+00
2.000000000000000e+00 1.000000000000000e+00 1.000000000000000e+00
2.000000000000000e+00 1.000000000000000e+00 0.000000000000000e+00
2.000000000000000e+00 0.000000000000000e+00 0.000000000000000e+00
1.500000000000000e+00 5.000000000000000e-01 5.000000000000000e-01
2.000000000000000e+00 1.000000000000000e+00 1.000000000000000e+00
1.000000000000000e+00 1.000000000000000e+00 1.000000000000000e+00
1.000000000000000e+00 1.000000000000000e+00 0.000000000000000e+00
2.000000000000000e+00 1.000000000000000e+00 0.000000000000000e+00
1.500000000000000e+00 5.000000000000000e-01 5.000000000000000e-01
1.000000000000000e+00 1.000000000000000e+00 1.000000000000000e+00
1.000000000000000e+00 0.000000000000000e+00 1.000000000000000e+00
1.000000000000000e+00 0.000000000000000e+00 0.000000000000000e+00
1.000000000000000e+00 1.000000000000000e+00 0.000000000000000e+00
1.500000000000000e+00 5.000000000000000e-01 5.000000000000000e-01
1.000000000000000e+00 0.000000000000000e+00 0.000000000000000e+00
2.000000000000000e+00 0.000000000000000e+00 0.000000000000000e+00
2.000000000000000e+00 1.000000000000000e+00 0.000000000000000e+00
1.000000000000000e+00 1.000000000000000e+00 0.000000000000000e+00
1.500000000000000e+00 5.000000000000000e-01 5.000000000000000e-01
1.000000000000000e+00 0.000000000000000e+00 1.000000000000000e+00
1.000000000000000e+00 1.000000000000000e+00 1.000000000000000e+00
2.000000000000000e+00 1.000000000000000e+00 1.000000000000000e+00
2.000000000000000e+00 0.000000000000000e+00 1.000000000000000e+00
1.500000000000000e+00 5.000000000000000e-01 5.000000000000000e-01
        </DataArray>
      </Points>

      <Cells>
        <DataArray type="Int32" Name="connectivity" format="ascii">
0 1 2 3 4 5 6 7 8 9 10 11 12 13 14 15 16 17 18 19 20 21 22 23 24 25 26 27 28 29 30 31 32 33 34 35 36 37 38 39 40 41 42 43 44 45 46 47 48 49 50 51 52 53 54 55 56 57 58 59 
        </DataArray>
        <DataArray type="Int32" Name="offsets" format="ascii">
5 10 15 20 25 30 35 40 45 50 55 60 
        </DataArray>
        <DataArray type="UInt8" Name="types" format="ascii">
14 14 14 14 14 14 14 14 14 14 14 14 
        </DataArray>
      </Cells>

  <PointData>
        <DataArray type="Float64" Name="displacement" NumberOfComponents="3" format="ascii">
0.000000000000000e+00 0.000000000000000e+00 0.000000000000000e+00
0.000000000000000e+00 0.000000000000000e+00 0.000000000000000e+00
0.000000000000000e+00 0.000000000000000e+00 0.000000000000000e+00
0.000000000000000e+00 0.000000000000000e+00 0.000000000000000e+00
0.000000000000000e+00 0.000000000000000e+00 0.000000000000000e+00
0.000000000000000e+00 0.000000000000000e+00 0.000000000000000e+00
0.000000000000000e+00 0.000000000000000e+00 0.000000000000000e+00
0.000000000000000e+00 0.000000000000000e+00 0.000000000000000e+00
0.000000000000000e+00 0.000000000000000e+00 0.000000000000000e+00
0.000000000000000e+00 0.000000000000000e+00 0.000000000000000e+00
0.000000000000000e+00 0.000000000000000e+00 0.000000000000000e+00
0.000000000000000e+00 0.000000000000000e+00 0.000000000000000e+00
0.000000000000000e+00 0.000000000000000e+00 0.000000000000000e+00
0.000000000000000e+00 0.000000000000000e+00 0.000000000000000e+00
0.000000000000000e+00 0.000000000000000e+00 0.000000000000000e+00
0.000000000000000e+00 0.000000000000000e+00 0.000000000000000e+00
0.000000000000000e+00 0.000000000000000e+00 0.000000000000000e+00
0.000000000000000e+00 0.000000000000000e+00 0.000000000000000e+00
0.000000000000000e+00 0.000000000000000e+00 0.000000000000000e+00
0.000000000000000e+00 0.000000000000000e+00 0.000000000000000e+00
0.000000000000000e+00 0.000000000000000e+00 0.000000000000000e+00
0.000000000000000e+00 0.000000000000000e+00 0.000000000000000e+00
0.000000000000000e+00 0.000000000000000e+00 0.000000000000000e+00
0.000000000000000e+00 0.000000000000000e+00 0.000000000000000e+00
0.000000000000000e+00 0.000000000000000e+00 0.000000000000000e+00
0.000000000000000e+00 0.000000000000000e+00 0.000000000000000e+00
0.000000000000000e+00 0.000000000000000e+00 0.000000000000000e+00
0.000000000000000e+00 0.000000000000000e+00 0.000000000000000e+00
0.000000000000000e+00 0.000000000000000e+00 0.000000000000000e+00
0.000000000000000e+00 0.000000000000000e+00 0.000000000000000e+00
0.000000000000000e+00 0.000000000000000e+00 0.000000000000000e+00
0.000000000000000e+00 0.000000000000000e+00 0.000000000000000e+00
0.000000000000000e+00 0.000000000000000e+00 0.000000000000000e+00
0.000000000000000e+00 0.000000000000000e+00 0.000000000000000e+00
0.000000000000000e+00 0.000000000000000e+00 0.000000000000000e+00
0.000000000000000e+00 0.000000000000000e+00 0.000000000000000e+00
0.000000000000000e+00 0.000000000000000e+00 0.000000000000000e+00
0.000000000000000e+00 0.000000000000000e+00 0.000000000000000e+00
0.000000000000000e+00 0.000000000000000e+00 0.000000000000000e+00
0.000000000000000e+00 0.000000000000000e+00 0.000000000000000e+00
0.000000000000000e+00 0.000000000000000e+00 0.000000000000000e+00
0.000000000000000e+00 0.000000000000000e+00 0.000000000000000e+00
0.000000000000000e+00 0.000000000000000e+00 0.000000000000000e+00
0.000000000000000e+00 0.000000000000000e+00 0.000000000000000e+00
0.000000000000000e+00 0.000000000000000e+00 0.000000000000000e+00
0.000000000000000e+00 0.000000000000000e+00 0.000000000000000e+00
0.000000000000000e+00 0.000000000000000e+00 0.000000000000000e+00
0.000000000000000e+00 0.000000000000000e+00 0.000000000000000e+00
0.000000000000000e+00 0.000000000000000e+00 0.000000000000000e+00
0.000000000000000e+00 0.000000000000000e+00 0.000000000000000e+00
0.000000000000000e+00 0.000000000000000e+00 0.000000000000000e+00
0.000000000000000e+00 0.000000000000000e+00 0.000000000000000e+00
0.000000000000000e+00 0.000000000000000e+00 0.000000000000000e+00
0.000000000000000e+00 0.000000000000000e+00 0.000000000000000e+00
0.000000000000000e+00 0.000000000000000e+00 0.000000000000000e+00
0.000000000000000e+00 0.000000000000000e+00 0.000000000000000e+00
0.000000000000000e+00 0.000000000000000e+00 0.000000000000000e+00
0.000000000000000e+00 0.000000000000000e+00 0.000000000000000e+00
0.000000000000000e+00 0.000000000000000e+00 0.000000000000000e+00
0.000000000000000e+00 0.000000000000000e+00 0.000000000000000e+00
        </DataArray>
        <DataArray type="Float64" Name="nodal_GL_strains_xyz" NumberOfComponents="6" format="ascii">
0.000000000000000e+00 0.000000000000000e+00 0.000000000000000e+00 0.000000000000000e+00 0.000000000000000e+00 0.000000000000000e+00
-3.948646217806056e-17 0.000000000000000e+00 -6.524227847950907e-17 -2.042990620443613e-17 -2.016230342697462e-18 -1.066002196285725e-17
1.196099074440424e-16 0.000000000000000e+00 -6.772130650339856e-17 -6.204646987848299e-18 -8.825778932746626e-18 -2.909020104099611e-17
0.000000000000000e+00 0.000000000000000e+00 2.388033132427868e-17 0.000000000000000e+00 1.966778820819016e-17 0.000000000000000e+00
1.000254351646498e-17 0.000000000000000e+00 1.000254351646498e-17 -7.220400770627981e-18 1.342507265729847e-17 0.000000000000000e+00
4.969828479423218e-17 0.000000000000000e+00 1.791024849320901e-17 9.598073239992079e-18 0.000000000000000e+00 -2.906433218512191e-18
-7.306531857414019e-17 0.000000000000000e+00 -4.298459638370227e-17 2.419476411236976e-18 -1.818077867501551e-32 -2.726106785077337e-18
-3.948646217806056e-17 0.000000000000000e+00 -6.524227847950907e-17 -2.042990620443613e-17 -2.016230342697462e-18 -1.066002196285725e-17
0.000000000000000e+00 0.000000000000000e+00 0.000000000000000e+00 0.000000000000000e+00 0.000000000000000e+00 0.000000000000000e+00
1.000254351646498e-17 0.000000000000000e+00 1.000254351646498e-17 -7.220400770627981e-18 1.342507265729847e-17 0.000000000000000e+00
-7.306531857414019e-17 0.000000000000000e+00 -4.298459638370227e-17 2.419476411236976e-18 -1.818077867501551e-32 -2.726106785077337e-18
9.395924483097753e-17 0.000000000000000e+00 2.673347436949341e-17 2.016230342697473e-18 -1.689070030353641e-17 4.625929269271397e-18
1.196099074440424e-16 0.000000000000000e+00 -6.772130650339856e-17 -6.204646987848299e-18 -8.825778932746626e-18 -2.909020104099611e-17
-3.948646217806056e-17 0.000000000000000e+00 -6.524227847950907e-17 -2.042990620443613e-17 -2.016230342697462e-18 -1.066002196285725e-17
1.000254351646498e-17 0.000000000000000e+00 1.000254351646498e-17 -7.220400770627981e-18 1.342507265729847e-17 0.000000000000000e+00
9.395924483097753e-17 0.000000000000000e+00 2.673347436949341e-17 2.016230342697473e-18 -1.689070030353641e-17 4.625929269271397e-18
-9.552132529711579e-17 0.000000000000000e+00 -6.398715493328037e-18 4.032460685394924e-18 -4.305612518226386e-17 4.305612518226386e-17
0.000000000000000e+00 0.000000000000000e+00 2.388033132427868e-17 0.000000000000000e+00 1.966778820819016e-17 0.000000000000000e+00
1.196099074440424e-16 0.000000000000000e+00 -6.772130650339856e-17 -6.204646987848299e-18 -8.825778932746626e-18 -2.909020104099611e-17
1.000254351646498e-17 0.000000000000000e+00 1.000254351646498e-17 -7.220400770627981e-18 1.342507265729847e-17 0.000000000000000e+00
-9.552132529711579e-17 0.000000000000000e+00 -6.398715493328037e-18 4.032460685394924e-18 -4.305612518226386e-17 4.305612518226386e-17
4.969828479423218e-17 0.000000000000000e+00 1.791024849320901e-17 9.598073239992079e-18 0.000000000000000e+00 -2.906433218512191e-18
0.000000000000000e+00 0.000000000000000e+00 0.000000000000000e+00 0.000000000000000e+00 0.000000000000000e+00 0.000000000000000e+00
0.000000000000000e+00 0.000000000000000e+00 2.388033132427868e-17 0.000000000000000e+00 1.966778820819016e-17 0.000000000000000e+00
1.000254351646498e-17 0.000000000000000e+00 1.000254351646498e-17 -7.220400770627981e-18 1.342507265729847e-17 0.000000000000000e+00
4.969828479423218e-17 0.000000000000000e+00 1.791024849320901e-17 9.598073239992079e-18 0.000000000000000e+00 -2.906433218512191e-18
-9.552132529711579e-17 0.000000000000000e+00 -6.398715493328037e-18 4.032460685394924e-18 -4.305612518226386e-17 4.305612518226386e-17
9.395924483097753e-17 0.000000000000000e+00 2.673347436949341e-17 2.016230342697473e-18 -1.689070030353641e-17 4.625929269271397e-18
-7.306531857414019e-17 0.000000000000000e+00 -4.298459638370227e-17 2.419476411236976e-18 -1.818077867501551e-32 -2.726106785077337e-18
1.000254351646498e-17 0.000000000000000e+00 1.000254351646498e-17 -7.220400770627981e-18 1.342507265729847e-17 0.000000000000000e+00
4.969828479423218e-17 0.000000000000000e+00 1.791024849320901e-17 9.598073239992079e-18 0.000000000000000e+00 -2.906433218512191e-18
9.843517885262524e-17 0.000000000000000e+00 1.210500158375749e-17 -4.372820196316245e-17 -5.376614247193213e-18 6.642288501489630e-17
3.833594126820145e-17 0.000000000000000e+00 3.754741337417444e-17 1.704922101562976e-16 2.688307123596576e-18 -5.625434699068037e-17
-3.948646217806056e-17 0.000000000000000e+00 -6.524227847950907e-17 -2.042990620443613e-17 -2.016230342697462e-18 -1.066002196285725e-17
-6.127299225115500e-18 0.000000000000000e+00 5.751956736154499e-18 -1.361274390177897e-17 3.797871629794492e-18 1.620721540313546e-17
9.843517885262524e-17 0.000000000000000e+00 1.210500158375749e-17 -4.372820196316245e-17 -5.376614247193213e-18 6.642288501489630e-17
-6.326163981395558e-17 0.000000000000000e+00 -4.373582149073621e-17 3.518032031747351e-32 3.042101670257656e-17 -9.063418453154933e-17
-6.409875621278417e-17 0.000000000000000e+00 -7.599550697389537e-17 9.228992501894445e-18 -5.246520011485194e-17 -2.854927711342828e-17
3.833594126820145e-17 0.000000000000000e+00 3.754741337417444e-17 1.704922101562976e-16 2.688307123596576e-18 -5.625434699068037e-17
-6.127299225115500e-18 0.000000000000000e+00 5.751956736154499e-18 -1.361274390177897e-17 3.797871629794492e-18 1.620721540313546e-17
-6.326163981395558e-17 0.000000000000000e+00 -4.373582149073621e-17 3.518032031747351e-32 3.042101670257656e-17 -9.063418453154933e-17
9.395924483097753e-17 0.000000000000000e+00 2.673347436949341e-17 2.016230342697473e-18 -1.689070030353641e-17 4.625929269271397e-18
1.196099074440424e-16 0.000000000000000e+00 -6.772130650339856e-17 -6.204646987848299e-18 -8.825778932746626e-18 -2.909020104099611e-17
-6.409875621278417e-17 0.000000000000000e+00 -7.599550697389537e-17 9.228992501894445e-18 -5.246520011485194e-17 -2.854927711342828e-17
-6.127299225115500e-18 0.000000000000000e+00 5.751956736154499e-18 -1.361274390177897e-17 3.797871629794492e-18 1.620721540313546e-17
9.395924483097753e-17 0.000000000000000e+00 2.673347436949341e-17 2.016230342697473e-18 -1.689070030353641e-17 4.625929269271397e-18
-7.306531857414019e-17 0.000000000000000e+00 -4.298459638370227e-17 2.419476411236976e-18 -1.818077867501551e-32 -2.726106785077337e-18
-3.948646217806056e-17 0.000000000000000e+00 -6.524227847950907e-17 -2.042990620443613e-17 -2.016230342697462e-18 -1.066002196285725e-17
1.196099074440424e-16 0.000000000000000e+00 -6.772130650339856e-17 -6.204646987848299e-18 -8.825778932746626e-18 -2.909020104099611e-17
-6.127299225115500e-18 0.000000000000000e+00 5.751956736154499e-18 -1.361274390177897e-17 3.797871629794492e-18 1.620721540313546e-17
-3.948646217806056e-17 0.000000000000000e+00 -6.524227847950907e-17 -2.042990620443613e-17 -2.016230342697462e-18 -1.066002196285725e-17
3.833594126820145e-17 0.000000000000000e+00 3.754741337417444e-17 1.704922101562976e-16 2.688307123596576e-18 -5.625434699068037e-17
-6.409875621278417e-17 0.000000000000000e+00 -7.599550697389537e-17 9.228992501894445e-18 -5.246520011485194e-17 -2.854927711342828e-17
1.196099074440424e-16 0.000000000000000e+00 -6.772130650339856e-17 -6.204646987848299e-18 -8.825778932746626e-18 -2.909020104099611e-17
-6.127299225115500e-18 0.000000000000000e+00 5.751956736154499e-18 -1.361274390177897e-17 3.797871629794492e-18 1.620721540313546e-17
-7.306531857414019e-17 0.000000000000000e+00 -4.298459638370227e-17 2.419476411236976e-18 -1.818077867501551e-32 -2.726106785077337e-18
9.395924483097753e-17 0.000000000000000e+00 2.673347436949341e-17 2.016230342697473e-18 -1.689070030353641e-17 4.625929269271397e-18
-6.326163981395558e-17 0.000000000000000e+00 -4.373582149073621e-17 3.518032031747351e-32 3.042101670257656e-17 -9.063418453154933e-17
9.843517885262524e-17 0.000000000000000e+00 1.210500158375749e-17 -4.372820196316245e-17 -5.376614247193213e-18 6.642288501489630e-17
-6.127299225115500e-18 0.000000000000000e+00 5.751956736154499e-18 -1.361274390177897e-17 3.797871629794492e-18 1.620721540313546e-17
        </DataArray>
        <DataArray type="Float64" Name="nodal_cauchy_stresses_xyz" NumberOfComponents="6" format="ascii">
0.000000000000000e+00 0.000000000000000e+00 0.000000000000000e+00 0.000000000000000e+00 0.000000000000000e+00 0.000000000000000e+00
-3.948646217806059e-15 -2.611542907645686e-32 -6.524227847950908e-15 -2.042990620443614e-15 -2.016230342697462e-16 -1.066002196285725e-15
1.196099074440425e-14 2.692216126357985e-31 -6.772130650339858e-15 -6.204646987848299e-16 -8.825778932746630e-16 -2.909020104099608e-15
0.000000000000000e+00 -5.407103995158310e-31 2.388033132427869e-15 0.000000000000000e+00 1.966778820819016e-15 0.000000000000000e+00
1.000254351646498e-15 6.931520043993418e-32 1.000254351646498e-15 -7.220400770627981e-16 1.342507265729847e-15 0.000000000000000e+00
4.969828479423219e-15 1.119232674705267e-32 1.791024849320901e-15 9.598073239992079e-16 -3.282723651283413e-32 -2.906433218512186e-16
-7.306531857414020e-15 -1.343079209646396e-32 -4.298459638370227e-15 2.419476411236975e-16 -1.807971790895056e-30 -2.726106785077341e-16
-3.948646217806059e-15 -2.611542907645686e-32 -6.524227847950908e-15 -2.042990620443614e-15 -2.016230342697462e-16 -1.066002196285725e-15
0.000000000000000e+00 0.000000000000000e+00 0.000000000000000e+00 0.000000000000000e+00 0.000000000000000e+00 0.000000000000000e+00
1.000254351646498e-15 6.931520043993418e-32 1.000254351646498e-15 -7.220400770627981e-16 1.342507265729847e-15 0.000000000000000e+00
-7.306531857414020e-15 -1.343079209646396e-32 -4.298459638370227e-15 2.419476411236975e-16 -1.807971790895056e-30 -2.726106785077341e-16
9.395924483097757e-15 1.976050759020768e-31 2.673347436949342e-15 2.016230342697470e-16 -1.689070030353640e-15 4.625929269271397e-16
1.196099074440425e-14 2.692216126357985e-31 -6.772130650339858e-15 -6.204646987848299e-16 -8.825778932746630e-16 -2.909020104099608e-15
-3.948646217806059e-15 -2.611542907645686e-32 -6.524227847950908e-15 -2.042990620443614e-15 -2.016230342697462e-16 -1.066002196285725e-15
1.000254351646498e-15 6.931520043993418e-32 1.000254351646498e-15 -7.220400770627981e-16 1.342507265729847e-15 0.000000000000000e+00
9.395924483097757e-15 1.976050759020768e-31 2.673347436949342e-15 2.016230342697470e-16 -1.689070030353640e-15 4.625929269271397e-16
-9.552132529711580e-15 1.011999664305111e-30 -6.398715493328025e-16 4.032460685394926e-16 -4.305612518226386e-15 4.305612518226386e-15
0.000000000000000e+00 -5.407103995158310e-31 2.388033132427869e-15 0.000000000000000e+00 1.966778820819016e-15 0.000000000000000e+00
1.196099074440425e-14 2.692216126357985e-31 -6.772130650339858e-15 -6.204646987848299e-16 -8.825778932746630e-16 -2.909020104099608e-15
1.000254351646498e-15 6.931520043993418e-32 1.000254351646498e-15 -7.220400770627981e-16 1.342507265729847e-15 0.000000000000000e+00
-9.552132529711580e-15 1.011999664305111e-30 -6.398715493328025e-16 4.032460685394926e-16 -4.305612518226386e-15 4.305612518226386e-15
4.969828479423219e-15 1.119232674705267e-32 1.791024849320901e-15 9.598073239992079e-16 -3.282723651283413e-32 -2.906433218512186e-16
0.000000000000000e+00 0.000000000000000e+00 0.000000000000000e+00 0.000000000000000e+00 0.000000000000000e+00 0.000000000000000e+00
0.000000000000000e+00 -5.407103995158310e-31 2.388033132427869e-15 0.000000000000000e+00 1.966778820819016e-15 0.000000000000000e+00
1.000254351646498e-15 6.931520043993418e-32 1.000254351646498e-15 -7.220400770627981e-16 1.342507265729847e-15 0.000000000000000e+00
4.969828479423219e-15 1.119232674705267e-32 1.791024849320901e-15 9.598073239992079e-16 -3.282723651283413e-32 -2.906433218512186e-16
-9.552132529711580e-15 1.011999664305111e-30 -6.398715493328025e-16 4.032460685394926e-16 -4.305612518226386e-15 4.305612518226386e-15
9.395924483097757e-15 1.976050759020768e-31 2.673347436949342e-15 2.016230342697470e-16 -1.689070030353640e-15 4.625929269271397e-16
-7.306531857414020e-15 -1.343079209646396e-32 -4.298459638370227e-15 2.419476411236975e-16 -1.807971790895056e-30 -2.726106785077341e-16
1.000254351646498e-15 6.931520043993418e-32 1.000254351646498e-15 -7.220400770627981e-16 1.342507265729847e-15 0.000000000000000e+00
4.969828479423219e-15 1.119232674705267e-32 1.791024849320901e-15 9.598073239992079e-16 -3.282723651283413e-32 -2.906433218512186e-16
9.843517885262519e-15 -1.119232674705293e-31 1.210500158375754e-15 -4.372820196316246e-15 -5.376614247193213e-16 6.642288501489633e-15
3.833594126820166e-15 2.984620465880745e-32 3.754741337417444e-15 1.704922101562976e-14 2.688307123596576e-16 -5.625434699068040e-15
-3.948646217806059e-15 -2.611542907645686e-32 -6.524227847950908e-15 -2.042990620443614e-15 -2.016230342697462e-16 -1.066002196285725e-15
-6.127299225115501e-16 5.595477513564687e-32 5.751956736154497e-16 -1.361274390177897e-15 3.797871629794493e-16 1.620721540313546e-15
9.843517885262519e-15 -1.119232674705293e-31 1.210500158375754e-15 -4.372820196316246e-15 -5.376614247193213e-16 6.642288501489633e-15
-6.326163981395556e-15 -5.347124496892356e-31 -4.373582149073622e-15 3.426418547205281e-30 3.042101670257655e-15 -9.063418453154934e-15
-6.409875621278422e-15 1.004538113140409e-30 -7.599550697389537e-15 9.228992501894453e-16 -5.246520011485192e-15 -2.854927711342827e-15
3.833594126820166e-15 2.984620465880745e-32 3.754741337417444e-15 1.704922101562976e-14 2.688307123596576e-16 -5.625434699068040e-15
-6.127299225115501e-16 5.595477513564687e-32 5.751956736154497e-16 -1.361274390177897e-15 3.797871629794493e-16 1.620721540313546e-15
-6.326163981395556e-15 -5.347124496892356e-31 -4.373582149073622e-15 3.426418547205281e-30 3.042101670257655e-15 -9.063418453154934e-15
9.395924483097757e-15 1.976050759020768e-31 2.673347436949342e-15 2.016230342697470e-16 -1.689070030353640e-15 4.625929269271397e-16
1.196099074440425e-14 2.692216126357985e-31 -6.772130650339858e-15 -6.204646987848299e-16 -8.825778932746630e-16 -2.909020104099608e-15
-6.409875621278422e-15 1.004538113140409e-30 -7.599550697389537e-15 9.228992501894453e-16 -5.246520011485192e-15 -2.854927711342827e-15
-6.127299225115501e-16 5.595477513564687e-32 5.751956736154497e-16 -1.361274390177897e-15 3.797871629794493e-16 1.620721540313546e-15
9.395924483097757e-15 1.976050759020768e-31 2.673347436949342e-15 2.016230342697470e-16 -1.689070030353640e-15 4.625929269271397e-16
-7.306531857414020e-15 -1.343079209646396e-32 -4.298459638370227e-15 2.419476411236975e-16 -1.807971790895056e-30 -2.726106785077341e-16
-3.948646217806059e-15 -2.611542907645686e-32 -6.524227847950908e-15 -2.042990620443614e-15 -2.016230342697462e-16 -1.066002196285725e-15
1.196099074440425e-14 2.692216126357985e-31 -6.772130650339858e-15 -6.204646987848299e-16 -8.825778932746630e-16 -2.909020104099608e-15
-6.127299225115501e-16 5.595477513564687e-32 5.751956736154497e-16 -1.361274390177897e-15 3.797871629794493e-16 1.620721540313546e-15
-3.948646217806059e-15 -2.611542907645686e-32 -6.524227847950908e-15 -2.042990620443614e-15 -2.016230342697462e-16 -1.066002196285725e-15
3.833594126820166e-15 2.984620465880745e-32 3.754741337417444e-15 1.704922101562976e-14 2.688307123596576e-16 -5.625434699068040e-15
-6.409875621278422e-15 1.004538113140409e-30 -7.599550697389537e-15 9.228992501894453e-16 -5.246520011485192e-15 -2.854927711342827e-15
1.196099074440425e-14 2.692216126357985e-31 -6.772130650339858e-15 -6.204646987848299e-16 -8.825778932746630e-16 -2.909020104099608e-15
-6.127299225115501e-16 5.595477513564687e-32 5.751956736154497e-16 -1.361274390177897e-15 3.797871629794493e-16 1.620721540313546e-15
-7.306531857414020e-15 -1.343079209646396e-32 -4.298459638370227e-15 2.419476411236975e-16 -1.807971790895056e-30 -2.726106785077341e-16
9.395924483097757e-15 1.976050759020768e-31 2.673347436949342e-15 2.016230342697470e-16 -1.689070030353640e-15 4.625929269271397e-16
-6.326163981395556e-15 -5.347124496892356e-31 -4.373582149073622e-15 3.426418547205281e-30 3.042101670257655e-15 -9.063418453154934e-15
9.843517885262519e-15 -1.119232674705293e-31 1.210500158375754e-15 -4.372820196316246e-15 -5.376614247193213e-16 6.642288501489633e-15
-6.127299225115501e-16 5.595477513564687e-32 5.751956736154497e-16 -1.361274390177897e-15 3.797871629794493e-16 1.620721540313546e-15
        </DataArray>
  </PointData>
  <CellData>
        <DataArray type="Float64" Name="element_GL_strains_xyz" NumberOfComponents="6" format="ascii">
0.000000000000000e+00 0.000000000000000e+00 0.000000000000000e+00 0.000000000000000e+00 0.000000000000000e+00 0.000000000000000e+00
0.000000000000000e+00 0.000000000000000e+00 0.000000000000000e+00 0.000000000000000e+00 0.000000000000000e+00 0.000000000000000e+00
0.000000000000000e+00 0.000000000000000e+00 -1.387778780781446e-17 0.000000000000000e+00 1.040834085586084e-17 -1.214306433183765e-17
0.000000000000000e+00 0.000000000000000e+00 -1.387778780781446e-17 0.000000000000000e+00 -1.214306433183765e-17 0.000000000000000e+00
0.000000000000000e+00 0.000000000000000e+00 0.000000000000000e+00 0.000000000000000e+00 0.000000000000000e+00 0.000000000000000e+00
-2.775557561562891e-17 0.000000000000000e+00 0.000000000000000e+00 -1.040834085586084e-17 0.000000000000000e+00 1.214306433183765e-17
-2.775557561562891e-17 0.000000000000000e+00 -1.387778780781446e-17 2.775557561562891e-17 0.000000000000000e+00 5.204170427930421e-18
0.000000000000000e+00 0.000000000000000e+00 -2.775557561562891e-17 0.000000000000000e+00 6.938893903907228e-18 -2.081668171172169e-17
5.551115123125783e-17 0.000000000000000e+00 -2.775557561562891e-17 0.000000000000000e+00 -2.255140518769849e-17 6.938893903907231e-18
0.000000000000000e+00 0.000000000000000e+00 -2.775557561562891e-17 0.000000000000000e+00 0.000000000000000e+00 -3.642919299551295e-17
1.110223024625157e-16 0.000000000000000e+00 0.000000000000000e+00 5.204170427930424e-18 0.000000000000000e+00 0.000000000000000e+00
0.000000000000000e+00 0.000000000000000e+00 0.000000000000000e+00 -1.040834085586085e-17 0.000000000000000e+00 5.204170427930417e-18
        </DataArray>
        <DataArray type="Float64" Name="element_cauchy_stresses_xyz" NumberOfComponents="6" format="ascii">
0.000000000000000e+00 0.000000000000000e+00 0.000000000000000e+00 0.000000000000000e+00 0.000000000000000e+00 0.000000000000000e+00
0.000000000000000e+00 0.000000000000000e+00 0.000000000000000e+00 0.000000000000000e+00 0.000000000000000e+00 0.000000000000000e+00
3.755563391555110e-31 9.629649721936179e-32 -1.387778780781446e-15 -9.629649721936179e-33 1.040834085586084e-15 -1.214306433183765e-15
0.000000000000000e+00 3.755563391555110e-31 -1.387778780781446e-15 0.000000000000000e+00 -1.214306433183765e-15 0.000000000000000e+00
0.000000000000000e+00 0.000000000000000e+00 0.000000000000000e+00 0.000000000000000e+00 0.000000000000000e+00 0.000000000000000e+00
-2.775557561562891e-15 9.629649721936179e-32 3.755563391555110e-31 -1.040834085586084e-15 -9.629649721936179e-33 1.214306433183765e-15
-2.775557561562889e-15 0.000000000000000e+00 -1.387778780781446e-15 2.775557561562891e-15 0.000000000000000e+00 5.204170427930421e-16
2.311115933264683e-30 7.703719777548943e-32 -2.775557561562891e-15 2.311115933264683e-31 6.938893903907228e-16 -2.081668171172169e-15
5.551115123125784e-15 3.755563391555110e-31 -2.775557561562891e-15 -9.629649721936157e-33 -2.255140518769849e-15 6.938893903907234e-16
9.918539213594265e-31 0.000000000000000e+00 -2.775557561562891e-15 0.000000000000000e+00 0.000000000000000e+00 -3.642919299551295e-15
1.110223024625157e-14 0.000000000000000e+00 0.000000000000000e+00 5.204170427930424e-16 0.000000000000000e+00 0.000000000000000e+00
7.888609052210118e-31 9.629649721936184e-32 6.837051302574686e-31 -1.040834085586085e-15 6.740754805355321e-32 5.204170427930421e-16
        </DataArray>
      </CellData>

    </Piece>
  </UnstructuredGrid>
</VTKFile>
