<?xml version="1.0" ?> 
<!-- 
# vtk DataFile Version 3.0
-->
<VTKFile type="UnstructuredGrid" version="0.1" compressor="vtkZLibDataCompressor" byte_order="LittleEndian">
  <UnstructuredGrid>
    <FieldData>
      <DataArray type="Float64" Name="TIME" NumberOfTuples="1" format="ascii">
2.000000000000000e-01 
      </DataArray>
    </FieldData>

    <Piece NumberOfPoints="36" NumberOfCells="9" >
      <Points>
        <DataArray type="Float64" NumberOfComponents="3" format="ascii">
0.000000000000000e+00 5.000000000000000e-01 0.000000000000000e+00
0.000000000000000e+00 2.500000000000000e-01 0.000000000000000e+00
2.500000000000000e-01 2.500000000000000e-01 0.000000000000000e+00
2.500000000000000e-01 5.000000000000000e-01 0.000000000000000e+00
7.500000000000000e-01 7.500000000000000e-01 0.000000000000000e+00
7.500000000000000e-01 5.000000000000000e-01 0.000000000000000e+00
1.000000000000000e+00 5.000000000000000e-01 0.000000000000000e+00
1.000000000000000e+00 7.500000000000000e-01 0.000000000000000e+00
5.000000000000000e-01 7.500000000000000e-01 0.000000000000000e+00
5.000000000000000e-01 5.000000000000000e-01 0.000000000000000e+00
7.500000000000000e-01 5.000000000000000e-01 0.000000000000000e+00
7.500000000000000e-01 7.500000000000000e-01 0.000000000000000e+00
2.500000000000000e-01 7.500000000000000e-01 0.000000000000000e+00
2.500000000000000e-01 5.000000000000000e-01 0.000000000000000e+00
5.000000000000000e-01 5.000000000000000e-01 0.000000000000000e+00
5.000000000000000e-01 7.500000000000000e-01 0.000000000000000e+00
0.000000000000000e+00 7.500000000000000e-01 0.000000000000000e+00
0.000000000000000e+00 5.000000000000000e-01 0.000000000000000e+00
2.500000000000000e-01 5.000000000000000e-01 0.000000000000000e+00
2.500000000000000e-01 7.500000000000000e-01 0.000000000000000e+00
7.500000000000000e-01 1.000000000000000e+00 0.000000000000000e+00
7.500000000000000e-01 7.500000000000000e-01 0.000000000000000e+00
1.000000000000000e+00 7.500000000000000e-01 0.000000000000000e+00
1.000000000000000e+00 1.000000000000000e+00 0.000000000000000e+00
5.000000000000000e-01 1.000000000000000e+00 0.000000000000000e+00
5.000000000000000e-01 7.500000000000000e-01 0.000000000000000e+00
7.500000000000000e-01 7.500000000000000e-01 0.000000000000000e+00
7.500000000000000e-01 1.000000000000000e+00 0.000000000000000e+00
2.500000000000000e-01 1.000000000000000e+00 0.000000000000000e+00
2.500000000000000e-01 7.500000000000000e-01 0.000000000000000e+00
5.000000000000000e-01 7.500000000000000e-01 0.000000000000000e+00
5.000000000000000e-01 1.000000000000000e+00 0.000000000000000e+00
0.000000000000000e+00 1.000000000000000e+00 0.000000000000000e+00
0.000000000000000e+00 7.500000000000000e-01 0.000000000000000e+00
2.500000000000000e-01 7.500000000000000e-01 0.000000000000000e+00
2.500000000000000e-01 1.000000000000000e+00 0.000000000000000e+00
        </DataArray>
      </Points>

      <Cells>
        <DataArray type="Int32" Name="connectivity" format="ascii">
0 1 2 3 4 5 6 7 8 9 10 11 12 13 14 15 16 17 18 19 20 21 22 23 24 25 26 27 28 29 30 31 32 33 34 35 
        </DataArray>
        <DataArray type="Int32" Name="offsets" format="ascii">
4 8 12 16 20 24 28 32 36 
        </DataArray>
        <DataArray type="UInt8" Name="types" format="ascii">
9 9 9 9 9 9 9 9 9 
        </DataArray>
      </Cells>

  <PointData>
        <DataArray type="Float64" Name="displacement" NumberOfComponents="2" format="ascii">
-3.171474466672924e-03 -1.205432162741320e-03
5.290119894375323e-04 -5.865455669715683e-04
3.987763193587123e-04 9.151789414402590e-06
-2.567285290024130e-03 -1.663341105511557e-03
1.501482265954209e-02 2.750625449790030e-02
-2.596902181753062e-03 -1.773957782909530e-03
-2.859198817298366e-03 -1.690292498706496e-03
1.321590136537832e-02 1.058688647372933e-02
1.492640139216304e-02 2.514838835155141e-02
-2.118867259024853e-03 -1.586757556672785e-03
-2.596902181753062e-03 -1.773957782909530e-03
1.501482265954209e-02 2.750625449790030e-02
1.489274648049282e-02 2.287108889023931e-02
-2.567285290024130e-03 -1.663341105511557e-03
-2.118867259024853e-03 -1.586757556672785e-03
1.492640139216304e-02 2.514838835155141e-02
1.666706532702158e-02 3.942608632711120e-02
-3.171474466672924e-03 -1.205432162741320e-03
-2.567285290024130e-03 -1.663341105511557e-03
1.489274648049282e-02 2.287108889023931e-02
5.000000000000000e-02 5.000000000000000e-02
1.501482265954209e-02 2.750625449790030e-02
1.321590136537832e-02 1.058688647372933e-02
5.000000000000000e-02 5.000000000000000e-02
5.000000000000000e-02 5.000000000000000e-02
1.492640139216304e-02 2.514838835155141e-02
1.501482265954209e-02 2.750625449790030e-02
5.000000000000000e-02 5.000000000000000e-02
5.000000000000000e-02 5.000000000000000e-02
1.489274648049282e-02 2.287108889023931e-02
1.492640139216304e-02 2.514838835155141e-02
5.000000000000000e-02 5.000000000000000e-02
5.000000000000000e-02 5.000000000000000e-02
1.666706532702158e-02 3.942608632711120e-02
1.489274648049282e-02 2.287108889023931e-02
5.000000000000000e-02 5.000000000000000e-02
        </DataArray>
        <DataArray type="Float64" Name="nodal_cauchy_stresses_xyz" NumberOfComponents="6" format="ascii">
5.335344830881471e-03 1.014771958351662e-01 0.000000000000000e+00 2.214482095748222e-02 0.000000000000000e+00 0.000000000000000e+00
-4.251674489639374e-04 -2.362277361141737e-03 0.000000000000000e+00 -1.964977842144733e-03 0.000000000000000e+00 0.000000000000000e+00
-4.240621130252347e-04 -3.263983382457570e-03 0.000000000000000e+00 -2.045486708935277e-03 0.000000000000000e+00 0.000000000000000e+00
4.439529383110851e-03 5.395840477553562e-02 0.000000000000000e+00 1.777038963043728e-02 0.000000000000000e+00 0.000000000000000e+00
7.113829693464088e-03 1.257492364334268e-01 0.000000000000000e+00 4.802634914970617e-02 0.000000000000000e+00 0.000000000000000e+00
1.066469829015253e-03 6.699337197573449e-02 0.000000000000000e+00 1.892253183606096e-02 0.000000000000000e+00 0.000000000000000e+00
9.496580133831569e-04 2.254335774814663e-02 0.000000000000000e+00 1.451061211531517e-02 0.000000000000000e+00 0.000000000000000e+00
1.093359941467580e-03 1.279269296405491e-01 0.000000000000000e+00 2.991596682237999e-02 0.000000000000000e+00 0.000000000000000e+00
1.355046494640684e-02 1.275104245536701e-01 0.000000000000000e+00 6.929402511244276e-02 0.000000000000000e+00 0.000000000000000e+00
2.323946230752702e-03 6.069901866823020e-02 0.000000000000000e+00 1.847168598518830e-02 0.000000000000000e+00 0.000000000000000e+00
1.066469829015253e-03 6.699337197573449e-02 0.000000000000000e+00 1.892253183606096e-02 0.000000000000000e+00 0.000000000000000e+00
7.113829693464088e-03 1.257492364334268e-01 0.000000000000000e+00 4.802634914970617e-02 0.000000000000000e+00 0.000000000000000e+00
7.118926470201395e-03 1.253002701493102e-01 0.000000000000000e+00 4.898149519192520e-02 0.000000000000000e+00 0.000000000000000e+00
4.439529383110851e-03 5.395840477553562e-02 0.000000000000000e+00 1.777038963043728e-02 0.000000000000000e+00 0.000000000000000e+00
2.323946230752702e-03 6.069901866823020e-02 0.000000000000000e+00 1.847168598518830e-02 0.000000000000000e+00 0.000000000000000e+00
1.355046494640684e-02 1.275104245536701e-01 0.000000000000000e+00 6.929402511244276e-02 0.000000000000000e+00 0.000000000000000e+00
2.701060758870781e-04 1.271980249155887e-01 0.000000000000000e+00 2.664221339866732e-02 0.000000000000000e+00 0.000000000000000e+00
5.335344830881471e-03 1.014771958351662e-01 0.000000000000000e+00 2.214482095748222e-02 0.000000000000000e+00 0.000000000000000e+00
4.439529383110851e-03 5.395840477553562e-02 0.000000000000000e+00 1.777038963043728e-02 0.000000000000000e+00 0.000000000000000e+00
7.118926470201395e-03 1.253002701493102e-01 0.000000000000000e+00 4.898149519192520e-02 0.000000000000000e+00 0.000000000000000e+00
1.963021755202448e-02 1.120691326391166e-01 0.000000000000000e+00 8.434360350615455e-02 0.000000000000000e+00 0.000000000000000e+00
7.113829693464088e-03 1.257492364334268e-01 0.000000000000000e+00 4.802634914970617e-02 0.000000000000000e+00 0.000000000000000e+00
1.093359941467580e-03 1.279269296405491e-01 0.000000000000000e+00 2.991596682237999e-02 0.000000000000000e+00 0.000000000000000e+00
2.170818517723810e-02 2.072144129013542e-01 0.000000000000000e+00 9.987547749246695e-02 0.000000000000000e+00 0.000000000000000e+00
1.994018344231530e-02 1.254998719888160e-01 0.000000000000000e+00 8.616332880990464e-02 0.000000000000000e+00 0.000000000000000e+00
1.355046494640684e-02 1.275104245536701e-01 0.000000000000000e+00 6.929402511244276e-02 0.000000000000000e+00 0.000000000000000e+00
7.113829693464088e-03 1.257492364334268e-01 0.000000000000000e+00 4.802634914970617e-02 0.000000000000000e+00 0.000000000000000e+00
1.963021755202448e-02 1.120691326391166e-01 0.000000000000000e+00 8.434360350615455e-02 0.000000000000000e+00 0.000000000000000e+00
1.981043318027816e-02 1.367163322636489e-01 0.000000000000000e+00 8.751823888468427e-02 0.000000000000000e+00 0.000000000000000e+00
7.118926470201395e-03 1.253002701493102e-01 0.000000000000000e+00 4.898149519192520e-02 0.000000000000000e+00 0.000000000000000e+00
1.355046494640684e-02 1.275104245536701e-01 0.000000000000000e+00 6.929402511244276e-02 0.000000000000000e+00 0.000000000000000e+00
1.994018344231530e-02 1.254998719888160e-01 0.000000000000000e+00 8.616332880990464e-02 0.000000000000000e+00 0.000000000000000e+00
1.754965317298469e-02 5.233005869539364e-02 0.000000000000000e+00 7.332488500667060e-02 0.000000000000000e+00 0.000000000000000e+00
2.701060758870781e-04 1.271980249155887e-01 0.000000000000000e+00 2.664221339866732e-02 0.000000000000000e+00 0.000000000000000e+00
7.118926470201395e-03 1.253002701493102e-01 0.000000000000000e+00 4.898149519192520e-02 0.000000000000000e+00 0.000000000000000e+00
1.981043318027816e-02 1.367163322636489e-01 0.000000000000000e+00 8.751823888468427e-02 0.000000000000000e+00 0.000000000000000e+00
        </DataArray>
  </PointData>
  <CellData>
        <DataArray type="Float64" Name="element_cauchy_stresses_xyz" NumberOfComponents="6" format="ascii">
1.130508853833442e-03 -4.458132633259284e-03 0.000000000000000e+00 -6.477785701554144e-03 0.000000000000000e+00 0.000000000000000e+00
-7.942390398262429e-04 9.643035586436302e-02 0.000000000000000e+00 2.144742899294983e-02 0.000000000000000e+00 0.000000000000000e+00
4.454725501414546e-03 1.347189256145346e-01 0.000000000000000e+00 4.544133782353424e-02 0.000000000000000e+00 0.000000000000000e+00
6.015058822556359e-03 1.217610932175999e-01 0.000000000000000e+00 4.475647884735022e-02 0.000000000000000e+00 0.000000000000000e+00
1.689832228494648e-03 1.598379865578472e-01 0.000000000000000e+00 2.864415776683618e-02 0.000000000000000e+00 0.000000000000000e+00
1.347560334991730e-02 1.567500940681706e-01 0.000000000000000e+00 7.261797719323579e-02 0.000000000000000e+00 0.000000000000000e+00
2.074088277243998e-02 1.200676581011952e-01 0.000000000000000e+00 8.802101987745356e-02 0.000000000000000e+00 0.000000000000000e+00
2.069968447042947e-02 1.323587027823787e-01 0.000000000000000e+00 8.952779901819261e-02 0.000000000000000e+00 0.000000000000000e+00
1.172708716906531e-02 9.181606801023762e-02 0.000000000000000e+00 6.218412695630153e-02 0.000000000000000e+00 0.000000000000000e+00
        </DataArray>
      </CellData>

    </Piece>
  </UnstructuredGrid>
</VTKFile>
