<?xml version="1.0" ?> 
<!-- 
# vtk DataFile Version 3.0
-->
<VTKFile type="UnstructuredGrid" version="0.1" compressor="vtkZLibDataCompressor" byte_order="LittleEndian">
  <UnstructuredGrid>
    <FieldData>
      <DataArray type="Float64" Name="TIME" NumberOfTuples="1" format="ascii">
1.000000000000000e+00 
      </DataArray>
    </FieldData>

    <Piece NumberOfPoints="40" NumberOfCells="2" >
      <Points>
        <DataArray type="Float64" NumberOfComponents="3" format="ascii">
0.000000000000000e+00 0.000000000000000e+00 0.000000000000000e+00
1.000000000000000e+00 0.000000000000000e+00 0.000000000000000e+00
1.000000000000000e+00 1.000000000000000e+00 0.000000000000000e+00
0.000000000000000e+00 1.000000000000000e+00 0.000000000000000e+00
0.000000000000000e+00 0.000000000000000e+00 1.000000000000000e+00
1.000000000000000e+00 0.000000000000000e+00 1.000000000000000e+00
1.000000000000000e+00 1.000000000000000e+00 1.000000000000000e+00
0.000000000000000e+00 1.000000000000000e+00 1.000000000000000e+00
5.000000000000000e-01 0.000000000000000e+00 0.000000000000000e+00
1.000000000000000e+00 5.000000000000000e-01 0.000000000000000e+00
5.000000000000000e-01 1.000000000000000e+00 0.000000000000000e+00
0.000000000000000e+00 5.000000000000000e-01 0.000000000000000e+00
5.000000000000000e-01 0.000000000000000e+00 1.000000000000000e+00
1.000000000000000e+00 5.000000000000000e-01 1.000000000000000e+00
5.000000000000000e-01 1.000000000000000e+00 1.000000000000000e+00
0.000000000000000e+00 5.000000000000000e-01 1.000000000000000e+00
0.000000000000000e+00 0.000000000000000e+00 5.000000000000000e-01
1.000000000000000e+00 0.000000000000000e+00 5.000000000000000e-01
1.000000000000000e+00 1.000000000000000e+00 5.000000000000000e-01
0.000000000000000e+00 1.000000000000000e+00 5.000000000000000e-01
1.000000000000000e+00 0.000000000000000e+00 0.000000000000000e+00
2.000000000000000e+00 0.000000000000000e+00 0.000000000000000e+00
2.000000000000000e+00 1.000000000000000e+00 0.000000000000000e+00
1.000000000000000e+00 1.000000000000000e+00 0.000000000000000e+00
1.000000000000000e+00 0.000000000000000e+00 1.000000000000000e+00
2.000000000000000e+00 0.000000000000000e+00 1.000000000000000e+00
2.000000000000000e+00 1.000000000000000e+00 1.000000000000000e+00
1.000000000000000e+00 1.000000000000000e+00 1.000000000000000e+00
1.500000000000000e+00 0.000000000000000e+00 0.000000000000000e+00
2.000000000000000e+00 5.000000000000000e-01 0.000000000000000e+00
1.500000000000000e+00 1.000000000000000e+00 0.000000000000000e+00
1.000000000000000e+00 5.000000000000000e-01 0.000000000000000e+00
1.500000000000000e+00 0.000000000000000e+00 1.000000000000000e+00
2.000000000000000e+00 5.000000000000000e-01 1.000000000000000e+00
1.500000000000000e+00 1.000000000000000e+00 1.000000000000000e+00
1.000000000000000e+00 5.000000000000000e-01 1.000000000000000e+00
1.000000000000000e+00 0.000000000000000e+00 5.000000000000000e-01
2.000000000000000e+00 0.000000000000000e+00 5.000000000000000e-01
2.000000000000000e+00 1.000000000000000e+00 5.000000000000000e-01
1.000000000000000e+00 1.000000000000000e+00 5.000000000000000e-01
        </DataArray>
      </Points>

      <Cells>
        <DataArray type="Int32" Name="connectivity" format="ascii">
0 1 2 3 4 5 6 7 8 9 10 11 12 13 14 15 16 17 18 19 20 21 22 23 24 25 26 27 28 29 30 31 32 33 34 35 36 37 38 39 
        </DataArray>
        <DataArray type="Int32" Name="offsets" format="ascii">
20 40 
        </DataArray>
        <DataArray type="UInt8" Name="types" format="ascii">
25 25 
        </DataArray>
      </Cells>

  <PointData>
        <DataArray type="Float64" Name="displacement" NumberOfComponents="3" format="ascii">
0.000000000000000e+00 0.000000000000000e+00 0.000000000000000e+00
1.041883366107278e-01 -1.839240682409393e-03 -3.675557991394657e-03
1.086390559458739e-01 -1.854630198906542e-03 -3.700508228866584e-03
0.000000000000000e+00 0.000000000000000e+00 0.000000000000000e+00
0.000000000000000e+00 0.000000000000000e+00 0.000000000000000e+00
1.130981871883325e-01 -1.864183136310202e-03 -3.737100182742559e-03
1.175627141436782e-01 -1.879528321872440e-03 -3.761961837467462e-03
0.000000000000000e+00 0.000000000000000e+00 0.000000000000000e+00
5.246943894566393e-02 -4.234873915894735e-04 -8.479881563406470e-04
1.064082620735294e-01 -1.846893569207330e-03 -3.687890890005027e-03
5.444785694874025e-02 -4.257883420187834e-04 -8.546711577875382e-04
0.000000000000000e+00 0.000000000000000e+00 0.000000000000000e+00
5.643158512427244e-02 -4.302078736104126e-04 -8.572721970492434e-04
1.153256903683099e-01 -1.871821072390759e-03 -3.749403574696794e-03
5.841906076817869e-02 -4.325691221228990e-04 -8.640759174044235e-04
0.000000000000000e+00 0.000000000000000e+00 0.000000000000000e+00
0.000000000000000e+00 0.000000000000000e+00 0.000000000000000e+00
1.086222138410976e-01 -1.851435055196873e-03 -3.706008921438964e-03
1.130811845179458e-01 -1.866817183674263e-03 -3.730943713283422e-03
0.000000000000000e+00 0.000000000000000e+00 0.000000000000000e+00
1.041883366107278e-01 -1.839240682409393e-03 -3.675557991394657e-03
2.002298311530925e-01 -9.562122134692675e-03 -1.912703595773584e-02
2.145528277718580e-01 -9.555139421832113e-03 -1.911844186113260e-02
1.086390559458739e-01 -1.854630198906542e-03 -3.700508228866584e-03
1.130981871883325e-01 -1.864183136310202e-03 -3.737100182742559e-03
2.285494132973240e-01 -9.552404417320904e-03 -1.909694405797608e-02
2.422365820627518e-01 -9.543399566470292e-03 -1.908430245237103e-02
1.175627141436782e-01 -1.879528321872440e-03 -3.761961837467462e-03
1.538200710289681e-01 -4.565689940178370e-03 -9.131018406667715e-03
2.074305833805517e-01 -9.559028686311633e-03 -1.912360885776985e-02
1.621306072955143e-01 -4.611981225840677e-03 -9.222336663656851e-03
1.064082620735294e-01 -1.846893569207330e-03 -3.687890890005027e-03
1.703387402354416e-01 -4.655335299292963e-03 -9.312835101089907e-03
2.354287447342011e-01 -9.548245651595210e-03 -1.909138621668162e-02
1.784498356773300e-01 -4.698394944372936e-03 -9.397689088242352e-03
1.153256903683099e-01 -1.871821072390759e-03 -3.749403574696794e-03
1.086222138410976e-01 -1.851435055196873e-03 -3.706008921438964e-03
2.145430566642464e-01 -9.558947801220585e-03 -1.911506215848155e-02
2.285411275489033e-01 -9.550847082323103e-03 -1.910422741372050e-02
1.130811845179458e-01 -1.866817183674263e-03 -3.730943713283422e-03
        </DataArray>
        <DataArray type="Float64" Name="nodal_GL_strains_xyz" NumberOfComponents="6" format="ascii">
1.112746294822172e-01 2.065762804470914e-07 8.214412506616992e-07 7.257814928538604e-05 4.119335512937456e-07 1.416740392502608e-04
1.078790438418160e-01 -4.563763762034841e-06 -1.799929998120051e-05 6.893516549460293e-04 -2.884429424366238e-06 1.363030549552501e-03
1.139629465964469e-01 -4.744682700956685e-06 -1.816941347617236e-05 6.803379098082747e-04 -3.342807211073309e-06 1.312062434085572e-03
1.151095667532552e-01 2.087250486681156e-07 8.199460854911483e-07 7.571984093763845e-05 4.136953884991331e-07 1.408806862334580e-04
1.189707354951553e-01 2.056874177479878e-07 8.380500745924655e-07 7.170551764584175e-05 4.151821777667061e-07 1.540717143187467e-04
1.200193332880460e-01 -4.627899092225937e-06 -1.936043402779936e-05 6.382942630877098e-04 -3.757039468339218e-06 1.326763908944242e-03
1.260526246658608e-01 -4.767233152817498e-06 -1.936432071179147e-05 6.290200915791432e-04 -4.128752686116783e-06 1.275276065281672e-03
1.228547317538514e-01 2.075532781219310e-07 8.354233249356637e-07 7.470359816813923e-05 4.164065169858102e-07 1.529909312402979e-04
1.096244298758835e-01 -2.815603930988881e-07 -9.602576504098124e-07 1.666655495111493e-04 -2.426192910703752e-06 3.264793732169893e-04
1.109388994488372e-01 -4.654459653320519e-06 -1.809570934580884e-05 6.847590585533218e-04 -3.116561994648115e-06 1.337787042852045e-03
1.145488751348199e-01 -4.060371307184607e-07 -1.092524097794453e-06 1.753997133672034e-04 -2.701259662138985e-06 3.292433630784874e-04
1.131845812269436e-01 2.076506635863082e-07 8.207623143169022e-07 7.416993083600101e-05 4.128334703767045e-07 1.413485794581222e-04
1.195024743549379e-01 -3.357566432988243e-07 -1.907318534851746e-06 1.687524848360969e-04 -2.951368445531942e-06 3.600323287165007e-04
1.230522764601706e-01 -4.697747544502691e-06 -1.937339604505106e-05 6.335854194990369e-04 -3.945700728036986e-06 1.301290947405438e-03
1.244820130154555e-01 -4.365361101986107e-07 -1.944846697981805e-06 1.761362487002190e-04 -3.177130848682264e-06 3.600959584013558e-04
1.209059104579868e-01 2.066203493628716e-07 8.368041813305988e-07 7.322188625821406e-05 4.158129111979925e-07 1.535951462027145e-04
1.150933189679453e-01 2.062001691107168e-07 8.297456624805112e-07 7.228047362368823e-05 4.136334209834699e-07 1.480329595990561e-04
1.140191886427882e-01 -4.607092169197842e-06 -1.868341260232174e-05 6.643196127416223e-04 -3.332356525685374e-06 1.344240312246175e-03
1.200745727163377e-01 -4.767051630462365e-06 -1.876997320734029e-05 6.552060544434653e-04 -3.747124096061009e-06 1.293068166950531e-03
1.189541729078010e-01 2.082069046169240e-07 8.276847059164997e-07 7.534297005271652e-05 4.151256360715898e-07 1.470814686787703e-04
1.078790438418160e-01 -4.563763762034841e-06 -1.799929998120051e-05 6.893516549460293e-04 -2.884429424366238e-06 1.363030549552501e-03
9.398641645956751e-02 1.078278793811244e-04 4.270536104427944e-04 1.758782304541243e-03 2.087964038639067e-04 3.499411313709126e-03
1.095238587162652e-01 1.065901891335788e-04 4.137930340999013e-04 1.782439669203254e-03 2.045368222330263e-04 3.519217031767161e-03
1.139629465964469e-01 -4.744682700956685e-06 -1.816941347617236e-05 6.803379098082747e-04 -3.342807211073309e-06 1.312062434085572e-03
1.200193332880460e-01 -4.627899092225937e-06 -1.936043402779936e-05 6.382942630877098e-04 -3.757039468339218e-06 1.326763908944242e-03
1.246361700485378e-01 1.012685713101186e-04 4.174541305021245e-04 1.776425071936626e-03 2.004301550130219e-04 3.589760290350388e-03
1.393286999062620e-01 1.001660947101263e-04 4.047341725136533e-04 1.796358773574133e-03 1.964519140414606e-04 3.602119070080683e-03
1.260526246658608e-01 -4.767233152817498e-06 -1.936432071179147e-05 6.290200915791432e-04 -4.128752686116783e-06 1.275276065281672e-03
1.008019024419455e-01 -1.190115468838691e-05 -4.645694345702734e-05 7.308814057205096e-04 -2.229920162620451e-05 1.473751245880510e-03
1.017790317241043e-01 1.071966999761874e-04 4.203810576445933e-04 1.771267246909073e-03 2.066440033193304e-04 3.508674554027175e-03
1.116705996962974e-01 -1.160157342747738e-05 -4.313324990543328e-05 7.085882199035025e-04 -2.114034171522293e-05 1.456746869342164e-03
1.109388994488372e-01 -4.654459653320519e-06 -1.809570934580884e-05 6.847590585533218e-04 -3.116561994648115e-06 1.337787042852045e-03
1.222638318150225e-01 -1.027334565073319e-05 -4.419889055116536e-05 7.150401116830834e-04 -2.004579869860343e-05 1.386973109787035e-03
1.320065775728250e-01 1.007071045954573e-04 4.110646426323997e-04 1.786947279887414e-03 1.984237358263667e-04 3.595049095798275e-03
1.325931011953005e-01 -1.004295516746803e-05 -4.115178894947055e-05 6.951769591933499e-04 -1.901603432102452e-05 1.374828192724332e-03
1.230522764601706e-01 -4.697747544502691e-06 -1.937339604505106e-05 6.335854194990369e-04 -3.945700728036986e-06 1.301290947405438e-03
1.140191886427882e-01 -4.607092169197842e-06 -1.868341260232174e-05 6.643196127416223e-04 -3.332356525685374e-06 1.344240312246175e-03
1.094073103462858e-01 1.045091951455973e-04 4.220654352509836e-04 1.766195291843914e-03 2.045283532249221e-04 3.549621821110812e-03
1.245227925994269e-01 1.033454913227040e-04 4.090920014812037e-04 1.787739853273255e-03 2.004200611061256e-04 3.565300674412466e-03
1.200745727163377e-01 -4.767051630462365e-06 -1.876997320734029e-05 6.552060544434653e-04 -3.747124096061009e-06 1.293068166950531e-03
        </DataArray>
        <DataArray type="Float64" Name="nodal_cauchy_stresses_xyz" NumberOfComponents="6" format="ascii">
1.230364212498510e+01 1.062406595465807e-06 3.787978622502604e-06 8.872839328059479e-03 2.252942891175583e-06 1.731861880669291e-02
1.189810484038018e+01 -8.032565282672223e-04 -3.160555885001692e-03 3.114290092021318e-02 -1.033174432116879e-03 6.075599037653490e-02
1.263147947585211e+01 -8.118284065995678e-04 -3.083987786936682e-03 2.707046160389152e-02 -1.046425704266085e-03 4.942640334428894e-02
1.276752882496462e+01 1.263568895741308e-06 3.583415097596144e-06 9.314000242054529e-03 2.230345767947989e-06 1.732770656770741e-02
1.323713442443730e+01 9.409806552441816e-07 5.317486773836588e-06 8.874443580989686e-03 2.182057600170009e-06 1.906711764049860e-02
1.336805092828996e+01 -7.604959043746328e-04 -3.210860929411630e-03 1.973535225116728e-02 -1.050236554137629e-03 4.430761304130040e-02
1.410784489142246e+01 -7.603842014322199e-04 -3.099575141242850e-03 1.550594051544238e-02 -1.045335552859440e-03 3.266424786285562e-02
1.371209877052662e+01 1.104106222890118e-06 4.960725483608484e-06 9.302327328653617e-03 2.110579814685622e-06 1.904961802409344e-02
1.210486841835364e+01 -4.743401101588723e-05 -1.701848393681756e-04 -3.497492282733209e-03 -2.624649129800425e-04 -7.646934994172314e-03
1.226615301717452e+01 -8.077735346339590e-04 -3.124791014196195e-03 2.910456541104376e-02 -1.040689158807770e-03 5.512631592107824e-02
1.269960603888329e+01 -5.976598953971171e-05 -1.768429527357411e-04 -3.706203998288143e-03 -2.863623304412764e-04 -9.466431324734972e-03
1.253435955773535e+01 1.163834344050211e-06 3.701114302672833e-06 9.095292124696593e-03 2.247390590642357e-06 1.733187127077903e-02
1.330208450165616e+01 -4.937315042326014e-05 -2.631567485888655e-04 -5.403830193300157e-03 -3.073006967344140e-04 -8.658186090606021e-03
1.373917218653924e+01 -7.606212673257114e-04 -3.157509791944812e-03 1.761875959210200e-02 -1.048564713601423e-03 3.852172204816262e-02
1.391193222935392e+01 -5.895200710282430e-05 -2.588074963125027e-04 -5.784848284588454e-03 -3.253763923011894e-04 -1.082225448170056e-02
1.347346025908200e+01 1.023131019517755e-06 5.153551080533145e-06 9.089874397392502e-03 2.151483388730533e-06 1.906632954929652e-02
1.276555416419679e+01 1.016868396791869e-06 4.565276527050127e-06 8.890679745308739e-03 2.239908269014053e-06 1.820707374809516e-02
1.263838722834687e+01 -7.843335169866329e-04 -3.189186496797307e-03 2.550963968346045e-02 -1.045141301924094e-03 5.251519314298249e-02
1.337469829112493e+01 -7.884499260769578e-04 -3.094861071797039e-03 2.135938632379693e-02 -1.049095701029418e-03 4.102963242426865e-02
1.323511881890980e+01 1.198526565651130e-06 4.282540270936710e-06 9.324455555736541e-03 2.191707413563702e-06 1.820133505452138e-02
1.189810484038018e+01 -8.032565282672223e-04 -3.160555885001692e-03 3.114290092021318e-02 -1.033174432116879e-03 6.075599037653490e-02
1.025579507006521e+01 7.413315599301092e-03 2.932279314648389e-02 6.108815539484720e-02 1.421273725472017e-02 1.203145914649793e-01
1.210265761317340e+01 7.383168371853819e-03 2.853285557204230e-02 4.647280625027332e-02 1.401828145857626e-02 8.814160563419193e-02
1.263147947585211e+01 -8.118284065995678e-04 -3.083987786936682e-03 2.707046160389152e-02 -1.046425704266085e-03 4.942640334428894e-02
1.336805092828996e+01 -7.604959043746328e-04 -3.210860929411630e-03 1.973535225116728e-02 -1.050236554137629e-03 4.430761304130040e-02
1.393936202867688e+01 7.018792353486382e-03 2.908411404539249e-02 2.975569861050523e-02 1.382444476723670e-02 6.353218676250337e-02
1.576211738589942e+01 6.988112779314628e-03 2.829204036266132e-02 1.681803686567988e-02 1.362792376166369e-02 3.471440802264422e-02
1.410784489142246e+01 -7.603842014322199e-04 -3.099575141242850e-03 1.550594051544238e-02 -1.045335552859440e-03 3.266424786285562e-02
1.105364913617180e+01 -1.566444989873925e-03 -6.194790830232636e-03 -4.840882111958543e-03 -3.004183633549818e-03 -8.542835675404783e-03
1.117677924769585e+01 7.396998151676358e-03 2.893012831033618e-02 5.373792359870695e-02 1.411499698889436e-02 1.039523979312471e-01
1.235492309261241e+01 -1.436295110422696e-03 -5.558716929633551e-03 -1.520907505688488e-02 -2.713415766364059e-03 -2.665060479944394e-02
1.226615301717452e+01 -8.077735346339590e-04 -3.124791014196195e-03 2.910456541104376e-02 -1.040689158807770e-03 5.512631592107824e-02
1.364290502592526e+01 -1.258140424858133e-03 -5.193340259661873e-03 -2.256590030383264e-02 -2.441945400668706e-03 -4.924485138215294e-02
1.484916873540529e+01 7.002543604664227e-03 2.869197850932202e-02 2.324100154007857e-02 1.372639205320424e-02 4.883540174897820e-02
1.491716030840907e+01 -1.147336590312326e-03 -4.634618994882803e-03 -3.216638060175590e-02 -2.189085251041518e-03 -6.581732162530023e-02
1.373917218653924e+01 -7.606212673257114e-04 -3.157509791944812e-03 1.761875959210200e-02 -1.048564713601423e-03 3.852172204816262e-02
1.263838722834687e+01 -7.843335169866329e-04 -3.189186496797307e-03 2.550963968346045e-02 -1.045141301924094e-03 5.251519314298249e-02
1.208877949965387e+01 7.218788943388258e-03 2.918505444786864e-02 4.486368174230358e-02 1.401733583010615e-02 9.157442894553032e-02
1.392534023663845e+01 7.189173991798676e-03 2.839672405515736e-02 3.107498439781307e-02 1.382328649797382e-02 6.106583033314070e-02
1.337469829112493e+01 -7.884499260769578e-04 -3.094861071797039e-03 2.135938632379693e-02 -1.049095701029418e-03 4.102963242426865e-02
        </DataArray>
  </PointData>
  <CellData>
        <DataArray type="Float64" Name="element_GL_strains_xyz" NumberOfComponents="6" format="ascii">
1.170191406468185e-01 -1.313403632771967e-06 -5.256680135230836e-06 2.266604548688231e-04 -2.709675177179887e-06 4.533911897441656e-04
1.169602295380074e-01 1.348035796638274e-05 5.392042108287381e-05 9.377154590119197e-04 2.781520107334458e-05 1.875187117552331e-03
        </DataArray>
        <DataArray type="Float64" Name="element_cauchy_stresses_xyz" NumberOfComponents="6" format="ascii">
1.300092036930890e+01 -1.746384207288564e-04 -6.988424618894115e-04 9.028745185054124e-04 -3.567120174020953e-04 1.809752594395262e-03
1.300215371935464e+01 4.594993865296959e-04 1.838513106453758e-03 3.848768104739549e-03 9.960790462854648e-04 7.678874113143727e-03
        </DataArray>
      </CellData>

    </Piece>
  </UnstructuredGrid>
</VTKFile>
