<?xml version="1.0" ?> 
<!-- 
# vtk DataFile Version 3.0
-->
<VTKFile type="UnstructuredGrid" version="0.1" compressor="vtkZLibDataCompressor" byte_order="LittleEndian">
  <UnstructuredGrid>
    <FieldData>
      <DataArray type="Float64" Name="TIME" NumberOfTuples="1" format="ascii">
5.000000000000000e-01 
      </DataArray>
    </FieldData>

    <Piece NumberOfPoints="40" NumberOfCells="2" >
      <Points>
        <DataArray type="Float64" NumberOfComponents="3" format="ascii">
0.000000000000000e+00 0.000000000000000e+00 0.000000000000000e+00
1.000000000000000e+00 0.000000000000000e+00 0.000000000000000e+00
1.000000000000000e+00 1.000000000000000e+00 0.000000000000000e+00
0.000000000000000e+00 1.000000000000000e+00 0.000000000000000e+00
0.000000000000000e+00 0.000000000000000e+00 1.000000000000000e+00
1.000000000000000e+00 0.000000000000000e+00 1.000000000000000e+00
1.000000000000000e+00 1.000000000000000e+00 1.000000000000000e+00
0.000000000000000e+00 1.000000000000000e+00 1.000000000000000e+00
5.000000000000000e-01 0.000000000000000e+00 0.000000000000000e+00
1.000000000000000e+00 5.000000000000000e-01 0.000000000000000e+00
5.000000000000000e-01 1.000000000000000e+00 0.000000000000000e+00
0.000000000000000e+00 5.000000000000000e-01 0.000000000000000e+00
5.000000000000000e-01 0.000000000000000e+00 1.000000000000000e+00
1.000000000000000e+00 5.000000000000000e-01 1.000000000000000e+00
5.000000000000000e-01 1.000000000000000e+00 1.000000000000000e+00
0.000000000000000e+00 5.000000000000000e-01 1.000000000000000e+00
0.000000000000000e+00 0.000000000000000e+00 5.000000000000000e-01
1.000000000000000e+00 0.000000000000000e+00 5.000000000000000e-01
1.000000000000000e+00 1.000000000000000e+00 5.000000000000000e-01
0.000000000000000e+00 1.000000000000000e+00 5.000000000000000e-01
1.000000000000000e+00 0.000000000000000e+00 0.000000000000000e+00
2.000000000000000e+00 0.000000000000000e+00 0.000000000000000e+00
2.000000000000000e+00 1.000000000000000e+00 0.000000000000000e+00
1.000000000000000e+00 1.000000000000000e+00 0.000000000000000e+00
1.000000000000000e+00 0.000000000000000e+00 1.000000000000000e+00
2.000000000000000e+00 0.000000000000000e+00 1.000000000000000e+00
2.000000000000000e+00 1.000000000000000e+00 1.000000000000000e+00
1.000000000000000e+00 1.000000000000000e+00 1.000000000000000e+00
1.500000000000000e+00 0.000000000000000e+00 0.000000000000000e+00
2.000000000000000e+00 5.000000000000000e-01 0.000000000000000e+00
1.500000000000000e+00 1.000000000000000e+00 0.000000000000000e+00
1.000000000000000e+00 5.000000000000000e-01 0.000000000000000e+00
1.500000000000000e+00 0.000000000000000e+00 1.000000000000000e+00
2.000000000000000e+00 5.000000000000000e-01 1.000000000000000e+00
1.500000000000000e+00 1.000000000000000e+00 1.000000000000000e+00
1.000000000000000e+00 5.000000000000000e-01 1.000000000000000e+00
1.000000000000000e+00 0.000000000000000e+00 5.000000000000000e-01
2.000000000000000e+00 0.000000000000000e+00 5.000000000000000e-01
2.000000000000000e+00 1.000000000000000e+00 5.000000000000000e-01
1.000000000000000e+00 1.000000000000000e+00 5.000000000000000e-01
        </DataArray>
      </Points>

      <Cells>
        <DataArray type="Int32" Name="connectivity" format="ascii">
0 1 2 3 4 5 6 7 8 9 10 11 12 13 14 15 16 17 18 19 20 21 22 23 24 25 26 27 28 29 30 31 32 33 34 35 36 37 38 39 
        </DataArray>
        <DataArray type="Int32" Name="offsets" format="ascii">
20 40 
        </DataArray>
        <DataArray type="UInt8" Name="types" format="ascii">
25 25 
        </DataArray>
      </Cells>

  <PointData>
        <DataArray type="Float64" Name="displacement" NumberOfComponents="3" format="ascii">
0.000000000000000e+00 0.000000000000000e+00 0.000000000000000e+00
5.402104509682564e-02 -1.652161277870317e-03 -3.303255641885712e-03
5.771210014790464e-02 -1.661301641784754e-03 -3.319395607169266e-03
0.000000000000000e+00 0.000000000000000e+00 0.000000000000000e+00
0.000000000000000e+00 0.000000000000000e+00 0.000000000000000e+00
6.140707672264460e-02 -1.668322813757712e-03 -3.339860198169794e-03
6.510514779739639e-02 -1.677500205060080e-03 -3.356074227459414e-03
0.000000000000000e+00 0.000000000000000e+00 0.000000000000000e+00
2.720276595186250e-02 -3.930959106959089e-04 -7.866374540358968e-04
5.586428043126938e-02 -1.656717443542072e-03 -3.311282131506992e-03
2.892260518047507e-02 -3.950753160703278e-04 -7.914967041581763e-04
0.000000000000000e+00 0.000000000000000e+00 0.000000000000000e+00
3.064490118879163e-02 -3.979675029230059e-04 -7.945806685298633e-04
6.325400637931186e-02 -1.672898940039965e-03 -3.347926656057941e-03
3.236921714051188e-02 -3.999686173830127e-04 -7.994833528684123e-04
0.000000000000000e+00 0.000000000000000e+00 0.000000000000000e+00
0.000000000000000e+00 0.000000000000000e+00 0.000000000000000e+00
5.770508105334966e-02 -1.660156552686295e-03 -3.321448730534413e-03
6.140001670298831e-02 -1.669318366000380e-03 -3.337631514476251e-03
0.000000000000000e+00 0.000000000000000e+00 0.000000000000000e+00
5.402104509682564e-02 -1.652161277870317e-03 -3.303255641885712e-03
1.041540995046679e-01 -7.745081987270999e-03 -1.549122601416870e-02
1.141074907898879e-01 -7.749859325636537e-03 -1.550288224858907e-02
5.771210014790464e-02 -1.661301641784754e-03 -3.319395607169266e-03
6.140707672264460e-02 -1.668322813757712e-03 -3.339860198169794e-03
1.239261833057636e-01 -7.756260709556500e-03 -1.550939579262727e-02
1.336146430045976e-01 -7.760127578786477e-03 -1.551923073600004e-02
6.510514779739639e-02 -1.677500205060080e-03 -3.356074227459414e-03
7.981137185499847e-02 -3.949043933159790e-03 -7.897838821625387e-03
1.091471093195011e-01 -7.747595757381042e-03 -1.549732436731975e-02
8.615437138950344e-02 -3.974469446735295e-03 -7.948046153061789e-03
5.586428043126938e-02 -1.656717443542072e-03 -3.311282131506992e-03
9.245258377631559e-02 -3.998745213236083e-03 -7.998528178017519e-03
1.287858214743892e-01 -7.758308969450294e-03 -1.551456329428810e-02
9.870744447105688e-02 -4.023180098230561e-03 -8.046754148146042e-03
6.325400637931186e-02 -1.672898940039965e-03 -3.347926656057941e-03
5.770508105334966e-02 -1.660156552686295e-03 -3.321448730534413e-03
1.141044796333714e-01 -7.751201497244279e-03 -1.550129084212980e-02
1.239235936349099e-01 -7.755503398557270e-03 -1.551199533604279e-02
6.140001670298831e-02 -1.669318366000380e-03 -3.337631514476251e-03
        </DataArray>
        <DataArray type="Float64" Name="nodal_GL_strains_xyz" NumberOfComponents="6" format="ascii">
5.629102015361363e-02 8.940606419082687e-08 3.562734360470313e-07 3.987260656225667e-05 1.784739833148287e-07 7.832260877403414e-05
5.457831581489078e-02 -2.073295189898901e-06 -8.245079341359568e-06 3.190017399014256e-04 -1.901106964350852e-06 6.317856030947030e-04
5.908463590223181e-02 -2.125086634765820e-06 -8.348583325212905e-06 3.143936869621585e-04 -2.040776271913412e-06 6.097157828449339e-04
5.965908797830723e-02 8.986730591316970e-08 3.553717953213455e-07 4.049662942596961e-05 1.787072909259507e-07 7.669939665072255e-05
6.304357296283927e-02 8.893487055628285e-08 3.598802792764833e-07 3.823539847241704e-05 1.789018096200406e-07 8.078890486428665e-05
6.358050048456251e-02 -2.121429439748210e-06 -8.644678777574147e-06 2.969255583430897e-04 -2.172904638563912e-06 6.133359632491210e-04
6.806692159363170e-02 -2.166019630105666e-06 -8.719385658372798e-06 2.922896481388351e-04 -2.297676027196472e-06 5.912105437910419e-04
6.644358312983462e-02 8.935535999784661e-08 3.588156265781902e-07 3.883432275464698e-05 1.790588792131155e-07 7.911546809230194e-05
5.548701726214718e-02 -4.803101071714348e-07 -1.862305712431058e-06 7.788607715868051e-05 -1.799745930853467e-06 1.529653520893366e-04
5.683780317282470e-02 -2.099232962889089e-06 -8.298755801927898e-06 3.166717026436845e-04 -1.971444125963829e-06 6.208088572558570e-04
5.938434357447192e-02 -5.206054638611624e-07 -1.899418163867043e-06 8.133077931924126e-05 -1.880320945582483e-06 1.539766730005686e-04
5.797136198351833e-02 8.963668629151179e-08 3.558324114178282e-07 4.019162613632358e-05 1.785934247555832e-07 7.753277357907412e-05
6.329944851652830e-02 -4.965827602338599e-07 -2.175419001496738e-06 7.871380859783302e-05 -1.956187494326985e-06 1.663723035121424e-04
6.582968344648116e-02 -2.143760027360024e-06 -8.683920456556362e-06 2.945842593554901e-04 -2.235777612811235e-06 6.023373264745151e-04
6.723151225162019e-02 -5.323345525099931e-07 -2.194360948664836e-06 8.179197542782712e-05 -2.027420693031536e-06 1.666505997765556e-04
6.474006062917284e-02 8.914511716628220e-08 3.593576029701895e-07 3.854114529831869e-05 1.789830774113948e-07 7.997248902625458e-05
5.965270406165717e-02 8.918022523212539e-08 3.580768571235982e-07 3.909679770281837e-05 1.786989914930095e-07 7.961035156648502e-05
5.910436214158963e-02 -2.099277110921875e-06 -8.445524315876695e-06 3.080829726460361e-04 -2.038999610976620e-06 6.223581467083516e-04
6.360002297072778e-02 -2.147449810064031e-06 -8.534577313588912e-06 3.034668991610897e-04 -2.171189510091066e-06 6.002711921889660e-04
6.303709235880084e-02 8.962102264573661e-08 3.570937091193515e-07 3.970680323510392e-05 1.788940721322635e-07 7.795913379033648e-05
5.457831581489078e-02 -2.073295189898901e-06 -8.245079341359568e-06 3.190017399014256e-04 -1.901106964350852e-06 6.317856030947030e-04
4.855997847849028e-02 4.425526654483282e-05 1.759441988361625e-04 7.008150441121124e-04 8.602320071187002e-05 1.395921901724731e-03
5.715568293994551e-02 4.397124012894883e-05 1.726842407773252e-04 7.118183808806021e-04 8.500360904809838e-05 1.408665428855709e-03
5.908463590223181e-02 -2.125086634765820e-06 -8.348583325212905e-06 3.143936869621585e-04 -2.040776271913412e-06 6.097157828449339e-04
6.358050048456251e-02 -2.121429439748210e-06 -8.644678777574147e-06 2.969255583430897e-04 -2.172904638563912e-06 6.133359632491210e-04
6.558343318313509e-02 4.263595611914487e-05 1.737165692168656e-04 7.130287770930074e-04 8.400724914176058e-05 1.438882727173944e-03
7.384494000262648e-02 4.237253473481471e-05 1.705390153025705e-04 7.230673362473438e-04 8.303149470608600e-05 1.449696734773129e-03
6.806692159363170e-02 -2.166019630105666e-06 -8.719385658372798e-06 2.922896481388351e-04 -2.297676027196472e-06 5.912105437910419e-04
5.148234506451371e-02 -5.350986082662649e-06 -2.111849336853994e-05 2.991498528068826e-04 -1.000093286036144e-05 6.024060674680495e-04
5.286903329323094e-02 4.411112340893486e-05 1.743080007270948e-04 7.064731407994925e-04 8.550979744092897e-05 1.402119766425223e-03
5.807821450730312e-02 -5.262469613330061e-06 -2.022325749395007e-05 2.916473454026226e-04 -9.679980804110048e-06 5.964847422365922e-04
5.683780317282470e-02 -2.099232962889089e-06 -8.298755801927898e-06 3.166717026436845e-04 -1.971444125963829e-06 6.208088572558570e-04
6.456616571924077e-02 -4.909492442318222e-06 -2.043512273587492e-05 2.934891959886514e-04 -9.370483562161721e-06 5.729268724660503e-04
6.972538537929447e-02 4.250234549098397e-05 1.721229574565567e-04 7.181884809274643e-04 8.351634113925923e-05 1.444076396414596e-03
7.094893328930062e-02 -4.833339217857940e-06 -1.958932748815533e-05 2.865244158937050e-04 -9.072480935060047e-06 5.680809582499245e-04
6.582968344648116e-02 -2.143760027360024e-06 -8.683920456556362e-06 2.945842593554901e-04 -2.235777612811235e-06 6.023373264745151e-04
5.910436214158963e-02 -2.099277110921875e-06 -8.445524315876695e-06 3.080829726460361e-04 -2.038999610976620e-06 6.223581467083516e-04
5.711654084909004e-02 4.343974149446814e-05 1.747972588344762e-04 7.065540105886047e-04 8.500138538946121e-05 1.418620458292117e-03
6.554513883522800e-02 4.316670981028895e-05 1.715803421651210e-04 7.170355225284903e-04 8.400486551737788e-05 1.430335224125368e-03
6.360002297072778e-02 -2.147449810064031e-06 -8.534577313588912e-06 3.034668991610897e-04 -2.171189510091066e-06 6.002711921889660e-04
        </DataArray>
        <DataArray type="Float64" Name="nodal_cauchy_stresses_xyz" NumberOfComponents="6" format="ascii">
5.937571482310057e+00 3.833161661069834e-07 1.424340716583750e-06 4.435620529029805e-03 7.932776413691278e-07 8.712533193374625e-03
5.749069322194194e+00 -3.597163774750634e-04 -1.424310938867280e-03 1.421877829009485e-02 -5.037742830521506e-04 2.782413798282722e-02
6.248825047110639e+00 -3.577788212402260e-04 -1.386262795545095e-03 1.203653229120049e-02 -4.990029580362468e-04 2.219962461302781e-02
6.311852649092920e+00 3.843837084427440e-07 1.202307410535741e-06 4.532200852585697e-03 7.013394130246149e-07 8.583352882675511e-03
6.690056928116228e+00 2.696627439086319e-07 1.422134335204555e-06 4.304835991523031e-03 6.064191422558023e-07 9.095469863309811e-03
6.751201251042158e+00 -3.398025566201910e-04 -1.405210428246967e-03 8.561788899277755e-03 -4.923636347132001e-04 1.902980902827458e-02
7.256154931591418e+00 -3.361190739161252e-04 -1.360179889151191e-03 6.314748029497771e-03 -4.839454775496185e-04 1.327572358267832e-02
7.072113045228836e+00 2.655703006709813e-07 1.179457483282576e-06 4.398493582160560e-03 5.088748902487783e-07 8.960439829779683e-03
5.848562258353514e+00 -5.561448631827393e-05 -2.151153826883318e-04 -1.379610655718524e-03 -1.904027671529462e-04 -3.033526590205648e-03
5.999180152532781e+00 -3.587923229106399e-04 -1.405783801604788e-03 1.312786876888414e-02 -5.015642050683683e-04 2.502281003231533e-02
6.281267615968495e+00 -5.927084478105748e-05 -2.143540765111018e-04 -1.733351278902728e-03 -1.965159493306112e-04 -4.315645008447510e-03
6.124040295388701e+00 3.841136144876859e-07 1.315103996898329e-06 4.484562286816172e-03 7.481801451347580e-07 8.650596961061050e-03
6.718763900953942e+00 -5.492836240247141e-05 -2.431283681993467e-04 -2.689913660050566e-03 -2.019859980211284e-04 -4.505283997664871e-03
7.003891323741189e+00 -3.379994251312966e-04 -1.383165008802806e-03 7.438484652794574e-03 -4.883167734473122e-04 1.616374863348679e-02
7.160978056251276e+00 -5.797810169501412e-05 -2.399409993399174e-04 -3.099819300393345e-03 -2.068271892826579e-04 -5.899728315664052e-03
6.880425599496611e+00 2.678360085040511e-07 1.302419613273689e-06 4.352250033727649e-03 5.584273277377879e-07 9.030484552317097e-03
6.311139331119024e+00 3.282294373928188e-07 1.427274809591029e-06 4.375473788125993e-03 7.032416119329176e-07 8.909081924485219e-03
6.251048040228516e+00 -3.502492366671325e-04 -1.415450262011864e-03 1.141215961617263e-02 -4.987571337481201e-04 2.342866943525111e-02
6.753363262363924e+00 -3.474251766166770e-04 -1.373862028280500e-03 9.197569782259987e-03 -4.921356644207970e-04 1.773938082373228e-02
6.689332737144438e+00 3.266393232620720e-07 1.194565579264360e-06 4.470468547396645e-03 6.083178687363560e-07 8.776711413131131e-03
5.749069322194194e+00 -3.597163774750634e-04 -1.424310938867280e-03 1.421877829009485e-02 -5.037742830521506e-04 2.782413798282722e-02
5.089887043389568e+00 3.445920424879760e-03 1.369552652950143e-02 2.608626231810894e-02 6.658125959291662e-03 5.159183729612724e-02
6.036497696445973e+00 3.444136967388021e-03 1.350959812182617e-02 1.981613582471902e-02 6.618974122686825e-03 3.808165524267322e-02
6.248825047110639e+00 -3.577788212402260e-04 -1.386262795545095e-03 1.203653229120049e-02 -4.990029580362468e-04 2.219962461302781e-02
6.751201251042158e+00 -3.398025566201910e-04 -1.405210428246967e-03 8.561788899277755e-03 -4.923636347132001e-04 1.902980902827458e-02
6.977942876279386e+00 3.352628522656666e-03 1.368002115705069e-02 1.280266177768994e-02 6.579145113527667e-03 2.696428785586693e-02
7.913343130223997e+00 3.350025820474905e-03 1.349081538373722e-02 6.985254886079615e-03 6.538262809345426e-03 1.435952274951585e-02
7.256154931591418e+00 -3.361190739161252e-04 -1.360179889151191e-03 6.314748029497771e-03 -4.839454775496185e-04 1.327572358267832e-02
5.407902527619085e+00 -6.744845054831049e-04 -2.680265631421510e-03 -1.477307714184832e-03 -1.284592275221970e-03 -2.555992670819470e-03
5.562708451294149e+00 3.444827262856174e-03 1.360330411654259e-02 2.293908572026430e-02 6.638562965694783e-03 4.476510587615858e-02
6.136857253192932e+00 -6.303344670830666e-04 -2.473364056239224e-03 -6.219888806565377e-03 -1.188252217460602e-03 -1.115849192493561e-02
5.999180152532781e+00 -3.587923229106399e-04 -1.405783801604788e-03 1.312786876888414e-02 -5.015642050683683e-04 2.502281003231533e-02
6.861728325949176e+00 -5.729841017361431e-04 -2.334965221159612e-03 -9.980782910353132e-03 -1.095757563206489e-03 -2.132743713755861e-02
7.445358587607085e+00 3.351165098190390e-03 1.358634678060104e-02 9.881196383399755e-03 6.558801324715283e-03 2.058812212051843e-02
7.582343776882883e+00 -5.327212923851399e-04 -2.143610078253329e-03 -1.452433467408400e-02 -1.007028093842247e-03 -2.953189319359295e-02
7.003891323741189e+00 -3.379994251312966e-04 -1.383165008802806e-03 7.438484652794574e-03 -4.883167734473122e-04 1.616374863348679e-02
6.251048040228516e+00 -3.502492366671325e-04 -1.415450262011864e-03 1.141215961617263e-02 -4.987571337481201e-04 2.342866943525111e-02
6.032196081319998e+00 3.400065372317948e-03 1.368472078965446e-02 1.930001838037232e-02 6.618777304325638e-03 3.917963409612524e-02
6.973600491895027e+00 3.397965640988700e-03 1.349746839573546e-02 1.325410917636215e-02 6.578929050604954e-03 2.611956759233581e-02
6.753363262363924e+00 -3.474251766166770e-04 -1.373862028280500e-03 9.197569782259987e-03 -4.921356644207970e-04 1.773938082373228e-02
        </DataArray>
  </PointData>
  <CellData>
        <DataArray type="Float64" Name="element_GL_strains_xyz" NumberOfComponents="6" format="ascii">
6.134153766364019e-02 -7.730925240842820e-07 -3.092985215037959e-06 1.065446072530467e-04 -1.658318038214216e-06 2.131067606454874e-04
6.132093804023356e-02 5.245424069932891e-06 2.098164924214991e-05 3.895482175573362e-04 1.088572470206778e-05 7.790374423431218e-04
        </DataArray>
        <DataArray type="Float64" Name="element_cauchy_stresses_xyz" NumberOfComponents="6" format="ascii">
6.500437238845669e+00 -9.743011397947643e-05 -3.897805007030126e-04 4.394290873692633e-04 -2.054376457378614e-04 8.799328298549743e-04
6.500671588772401e+00 2.423977105640640e-04 9.697127374885787e-04 1.641922575094198e-03 5.220975404717334e-04 3.279142815218297e-03
        </DataArray>
      </CellData>

    </Piece>
  </UnstructuredGrid>
</VTKFile>
