<?xml version="1.0" ?> 
<!-- 
# vtk DataFile Version 3.0
-->
<VTKFile type="UnstructuredGrid" version="0.1" compressor="vtkZLibDataCompressor" byte_order="LittleEndian">
  <UnstructuredGrid>
    <FieldData>
      <DataArray type="Float64" Name="TIME" NumberOfTuples="1" format="ascii">
0.000000000000000e+00 
      </DataArray>
    </FieldData>

    <Piece NumberOfPoints="40" NumberOfCells="2" >
      <Points>
        <DataArray type="Float64" NumberOfComponents="3" format="ascii">
0.000000000000000e+00 0.000000000000000e+00 0.000000000000000e+00
1.000000000000000e+00 0.000000000000000e+00 0.000000000000000e+00
1.000000000000000e+00 1.000000000000000e+00 0.000000000000000e+00
0.000000000000000e+00 1.000000000000000e+00 0.000000000000000e+00
0.000000000000000e+00 0.000000000000000e+00 1.000000000000000e+00
1.000000000000000e+00 0.000000000000000e+00 1.000000000000000e+00
1.000000000000000e+00 1.000000000000000e+00 1.000000000000000e+00
0.000000000000000e+00 1.000000000000000e+00 1.000000000000000e+00
5.000000000000000e-01 0.000000000000000e+00 0.000000000000000e+00
1.000000000000000e+00 5.000000000000000e-01 0.000000000000000e+00
5.000000000000000e-01 1.000000000000000e+00 0.000000000000000e+00
0.000000000000000e+00 5.000000000000000e-01 0.000000000000000e+00
5.000000000000000e-01 0.000000000000000e+00 1.000000000000000e+00
1.000000000000000e+00 5.000000000000000e-01 1.000000000000000e+00
5.000000000000000e-01 1.000000000000000e+00 1.000000000000000e+00
0.000000000000000e+00 5.000000000000000e-01 1.000000000000000e+00
0.000000000000000e+00 0.000000000000000e+00 5.000000000000000e-01
1.000000000000000e+00 0.000000000000000e+00 5.000000000000000e-01
1.000000000000000e+00 1.000000000000000e+00 5.000000000000000e-01
0.000000000000000e+00 1.000000000000000e+00 5.000000000000000e-01
1.000000000000000e+00 0.000000000000000e+00 0.000000000000000e+00
2.000000000000000e+00 0.000000000000000e+00 0.000000000000000e+00
2.000000000000000e+00 1.000000000000000e+00 0.000000000000000e+00
1.000000000000000e+00 1.000000000000000e+00 0.000000000000000e+00
1.000000000000000e+00 0.000000000000000e+00 1.000000000000000e+00
2.000000000000000e+00 0.000000000000000e+00 1.000000000000000e+00
2.000000000000000e+00 1.000000000000000e+00 1.000000000000000e+00
1.000000000000000e+00 1.000000000000000e+00 1.000000000000000e+00
1.500000000000000e+00 0.000000000000000e+00 0.000000000000000e+00
2.000000000000000e+00 5.000000000000000e-01 0.000000000000000e+00
1.500000000000000e+00 1.000000000000000e+00 0.000000000000000e+00
1.000000000000000e+00 5.000000000000000e-01 0.000000000000000e+00
1.500000000000000e+00 0.000000000000000e+00 1.000000000000000e+00
2.000000000000000e+00 5.000000000000000e-01 1.000000000000000e+00
1.500000000000000e+00 1.000000000000000e+00 1.000000000000000e+00
1.000000000000000e+00 5.000000000000000e-01 1.000000000000000e+00
1.000000000000000e+00 0.000000000000000e+00 5.000000000000000e-01
2.000000000000000e+00 0.000000000000000e+00 5.000000000000000e-01
2.000000000000000e+00 1.000000000000000e+00 5.000000000000000e-01
1.000000000000000e+00 1.000000000000000e+00 5.000000000000000e-01
        </DataArray>
      </Points>

      <Cells>
        <DataArray type="Int32" Name="connectivity" format="ascii">
0 1 2 3 4 5 6 7 8 9 10 11 12 13 14 15 16 17 18 19 20 21 22 23 24 25 26 27 28 29 30 31 32 33 34 35 36 37 38 39 
        </DataArray>
        <DataArray type="Int32" Name="offsets" format="ascii">
20 40 
        </DataArray>
        <DataArray type="UInt8" Name="types" format="ascii">
25 25 
        </DataArray>
      </Cells>

  <PointData>
        <DataArray type="Float64" Name="displacement" NumberOfComponents="3" format="ascii">
0.000000000000000e+00 0.000000000000000e+00 0.000000000000000e+00
0.000000000000000e+00 0.000000000000000e+00 0.000000000000000e+00
0.000000000000000e+00 0.000000000000000e+00 0.000000000000000e+00
0.000000000000000e+00 0.000000000000000e+00 0.000000000000000e+00
0.000000000000000e+00 0.000000000000000e+00 0.000000000000000e+00
0.000000000000000e+00 0.000000000000000e+00 0.000000000000000e+00
0.000000000000000e+00 0.000000000000000e+00 0.000000000000000e+00
0.000000000000000e+00 0.000000000000000e+00 0.000000000000000e+00
0.000000000000000e+00 0.000000000000000e+00 0.000000000000000e+00
0.000000000000000e+00 0.000000000000000e+00 0.000000000000000e+00
0.000000000000000e+00 0.000000000000000e+00 0.000000000000000e+00
0.000000000000000e+00 0.000000000000000e+00 0.000000000000000e+00
0.000000000000000e+00 0.000000000000000e+00 0.000000000000000e+00
0.000000000000000e+00 0.000000000000000e+00 0.000000000000000e+00
0.000000000000000e+00 0.000000000000000e+00 0.000000000000000e+00
0.000000000000000e+00 0.000000000000000e+00 0.000000000000000e+00
0.000000000000000e+00 0.000000000000000e+00 0.000000000000000e+00
0.000000000000000e+00 0.000000000000000e+00 0.000000000000000e+00
0.000000000000000e+00 0.000000000000000e+00 0.000000000000000e+00
0.000000000000000e+00 0.000000000000000e+00 0.000000000000000e+00
0.000000000000000e+00 0.000000000000000e+00 0.000000000000000e+00
0.000000000000000e+00 0.000000000000000e+00 0.000000000000000e+00
0.000000000000000e+00 0.000000000000000e+00 0.000000000000000e+00
0.000000000000000e+00 0.000000000000000e+00 0.000000000000000e+00
0.000000000000000e+00 0.000000000000000e+00 0.000000000000000e+00
0.000000000000000e+00 0.000000000000000e+00 0.000000000000000e+00
0.000000000000000e+00 0.000000000000000e+00 0.000000000000000e+00
0.000000000000000e+00 0.000000000000000e+00 0.000000000000000e+00
0.000000000000000e+00 0.000000000000000e+00 0.000000000000000e+00
0.000000000000000e+00 0.000000000000000e+00 0.000000000000000e+00
0.000000000000000e+00 0.000000000000000e+00 0.000000000000000e+00
0.000000000000000e+00 0.000000000000000e+00 0.000000000000000e+00
0.000000000000000e+00 0.000000000000000e+00 0.000000000000000e+00
0.000000000000000e+00 0.000000000000000e+00 0.000000000000000e+00
0.000000000000000e+00 0.000000000000000e+00 0.000000000000000e+00
0.000000000000000e+00 0.000000000000000e+00 0.000000000000000e+00
0.000000000000000e+00 0.000000000000000e+00 0.000000000000000e+00
0.000000000000000e+00 0.000000000000000e+00 0.000000000000000e+00
0.000000000000000e+00 0.000000000000000e+00 0.000000000000000e+00
0.000000000000000e+00 0.000000000000000e+00 0.000000000000000e+00
        </DataArray>
        <DataArray type="Float64" Name="nodal_GL_strains_xyz" NumberOfComponents="6" format="ascii">
-5.803991773328581e-17 7.900763388777020e-16 -1.442929281521906e-15 7.593799888235831e-16 -1.200623800243143e-16 6.994081833049235e-16
-4.632259042546468e-16 1.156977484435033e-15 -1.570204529078407e-16 -3.754177020051048e-16 4.554233593686962e-16 6.099427172254001e-16
-4.381692438311528e-15 1.904205964542369e-15 -6.201833119171989e-16 -1.620113559595362e-16 1.203477125384000e-16 -7.139428683904029e-16
-1.257009175765949e-15 2.491244206130398e-16 -7.083351375290729e-16 8.899751660123424e-16 4.519660163267078e-16 3.397365307324190e-16
-5.409893007470195e-16 -1.150807472208645e-15 -8.698695060413314e-16 -1.584738251743150e-16 4.045789677919315e-16 5.968202717843678e-16
-5.665499488411326e-18 8.971446602779378e-17 -1.222758213381726e-15 3.724663828856220e-16 7.137796500732852e-16 1.089538337859387e-17
-3.157775669524126e-15 -9.860088256050412e-16 -6.799680342807289e-16 -1.157193041234096e-15 -1.643905642392216e-15 1.815714015666488e-15
7.124181183117958e-17 -2.424073806137214e-15 1.966227248281109e-16 -8.316095488391188e-16 3.358690205479868e-16 1.030197854449179e-15
2.780532973724991e-17 -1.595821212594475e-15 3.201466857473111e-16 -8.268517856805600e-16 -3.115639373263143e-16 -3.948189654246531e-16
1.769685072889473e-15 2.085399730293743e-17 6.825794567539749e-16 5.605442516857372e-16 -2.873024882359089e-16 -2.161114514098340e-16
2.780532973724991e-17 -1.470697228776807e-15 5.434233072032174e-17 1.393529092674793e-17 -9.948607787558094e-16 1.641109121361755e-17
-8.817119892779507e-16 2.780532973724991e-17 1.133228285667356e-15 -8.984964307054189e-17 1.321636429567111e-16 -2.049740772983611e-16
2.189108979571924e-16 -1.329582512371477e-16 1.487634092369983e-15 -1.353659342450840e-16 -6.126496423159001e-16 2.984820147908851e-17
1.822517426544526e-16 2.119595655228800e-16 1.943885375526259e-16 2.962352035085978e-16 -1.390615693425204e-16 -1.213461603739918e-15
2.189108979571924e-16 -1.118057292044588e-15 1.036792566572141e-15 -2.371119462518010e-16 -8.164005056168179e-17 4.352958465307701e-16
1.033870515294899e-16 2.189108979571924e-16 -5.776192321389077e-17 5.380161076250876e-16 -2.653417878214978e-16 -1.066887563783767e-15
3.857428763807008e-16 1.421154966751409e-15 2.467162276944423e-16 -7.962935973443771e-17 3.472093086047811e-16 -5.078554131537417e-16
-9.034489215660744e-16 2.258622303914851e-16 2.293378966086600e-16 5.228427441515067e-16 -3.347465210864930e-16 -6.808509274590053e-16
1.180507136506112e-15 -1.624173034975215e-16 2.293378966086600e-16 1.047931520584151e-15 2.456260068293549e-17 -3.495248405777301e-16
1.233581138471817e-16 2.745215574316922e-16 2.467162276944423e-16 1.727137979165212e-16 2.068451292968690e-16 5.446538059379238e-17
-4.632259042546468e-16 1.156977484435033e-15 -1.570204529078407e-16 -3.754177020051048e-16 4.554233593686962e-16 6.099427172254001e-16
3.608313538039743e-15 8.529863420729347e-16 1.404806726481674e-15 -1.219903795020417e-15 1.161554174205080e-15 4.540989384629742e-15
-4.272495105561753e-15 1.092863384780402e-15 4.605327452949537e-16 -1.231418918353700e-15 7.034326029891027e-16 4.467253442799660e-16
-4.381692438311528e-15 1.904205964542369e-15 -6.201833119171989e-16 -1.620113559595362e-16 1.203477125384000e-16 -7.139428683904029e-16
-5.665499488411326e-18 8.971446602779378e-17 -1.222758213381726e-15 3.724663828856220e-16 7.137796500732852e-16 1.089538337859387e-17
3.825217953989140e-15 -1.012829605579801e-15 2.187450508851541e-16 -1.467590419202041e-15 5.069314819164968e-16 1.432115024913322e-15
4.504554197992019e-15 -3.421942468395583e-16 -4.788127026071232e-16 -3.004421686930575e-15 -1.195669813752967e-16 -1.378224119677880e-15
-3.157775669524126e-15 -9.860088256050412e-16 -6.799680342807289e-16 -1.157193041234096e-15 -1.643905642392216e-15 1.815714015666488e-15
1.989398356394567e-16 -1.386895845796133e-15 -3.882795338890615e-16 1.730116104166134e-15 -3.648157274589990e-16 -1.923537596148052e-16
3.539482293226319e-15 -8.165011924134631e-17 1.997106231769623e-17 2.466756300672831e-16 -7.218642922554400e-16 -2.024871512954691e-15
8.139645349051942e-16 -1.228781069777327e-15 3.563959715673346e-17 -2.870034713803652e-16 -1.090061434599952e-15 7.235910943308067e-16
1.769685072889473e-15 2.085399730293743e-17 6.825794567539749e-16 5.605442516857372e-16 -2.873024882359089e-16 -2.161114514098340e-16
4.954226202539348e-17 -5.599115810074981e-16 7.045090859265934e-16 -2.989475693941382e-16 2.805238124775096e-16 7.952556824133116e-16
-3.396040969613934e-15 1.094554489785962e-16 4.196166035670964e-16 -1.203073544376474e-16 1.377750749186168e-16 -4.283600622593905e-16
2.944926197494280e-16 -9.569083173012470e-16 7.583538754306854e-16 3.207125385439966e-16 2.144730262077175e-16 2.077735238457550e-16
1.822517426544526e-16 2.119595655228800e-16 1.943885375526259e-16 2.962352035085978e-16 -1.390615693425204e-16 -1.213461603739918e-15
-9.034489215660744e-16 2.258622303914851e-16 2.293378966086600e-16 5.228427441515067e-16 -3.347465210864930e-16 -6.808509274590053e-16
-2.993473377087288e-15 2.606188925630673e-16 -2.692239475206575e-17 1.902124266324139e-15 -8.699077996470571e-16 -6.704512008033366e-16
-7.836225476596141e-16 -1.094554489786358e-16 -2.692239475206574e-17 2.098587856533202e-15 -1.410296374985422e-16 2.798946824402789e-16
1.180507136506112e-15 -1.624173034975215e-16 2.293378966086600e-16 1.047931520584151e-15 2.456260068293549e-17 -3.495248405777301e-16
        </DataArray>
        <DataArray type="Float64" Name="nodal_cauchy_stresses_xyz" NumberOfComponents="6" format="ascii">
-5.803991773328697e-15 7.900763388777018e-14 -1.442929281521907e-13 7.593799888235821e-14 -1.200623800243147e-14 6.994081833049237e-14
-4.632259042546492e-14 1.156977484435034e-13 -1.570204529078405e-14 -3.754177020051055e-14 4.554233593686962e-14 6.099427172254000e-14
-4.381692438311530e-13 1.904205964542369e-13 -6.201833119171983e-14 -1.620113559595376e-14 1.203477125383991e-14 -7.139428683904029e-14
-1.257009175765948e-13 2.491244206130400e-14 -7.083351375290732e-14 8.899751660123408e-14 4.519660163267074e-14 3.397365307324193e-14
-5.409893007470194e-14 -1.150807472208645e-13 -8.698695060413336e-14 -1.584738251743154e-14 4.045789677919316e-14 5.968202717843681e-14
-5.665499488411686e-16 8.971446602779463e-15 -1.222758213381727e-13 3.724663828856211e-14 7.137796500732856e-14 1.089538337859466e-15
-3.157775669524120e-13 -9.860088256050386e-14 -6.799680342807277e-14 -1.157193041234098e-13 -1.643905642392215e-13 1.815714015666491e-13
7.124181183118027e-15 -2.424073806137210e-13 1.966227248281102e-14 -8.316095488391198e-14 3.358690205479870e-14 1.030197854449180e-13
2.780532973725106e-15 -1.595821212594474e-13 3.201466857473109e-14 -8.268517856805593e-14 -3.115639373263143e-14 -3.948189654246533e-14
1.769685072889478e-13 2.085399730293796e-15 6.825794567539744e-14 5.605442516857384e-14 -2.873024882359090e-14 -2.161114514098333e-14
2.780532973725000e-15 -1.470697228776805e-13 5.434233072032151e-15 1.393529092674810e-15 -9.948607787558091e-14 1.641109121361735e-15
-8.817119892779495e-14 2.780532973725038e-15 1.133228285667357e-13 -8.984964307054132e-15 1.321636429567113e-14 -2.049740772983611e-14
2.189108979571926e-14 -1.329582512371475e-14 1.487634092369983e-13 -1.353659342450840e-14 -6.126496423159000e-14 2.984820147908836e-15
1.822517426544539e-14 2.119595655228801e-14 1.943885375526262e-14 2.962352035085987e-14 -1.390615693425206e-14 -1.213461603739918e-13
2.189108979571927e-14 -1.118057292044587e-13 1.036792566572142e-13 -2.371119462518006e-14 -8.164005056168215e-15 4.352958465307700e-14
1.033870515294900e-14 2.189108979571930e-14 -5.776192321388877e-15 5.380161076250881e-14 -2.653417878214985e-14 -1.066887563783767e-13
3.857428763807007e-14 1.421154966751409e-13 2.467162276944433e-14 -7.962935973443771e-15 3.472093086047816e-14 -5.078554131537416e-14
-9.034489215660759e-14 2.258622303914851e-14 2.293378966086608e-14 5.228427441515065e-14 -3.347465210864930e-14 -6.808509274590052e-14
1.180507136506113e-13 -1.624173034975211e-14 2.293378966086601e-14 1.047931520584151e-13 2.456260068293528e-15 -3.495248405777300e-14
1.233581138471817e-14 2.745215574316923e-14 2.467162276944425e-14 1.727137979165213e-14 2.068451292968690e-14 5.446538059379232e-15
-4.632259042546492e-14 1.156977484435034e-13 -1.570204529078405e-14 -3.754177020051055e-14 4.554233593686962e-14 6.099427172254000e-14
3.608313538039746e-13 8.529863420729344e-14 1.404806726481671e-13 -1.219903795020419e-13 1.161554174205081e-13 4.540989384629742e-13
-4.272495105561766e-13 1.092863384780402e-13 4.605327452949529e-14 -1.231418918353702e-13 7.034326029891016e-14 4.467253442799651e-14
-4.381692438311530e-13 1.904205964542369e-13 -6.201833119171983e-14 -1.620113559595376e-14 1.203477125383991e-14 -7.139428683904029e-14
-5.665499488411686e-16 8.971446602779463e-15 -1.222758213381727e-13 3.724663828856211e-14 7.137796500732856e-14 1.089538337859466e-15
3.825217953989141e-13 -1.012829605579801e-13 2.187450508851528e-14 -1.467590419202042e-13 5.069314819164979e-14 1.432115024913324e-13
4.504554197992021e-13 -3.421942468395571e-14 -4.788127026071232e-14 -3.004421686930577e-13 -1.195669813752952e-14 -1.378224119677881e-13
-3.157775669524120e-13 -9.860088256050386e-14 -6.799680342807277e-14 -1.157193041234098e-13 -1.643905642392215e-13 1.815714015666491e-13
1.989398356394555e-14 -1.386895845796133e-13 -3.882795338890619e-14 1.730116104166133e-13 -3.648157274589988e-14 -1.923537596148045e-14
3.539482293226337e-13 -8.165011924134610e-15 1.997106231769716e-15 2.466756300672867e-14 -7.218642922554391e-14 -2.024871512954690e-13
8.139645349051972e-14 -1.228781069777326e-13 3.563959715673353e-15 -2.870034713803666e-14 -1.090061434599951e-13 7.235910943308080e-14
1.769685072889478e-13 2.085399730293796e-15 6.825794567539744e-14 5.605442516857384e-14 -2.873024882359090e-14 -2.161114514098333e-14
4.954226202539568e-15 -5.599115810074980e-14 7.045090859265939e-14 -2.989475693941365e-14 2.805238124775095e-14 7.952556824133122e-14
-3.396040969613929e-13 1.094554489785961e-14 4.196166035670976e-14 -1.203073544376455e-14 1.377750749186168e-14 -4.283600622593904e-14
2.944926197494269e-14 -9.569083173012463e-14 7.583538754306862e-14 3.207125385439969e-14 2.144730262077171e-14 2.077735238457558e-14
1.822517426544539e-14 2.119595655228801e-14 1.943885375526262e-14 2.962352035085987e-14 -1.390615693425206e-14 -1.213461603739918e-13
-9.034489215660759e-14 2.258622303914851e-14 2.293378966086608e-14 5.228427441515065e-14 -3.347465210864930e-14 -6.808509274590052e-14
-2.993473377087290e-13 2.606188925630673e-14 -2.692239475206444e-15 1.902124266324139e-13 -8.699077996470583e-14 -6.704512008033368e-14
-7.836225476596130e-14 -1.094554489786353e-14 -2.692239475206563e-15 2.098587856533201e-13 -1.410296374985423e-14 2.798946824402791e-14
1.180507136506113e-13 -1.624173034975211e-14 2.293378966086601e-14 1.047931520584151e-13 2.456260068293528e-15 -3.495248405777300e-14
        </DataArray>
  </PointData>
  <CellData>
        <DataArray type="Float64" Name="element_GL_strains_xyz" NumberOfComponents="6" format="ascii">
-9.046261682130905e-17 -1.233581138472396e-16 -1.644774851296528e-17 3.244575390252917e-17 -3.833586033446175e-17 -5.705312765434834e-17
1.603655480014115e-16 -1.151342395907570e-16 -2.878355989768924e-17 -5.847844563318160e-17 -3.489905616342285e-17 7.568534276669179e-17
        </DataArray>
        <DataArray type="Float64" Name="element_cauchy_stresses_xyz" NumberOfComponents="6" format="ascii">
-9.046261682130888e-15 -1.233581138472393e-14 -1.644774851296512e-15 3.244575390252919e-15 -3.833586033446178e-15 -5.705312765434833e-15
1.603655480014134e-14 -1.151342395907568e-14 -2.878355989768912e-15 -5.847844563318146e-15 -3.489905616342284e-15 7.568534276669193e-15
        </DataArray>
      </CellData>

    </Piece>
  </UnstructuredGrid>
</VTKFile>
