<?xml version="1.0" ?> 
<!-- 
# vtk DataFile Version 3.0
-->
<VTKFile type="UnstructuredGrid" version="0.1" compressor="vtkZLibDataCompressor" byte_order="LittleEndian">
  <UnstructuredGrid>
    <FieldData>
      <DataArray type="Float64" Name="TIME" NumberOfTuples="1" format="ascii">
0.000000000000000e+00 
      </DataArray>
    </FieldData>

    <Piece NumberOfPoints="324" NumberOfCells="12" >
      <Points>
        <DataArray type="Float64" NumberOfComponents="3" format="ascii">
-5.000000000000000e-01 -5.000000000000000e-01 4.000000000000000e-01
0.000000000000000e+00 -5.000000000000000e-01 4.000000000000000e-01
0.000000000000000e+00 -1.666666666665000e-01 4.000000000000000e-01
-5.000000000000000e-01 -1.666666666665000e-01 4.000000000000000e-01
-5.000000000000000e-01 -5.000000000000000e-01 6.500000000000000e-01
0.000000000000000e+00 -5.000000000000000e-01 6.500000000000000e-01
0.000000000000000e+00 -1.666666666665000e-01 6.500000000000000e-01
-5.000000000000000e-01 -1.666666666665000e-01 6.500000000000000e-01
-2.500000000000000e-01 -5.000000000000000e-01 4.000000000000000e-01
0.000000000000000e+00 -3.333333333331250e-01 4.000000000000000e-01
-2.500000000000000e-01 -1.666666666665000e-01 4.000000000000000e-01
-5.000000000000000e-01 -3.333333333331250e-01 4.000000000000000e-01
-2.500000000000000e-01 -5.000000000000000e-01 6.500000000000000e-01
0.000000000000000e+00 -3.333333333331250e-01 6.499999999999999e-01
-2.500000000000000e-01 -1.666666666665000e-01 6.500000000000000e-01
-5.000000000000000e-01 -3.333333333331250e-01 6.500000000000000e-01
-5.000000000000000e-01 -5.000000000000000e-01 5.250000000000000e-01
0.000000000000000e+00 -5.000000000000000e-01 5.250000000000000e-01
0.000000000000000e+00 -1.666666666665000e-01 5.250000000000000e-01
-5.000000000000000e-01 -1.666666666665000e-01 5.250000000000000e-01
-5.000000000000000e-01 -3.333333333331250e-01 5.250000000000000e-01
0.000000000000000e+00 -3.333333333331250e-01 5.250000000000000e-01
-2.500000000000000e-01 -5.000000000000000e-01 5.250000000000000e-01
-2.500000000000000e-01 -1.666666666665000e-01 5.250000000000000e-01
-2.500000000000000e-01 -3.333333333331250e-01 4.000000000000000e-01
-2.500000000000000e-01 -3.333333333331250e-01 6.500000000000000e-01
-2.500000000000000e-01 -3.333333333331250e-01 5.250000000000000e-01
0.000000000000000e+00 -5.000000000000000e-01 4.000000000000000e-01
5.000000000000000e-01 -5.000000000000000e-01 4.000000000000000e-01
5.000000000000000e-01 -1.666666666665000e-01 4.000000000000000e-01
0.000000000000000e+00 -1.666666666665000e-01 4.000000000000000e-01
0.000000000000000e+00 -5.000000000000000e-01 6.500000000000000e-01
5.000000000000000e-01 -5.000000000000000e-01 6.500000000000000e-01
5.000000000000000e-01 -1.666666666665000e-01 6.500000000000000e-01
0.000000000000000e+00 -1.666666666665000e-01 6.500000000000000e-01
2.500000000000000e-01 -5.000000000000000e-01 4.000000000000000e-01
5.000000000000000e-01 -3.333333333331250e-01 4.000000000000000e-01
2.500000000000000e-01 -1.666666666665000e-01 4.000000000000001e-01
0.000000000000000e+00 -3.333333333331250e-01 4.000000000000000e-01
2.500000000000000e-01 -5.000000000000000e-01 6.500000000000001e-01
5.000000000000000e-01 -3.333333333331250e-01 6.500000000000000e-01
2.500000000000000e-01 -1.666666666665000e-01 6.500000000000000e-01
0.000000000000000e+00 -3.333333333331250e-01 6.499999999999999e-01
0.000000000000000e+00 -5.000000000000000e-01 5.250000000000000e-01
5.000000000000000e-01 -5.000000000000000e-01 5.250000000000000e-01
5.000000000000000e-01 -1.666666666665000e-01 5.250000000000000e-01
0.000000000000000e+00 -1.666666666665000e-01 5.250000000000000e-01
0.000000000000000e+00 -3.333333333331250e-01 5.250000000000000e-01
5.000000000000000e-01 -3.333333333331250e-01 5.250000000000000e-01
2.500000000000000e-01 -5.000000000000000e-01 5.249999999999999e-01
2.500000000000000e-01 -1.666666666665000e-01 5.249999999999999e-01
2.500000000000000e-01 -3.333333333331251e-01 4.000000000000000e-01
2.500000000000000e-01 -3.333333333331251e-01 6.500000000000000e-01
2.500000000000000e-01 -3.333333333331249e-01 5.250000000000000e-01
-5.000000000000000e-01 -1.666666666665000e-01 4.000000000000000e-01
0.000000000000000e+00 -1.666666666665000e-01 4.000000000000000e-01
0.000000000000000e+00 1.666666666665000e-01 4.000000000000000e-01
-5.000000000000000e-01 1.666666666665000e-01 4.000000000000000e-01
-5.000000000000000e-01 -1.666666666665000e-01 6.500000000000000e-01
0.000000000000000e+00 -1.666666666665000e-01 6.500000000000000e-01
0.000000000000000e+00 1.666666666665000e-01 6.499999999999999e-01
-5.000000000000000e-01 1.666666666665000e-01 6.499999999999999e-01
-2.500000000000000e-01 -1.666666666665000e-01 4.000000000000000e-01
0.000000000000000e+00 3.469446951953614e-17 4.000000000000001e-01
-2.500000000000000e-01 1.666666666665000e-01 4.000000000000000e-01
-5.000000000000001e-01 2.775557561562891e-17 4.000000000000001e-01
-2.500000000000000e-01 -1.666666666665000e-01 6.500000000000000e-01
0.000000000000000e+00 3.469446951953614e-17 6.499999999999999e-01
-2.500000000000000e-01 1.666666666665000e-01 6.500000000000000e-01
-5.000000000000001e-01 2.775557561562891e-17 6.500000000000001e-01
-5.000000000000000e-01 -1.666666666665000e-01 5.250000000000000e-01
0.000000000000000e+00 -1.666666666665000e-01 5.250000000000000e-01
0.000000000000000e+00 1.666666666665000e-01 5.249999999999999e-01
-5.000000000000000e-01 1.666666666665000e-01 5.250000000000000e-01
-5.000000000000000e-01 3.469446951953614e-17 5.250000000000000e-01
0.000000000000000e+00 3.469446951953614e-17 5.250000000000001e-01
-2.500000000000000e-01 -1.666666666665000e-01 5.250000000000000e-01
-2.500000000000000e-01 1.666666666665000e-01 5.249999999999999e-01
-2.500000000000000e-01 2.602085213965211e-17 4.000000000000000e-01
-2.500000000000000e-01 2.602085213965211e-17 6.500000000000000e-01
-2.500000000000000e-01 3.079134169858833e-17 5.250000000000000e-01
0.000000000000000e+00 -1.666666666665000e-01 4.000000000000000e-01
5.000000000000000e-01 -1.666666666665000e-01 4.000000000000000e-01
5.000000000000000e-01 1.666666666665000e-01 4.000000000000000e-01
0.000000000000000e+00 1.666666666665000e-01 4.000000000000000e-01
0.000000000000000e+00 -1.666666666665000e-01 6.500000000000000e-01
5.000000000000000e-01 -1.666666666665000e-01 6.500000000000000e-01
5.000000000000000e-01 1.666666666665000e-01 6.499999999999999e-01
0.000000000000000e+00 1.666666666665000e-01 6.499999999999999e-01
2.500000000000000e-01 -1.666666666665000e-01 4.000000000000001e-01
5.000000000000001e-01 2.775557561562891e-17 4.000000000000001e-01
2.500000000000000e-01 1.666666666665000e-01 4.000000000000000e-01
0.000000000000000e+00 3.469446951953614e-17 4.000000000000001e-01
2.500000000000000e-01 -1.666666666665000e-01 6.500000000000000e-01
5.000000000000001e-01 2.775557561562891e-17 6.500000000000001e-01
2.500000000000000e-01 1.666666666665000e-01 6.500000000000000e-01
0.000000000000000e+00 3.469446951953614e-17 6.499999999999999e-01
0.000000000000000e+00 -1.666666666665000e-01 5.250000000000000e-01
5.000000000000000e-01 -1.666666666665000e-01 5.250000000000000e-01
5.000000000000000e-01 1.666666666665000e-01 5.250000000000000e-01
0.000000000000000e+00 1.666666666665000e-01 5.249999999999999e-01
0.000000000000000e+00 3.469446951953614e-17 5.250000000000001e-01
5.000000000000000e-01 3.469446951953614e-17 5.250000000000000e-01
2.500000000000000e-01 -1.666666666665000e-01 5.249999999999999e-01
2.500000000000000e-01 1.666666666665000e-01 5.249999999999999e-01
2.500000000000000e-01 2.428612866367530e-17 4.000000000000000e-01
2.500000000000000e-01 2.428612866367530e-17 6.499999999999999e-01
2.500000000000000e-01 2.515349040166370e-17 5.250000000000000e-01
-5.000000000000000e-01 1.666666666665000e-01 4.000000000000000e-01
0.000000000000000e+00 1.666666666665000e-01 4.000000000000000e-01
0.000000000000000e+00 5.000000000000000e-01 4.000000000000000e-01
-5.000000000000000e-01 5.000000000000000e-01 4.000000000000000e-01
-5.000000000000000e-01 1.666666666665000e-01 6.499999999999999e-01
0.000000000000000e+00 1.666666666665000e-01 6.499999999999999e-01
0.000000000000000e+00 5.000000000000000e-01 6.500000000000000e-01
-5.000000000000000e-01 5.000000000000000e-01 6.500000000000000e-01
-2.500000000000000e-01 1.666666666665000e-01 4.000000000000000e-01
0.000000000000000e+00 3.333333333331250e-01 4.000000000000000e-01
-2.500000000000000e-01 5.000000000000000e-01 4.000000000000000e-01
-5.000000000000000e-01 3.333333333331250e-01 4.000000000000001e-01
-2.500000000000000e-01 1.666666666665000e-01 6.500000000000000e-01
0.000000000000000e+00 3.333333333331250e-01 6.500000000000001e-01
-2.500000000000000e-01 5.000000000000000e-01 6.500000000000000e-01
-5.000000000000000e-01 3.333333333331250e-01 6.500000000000000e-01
-5.000000000000000e-01 1.666666666665000e-01 5.250000000000000e-01
0.000000000000000e+00 1.666666666665000e-01 5.249999999999999e-01
0.000000000000000e+00 5.000000000000000e-01 5.250000000000000e-01
-5.000000000000000e-01 5.000000000000000e-01 5.250000000000000e-01
-5.000000000000000e-01 3.333333333331250e-01 5.250000000000000e-01
0.000000000000000e+00 3.333333333331250e-01 5.249999999999999e-01
-2.500000000000000e-01 1.666666666665000e-01 5.249999999999999e-01
-2.500000000000000e-01 5.000000000000000e-01 5.250000000000000e-01
-2.499999999999999e-01 3.333333333331250e-01 3.999999999999999e-01
-2.499999999999999e-01 3.333333333331250e-01 6.499999999999998e-01
-2.500000000000000e-01 3.333333333331249e-01 5.250000000000001e-01
0.000000000000000e+00 1.666666666665000e-01 4.000000000000000e-01
5.000000000000000e-01 1.666666666665000e-01 4.000000000000000e-01
5.000000000000000e-01 5.000000000000000e-01 4.000000000000000e-01
0.000000000000000e+00 5.000000000000000e-01 4.000000000000000e-01
0.000000000000000e+00 1.666666666665000e-01 6.499999999999999e-01
5.000000000000000e-01 1.666666666665000e-01 6.499999999999999e-01
5.000000000000000e-01 5.000000000000000e-01 6.500000000000000e-01
0.000000000000000e+00 5.000000000000000e-01 6.500000000000000e-01
2.500000000000000e-01 1.666666666665000e-01 4.000000000000000e-01
5.000000000000000e-01 3.333333333331250e-01 4.000000000000001e-01
2.500000000000000e-01 5.000000000000000e-01 4.000000000000000e-01
0.000000000000000e+00 3.333333333331250e-01 4.000000000000000e-01
2.500000000000000e-01 1.666666666665000e-01 6.500000000000000e-01
5.000000000000000e-01 3.333333333331250e-01 6.500000000000000e-01
2.500000000000000e-01 5.000000000000000e-01 6.500000000000001e-01
0.000000000000000e+00 3.333333333331250e-01 6.500000000000001e-01
0.000000000000000e+00 1.666666666665000e-01 5.249999999999999e-01
5.000000000000000e-01 1.666666666665000e-01 5.250000000000000e-01
5.000000000000000e-01 5.000000000000000e-01 5.250000000000000e-01
0.000000000000000e+00 5.000000000000000e-01 5.250000000000000e-01
0.000000000000000e+00 3.333333333331250e-01 5.249999999999999e-01
5.000000000000000e-01 3.333333333331250e-01 5.250000000000000e-01
2.500000000000000e-01 1.666666666665000e-01 5.249999999999999e-01
2.500000000000000e-01 5.000000000000000e-01 5.249999999999999e-01
2.499999999999999e-01 3.333333333331250e-01 4.000000000000000e-01
2.499999999999999e-01 3.333333333331250e-01 6.499999999999999e-01
2.500000000000000e-01 3.333333333331250e-01 5.250000000000001e-01
-5.000000000000000e-01 -5.000000000000000e-01 6.500000000000000e-01
0.000000000000000e+00 -5.000000000000000e-01 6.500000000000000e-01
0.000000000000000e+00 -1.666666666665000e-01 6.500000000000000e-01
-5.000000000000000e-01 -1.666666666665000e-01 6.500000000000000e-01
-5.000000000000000e-01 -5.000000000000000e-01 9.000000000000000e-01
0.000000000000000e+00 -5.000000000000000e-01 9.000000000000000e-01
0.000000000000000e+00 -1.666666666665000e-01 9.000000000000000e-01
-5.000000000000000e-01 -1.666666666665000e-01 9.000000000000000e-01
-2.500000000000000e-01 -5.000000000000000e-01 6.500000000000000e-01
0.000000000000000e+00 -3.333333333331250e-01 6.499999999999999e-01
-2.500000000000000e-01 -1.666666666665000e-01 6.500000000000000e-01
-5.000000000000000e-01 -3.333333333331250e-01 6.500000000000000e-01
-2.500000000000000e-01 -5.000000000000000e-01 9.000000000000000e-01
0.000000000000000e+00 -3.333333333331250e-01 9.000000000000000e-01
-2.500000000000000e-01 -1.666666666665000e-01 9.000000000000000e-01
-5.000000000000000e-01 -3.333333333331250e-01 9.000000000000000e-01
-5.000000000000000e-01 -5.000000000000000e-01 7.750000000000000e-01
0.000000000000000e+00 -5.000000000000000e-01 7.750000000000001e-01
0.000000000000000e+00 -1.666666666665000e-01 7.750000000000001e-01
-5.000000000000000e-01 -1.666666666665000e-01 7.750000000000001e-01
-5.000000000000000e-01 -3.333333333331250e-01 7.750000000000000e-01
0.000000000000000e+00 -3.333333333331251e-01 7.749999999999999e-01
-2.500000000000000e-01 -5.000000000000000e-01 7.750000000000000e-01
-2.500000000000000e-01 -1.666666666665000e-01 7.749999999999999e-01
-2.500000000000000e-01 -3.333333333331250e-01 6.500000000000000e-01
-2.500000000000000e-01 -3.333333333331250e-01 8.999999999999999e-01
-2.500000000000000e-01 -3.333333333331250e-01 7.750000000000001e-01
0.000000000000000e+00 -5.000000000000000e-01 6.500000000000000e-01
5.000000000000000e-01 -5.000000000000000e-01 6.500000000000000e-01
5.000000000000000e-01 -1.666666666665000e-01 6.500000000000000e-01
0.000000000000000e+00 -1.666666666665000e-01 6.500000000000000e-01
0.000000000000000e+00 -5.000000000000000e-01 9.000000000000000e-01
5.000000000000000e-01 -5.000000000000000e-01 9.000000000000000e-01
5.000000000000000e-01 -1.666666666665000e-01 9.000000000000000e-01
0.000000000000000e+00 -1.666666666665000e-01 9.000000000000000e-01
2.500000000000000e-01 -5.000000000000000e-01 6.500000000000001e-01
5.000000000000000e-01 -3.333333333331250e-01 6.500000000000000e-01
2.500000000000000e-01 -1.666666666665000e-01 6.500000000000000e-01
0.000000000000000e+00 -3.333333333331250e-01 6.499999999999999e-01
2.500000000000000e-01 -5.000000000000000e-01 9.000000000000000e-01
5.000000000000000e-01 -3.333333333331250e-01 9.000000000000000e-01
2.500000000000000e-01 -1.666666666665000e-01 9.000000000000000e-01
0.000000000000000e+00 -3.333333333331250e-01 9.000000000000000e-01
0.000000000000000e+00 -5.000000000000000e-01 7.750000000000001e-01
5.000000000000000e-01 -5.000000000000000e-01 7.750000000000000e-01
5.000000000000000e-01 -1.666666666665000e-01 7.750000000000001e-01
0.000000000000000e+00 -1.666666666665000e-01 7.750000000000001e-01
0.000000000000000e+00 -3.333333333331251e-01 7.749999999999999e-01
5.000000000000000e-01 -3.333333333331250e-01 7.750000000000000e-01
2.500000000000000e-01 -5.000000000000000e-01 7.750000000000000e-01
2.500000000000000e-01 -1.666666666665000e-01 7.749999999999999e-01
2.500000000000000e-01 -3.333333333331251e-01 6.500000000000000e-01
2.500000000000000e-01 -3.333333333331250e-01 8.999999999999999e-01
2.500000000000000e-01 -3.333333333331250e-01 7.750000000000001e-01
-5.000000000000000e-01 -1.666666666665000e-01 6.500000000000000e-01
0.000000000000000e+00 -1.666666666665000e-01 6.500000000000000e-01
0.000000000000000e+00 1.666666666665000e-01 6.499999999999999e-01
-5.000000000000000e-01 1.666666666665000e-01 6.499999999999999e-01
-5.000000000000000e-01 -1.666666666665000e-01 9.000000000000000e-01
0.000000000000000e+00 -1.666666666665000e-01 9.000000000000000e-01
0.000000000000000e+00 1.666666666665000e-01 9.000000000000000e-01
-5.000000000000000e-01 1.666666666665000e-01 8.999999999999999e-01
-2.500000000000000e-01 -1.666666666665000e-01 6.500000000000000e-01
0.000000000000000e+00 3.469446951953614e-17 6.499999999999999e-01
-2.500000000000000e-01 1.666666666665000e-01 6.500000000000000e-01
-5.000000000000001e-01 2.775557561562891e-17 6.500000000000001e-01
-2.500000000000000e-01 -1.666666666665000e-01 9.000000000000000e-01
0.000000000000000e+00 2.775557561562891e-17 9.000000000000001e-01
-2.500000000000000e-01 1.666666666665000e-01 9.000000000000000e-01
-5.000000000000001e-01 2.775557561562891e-17 9.000000000000001e-01
-5.000000000000000e-01 -1.666666666665000e-01 7.750000000000001e-01
0.000000000000000e+00 -1.666666666665000e-01 7.750000000000001e-01
0.000000000000000e+00 1.666666666665000e-01 7.750000000000000e-01
-5.000000000000000e-01 1.666666666665000e-01 7.749999999999999e-01
-5.000000000000000e-01 2.602085213965211e-17 7.750000000000000e-01
0.000000000000000e+00 2.602085213965211e-17 7.749999999999999e-01
-2.500000000000000e-01 -1.666666666665000e-01 7.749999999999999e-01
-2.500000000000000e-01 1.666666666665000e-01 7.749999999999998e-01
-2.500000000000000e-01 2.602085213965211e-17 6.500000000000000e-01
-2.500000000000000e-01 2.428612866367530e-17 9.000000000000000e-01
-2.500000000000000e-01 2.168404344971009e-17 7.750000000000002e-01
0.000000000000000e+00 -1.666666666665000e-01 6.500000000000000e-01
5.000000000000000e-01 -1.666666666665000e-01 6.500000000000000e-01
5.000000000000000e-01 1.666666666665000e-01 6.499999999999999e-01
0.000000000000000e+00 1.666666666665000e-01 6.499999999999999e-01
0.000000000000000e+00 -1.666666666665000e-01 9.000000000000000e-01
5.000000000000000e-01 -1.666666666665000e-01 9.000000000000000e-01
5.000000000000000e-01 1.666666666665000e-01 8.999999999999999e-01
0.000000000000000e+00 1.666666666665000e-01 9.000000000000000e-01
2.500000000000000e-01 -1.666666666665000e-01 6.500000000000000e-01
5.000000000000001e-01 2.775557561562891e-17 6.500000000000001e-01
2.500000000000000e-01 1.666666666665000e-01 6.500000000000000e-01
0.000000000000000e+00 3.469446951953614e-17 6.499999999999999e-01
2.500000000000000e-01 -1.666666666665000e-01 9.000000000000000e-01
5.000000000000001e-01 2.775557561562891e-17 9.000000000000001e-01
2.500000000000000e-01 1.666666666665000e-01 8.999999999999999e-01
0.000000000000000e+00 2.775557561562891e-17 9.000000000000001e-01
0.000000000000000e+00 -1.666666666665000e-01 7.750000000000001e-01
5.000000000000000e-01 -1.666666666665000e-01 7.750000000000001e-01
5.000000000000000e-01 1.666666666665000e-01 7.749999999999999e-01
0.000000000000000e+00 1.666666666665000e-01 7.750000000000000e-01
0.000000000000000e+00 2.602085213965211e-17 7.749999999999999e-01
5.000000000000000e-01 2.602085213965211e-17 7.750000000000000e-01
2.500000000000000e-01 -1.666666666665000e-01 7.749999999999999e-01
2.500000000000000e-01 1.666666666665000e-01 7.749999999999998e-01
2.500000000000000e-01 2.428612866367530e-17 6.499999999999999e-01
2.500000000000000e-01 2.081668171172169e-17 8.999999999999999e-01
2.500000000000000e-01 1.908195823574488e-17 7.750000000000002e-01
-5.000000000000000e-01 1.666666666665000e-01 6.499999999999999e-01
0.000000000000000e+00 1.666666666665000e-01 6.499999999999999e-01
0.000000000000000e+00 5.000000000000000e-01 6.500000000000000e-01
-5.000000000000000e-01 5.000000000000000e-01 6.500000000000000e-01
-5.000000000000000e-01 1.666666666665000e-01 8.999999999999999e-01
0.000000000000000e+00 1.666666666665000e-01 9.000000000000000e-01
0.000000000000000e+00 5.000000000000000e-01 9.000000000000000e-01
-5.000000000000000e-01 5.000000000000000e-01 9.000000000000000e-01
-2.500000000000000e-01 1.666666666665000e-01 6.500000000000000e-01
0.000000000000000e+00 3.333333333331250e-01 6.500000000000001e-01
-2.500000000000000e-01 5.000000000000000e-01 6.500000000000000e-01
-5.000000000000000e-01 3.333333333331250e-01 6.500000000000000e-01
-2.500000000000000e-01 1.666666666665000e-01 9.000000000000000e-01
0.000000000000000e+00 3.333333333331250e-01 9.000000000000001e-01
-2.500000000000000e-01 5.000000000000000e-01 9.000000000000000e-01
-5.000000000000000e-01 3.333333333331250e-01 9.000000000000000e-01
-5.000000000000000e-01 1.666666666665000e-01 7.749999999999999e-01
0.000000000000000e+00 1.666666666665000e-01 7.750000000000000e-01
0.000000000000000e+00 5.000000000000000e-01 7.750000000000001e-01
-5.000000000000000e-01 5.000000000000000e-01 7.750000000000000e-01
-5.000000000000000e-01 3.333333333331250e-01 7.750000000000001e-01
0.000000000000000e+00 3.333333333331250e-01 7.749999999999998e-01
-2.500000000000000e-01 1.666666666665000e-01 7.749999999999998e-01
-2.500000000000000e-01 5.000000000000000e-01 7.750000000000000e-01
-2.499999999999999e-01 3.333333333331250e-01 6.499999999999998e-01
-2.500000000000000e-01 3.333333333331250e-01 9.000000000000000e-01
-2.500000000000000e-01 3.333333333331250e-01 7.750000000000001e-01
0.000000000000000e+00 1.666666666665000e-01 6.499999999999999e-01
5.000000000000000e-01 1.666666666665000e-01 6.499999999999999e-01
5.000000000000000e-01 5.000000000000000e-01 6.500000000000000e-01
0.000000000000000e+00 5.000000000000000e-01 6.500000000000000e-01
0.000000000000000e+00 1.666666666665000e-01 9.000000000000000e-01
5.000000000000000e-01 1.666666666665000e-01 8.999999999999999e-01
5.000000000000000e-01 5.000000000000000e-01 9.000000000000000e-01
0.000000000000000e+00 5.000000000000000e-01 9.000000000000000e-01
2.500000000000000e-01 1.666666666665000e-01 6.500000000000000e-01
5.000000000000000e-01 3.333333333331250e-01 6.500000000000000e-01
2.500000000000000e-01 5.000000000000000e-01 6.500000000000001e-01
0.000000000000000e+00 3.333333333331250e-01 6.500000000000001e-01
2.500000000000000e-01 1.666666666665000e-01 8.999999999999999e-01
5.000000000000000e-01 3.333333333331250e-01 9.000000000000000e-01
2.500000000000000e-01 5.000000000000000e-01 9.000000000000000e-01
0.000000000000000e+00 3.333333333331250e-01 9.000000000000001e-01
0.000000000000000e+00 1.666666666665000e-01 7.750000000000000e-01
5.000000000000000e-01 1.666666666665000e-01 7.749999999999999e-01
5.000000000000000e-01 5.000000000000000e-01 7.750000000000000e-01
0.000000000000000e+00 5.000000000000000e-01 7.750000000000001e-01
0.000000000000000e+00 3.333333333331250e-01 7.749999999999998e-01
5.000000000000000e-01 3.333333333331250e-01 7.750000000000001e-01
2.500000000000000e-01 1.666666666665000e-01 7.749999999999998e-01
2.500000000000000e-01 5.000000000000000e-01 7.750000000000000e-01
2.499999999999999e-01 3.333333333331250e-01 6.499999999999999e-01
2.500000000000000e-01 3.333333333331250e-01 8.999999999999999e-01
2.500000000000000e-01 3.333333333331250e-01 7.750000000000001e-01
        </DataArray>
      </Points>

      <Cells>
        <DataArray type="Int32" Name="connectivity" format="ascii">
0 1 2 3 4 5 6 7 8 9 10 11 12 13 14 15 16 17 18 19 20 21 22 23 24 25 26 27 28 29 30 31 32 33 34 35 36 37 38 39 40 41 42 43 44 45 46 47 48 49 50 51 52 53 54 55 56 57 58 59 60 61 62 63 64 65 66 67 68 69 70 71 72 73 74 75 76 77 78 79 80 81 82 83 84 85 86 87 88 89 90 91 92 93 94 95 96 97 98 99 100 101 102 103 104 105 106 107 108 109 110 111 112 113 114 115 116 117 118 119 120 121 122 123 124 125 126 127 128 129 130 131 132 133 134 135 136 137 138 139 140 141 142 143 144 145 146 147 148 149 150 151 152 153 154 155 156 157 158 159 160 161 162 163 164 165 166 167 168 169 170 171 172 173 174 175 176 177 178 179 180 181 182 183 184 185 186 187 188 189 190 191 192 193 194 195 196 197 198 199 200 201 202 203 204 205 206 207 208 209 210 211 212 213 214 215 216 217 218 219 220 221 222 223 224 225 226 227 228 229 230 231 232 233 234 235 236 237 238 239 240 241 242 243 244 245 246 247 248 249 250 251 252 253 254 255 256 257 258 259 260 261 262 263 264 265 266 267 268 269 270 271 272 273 274 275 276 277 278 279 280 281 282 283 284 285 286 287 288 289 290 291 292 293 294 295 296 297 298 299 300 301 302 303 304 305 306 307 308 309 310 311 312 313 314 315 316 317 318 319 320 321 322 323 
        </DataArray>
        <DataArray type="Int32" Name="offsets" format="ascii">
27 54 81 108 135 162 189 216 243 270 297 324 
        </DataArray>
        <DataArray type="UInt8" Name="types" format="ascii">
29 29 29 29 29 29 29 29 29 29 29 29 
        </DataArray>
      </Cells>

  <PointData>
        <DataArray type="Float64" Name="displacement" NumberOfComponents="3" format="ascii">
0.000000000000000e+00 0.000000000000000e+00 0.000000000000000e+00
0.000000000000000e+00 0.000000000000000e+00 0.000000000000000e+00
0.000000000000000e+00 0.000000000000000e+00 0.000000000000000e+00
0.000000000000000e+00 0.000000000000000e+00 0.000000000000000e+00
0.000000000000000e+00 0.000000000000000e+00 0.000000000000000e+00
0.000000000000000e+00 0.000000000000000e+00 0.000000000000000e+00
0.000000000000000e+00 0.000000000000000e+00 0.000000000000000e+00
0.000000000000000e+00 0.000000000000000e+00 0.000000000000000e+00
0.000000000000000e+00 0.000000000000000e+00 0.000000000000000e+00
0.000000000000000e+00 0.000000000000000e+00 0.000000000000000e+00
0.000000000000000e+00 0.000000000000000e+00 0.000000000000000e+00
0.000000000000000e+00 0.000000000000000e+00 0.000000000000000e+00
0.000000000000000e+00 0.000000000000000e+00 0.000000000000000e+00
0.000000000000000e+00 0.000000000000000e+00 0.000000000000000e+00
0.000000000000000e+00 0.000000000000000e+00 0.000000000000000e+00
0.000000000000000e+00 0.000000000000000e+00 0.000000000000000e+00
0.000000000000000e+00 0.000000000000000e+00 0.000000000000000e+00
0.000000000000000e+00 0.000000000000000e+00 0.000000000000000e+00
0.000000000000000e+00 0.000000000000000e+00 0.000000000000000e+00
0.000000000000000e+00 0.000000000000000e+00 0.000000000000000e+00
0.000000000000000e+00 0.000000000000000e+00 0.000000000000000e+00
0.000000000000000e+00 0.000000000000000e+00 0.000000000000000e+00
0.000000000000000e+00 0.000000000000000e+00 0.000000000000000e+00
0.000000000000000e+00 0.000000000000000e+00 0.000000000000000e+00
0.000000000000000e+00 0.000000000000000e+00 0.000000000000000e+00
0.000000000000000e+00 0.000000000000000e+00 0.000000000000000e+00
0.000000000000000e+00 0.000000000000000e+00 0.000000000000000e+00
0.000000000000000e+00 0.000000000000000e+00 0.000000000000000e+00
0.000000000000000e+00 0.000000000000000e+00 0.000000000000000e+00
0.000000000000000e+00 0.000000000000000e+00 0.000000000000000e+00
0.000000000000000e+00 0.000000000000000e+00 0.000000000000000e+00
0.000000000000000e+00 0.000000000000000e+00 0.000000000000000e+00
0.000000000000000e+00 0.000000000000000e+00 0.000000000000000e+00
0.000000000000000e+00 0.000000000000000e+00 0.000000000000000e+00
0.000000000000000e+00 0.000000000000000e+00 0.000000000000000e+00
0.000000000000000e+00 0.000000000000000e+00 0.000000000000000e+00
0.000000000000000e+00 0.000000000000000e+00 0.000000000000000e+00
0.000000000000000e+00 0.000000000000000e+00 0.000000000000000e+00
0.000000000000000e+00 0.000000000000000e+00 0.000000000000000e+00
0.000000000000000e+00 0.000000000000000e+00 0.000000000000000e+00
0.000000000000000e+00 0.000000000000000e+00 0.000000000000000e+00
0.000000000000000e+00 0.000000000000000e+00 0.000000000000000e+00
0.000000000000000e+00 0.000000000000000e+00 0.000000000000000e+00
0.000000000000000e+00 0.000000000000000e+00 0.000000000000000e+00
0.000000000000000e+00 0.000000000000000e+00 0.000000000000000e+00
0.000000000000000e+00 0.000000000000000e+00 0.000000000000000e+00
0.000000000000000e+00 0.000000000000000e+00 0.000000000000000e+00
0.000000000000000e+00 0.000000000000000e+00 0.000000000000000e+00
0.000000000000000e+00 0.000000000000000e+00 0.000000000000000e+00
0.000000000000000e+00 0.000000000000000e+00 0.000000000000000e+00
0.000000000000000e+00 0.000000000000000e+00 0.000000000000000e+00
0.000000000000000e+00 0.000000000000000e+00 0.000000000000000e+00
0.000000000000000e+00 0.000000000000000e+00 0.000000000000000e+00
0.000000000000000e+00 0.000000000000000e+00 0.000000000000000e+00
0.000000000000000e+00 0.000000000000000e+00 0.000000000000000e+00
0.000000000000000e+00 0.000000000000000e+00 0.000000000000000e+00
0.000000000000000e+00 0.000000000000000e+00 0.000000000000000e+00
0.000000000000000e+00 0.000000000000000e+00 0.000000000000000e+00
0.000000000000000e+00 0.000000000000000e+00 0.000000000000000e+00
0.000000000000000e+00 0.000000000000000e+00 0.000000000000000e+00
0.000000000000000e+00 0.000000000000000e+00 0.000000000000000e+00
0.000000000000000e+00 0.000000000000000e+00 0.000000000000000e+00
0.000000000000000e+00 0.000000000000000e+00 0.000000000000000e+00
0.000000000000000e+00 0.000000000000000e+00 0.000000000000000e+00
0.000000000000000e+00 0.000000000000000e+00 0.000000000000000e+00
0.000000000000000e+00 0.000000000000000e+00 0.000000000000000e+00
0.000000000000000e+00 0.000000000000000e+00 0.000000000000000e+00
0.000000000000000e+00 0.000000000000000e+00 0.000000000000000e+00
0.000000000000000e+00 0.000000000000000e+00 0.000000000000000e+00
0.000000000000000e+00 0.000000000000000e+00 0.000000000000000e+00
0.000000000000000e+00 0.000000000000000e+00 0.000000000000000e+00
0.000000000000000e+00 0.000000000000000e+00 0.000000000000000e+00
0.000000000000000e+00 0.000000000000000e+00 0.000000000000000e+00
0.000000000000000e+00 0.000000000000000e+00 0.000000000000000e+00
0.000000000000000e+00 0.000000000000000e+00 0.000000000000000e+00
0.000000000000000e+00 0.000000000000000e+00 0.000000000000000e+00
0.000000000000000e+00 0.000000000000000e+00 0.000000000000000e+00
0.000000000000000e+00 0.000000000000000e+00 0.000000000000000e+00
0.000000000000000e+00 0.000000000000000e+00 0.000000000000000e+00
0.000000000000000e+00 0.000000000000000e+00 0.000000000000000e+00
0.000000000000000e+00 0.000000000000000e+00 0.000000000000000e+00
0.000000000000000e+00 0.000000000000000e+00 0.000000000000000e+00
0.000000000000000e+00 0.000000000000000e+00 0.000000000000000e+00
0.000000000000000e+00 0.000000000000000e+00 0.000000000000000e+00
0.000000000000000e+00 0.000000000000000e+00 0.000000000000000e+00
0.000000000000000e+00 0.000000000000000e+00 0.000000000000000e+00
0.000000000000000e+00 0.000000000000000e+00 0.000000000000000e+00
0.000000000000000e+00 0.000000000000000e+00 0.000000000000000e+00
0.000000000000000e+00 0.000000000000000e+00 0.000000000000000e+00
0.000000000000000e+00 0.000000000000000e+00 0.000000000000000e+00
0.000000000000000e+00 0.000000000000000e+00 0.000000000000000e+00
0.000000000000000e+00 0.000000000000000e+00 0.000000000000000e+00
0.000000000000000e+00 0.000000000000000e+00 0.000000000000000e+00
0.000000000000000e+00 0.000000000000000e+00 0.000000000000000e+00
0.000000000000000e+00 0.000000000000000e+00 0.000000000000000e+00
0.000000000000000e+00 0.000000000000000e+00 0.000000000000000e+00
0.000000000000000e+00 0.000000000000000e+00 0.000000000000000e+00
0.000000000000000e+00 0.000000000000000e+00 0.000000000000000e+00
0.000000000000000e+00 0.000000000000000e+00 0.000000000000000e+00
0.000000000000000e+00 0.000000000000000e+00 0.000000000000000e+00
0.000000000000000e+00 0.000000000000000e+00 0.000000000000000e+00
0.000000000000000e+00 0.000000000000000e+00 0.000000000000000e+00
0.000000000000000e+00 0.000000000000000e+00 0.000000000000000e+00
0.000000000000000e+00 0.000000000000000e+00 0.000000000000000e+00
0.000000000000000e+00 0.000000000000000e+00 0.000000000000000e+00
0.000000000000000e+00 0.000000000000000e+00 0.000000000000000e+00
0.000000000000000e+00 0.000000000000000e+00 0.000000000000000e+00
0.000000000000000e+00 0.000000000000000e+00 0.000000000000000e+00
0.000000000000000e+00 0.000000000000000e+00 0.000000000000000e+00
0.000000000000000e+00 0.000000000000000e+00 0.000000000000000e+00
0.000000000000000e+00 0.000000000000000e+00 0.000000000000000e+00
0.000000000000000e+00 0.000000000000000e+00 0.000000000000000e+00
0.000000000000000e+00 0.000000000000000e+00 0.000000000000000e+00
0.000000000000000e+00 0.000000000000000e+00 0.000000000000000e+00
0.000000000000000e+00 0.000000000000000e+00 0.000000000000000e+00
0.000000000000000e+00 0.000000000000000e+00 0.000000000000000e+00
0.000000000000000e+00 0.000000000000000e+00 0.000000000000000e+00
0.000000000000000e+00 0.000000000000000e+00 0.000000000000000e+00
0.000000000000000e+00 0.000000000000000e+00 0.000000000000000e+00
0.000000000000000e+00 0.000000000000000e+00 0.000000000000000e+00
0.000000000000000e+00 0.000000000000000e+00 0.000000000000000e+00
0.000000000000000e+00 0.000000000000000e+00 0.000000000000000e+00
0.000000000000000e+00 0.000000000000000e+00 0.000000000000000e+00
0.000000000000000e+00 0.000000000000000e+00 0.000000000000000e+00
0.000000000000000e+00 0.000000000000000e+00 0.000000000000000e+00
0.000000000000000e+00 0.000000000000000e+00 0.000000000000000e+00
0.000000000000000e+00 0.000000000000000e+00 0.000000000000000e+00
0.000000000000000e+00 0.000000000000000e+00 0.000000000000000e+00
0.000000000000000e+00 0.000000000000000e+00 0.000000000000000e+00
0.000000000000000e+00 0.000000000000000e+00 0.000000000000000e+00
0.000000000000000e+00 0.000000000000000e+00 0.000000000000000e+00
0.000000000000000e+00 0.000000000000000e+00 0.000000000000000e+00
0.000000000000000e+00 0.000000000000000e+00 0.000000000000000e+00
0.000000000000000e+00 0.000000000000000e+00 0.000000000000000e+00
0.000000000000000e+00 0.000000000000000e+00 0.000000000000000e+00
0.000000000000000e+00 0.000000000000000e+00 0.000000000000000e+00
0.000000000000000e+00 0.000000000000000e+00 0.000000000000000e+00
0.000000000000000e+00 0.000000000000000e+00 0.000000000000000e+00
0.000000000000000e+00 0.000000000000000e+00 0.000000000000000e+00
0.000000000000000e+00 0.000000000000000e+00 0.000000000000000e+00
0.000000000000000e+00 0.000000000000000e+00 0.000000000000000e+00
0.000000000000000e+00 0.000000000000000e+00 0.000000000000000e+00
0.000000000000000e+00 0.000000000000000e+00 0.000000000000000e+00
0.000000000000000e+00 0.000000000000000e+00 0.000000000000000e+00
0.000000000000000e+00 0.000000000000000e+00 0.000000000000000e+00
0.000000000000000e+00 0.000000000000000e+00 0.000000000000000e+00
0.000000000000000e+00 0.000000000000000e+00 0.000000000000000e+00
0.000000000000000e+00 0.000000000000000e+00 0.000000000000000e+00
0.000000000000000e+00 0.000000000000000e+00 0.000000000000000e+00
0.000000000000000e+00 0.000000000000000e+00 0.000000000000000e+00
0.000000000000000e+00 0.000000000000000e+00 0.000000000000000e+00
0.000000000000000e+00 0.000000000000000e+00 0.000000000000000e+00
0.000000000000000e+00 0.000000000000000e+00 0.000000000000000e+00
0.000000000000000e+00 0.000000000000000e+00 0.000000000000000e+00
0.000000000000000e+00 0.000000000000000e+00 0.000000000000000e+00
0.000000000000000e+00 0.000000000000000e+00 0.000000000000000e+00
0.000000000000000e+00 0.000000000000000e+00 0.000000000000000e+00
0.000000000000000e+00 0.000000000000000e+00 0.000000000000000e+00
0.000000000000000e+00 0.000000000000000e+00 0.000000000000000e+00
0.000000000000000e+00 0.000000000000000e+00 0.000000000000000e+00
0.000000000000000e+00 0.000000000000000e+00 0.000000000000000e+00
0.000000000000000e+00 0.000000000000000e+00 0.000000000000000e+00
0.000000000000000e+00 0.000000000000000e+00 0.000000000000000e+00
0.000000000000000e+00 0.000000000000000e+00 0.000000000000000e+00
0.000000000000000e+00 0.000000000000000e+00 0.000000000000000e+00
0.000000000000000e+00 0.000000000000000e+00 0.000000000000000e+00
0.000000000000000e+00 0.000000000000000e+00 0.000000000000000e+00
0.000000000000000e+00 0.000000000000000e+00 0.000000000000000e+00
0.000000000000000e+00 0.000000000000000e+00 0.000000000000000e+00
0.000000000000000e+00 0.000000000000000e+00 0.000000000000000e+00
0.000000000000000e+00 0.000000000000000e+00 0.000000000000000e+00
0.000000000000000e+00 0.000000000000000e+00 0.000000000000000e+00
0.000000000000000e+00 0.000000000000000e+00 0.000000000000000e+00
0.000000000000000e+00 0.000000000000000e+00 0.000000000000000e+00
0.000000000000000e+00 0.000000000000000e+00 0.000000000000000e+00
0.000000000000000e+00 0.000000000000000e+00 0.000000000000000e+00
0.000000000000000e+00 0.000000000000000e+00 0.000000000000000e+00
0.000000000000000e+00 0.000000000000000e+00 0.000000000000000e+00
0.000000000000000e+00 0.000000000000000e+00 0.000000000000000e+00
0.000000000000000e+00 0.000000000000000e+00 0.000000000000000e+00
0.000000000000000e+00 0.000000000000000e+00 0.000000000000000e+00
0.000000000000000e+00 0.000000000000000e+00 0.000000000000000e+00
0.000000000000000e+00 0.000000000000000e+00 0.000000000000000e+00
0.000000000000000e+00 0.000000000000000e+00 0.000000000000000e+00
0.000000000000000e+00 0.000000000000000e+00 0.000000000000000e+00
0.000000000000000e+00 0.000000000000000e+00 0.000000000000000e+00
0.000000000000000e+00 0.000000000000000e+00 0.000000000000000e+00
0.000000000000000e+00 0.000000000000000e+00 0.000000000000000e+00
0.000000000000000e+00 0.000000000000000e+00 0.000000000000000e+00
0.000000000000000e+00 0.000000000000000e+00 0.000000000000000e+00
0.000000000000000e+00 0.000000000000000e+00 0.000000000000000e+00
0.000000000000000e+00 0.000000000000000e+00 0.000000000000000e+00
0.000000000000000e+00 0.000000000000000e+00 0.000000000000000e+00
0.000000000000000e+00 0.000000000000000e+00 0.000000000000000e+00
0.000000000000000e+00 0.000000000000000e+00 0.000000000000000e+00
0.000000000000000e+00 0.000000000000000e+00 0.000000000000000e+00
0.000000000000000e+00 0.000000000000000e+00 0.000000000000000e+00
0.000000000000000e+00 0.000000000000000e+00 0.000000000000000e+00
0.000000000000000e+00 0.000000000000000e+00 0.000000000000000e+00
0.000000000000000e+00 0.000000000000000e+00 0.000000000000000e+00
0.000000000000000e+00 0.000000000000000e+00 0.000000000000000e+00
0.000000000000000e+00 0.000000000000000e+00 0.000000000000000e+00
0.000000000000000e+00 0.000000000000000e+00 0.000000000000000e+00
0.000000000000000e+00 0.000000000000000e+00 0.000000000000000e+00
0.000000000000000e+00 0.000000000000000e+00 0.000000000000000e+00
0.000000000000000e+00 0.000000000000000e+00 0.000000000000000e+00
0.000000000000000e+00 0.000000000000000e+00 0.000000000000000e+00
0.000000000000000e+00 0.000000000000000e+00 0.000000000000000e+00
0.000000000000000e+00 0.000000000000000e+00 0.000000000000000e+00
0.000000000000000e+00 0.000000000000000e+00 0.000000000000000e+00
0.000000000000000e+00 0.000000000000000e+00 0.000000000000000e+00
0.000000000000000e+00 0.000000000000000e+00 0.000000000000000e+00
0.000000000000000e+00 0.000000000000000e+00 0.000000000000000e+00
0.000000000000000e+00 0.000000000000000e+00 0.000000000000000e+00
0.000000000000000e+00 0.000000000000000e+00 0.000000000000000e+00
0.000000000000000e+00 0.000000000000000e+00 0.000000000000000e+00
0.000000000000000e+00 0.000000000000000e+00 0.000000000000000e+00
0.000000000000000e+00 0.000000000000000e+00 0.000000000000000e+00
0.000000000000000e+00 0.000000000000000e+00 0.000000000000000e+00
0.000000000000000e+00 0.000000000000000e+00 0.000000000000000e+00
0.000000000000000e+00 0.000000000000000e+00 0.000000000000000e+00
0.000000000000000e+00 0.000000000000000e+00 0.000000000000000e+00
0.000000000000000e+00 0.000000000000000e+00 0.000000000000000e+00
0.000000000000000e+00 0.000000000000000e+00 0.000000000000000e+00
0.000000000000000e+00 0.000000000000000e+00 0.000000000000000e+00
0.000000000000000e+00 0.000000000000000e+00 0.000000000000000e+00
0.000000000000000e+00 0.000000000000000e+00 0.000000000000000e+00
0.000000000000000e+00 0.000000000000000e+00 0.000000000000000e+00
0.000000000000000e+00 0.000000000000000e+00 0.000000000000000e+00
0.000000000000000e+00 0.000000000000000e+00 0.000000000000000e+00
0.000000000000000e+00 0.000000000000000e+00 0.000000000000000e+00
0.000000000000000e+00 0.000000000000000e+00 0.000000000000000e+00
0.000000000000000e+00 0.000000000000000e+00 0.000000000000000e+00
0.000000000000000e+00 0.000000000000000e+00 0.000000000000000e+00
0.000000000000000e+00 0.000000000000000e+00 0.000000000000000e+00
0.000000000000000e+00 0.000000000000000e+00 0.000000000000000e+00
0.000000000000000e+00 0.000000000000000e+00 0.000000000000000e+00
0.000000000000000e+00 0.000000000000000e+00 0.000000000000000e+00
0.000000000000000e+00 0.000000000000000e+00 0.000000000000000e+00
0.000000000000000e+00 0.000000000000000e+00 0.000000000000000e+00
0.000000000000000e+00 0.000000000000000e+00 0.000000000000000e+00
0.000000000000000e+00 0.000000000000000e+00 0.000000000000000e+00
0.000000000000000e+00 0.000000000000000e+00 0.000000000000000e+00
0.000000000000000e+00 0.000000000000000e+00 0.000000000000000e+00
0.000000000000000e+00 0.000000000000000e+00 0.000000000000000e+00
0.000000000000000e+00 0.000000000000000e+00 0.000000000000000e+00
0.000000000000000e+00 0.000000000000000e+00 0.000000000000000e+00
0.000000000000000e+00 0.000000000000000e+00 0.000000000000000e+00
0.000000000000000e+00 0.000000000000000e+00 0.000000000000000e+00
0.000000000000000e+00 0.000000000000000e+00 0.000000000000000e+00
0.000000000000000e+00 0.000000000000000e+00 0.000000000000000e+00
0.000000000000000e+00 0.000000000000000e+00 0.000000000000000e+00
0.000000000000000e+00 0.000000000000000e+00 0.000000000000000e+00
0.000000000000000e+00 0.000000000000000e+00 0.000000000000000e+00
0.000000000000000e+00 0.000000000000000e+00 0.000000000000000e+00
0.000000000000000e+00 0.000000000000000e+00 0.000000000000000e+00
0.000000000000000e+00 0.000000000000000e+00 0.000000000000000e+00
0.000000000000000e+00 0.000000000000000e+00 0.000000000000000e+00
0.000000000000000e+00 0.000000000000000e+00 0.000000000000000e+00
0.000000000000000e+00 0.000000000000000e+00 0.000000000000000e+00
0.000000000000000e+00 0.000000000000000e+00 0.000000000000000e+00
0.000000000000000e+00 0.000000000000000e+00 0.000000000000000e+00
0.000000000000000e+00 0.000000000000000e+00 0.000000000000000e+00
0.000000000000000e+00 0.000000000000000e+00 0.000000000000000e+00
0.000000000000000e+00 0.000000000000000e+00 0.000000000000000e+00
0.000000000000000e+00 0.000000000000000e+00 0.000000000000000e+00
0.000000000000000e+00 0.000000000000000e+00 0.000000000000000e+00
0.000000000000000e+00 0.000000000000000e+00 0.000000000000000e+00
0.000000000000000e+00 0.000000000000000e+00 0.000000000000000e+00
0.000000000000000e+00 0.000000000000000e+00 0.000000000000000e+00
0.000000000000000e+00 0.000000000000000e+00 0.000000000000000e+00
0.000000000000000e+00 0.000000000000000e+00 0.000000000000000e+00
0.000000000000000e+00 0.000000000000000e+00 0.000000000000000e+00
0.000000000000000e+00 0.000000000000000e+00 0.000000000000000e+00
0.000000000000000e+00 0.000000000000000e+00 0.000000000000000e+00
0.000000000000000e+00 0.000000000000000e+00 0.000000000000000e+00
0.000000000000000e+00 0.000000000000000e+00 0.000000000000000e+00
0.000000000000000e+00 0.000000000000000e+00 0.000000000000000e+00
0.000000000000000e+00 0.000000000000000e+00 0.000000000000000e+00
0.000000000000000e+00 0.000000000000000e+00 0.000000000000000e+00
0.000000000000000e+00 0.000000000000000e+00 0.000000000000000e+00
0.000000000000000e+00 0.000000000000000e+00 0.000000000000000e+00
0.000000000000000e+00 0.000000000000000e+00 0.000000000000000e+00
0.000000000000000e+00 0.000000000000000e+00 0.000000000000000e+00
0.000000000000000e+00 0.000000000000000e+00 0.000000000000000e+00
0.000000000000000e+00 0.000000000000000e+00 0.000000000000000e+00
0.000000000000000e+00 0.000000000000000e+00 0.000000000000000e+00
0.000000000000000e+00 0.000000000000000e+00 0.000000000000000e+00
0.000000000000000e+00 0.000000000000000e+00 0.000000000000000e+00
0.000000000000000e+00 0.000000000000000e+00 0.000000000000000e+00
0.000000000000000e+00 0.000000000000000e+00 0.000000000000000e+00
0.000000000000000e+00 0.000000000000000e+00 0.000000000000000e+00
0.000000000000000e+00 0.000000000000000e+00 0.000000000000000e+00
0.000000000000000e+00 0.000000000000000e+00 0.000000000000000e+00
0.000000000000000e+00 0.000000000000000e+00 0.000000000000000e+00
0.000000000000000e+00 0.000000000000000e+00 0.000000000000000e+00
0.000000000000000e+00 0.000000000000000e+00 0.000000000000000e+00
0.000000000000000e+00 0.000000000000000e+00 0.000000000000000e+00
0.000000000000000e+00 0.000000000000000e+00 0.000000000000000e+00
0.000000000000000e+00 0.000000000000000e+00 0.000000000000000e+00
0.000000000000000e+00 0.000000000000000e+00 0.000000000000000e+00
0.000000000000000e+00 0.000000000000000e+00 0.000000000000000e+00
0.000000000000000e+00 0.000000000000000e+00 0.000000000000000e+00
0.000000000000000e+00 0.000000000000000e+00 0.000000000000000e+00
0.000000000000000e+00 0.000000000000000e+00 0.000000000000000e+00
0.000000000000000e+00 0.000000000000000e+00 0.000000000000000e+00
0.000000000000000e+00 0.000000000000000e+00 0.000000000000000e+00
0.000000000000000e+00 0.000000000000000e+00 0.000000000000000e+00
0.000000000000000e+00 0.000000000000000e+00 0.000000000000000e+00
0.000000000000000e+00 0.000000000000000e+00 0.000000000000000e+00
0.000000000000000e+00 0.000000000000000e+00 0.000000000000000e+00
0.000000000000000e+00 0.000000000000000e+00 0.000000000000000e+00
0.000000000000000e+00 0.000000000000000e+00 0.000000000000000e+00
0.000000000000000e+00 0.000000000000000e+00 0.000000000000000e+00
0.000000000000000e+00 0.000000000000000e+00 0.000000000000000e+00
0.000000000000000e+00 0.000000000000000e+00 0.000000000000000e+00
0.000000000000000e+00 0.000000000000000e+00 0.000000000000000e+00
0.000000000000000e+00 0.000000000000000e+00 0.000000000000000e+00
0.000000000000000e+00 0.000000000000000e+00 0.000000000000000e+00
0.000000000000000e+00 0.000000000000000e+00 0.000000000000000e+00
0.000000000000000e+00 0.000000000000000e+00 0.000000000000000e+00
0.000000000000000e+00 0.000000000000000e+00 0.000000000000000e+00
0.000000000000000e+00 0.000000000000000e+00 0.000000000000000e+00
0.000000000000000e+00 0.000000000000000e+00 0.000000000000000e+00
        </DataArray>
        <DataArray type="Float64" Name="nodal_GL_strains_xyz" NumberOfComponents="6" format="ascii">
-1.542902792595153e-15 -2.723586832644668e-15 1.686403957057560e-15 -3.444025645383932e-16 6.630745357782346e-16 4.725595379627922e-16
9.781054357738405e-16 -3.702331417044795e-16 3.424677217960386e-16 4.618694206193639e-16 -5.407722883435981e-17 1.148713548928222e-15
-1.016144331594425e-15 6.188187256773737e-16 3.301810218138506e-16 2.968888043942835e-16 1.303803228412094e-16 -7.606829872019156e-16
5.500888244199538e-16 1.592577626337212e-15 1.299827184658648e-15 5.817079855766281e-16 5.140960196105408e-16 -8.284726115388384e-16
3.968416040893518e-15 -6.916933712999085e-16 -8.454590255192794e-16 1.258316185512551e-15 -7.665884507563706e-16 -1.320762611936412e-15
1.023645922802018e-15 3.982140850704308e-15 -7.515972795237200e-16 8.993379757311850e-16 -1.129846343178630e-15 -6.768298540268208e-16
1.094155551308997e-15 1.254206012170415e-15 2.150452028882476e-15 3.137357285445798e-16 1.234069196255667e-15 -6.300183395194668e-16
2.899423718502777e-15 3.713894705631760e-15 -1.210643486832369e-15 2.348717359546971e-16 -8.497454684785805e-16 4.100776285914416e-16
-4.485133585149074e-16 6.309626241115162e-16 -8.428916756845866e-16 -7.091827742716075e-17 -9.735011567649800e-17 -8.785184151932027e-16
-5.103378356492290e-17 1.364872091684948e-15 -7.513281891113138e-16 -1.089637917559603e-16 -3.960646027322924e-16 5.005720474762634e-16
5.953374624218677e-16 -9.325281008608178e-16 -5.727090567029440e-16 -2.756000511405047e-16 -4.634696655711906e-17 4.689732784655914e-16
-4.349189150856470e-16 9.238635133161941e-16 -1.379125261740802e-15 1.293108510544807e-17 -8.928368848671715e-16 1.141762407944193e-16
-7.539003427066379e-16 -1.656737736639904e-15 1.617933373343757e-16 -5.743213319110030e-16 1.545388753136031e-16 6.165066625452311e-16
-1.543620294330252e-15 -1.549000593658137e-15 -1.552568857115948e-15 -2.071821753275927e-16 -1.274952700710574e-16 -7.370342364674937e-16
-8.405455527840907e-16 -3.718115240207495e-15 -1.757146465327073e-15 -2.029754001074037e-16 -1.175789437151814e-16 -2.030294367068641e-17
-2.165188897268176e-15 -1.859860195086998e-15 1.730639968561385e-15 -3.281146241928197e-16 1.386067047357568e-17 -8.754112908262258e-16
-2.285927985902081e-15 -2.197706756512563e-15 2.623427646467002e-15 -7.530346334202791e-16 3.976809648969372e-16 -7.391305624166252e-16
-1.427292645523754e-15 -5.134581399672035e-15 4.588556857240642e-15 -8.668659921944671e-16 1.053394037408987e-15 -1.454632059897057e-16
-1.775150972630942e-15 -8.913067177858460e-15 -1.217213001031588e-16 -1.825089938184573e-17 1.112715240725118e-15 -1.167296565953332e-15
-2.089365471654062e-15 -7.659707672889065e-15 1.547767838468936e-15 -1.437764567267560e-16 1.895062721870620e-15 -9.782784738311758e-16
1.648856096098100e-15 4.505464997126530e-15 -1.352720765703062e-15 1.029947248569824e-16 -1.161805563985926e-15 9.610246215069375e-16
3.247952972047409e-15 6.456454847480064e-15 2.048097467397096e-15 -4.951969840236169e-18 -6.495053151174847e-16 1.065655748865078e-15
6.787480163619938e-17 3.576690984183165e-15 -3.375586211798303e-15 5.373637041217115e-16 -4.659488020219197e-16 2.006079064100852e-16
3.778163983193334e-16 5.474483203831067e-15 -1.416594094528904e-15 2.346883445421771e-16 -6.386822972712093e-16 7.217225244470352e-16
2.098542385203152e-17 -4.504465216754851e-16 9.372357114059736e-16 4.808851682915773e-17 2.888232147225569e-16 -3.126355013378738e-16
1.461103197840615e-15 2.488824757752953e-15 1.882957955157162e-15 1.485375214539160e-16 -9.847452611305187e-17 5.191981331081883e-16
-9.362585122154398e-16 -4.068759123197290e-15 -8.079560848460161e-17 -1.450711004743834e-16 3.184296083437473e-16 -6.715421762964689e-16
-4.485133585149074e-16 6.309626241115162e-16 -8.428916756845866e-16 -7.091827742716075e-17 -9.735011567649800e-17 -8.785184151932027e-16
-2.383336189615398e-15 -8.698037412721409e-16 7.381349619892524e-16 -1.229421720738114e-15 1.905979637997596e-15 8.689193288551161e-17
2.348928969039555e-15 -3.242823177479141e-15 -3.625809908874048e-15 1.207329833032523e-16 -1.261509684207815e-16 -1.289738062803770e-15
5.953374624218677e-16 -9.325281008608178e-16 -5.727090567029440e-16 -2.756000511405047e-16 -4.634696655711906e-17 4.689732784655914e-16
-7.539003427066379e-16 -1.656737736639904e-15 1.617933373343757e-16 -5.743213319110030e-16 1.545388753136031e-16 6.165066625452311e-16
5.171026761237947e-16 -3.196089734399236e-15 3.538447337422502e-15 -2.485051570108748e-15 1.743260270989854e-15 -1.061821152053459e-15
7.072451656561970e-15 2.795534770770181e-15 -1.115995665638447e-14 3.062223260581989e-16 -5.252276416314579e-15 3.022374170978808e-15
-8.405455527840907e-16 -3.718115240207495e-15 -1.757146465327073e-15 -2.029754001074037e-16 -1.175789437151814e-16 -2.030294367068641e-17
9.781054357738405e-16 -3.702331417044795e-16 3.424677217960386e-16 4.618694206193639e-16 -5.407722883435981e-17 1.148713548928222e-15
-6.924414552020414e-16 2.916082532013557e-15 5.307908015619899e-16 -7.456922314948684e-17 1.729502178829918e-16 6.504254163118841e-16
-1.016144331594425e-15 6.188187256773737e-16 3.301810218138506e-16 2.968888043942835e-16 1.303803228412094e-16 -7.606829872019156e-16
2.098542385203152e-17 -4.504465216754851e-16 9.372357114059736e-16 4.808851682915773e-17 2.888232147225569e-16 -3.126355013378738e-16
1.023645922802018e-15 3.982140850704308e-15 -7.515972795237200e-16 8.993379757311850e-16 -1.129846343178630e-15 -6.768298540268208e-16
-3.971129145034938e-15 -8.704490513091643e-16 1.010744500541720e-14 -2.374150457057954e-16 1.015469024232923e-15 1.780752611209080e-16
1.094155551308997e-15 1.254206012170415e-15 2.150452028882476e-15 3.137357285445798e-16 1.234069196255667e-15 -6.300183395194668e-16
1.461103197840615e-15 2.488824757752953e-15 1.882957955157162e-15 1.485375214539160e-16 -9.847452611305187e-17 5.191981331081883e-16
6.787480163619938e-17 3.576690984183165e-15 -3.375586211798303e-15 5.373637041217115e-16 -4.659488020219197e-16 2.006079064100852e-16
2.260348378374019e-15 3.232823002747631e-15 1.227366543606449e-15 -6.185048888674182e-16 -4.182325736634328e-15 1.516349086719422e-15
3.240396415773443e-15 -7.854588986707418e-15 1.442234779837151e-14 -3.687829042590588e-15 1.979910130657270e-16 8.479631269263659e-16
3.778163983193334e-16 5.474483203831067e-15 -1.416594094528904e-15 2.346883445421771e-16 -6.386822972712093e-16 7.217225244470352e-16
-9.362585122154398e-16 -4.068759123197290e-15 -8.079560848460161e-17 -1.450711004743834e-16 3.184296083437473e-16 -6.715421762964689e-16
-1.206482430869329e-15 4.537648491365645e-15 -1.656261862569070e-14 2.858660558575405e-15 1.783773764130112e-15 -6.427320642524209e-16
-1.427292645523754e-15 -5.134581399672035e-15 4.588556857240642e-15 -8.668659921944671e-16 1.053394037408987e-15 -1.454632059897057e-16
-1.775150972630942e-15 -8.913067177858460e-15 -1.217213001031588e-16 -1.825089938184573e-17 1.112715240725118e-15 -1.167296565953332e-15
-5.103378356492290e-17 1.364872091684948e-15 -7.513281891113138e-16 -1.089637917559603e-16 -3.960646027322924e-16 5.005720474762634e-16
-1.543620294330252e-15 -1.549000593658137e-15 -1.552568857115948e-15 -2.071821753275927e-16 -1.274952700710574e-16 -7.370342364674937e-16
3.247952972047409e-15 6.456454847480064e-15 2.048097467397096e-15 -4.951969840236169e-18 -6.495053151174847e-16 1.065655748865078e-15
-4.349189150856470e-16 9.238635133161941e-16 -1.379125261740802e-15 1.293108510544807e-17 -8.928368848671715e-16 1.141762407944193e-16
-5.103378356492290e-17 1.364872091684948e-15 -7.513281891113138e-16 -1.089637917559603e-16 -3.960646027322924e-16 5.005720474762634e-16
-1.774535691320532e-15 -3.290952063102278e-15 1.645833004102701e-16 7.611546475228936e-17 -2.063921632009412e-15 8.046986647294504e-16
-2.379050751180376e-15 -2.087422774351757e-16 -1.557660968576909e-15 -2.992017690832338e-16 3.669089543600938e-16 1.586223258779337e-15
-2.165188897268176e-15 -1.859860195086998e-15 1.730639968561385e-15 -3.281146241928197e-16 1.386067047357568e-17 -8.754112908262258e-16
-1.543620294330252e-15 -1.549000593658137e-15 -1.552568857115948e-15 -2.071821753275927e-16 -1.274952700710574e-16 -7.370342364674937e-16
6.960697404894530e-15 3.432092818848181e-15 4.319311465509642e-15 -3.955747162258102e-16 -6.287159194398619e-16 -1.715228155241320e-15
-1.308829310158543e-16 -8.195700735616512e-16 2.826292601675078e-15 1.904520323618428e-16 3.537666971380111e-15 5.061951481953488e-16
2.098542385203152e-17 -4.504465216754851e-16 9.372357114059736e-16 4.808851682915773e-17 2.888232147225569e-16 -3.126355013378738e-16
-1.016144331594425e-15 6.188187256773737e-16 3.301810218138506e-16 2.968888043942835e-16 1.303803228412094e-16 -7.606829872019156e-16
1.792214365224417e-16 1.995116684685700e-15 -6.075756780323169e-17 2.361889481884322e-16 9.908712435888431e-16 -8.344082273800577e-16
5.500888244199538e-16 1.592577626337212e-15 1.299827184658648e-15 5.817079855766281e-16 5.140960196105408e-16 -8.284726115388384e-16
1.461103197840615e-15 2.488824757752953e-15 1.882957955157162e-15 1.485375214539160e-16 -9.847452611305187e-17 5.191981331081883e-16
1.094155551308997e-15 1.254206012170415e-15 2.150452028882476e-15 3.137357285445798e-16 1.234069196255667e-15 -6.300183395194668e-16
-2.652378255703077e-15 1.402689848403702e-15 -2.252057548051132e-15 9.707011595299824e-17 -1.554347481552388e-15 1.095891259053058e-15
2.899423718502777e-15 3.713894705631760e-15 -1.210643486832369e-15 2.348717359546971e-16 -8.497454684785805e-16 4.100776285914416e-16
1.648856096098100e-15 4.505464997126530e-15 -1.352720765703062e-15 1.029947248569824e-16 -1.161805563985926e-15 9.610246215069375e-16
3.247952972047409e-15 6.456454847480064e-15 2.048097467397096e-15 -4.951969840236169e-18 -6.495053151174847e-16 1.065655748865078e-15
3.123064534605232e-15 3.343596710146120e-15 4.212788550399773e-15 -6.018890516779657e-16 3.990582498267992e-16 2.881789921025773e-15
3.666813815538775e-16 2.618015347961248e-15 -5.535427444720042e-16 -2.964723215992921e-16 -3.301350707186581e-15 9.073794078940146e-16
-2.089365471654062e-15 -7.659707672889065e-15 1.547767838468936e-15 -1.437764567267560e-16 1.895062721870620e-15 -9.782784738311758e-16
-1.775150972630942e-15 -8.913067177858460e-15 -1.217213001031588e-16 -1.825089938184573e-17 1.112715240725118e-15 -1.167296565953332e-15
-9.362585122154398e-16 -4.068759123197290e-15 -8.079560848460161e-17 -1.450711004743834e-16 3.184296083437473e-16 -6.715421762964689e-16
-1.139190991885581e-15 -2.446218468107944e-15 -7.927171261247629e-16 2.476383528207646e-16 1.993536109229756e-15 -1.181536161436300e-15
5.953374624218677e-16 -9.325281008608178e-16 -5.727090567029440e-16 -2.756000511405047e-16 -4.634696655711906e-17 4.689732784655914e-16
-8.405455527840907e-16 -3.718115240207495e-15 -1.757146465327073e-15 -2.029754001074037e-16 -1.175789437151814e-16 -2.030294367068641e-17
3.778163983193334e-16 5.474483203831067e-15 -1.416594094528904e-15 2.346883445421771e-16 -6.386822972712093e-16 7.217225244470352e-16
2.098542385203152e-17 -4.504465216754851e-16 9.372357114059736e-16 4.808851682915773e-17 2.888232147225569e-16 -3.126355013378738e-16
-6.924414552020414e-16 2.916082532013557e-15 5.307908015619899e-16 -7.456922314948684e-17 1.729502178829918e-16 6.504254163118841e-16
-2.414604794465423e-15 1.133198751120923e-14 8.755047244585180e-15 -1.917659394473831e-15 1.404241033848368e-15 4.263312538053250e-15
1.792214365224417e-16 1.995116684685700e-15 -6.075756780323169e-17 2.361889481884322e-16 9.908712435888431e-16 -8.344082273800577e-16
1.461103197840615e-15 2.488824757752953e-15 1.882957955157162e-15 1.485375214539160e-16 -9.847452611305187e-17 5.191981331081883e-16
-3.971129145034938e-15 -8.704490513091643e-16 1.010744500541720e-14 -2.374150457057954e-16 1.015469024232923e-15 1.780752611209080e-16
-1.814041447003783e-14 -1.061308650058279e-14 1.555862871895185e-14 -4.557107599154298e-15 4.806571505325117e-15 -6.751020287308199e-16
-2.652378255703077e-15 1.402689848403702e-15 -2.252057548051132e-15 9.707011595299824e-17 -1.554347481552388e-15 1.095891259053058e-15
-5.103378356492290e-17 1.364872091684948e-15 -7.513281891113138e-16 -1.089637917559603e-16 -3.960646027322924e-16 5.005720474762634e-16
2.348928969039555e-15 -3.242823177479141e-15 -3.625809908874048e-15 1.207329833032523e-16 -1.261509684207815e-16 -1.289738062803770e-15
-1.774535691320532e-15 -3.290952063102278e-15 1.645833004102701e-16 7.611546475228936e-17 -2.063921632009412e-15 8.046986647294504e-16
5.953374624218677e-16 -9.325281008608178e-16 -5.727090567029440e-16 -2.756000511405047e-16 -4.634696655711906e-17 4.689732784655914e-16
-1.543620294330252e-15 -1.549000593658137e-15 -1.552568857115948e-15 -2.071821753275927e-16 -1.274952700710574e-16 -7.370342364674937e-16
7.072451656561970e-15 2.795534770770181e-15 -1.115995665638447e-14 3.062223260581989e-16 -5.252276416314579e-15 3.022374170978808e-15
6.960697404894530e-15 3.432092818848181e-15 4.319311465509642e-15 -3.955747162258102e-16 -6.287159194398619e-16 -1.715228155241320e-15
-8.405455527840907e-16 -3.718115240207495e-15 -1.757146465327073e-15 -2.029754001074037e-16 -1.175789437151814e-16 -2.030294367068641e-17
-9.362585122154398e-16 -4.068759123197290e-15 -8.079560848460161e-17 -1.450711004743834e-16 3.184296083437473e-16 -6.715421762964689e-16
-1.206482430869329e-15 4.537648491365645e-15 -1.656261862569070e-14 2.858660558575405e-15 1.783773764130112e-15 -6.427320642524209e-16
-2.039978159965154e-15 8.278426883130340e-15 -4.773974258793865e-15 1.758609519878500e-15 -8.794021662708440e-15 -2.883710955457400e-15
-1.139190991885581e-15 -2.446218468107944e-15 -7.927171261247629e-16 2.476383528207646e-16 1.993536109229756e-15 -1.181536161436300e-15
3.778163983193334e-16 5.474483203831067e-15 -1.416594094528904e-15 2.346883445421771e-16 -6.386822972712093e-16 7.217225244470352e-16
3.240396415773443e-15 -7.854588986707418e-15 1.442234779837151e-14 -3.687829042590588e-15 1.979910130657270e-16 8.479631269263659e-16
3.247952972047409e-15 6.456454847480064e-15 2.048097467397096e-15 -4.951969840236169e-18 -6.495053151174847e-16 1.065655748865078e-15
3.123064534605232e-15 3.343596710146120e-15 4.212788550399773e-15 -6.018890516779657e-16 3.990582498267992e-16 2.881789921025773e-15
-1.016144331594425e-15 6.188187256773737e-16 3.301810218138506e-16 2.968888043942835e-16 1.303803228412094e-16 -7.606829872019156e-16
1.094155551308997e-15 1.254206012170415e-15 2.150452028882476e-15 3.137357285445798e-16 1.234069196255667e-15 -6.300183395194668e-16
-1.775150972630942e-15 -8.913067177858460e-15 -1.217213001031588e-16 -1.825089938184573e-17 1.112715240725118e-15 -1.167296565953332e-15
5.500888244199538e-16 1.592577626337212e-15 1.299827184658648e-15 5.817079855766281e-16 5.140960196105408e-16 -8.284726115388384e-16
-1.016144331594425e-15 6.188187256773737e-16 3.301810218138506e-16 2.968888043942835e-16 1.303803228412094e-16 -7.606829872019156e-16
-6.410298327236766e-15 6.418491885385253e-15 -1.206591144925018e-16 1.454771263670427e-16 5.548669381249686e-15 3.025199287367738e-15
-1.301707360516875e-15 -1.259731558636957e-15 -6.602632078328631e-16 1.175706799605584e-15 -2.374019399745194e-15 -1.634639038798925e-15
2.899423718502777e-15 3.713894705631760e-15 -1.210643486832369e-15 2.348717359546971e-16 -8.497454684785805e-16 4.100776285914416e-16
1.094155551308997e-15 1.254206012170415e-15 2.150452028882476e-15 3.137357285445798e-16 1.234069196255667e-15 -6.300183395194668e-16
-9.080254528285008e-15 -6.271520917397247e-15 -8.935825487152570e-15 -1.170526777087842e-16 -1.091021718490026e-14 -1.283430964955437e-15
-1.070792310776781e-14 -1.434580370041738e-15 -1.684975050326544e-14 -1.644122985231294e-15 -1.099585736987462e-14 -2.223292884194602e-15
5.953374624218677e-16 -9.325281008608178e-16 -5.727090567029440e-16 -2.756000511405047e-16 -4.634696655711906e-17 4.689732784655914e-16
-1.774535691320532e-15 -3.290952063102278e-15 1.645833004102701e-16 7.611546475228936e-17 -2.063921632009412e-15 8.046986647294504e-16
3.434081701811246e-15 -1.584384873475890e-15 1.267258415448451e-15 -3.954412428418978e-16 -2.068562043496321e-15 -6.373796530552818e-16
-2.379050751180376e-15 -2.087422774351757e-16 -1.557660968576909e-15 -2.992017690832338e-16 3.669089543600938e-16 1.586223258779337e-15
-8.405455527840907e-16 -3.718115240207495e-15 -1.757146465327073e-15 -2.029754001074037e-16 -1.175789437151814e-16 -2.030294367068641e-17
6.960697404894530e-15 3.432092818848181e-15 4.319311465509642e-15 -3.955747162258102e-16 -6.287159194398619e-16 -1.715228155241320e-15
4.670286327901053e-15 -3.720125703637180e-16 6.913120422176977e-15 7.901750216468580e-17 8.522765798586390e-15 1.874969834880700e-15
-1.308829310158543e-16 -8.195700735616512e-16 2.826292601675078e-15 1.904520323618428e-16 3.537666971380111e-15 5.061951481953488e-16
-2.089365471654062e-15 -7.659707672889065e-15 1.547767838468936e-15 -1.437764567267560e-16 1.895062721870620e-15 -9.782784738311758e-16
-1.775150972630942e-15 -8.913067177858460e-15 -1.217213001031588e-16 -1.825089938184573e-17 1.112715240725118e-15 -1.167296565953332e-15
4.338396485951702e-15 5.652171610975684e-15 6.420465126141541e-15 4.893527655274717e-16 6.973202305919577e-15 -6.457275689283364e-16
3.926993759100787e-15 -1.224201160768932e-15 1.153909526169867e-14 1.470683954585823e-15 8.872882584961657e-15 -6.978830739840173e-16
3.666813815538775e-16 2.618015347961248e-15 -5.535427444720042e-16 -2.964723215992921e-16 -3.301350707186581e-15 9.073794078940146e-16
3.123064534605232e-15 3.343596710146120e-15 4.212788550399773e-15 -6.018890516779657e-16 3.990582498267992e-16 2.881789921025773e-15
3.778163983193334e-16 5.474483203831067e-15 -1.416594094528904e-15 2.346883445421771e-16 -6.386822972712093e-16 7.217225244470352e-16
-2.107215356057636e-15 -1.852599901341527e-15 -4.120581259898461e-15 -2.546298284851387e-16 -8.347626200161868e-15 -9.770941959728401e-16
1.792214365224417e-16 1.995116684685700e-15 -6.075756780323169e-17 2.361889481884322e-16 9.908712435888431e-16 -8.344082273800577e-16
-2.652378255703077e-15 1.402689848403702e-15 -2.252057548051132e-15 9.707011595299824e-17 -1.554347481552388e-15 1.095891259053058e-15
-1.139190991885581e-15 -2.446218468107944e-15 -7.927171261247629e-16 2.476383528207646e-16 1.993536109229756e-15 -1.181536161436300e-15
5.953374624218677e-16 -9.325281008608178e-16 -5.727090567029440e-16 -2.756000511405047e-16 -4.634696655711906e-17 4.689732784655914e-16
2.348928969039555e-15 -3.242823177479141e-15 -3.625809908874048e-15 1.207329833032523e-16 -1.261509684207815e-16 -1.289738062803770e-15
1.306947638376412e-14 -1.298314703697626e-14 -2.435038609044427e-14 -6.603956605616633e-16 -1.540939638481866e-14 -1.111480886847943e-14
3.434081701811246e-15 -1.584384873475890e-15 1.267258415448451e-15 -3.954412428418978e-16 -2.068562043496321e-15 -6.373796530552818e-16
-8.405455527840907e-16 -3.718115240207495e-15 -1.757146465327073e-15 -2.029754001074037e-16 -1.175789437151814e-16 -2.030294367068641e-17
7.072451656561970e-15 2.795534770770181e-15 -1.115995665638447e-14 3.062223260581989e-16 -5.252276416314579e-15 3.022374170978808e-15
-1.055500195278409e-14 1.809417959466397e-14 8.922573495441645e-15 1.294454946278019e-14 -9.105414105432468e-15 1.320561038354471e-14
4.670286327901053e-15 -3.720125703637180e-16 6.913120422176977e-15 7.901750216468580e-17 8.522765798586390e-15 1.874969834880700e-15
-1.016144331594425e-15 6.188187256773737e-16 3.301810218138506e-16 2.968888043942835e-16 1.303803228412094e-16 -7.606829872019156e-16
-2.414604794465423e-15 1.133198751120923e-14 8.755047244585180e-15 -1.917659394473831e-15 1.404241033848368e-15 4.263312538053250e-15
-6.410298327236766e-15 6.418491885385253e-15 -1.206591144925018e-16 1.454771263670427e-16 5.548669381249686e-15 3.025199287367738e-15
1.792214365224417e-16 1.995116684685700e-15 -6.075756780323169e-17 2.361889481884322e-16 9.908712435888431e-16 -8.344082273800577e-16
1.094155551308997e-15 1.254206012170415e-15 2.150452028882476e-15 3.137357285445798e-16 1.234069196255667e-15 -6.300183395194668e-16
-1.814041447003783e-14 -1.061308650058279e-14 1.555862871895185e-14 -4.557107599154298e-15 4.806571505325117e-15 -6.751020287308199e-16
-9.080254528285008e-15 -6.271520917397247e-15 -8.935825487152570e-15 -1.170526777087842e-16 -1.091021718490026e-14 -1.283430964955437e-15
-2.652378255703077e-15 1.402689848403702e-15 -2.252057548051132e-15 9.707011595299824e-17 -1.554347481552388e-15 1.095891259053058e-15
3.778163983193334e-16 5.474483203831067e-15 -1.416594094528904e-15 2.346883445421771e-16 -6.386822972712093e-16 7.217225244470352e-16
3.240396415773443e-15 -7.854588986707418e-15 1.442234779837151e-14 -3.687829042590588e-15 1.979910130657270e-16 8.479631269263659e-16
2.914021146060788e-14 5.570064119415399e-15 -1.346013498645796e-14 -3.125446763124858e-15 2.028899606982146e-14 -1.312365641915184e-15
-2.107215356057636e-15 -1.852599901341527e-15 -4.120581259898461e-15 -2.546298284851387e-16 -8.347626200161868e-15 -9.770941959728401e-16
-1.139190991885581e-15 -2.446218468107944e-15 -7.927171261247629e-16 2.476383528207646e-16 1.993536109229756e-15 -1.181536161436300e-15
-2.039978159965154e-15 8.278426883130340e-15 -4.773974258793865e-15 1.758609519878500e-15 -8.794021662708440e-15 -2.883710955457400e-15
-1.775150972630942e-15 -8.913067177858460e-15 -1.217213001031588e-16 -1.825089938184573e-17 1.112715240725118e-15 -1.167296565953332e-15
4.338396485951702e-15 5.652171610975684e-15 6.420465126141541e-15 4.893527655274717e-16 6.973202305919577e-15 -6.457275689283364e-16
-1.774535691320532e-15 -3.290952063102278e-15 1.645833004102701e-16 7.611546475228936e-17 -2.063921632009412e-15 8.046986647294504e-16
6.960697404894530e-15 3.432092818848181e-15 4.319311465509642e-15 -3.955747162258102e-16 -6.287159194398619e-16 -1.715228155241320e-15
3.123064534605232e-15 3.343596710146120e-15 4.212788550399773e-15 -6.018890516779657e-16 3.990582498267992e-16 2.881789921025773e-15
-2.285927985902081e-15 -2.197706756512563e-15 2.623427646467002e-15 -7.530346334202791e-16 3.976809648969372e-16 -7.391305624166252e-16
-1.427292645523754e-15 -5.134581399672035e-15 4.588556857240642e-15 -8.668659921944671e-16 1.053394037408987e-15 -1.454632059897057e-16
-1.775150972630942e-15 -8.913067177858460e-15 -1.217213001031588e-16 -1.825089938184573e-17 1.112715240725118e-15 -1.167296565953332e-15
-2.089365471654062e-15 -7.659707672889065e-15 1.547767838468936e-15 -1.437764567267560e-16 1.895062721870620e-15 -9.782784738311758e-16
-2.648427095737496e-15 -4.177388269577255e-15 2.764544313686378e-15 -4.802884668955851e-15 3.863628690546857e-15 -1.376619206881767e-15
1.257591537882348e-15 4.026119574679775e-15 8.103343090913964e-15 -4.362939118053289e-15 -2.649176577834241e-15 -7.438598586381001e-16
-1.349079723484202e-15 3.319886058929429e-16 -1.079610246554571e-14 -2.105248734383811e-15 -3.040732432554533e-15 2.502188863942856e-15
-4.762263143352074e-15 -8.720584587580412e-15 -2.275491223289380e-16 -1.115513736213988e-15 3.730028915470625e-15 -2.513149173559483e-15
6.787480163619938e-17 3.576690984183165e-15 -3.375586211798303e-15 5.373637041217115e-16 -4.659488020219197e-16 2.006079064100852e-16
3.247952972047409e-15 6.456454847480064e-15 2.048097467397096e-15 -4.951969840236169e-18 -6.495053151174847e-16 1.065655748865078e-15
3.778163983193334e-16 5.474483203831067e-15 -1.416594094528904e-15 2.346883445421771e-16 -6.386822972712093e-16 7.217225244470352e-16
1.648856096098100e-15 4.505464997126530e-15 -1.352720765703062e-15 1.029947248569824e-16 -1.161805563985926e-15 9.610246215069375e-16
-1.715809721650204e-16 2.306260693582551e-15 -3.837453337646601e-15 2.141726164013751e-15 -1.761342529783268e-15 1.533656266665172e-16
2.559637039207198e-15 -4.346078461976213e-15 2.318007661698313e-14 1.621003115326526e-15 4.716937592080207e-15 7.028669594274771e-16
2.334061216727008e-15 1.698451935294281e-15 5.268948874287613e-15 8.917556739521410e-16 -2.121536024763117e-15 -1.388972979001226e-15
2.845819956183593e-15 6.460069289402276e-15 8.957189137702553e-15 2.216717675533170e-15 -2.689016448588535e-15 2.203419492470637e-15
3.968416040893518e-15 -6.916933712999085e-16 -8.454590255192794e-16 1.258316185512551e-15 -7.665884507563706e-16 -1.320762611936412e-15
1.023645922802018e-15 3.982140850704308e-15 -7.515972795237200e-16 8.993379757311850e-16 -1.129846343178630e-15 -6.768298540268208e-16
1.094155551308997e-15 1.254206012170415e-15 2.150452028882476e-15 3.137357285445798e-16 1.234069196255667e-15 -6.300183395194668e-16
2.899423718502777e-15 3.713894705631760e-15 -1.210643486832369e-15 2.348717359546971e-16 -8.497454684785805e-16 4.100776285914416e-16
-2.165188897268176e-15 -1.859860195086998e-15 1.730639968561385e-15 -3.281146241928197e-16 1.386067047357568e-17 -8.754112908262258e-16
-1.543620294330252e-15 -1.549000593658137e-15 -1.552568857115948e-15 -2.071821753275927e-16 -1.274952700710574e-16 -7.370342364674937e-16
-7.539003427066379e-16 -1.656737736639904e-15 1.617933373343757e-16 -5.743213319110030e-16 1.545388753136031e-16 6.165066625452311e-16
-8.405455527840907e-16 -3.718115240207495e-15 -1.757146465327073e-15 -2.029754001074037e-16 -1.175789437151814e-16 -2.030294367068641e-17
-9.362585122154398e-16 -4.068759123197290e-15 -8.079560848460161e-17 -1.450711004743834e-16 3.184296083437473e-16 -6.715421762964689e-16
-2.691641962294281e-15 -4.780527779473254e-16 -1.376822319971199e-14 -7.316348059405366e-16 5.445412652629343e-16 -3.755693941657899e-16
1.461103197840615e-15 2.488824757752953e-15 1.882957955157162e-15 1.485375214539160e-16 -9.847452611305187e-17 5.191981331081883e-16
6.787480163619938e-17 3.576690984183165e-15 -3.375586211798303e-15 5.373637041217115e-16 -4.659488020219197e-16 2.006079064100852e-16
2.260348378374019e-15 3.232823002747631e-15 1.227366543606449e-15 -6.185048888674182e-16 -4.182325736634328e-15 1.516349086719422e-15
3.240396415773443e-15 -7.854588986707418e-15 1.442234779837151e-14 -3.687829042590588e-15 1.979910130657270e-16 8.479631269263659e-16
3.778163983193334e-16 5.474483203831067e-15 -1.416594094528904e-15 2.346883445421771e-16 -6.386822972712093e-16 7.217225244470352e-16
-1.715809721650204e-16 2.306260693582551e-15 -3.837453337646601e-15 2.141726164013751e-15 -1.761342529783268e-15 1.533656266665172e-16
8.316994756313955e-15 -4.202532957849147e-15 1.138130425483275e-14 2.267641278924611e-15 9.880524728780202e-15 3.107996374629347e-15
-5.288715347289067e-15 -1.273937894166115e-14 1.884733165650323e-14 2.181307643921893e-17 1.044439853546130e-14 -7.975228570470963e-15
2.334061216727008e-15 1.698451935294281e-15 5.268948874287613e-15 8.917556739521410e-16 -2.121536024763117e-15 -1.388972979001226e-15
-1.427292645523754e-15 -5.134581399672035e-15 4.588556857240642e-15 -8.668659921944671e-16 1.053394037408987e-15 -1.454632059897057e-16
-1.206482430869329e-15 4.537648491365645e-15 -1.656261862569070e-14 2.858660558575405e-15 1.783773764130112e-15 -6.427320642524209e-16
-1.775150972630942e-15 -8.913067177858460e-15 -1.217213001031588e-16 -1.825089938184573e-17 1.112715240725118e-15 -1.167296565953332e-15
-9.362585122154398e-16 -4.068759123197290e-15 -8.079560848460161e-17 -1.450711004743834e-16 3.184296083437473e-16 -6.715421762964689e-16
1.257591537882348e-15 4.026119574679775e-15 8.103343090913964e-15 -4.362939118053289e-15 -2.649176577834241e-15 -7.438598586381001e-16
2.179078433992779e-15 9.043025382504475e-15 -3.437115532139677e-14 5.770303673114552e-16 -7.008242741150664e-15 1.097299473267166e-15
-1.349079723484202e-15 3.319886058929429e-16 -1.079610246554571e-14 -2.105248734383811e-15 -3.040732432554533e-15 2.502188863942856e-15
-2.691641962294281e-15 -4.780527779473254e-16 -1.376822319971199e-14 -7.316348059405366e-16 5.445412652629343e-16 -3.755693941657899e-16
-7.539003427066379e-16 -1.656737736639904e-15 1.617933373343757e-16 -5.743213319110030e-16 1.545388753136031e-16 6.165066625452311e-16
5.171026761237947e-16 -3.196089734399236e-15 3.538447337422502e-15 -2.485051570108748e-15 1.743260270989854e-15 -1.061821152053459e-15
7.072451656561970e-15 2.795534770770181e-15 -1.115995665638447e-14 3.062223260581989e-16 -5.252276416314579e-15 3.022374170978808e-15
-8.405455527840907e-16 -3.718115240207495e-15 -1.757146465327073e-15 -2.029754001074037e-16 -1.175789437151814e-16 -2.030294367068641e-17
1.461103197840615e-15 2.488824757752953e-15 1.882957955157162e-15 1.485375214539160e-16 -9.847452611305187e-17 5.191981331081883e-16
-3.971129145034938e-15 -8.704490513091643e-16 1.010744500541720e-14 -2.374150457057954e-16 1.015469024232923e-15 1.780752611209080e-16
1.023645922802018e-15 3.982140850704308e-15 -7.515972795237200e-16 8.993379757311850e-16 -1.129846343178630e-15 -6.768298540268208e-16
1.094155551308997e-15 1.254206012170415e-15 2.150452028882476e-15 3.137357285445798e-16 1.234069196255667e-15 -6.300183395194668e-16
3.247952972047409e-15 6.456454847480064e-15 2.048097467397096e-15 -4.951969840236169e-18 -6.495053151174847e-16 1.065655748865078e-15
2.559637039207198e-15 -4.346078461976213e-15 2.318007661698313e-14 1.621003115326526e-15 4.716937592080207e-15 7.028669594274771e-16
-1.543620294330252e-15 -1.549000593658137e-15 -1.552568857115948e-15 -2.071821753275927e-16 -1.274952700710574e-16 -7.370342364674937e-16
1.648856096098100e-15 4.505464997126530e-15 -1.352720765703062e-15 1.029947248569824e-16 -1.161805563985926e-15 9.610246215069375e-16
3.247952972047409e-15 6.456454847480064e-15 2.048097467397096e-15 -4.951969840236169e-18 -6.495053151174847e-16 1.065655748865078e-15
3.123064534605232e-15 3.343596710146120e-15 4.212788550399773e-15 -6.018890516779657e-16 3.990582498267992e-16 2.881789921025773e-15
3.666813815538775e-16 2.618015347961248e-15 -5.535427444720042e-16 -2.964723215992921e-16 -3.301350707186581e-15 9.073794078940146e-16
2.845819956183593e-15 6.460069289402276e-15 8.957189137702553e-15 2.216717675533170e-15 -2.689016448588535e-15 2.203419492470637e-15
2.559637039207198e-15 -4.346078461976213e-15 2.318007661698313e-14 1.621003115326526e-15 4.716937592080207e-15 7.028669594274771e-16
1.140446956202197e-14 -3.170263951896433e-16 1.477376083868697e-14 2.964418456962410e-15 -2.651691024912320e-15 5.735218862889368e-15
4.621263984767394e-15 5.102694487844757e-15 -1.427578887978063e-14 -9.399018623952702e-16 -8.753733801824244e-15 3.844222956692009e-15
-9.362585122154398e-16 -4.068759123197290e-15 -8.079560848460161e-17 -1.450711004743834e-16 3.184296083437473e-16 -6.715421762964689e-16
-1.775150972630942e-15 -8.913067177858460e-15 -1.217213001031588e-16 -1.825089938184573e-17 1.112715240725118e-15 -1.167296565953332e-15
-1.139190991885581e-15 -2.446218468107944e-15 -7.927171261247629e-16 2.476383528207646e-16 1.993536109229756e-15 -1.181536161436300e-15
-2.089365471654062e-15 -7.659707672889065e-15 1.547767838468936e-15 -1.437764567267560e-16 1.895062721870620e-15 -9.782784738311758e-16
-2.691641962294281e-15 -4.780527779473254e-16 -1.376822319971199e-14 -7.316348059405366e-16 5.445412652629343e-16 -3.755693941657899e-16
-1.349079723484202e-15 3.319886058929429e-16 -1.079610246554571e-14 -2.105248734383811e-15 -3.040732432554533e-15 2.502188863942856e-15
-5.729712291237760e-15 2.186003238326658e-15 -2.177331564770309e-15 -9.326320929623454e-16 6.935703441984898e-15 -3.047116938659123e-15
-4.762263143352074e-15 -8.720584587580412e-15 -2.275491223289380e-16 -1.115513736213988e-15 3.730028915470625e-15 -2.513149173559483e-15
-2.165188897268176e-15 -1.859860195086998e-15 1.730639968561385e-15 -3.281146241928197e-16 1.386067047357568e-17 -8.754112908262258e-16
-1.543620294330252e-15 -1.549000593658137e-15 -1.552568857115948e-15 -2.071821753275927e-16 -1.274952700710574e-16 -7.370342364674937e-16
6.960697404894530e-15 3.432092818848181e-15 4.319311465509642e-15 -3.955747162258102e-16 -6.287159194398619e-16 -1.715228155241320e-15
-1.308829310158543e-16 -8.195700735616512e-16 2.826292601675078e-15 1.904520323618428e-16 3.537666971380111e-15 5.061951481953488e-16
2.899423718502777e-15 3.713894705631760e-15 -1.210643486832369e-15 2.348717359546971e-16 -8.497454684785805e-16 4.100776285914416e-16
1.094155551308997e-15 1.254206012170415e-15 2.150452028882476e-15 3.137357285445798e-16 1.234069196255667e-15 -6.300183395194668e-16
1.461103197840615e-15 2.488824757752953e-15 1.882957955157162e-15 1.485375214539160e-16 -9.847452611305187e-17 5.191981331081883e-16
-2.652378255703077e-15 1.402689848403702e-15 -2.252057548051132e-15 9.707011595299824e-17 -1.554347481552388e-15 1.095891259053058e-15
3.778163983193334e-16 5.474483203831067e-15 -1.416594094528904e-15 2.346883445421771e-16 -6.386822972712093e-16 7.217225244470352e-16
2.334061216727008e-15 1.698451935294281e-15 5.268948874287613e-15 8.917556739521410e-16 -2.121536024763117e-15 -1.388972979001226e-15
-8.405455527840907e-16 -3.718115240207495e-15 -1.757146465327073e-15 -2.029754001074037e-16 -1.175789437151814e-16 -2.030294367068641e-17
-9.362585122154398e-16 -4.068759123197290e-15 -8.079560848460161e-17 -1.450711004743834e-16 3.184296083437473e-16 -6.715421762964689e-16
-1.206482430869329e-15 4.537648491365645e-15 -1.656261862569070e-14 2.858660558575405e-15 1.783773764130112e-15 -6.427320642524209e-16
-2.039978159965154e-15 8.278426883130340e-15 -4.773974258793865e-15 1.758609519878500e-15 -8.794021662708440e-15 -2.883710955457400e-15
-1.139190991885581e-15 -2.446218468107944e-15 -7.927171261247629e-16 2.476383528207646e-16 1.993536109229756e-15 -1.181536161436300e-15
-2.691641962294281e-15 -4.780527779473254e-16 -1.376822319971199e-14 -7.316348059405366e-16 5.445412652629343e-16 -3.755693941657899e-16
2.179078433992779e-15 9.043025382504475e-15 -3.437115532139677e-14 5.770303673114552e-16 -7.008242741150664e-15 1.097299473267166e-15
1.470428421146116e-14 2.412771280514298e-14 -2.973033131492976e-14 1.394403560257104e-15 -2.067816751104510e-14 -3.649130617204514e-15
-5.729712291237760e-15 2.186003238326658e-15 -2.177331564770309e-15 -9.326320929623454e-16 6.935703441984898e-15 -3.047116938659123e-15
3.247952972047409e-15 6.456454847480064e-15 2.048097467397096e-15 -4.951969840236169e-18 -6.495053151174847e-16 1.065655748865078e-15
3.240396415773443e-15 -7.854588986707418e-15 1.442234779837151e-14 -3.687829042590588e-15 1.979910130657270e-16 8.479631269263659e-16
3.123064534605232e-15 3.343596710146120e-15 4.212788550399773e-15 -6.018890516779657e-16 3.990582498267992e-16 2.881789921025773e-15
3.778163983193334e-16 5.474483203831067e-15 -1.416594094528904e-15 2.346883445421771e-16 -6.386822972712093e-16 7.217225244470352e-16
2.559637039207198e-15 -4.346078461976213e-15 2.318007661698313e-14 1.621003115326526e-15 4.716937592080207e-15 7.028669594274771e-16
-5.288715347289067e-15 -1.273937894166115e-14 1.884733165650323e-14 2.181307643921893e-17 1.044439853546130e-14 -7.975228570470963e-15
1.140446956202197e-14 -3.170263951896433e-16 1.477376083868697e-14 2.964418456962410e-15 -2.651691024912320e-15 5.735218862889368e-15
2.334061216727008e-15 1.698451935294281e-15 5.268948874287613e-15 8.917556739521410e-16 -2.121536024763117e-15 -1.388972979001226e-15
1.461103197840615e-15 2.488824757752953e-15 1.882957955157162e-15 1.485375214539160e-16 -9.847452611305187e-17 5.191981331081883e-16
-3.971129145034938e-15 -8.704490513091643e-16 1.010744500541720e-14 -2.374150457057954e-16 1.015469024232923e-15 1.780752611209080e-16
-1.814041447003783e-14 -1.061308650058279e-14 1.555862871895185e-14 -4.557107599154298e-15 4.806571505325117e-15 -6.751020287308199e-16
-2.652378255703077e-15 1.402689848403702e-15 -2.252057548051132e-15 9.707011595299824e-17 -1.554347481552388e-15 1.095891259053058e-15
-8.405455527840907e-16 -3.718115240207495e-15 -1.757146465327073e-15 -2.029754001074037e-16 -1.175789437151814e-16 -2.030294367068641e-17
7.072451656561970e-15 2.795534770770181e-15 -1.115995665638447e-14 3.062223260581989e-16 -5.252276416314579e-15 3.022374170978808e-15
-1.543620294330252e-15 -1.549000593658137e-15 -1.552568857115948e-15 -2.071821753275927e-16 -1.274952700710574e-16 -7.370342364674937e-16
6.960697404894530e-15 3.432092818848181e-15 4.319311465509642e-15 -3.955747162258102e-16 -6.287159194398619e-16 -1.715228155241320e-15
-1.775150972630942e-15 -8.913067177858460e-15 -1.217213001031588e-16 -1.825089938184573e-17 1.112715240725118e-15 -1.167296565953332e-15
-1.349079723484202e-15 3.319886058929429e-16 -1.079610246554571e-14 -2.105248734383811e-15 -3.040732432554533e-15 2.502188863942856e-15
1.094155551308997e-15 1.254206012170415e-15 2.150452028882476e-15 3.137357285445798e-16 1.234069196255667e-15 -6.300183395194668e-16
-2.089365471654062e-15 -7.659707672889065e-15 1.547767838468936e-15 -1.437764567267560e-16 1.895062721870620e-15 -9.782784738311758e-16
-1.775150972630942e-15 -8.913067177858460e-15 -1.217213001031588e-16 -1.825089938184573e-17 1.112715240725118e-15 -1.167296565953332e-15
4.338396485951702e-15 5.652171610975684e-15 6.420465126141541e-15 4.893527655274717e-16 6.973202305919577e-15 -6.457275689283364e-16
3.926993759100787e-15 -1.224201160768932e-15 1.153909526169867e-14 1.470683954585823e-15 8.872882584961657e-15 -6.978830739840173e-16
-4.762263143352074e-15 -8.720584587580412e-15 -2.275491223289380e-16 -1.115513736213988e-15 3.730028915470625e-15 -2.513149173559483e-15
-1.349079723484202e-15 3.319886058929429e-16 -1.079610246554571e-14 -2.105248734383811e-15 -3.040732432554533e-15 2.502188863942856e-15
3.495139738257648e-15 1.741743751951477e-14 5.818902706424291e-14 -5.385614977616206e-15 1.206949790318867e-14 5.764863992739890e-15
5.902437779676073e-15 8.122963575668591e-15 1.261283511769666e-13 5.578495178851830e-15 2.027473384073388e-14 1.086102704752259e-15
3.778163983193334e-16 5.474483203831067e-15 -1.416594094528904e-15 2.346883445421771e-16 -6.386822972712093e-16 7.217225244470352e-16
3.123064534605232e-15 3.343596710146120e-15 4.212788550399773e-15 -6.018890516779657e-16 3.990582498267992e-16 2.881789921025773e-15
-2.107215356057636e-15 -1.852599901341527e-15 -4.120581259898461e-15 -2.546298284851387e-16 -8.347626200161868e-15 -9.770941959728401e-16
3.666813815538775e-16 2.618015347961248e-15 -5.535427444720042e-16 -2.964723215992921e-16 -3.301350707186581e-15 9.073794078940146e-16
2.334061216727008e-15 1.698451935294281e-15 5.268948874287613e-15 8.917556739521410e-16 -2.121536024763117e-15 -1.388972979001226e-15
1.140446956202197e-14 -3.170263951896433e-16 1.477376083868697e-14 2.964418456962410e-15 -2.651691024912320e-15 5.735218862889368e-15
-2.044430925215743e-15 -1.065974736190797e-14 -3.370856157290017e-14 1.749972846421977e-15 -1.716958210570044e-14 -2.831713536283991e-15
4.621263984767394e-15 5.102694487844757e-15 -1.427578887978063e-14 -9.399018623952702e-16 -8.753733801824244e-15 3.844222956692009e-15
2.899423718502777e-15 3.713894705631760e-15 -1.210643486832369e-15 2.348717359546971e-16 -8.497454684785805e-16 4.100776285914416e-16
1.094155551308997e-15 1.254206012170415e-15 2.150452028882476e-15 3.137357285445798e-16 1.234069196255667e-15 -6.300183395194668e-16
-9.080254528285008e-15 -6.271520917397247e-15 -8.935825487152570e-15 -1.170526777087842e-16 -1.091021718490026e-14 -1.283430964955437e-15
-1.070792310776781e-14 -1.434580370041738e-15 -1.684975050326544e-14 -1.644122985231294e-15 -1.099585736987462e-14 -2.223292884194602e-15
-1.308829310158543e-16 -8.195700735616512e-16 2.826292601675078e-15 1.904520323618428e-16 3.537666971380111e-15 5.061951481953488e-16
6.960697404894530e-15 3.432092818848181e-15 4.319311465509642e-15 -3.955747162258102e-16 -6.287159194398619e-16 -1.715228155241320e-15
-8.405455527840907e-16 -3.718115240207495e-15 -1.757146465327073e-15 -2.029754001074037e-16 -1.175789437151814e-16 -2.030294367068641e-17
4.670286327901053e-15 -3.720125703637180e-16 6.913120422176977e-15 7.901750216468580e-17 8.522765798586390e-15 1.874969834880700e-15
-1.139190991885581e-15 -2.446218468107944e-15 -7.927171261247629e-16 2.476383528207646e-16 1.993536109229756e-15 -1.181536161436300e-15
-5.729712291237760e-15 2.186003238326658e-15 -2.177331564770309e-15 -9.326320929623454e-16 6.935703441984898e-15 -3.047116938659123e-15
-2.652378255703077e-15 1.402689848403702e-15 -2.252057548051132e-15 9.707011595299824e-17 -1.554347481552388e-15 1.095891259053058e-15
3.778163983193334e-16 5.474483203831067e-15 -1.416594094528904e-15 2.346883445421771e-16 -6.386822972712093e-16 7.217225244470352e-16
3.240396415773443e-15 -7.854588986707418e-15 1.442234779837151e-14 -3.687829042590588e-15 1.979910130657270e-16 8.479631269263659e-16
2.914021146060788e-14 5.570064119415399e-15 -1.346013498645796e-14 -3.125446763124858e-15 2.028899606982146e-14 -1.312365641915184e-15
-2.107215356057636e-15 -1.852599901341527e-15 -4.120581259898461e-15 -2.546298284851387e-16 -8.347626200161868e-15 -9.770941959728401e-16
2.334061216727008e-15 1.698451935294281e-15 5.268948874287613e-15 8.917556739521410e-16 -2.121536024763117e-15 -1.388972979001226e-15
-5.288715347289067e-15 -1.273937894166115e-14 1.884733165650323e-14 2.181307643921893e-17 1.044439853546130e-14 -7.975228570470963e-15
3.448299325063113e-14 2.278641615625699e-14 1.965788462370477e-14 -2.360522711776486e-15 8.048986408075934e-14 -3.065194283350441e-14
-2.044430925215743e-15 -1.065974736190797e-14 -3.370856157290017e-14 1.749972846421977e-15 -1.716958210570044e-14 -2.831713536283991e-15
-1.775150972630942e-15 -8.913067177858460e-15 -1.217213001031588e-16 -1.825089938184573e-17 1.112715240725118e-15 -1.167296565953332e-15
-2.039978159965154e-15 8.278426883130340e-15 -4.773974258793865e-15 1.758609519878500e-15 -8.794021662708440e-15 -2.883710955457400e-15
4.338396485951702e-15 5.652171610975684e-15 6.420465126141541e-15 4.893527655274717e-16 6.973202305919577e-15 -6.457275689283364e-16
-1.139190991885581e-15 -2.446218468107944e-15 -7.927171261247629e-16 2.476383528207646e-16 1.993536109229756e-15 -1.181536161436300e-15
-1.349079723484202e-15 3.319886058929429e-16 -1.079610246554571e-14 -2.105248734383811e-15 -3.040732432554533e-15 2.502188863942856e-15
1.470428421146116e-14 2.412771280514298e-14 -2.973033131492976e-14 1.394403560257104e-15 -2.067816751104510e-14 -3.649130617204514e-15
3.495139738257648e-15 1.741743751951477e-14 5.818902706424291e-14 -5.385614977616206e-15 1.206949790318867e-14 5.764863992739890e-15
-5.729712291237760e-15 2.186003238326658e-15 -2.177331564770309e-15 -9.326320929623454e-16 6.935703441984898e-15 -3.047116938659123e-15
-8.405455527840907e-16 -3.718115240207495e-15 -1.757146465327073e-15 -2.029754001074037e-16 -1.175789437151814e-16 -2.030294367068641e-17
7.072451656561970e-15 2.795534770770181e-15 -1.115995665638447e-14 3.062223260581989e-16 -5.252276416314579e-15 3.022374170978808e-15
-1.055500195278409e-14 1.809417959466397e-14 8.922573495441645e-15 1.294454946278019e-14 -9.105414105432468e-15 1.320561038354471e-14
4.670286327901053e-15 -3.720125703637180e-16 6.913120422176977e-15 7.901750216468580e-17 8.522765798586390e-15 1.874969834880700e-15
-2.652378255703077e-15 1.402689848403702e-15 -2.252057548051132e-15 9.707011595299824e-17 -1.554347481552388e-15 1.095891259053058e-15
-1.814041447003783e-14 -1.061308650058279e-14 1.555862871895185e-14 -4.557107599154298e-15 4.806571505325117e-15 -6.751020287308199e-16
1.094155551308997e-15 1.254206012170415e-15 2.150452028882476e-15 3.137357285445798e-16 1.234069196255667e-15 -6.300183395194668e-16
-9.080254528285008e-15 -6.271520917397247e-15 -8.935825487152570e-15 -1.170526777087842e-16 -1.091021718490026e-14 -1.283430964955437e-15
3.123064534605232e-15 3.343596710146120e-15 4.212788550399773e-15 -6.018890516779657e-16 3.990582498267992e-16 2.881789921025773e-15
1.140446956202197e-14 -3.170263951896433e-16 1.477376083868697e-14 2.964418456962410e-15 -2.651691024912320e-15 5.735218862889368e-15
6.960697404894530e-15 3.432092818848181e-15 4.319311465509642e-15 -3.955747162258102e-16 -6.287159194398619e-16 -1.715228155241320e-15
        </DataArray>
        <DataArray type="Float64" Name="nodal_cauchy_stresses_xyz" NumberOfComponents="6" format="ascii">
-2.675359264409115e-15 -3.583577756754897e-15 -1.912771492916417e-16 -2.649250496449189e-16 5.100573352140268e-16 3.635073368944562e-16
1.300661882825300e-15 2.634783616881332e-16 8.117097951500699e-16 3.552841697072028e-16 -4.159786833412424e-17 8.836258068678634e-16
-8.203867459014037e-16 4.372771443076734e-16 2.152481413357319e-16 2.283760033802180e-16 1.002925560316990e-16 -5.851407593860882e-16
2.409199269986013e-15 3.211113732999287e-15 2.985921085554238e-15 4.474676812127914e-16 3.954584766234924e-16 -6.372866242606440e-16
4.455279826114817e-15 8.705802782737197e-16 7.522990057972838e-16 9.679355273173451e-16 -5.896834236587463e-16 -1.015971239951087e-15
3.241760033299206e-15 5.517525362454813e-15 1.876188339202490e-15 6.917984428701412e-16 -8.691125716758705e-16 -5.206383492514000e-16
3.437127496600318e-15 3.560243235724480e-15 4.249663248579917e-15 2.413351758035220e-16 9.492839971197434e-16 -4.846294919380484e-16
5.347253785753384e-15 5.973769929698755e-15 2.185663627803274e-15 1.806705661189970e-16 -6.536503603681371e-16 3.154443296857244e-16
-7.260347431391466e-16 1.043313973427171e-16 -1.029402679423516e-15 -5.455252109781586e-17 -7.488470436653674e-17 -6.757833963024639e-16
2.852683120704687e-16 1.374426677647295e-15 -2.534196921959868e-16 -8.381830135073868e-17 -3.046650790248392e-16 3.850554211355870e-16
-6.699023764196327e-17 -1.242271440167108e-15 -9.654875600456653e-16 -2.120000393388499e-16 -3.565151273624544e-17 3.607486757427622e-16
-8.481187790141084e-16 1.970984736026950e-16 -1.574431353364226e-15 9.946988542651900e-18 -6.867976037439780e-16 8.782787753416727e-17
-1.877333768627508e-15 -2.571824071653096e-15 -1.172954014749806e-15 -4.417856399315398e-16 1.188760579335410e-16 4.742358942655620e-16
-3.867317387045002e-15 -3.871456078835681e-15 -3.874200896880147e-15 -1.593709040981470e-16 -9.807328467004332e-17 -5.669494126673053e-16
-4.290308458863909e-15 -6.503823603035759e-15 -4.995386083896974e-15 -1.561349231595405e-16 -9.044534131937081e-17 -1.561764897745266e-17
-2.989227492395014e-15 -2.754359259947953e-15 7.563942858495816e-18 -2.523958647637063e-16 1.066205421044136e-17 -6.733933006355585e-16
-2.831602544509854e-15 -2.763740060364071e-15 9.448248650048215e-16 -5.792574103232881e-16 3.059084345361047e-16 -5.685619710897104e-16
-2.236369643453931e-15 -5.088130223567990e-15 2.391206897134065e-15 -6.668199939957413e-16 8.103031056992240e-16 -1.118947738382355e-16
-7.602004277365657e-15 -1.309270905061760e-14 -6.330135298498130e-15 -1.403915337064955e-17 8.559348005577832e-16 -8.979204353487192e-16
-6.338726500930541e-15 -1.062360511726516e-14 -3.540931646989774e-15 -1.105972744051970e-16 1.457740555285091e-15 -7.525219029470577e-16
4.038504878260980e-15 6.235896340590541e-15 1.729599599952394e-15 7.922671142844731e-17 -8.936965876814803e-16 7.392497088514894e-16
9.278716874800641e-15 1.174679524051807e-14 8.355751101992700e-15 -3.809207569414017e-18 -4.996194731672963e-16 8.197351914346767e-16
2.073919093476882e-16 2.906481280537658e-15 -2.441424254832699e-15 4.133566954782378e-16 -3.584221554014772e-16 1.543137741616046e-16
2.849688868488810e-15 6.770201795805528e-15 1.469373104759398e-15 1.805294958016741e-16 -4.912940748240070e-16 5.551711726515668e-16
3.090895261837858e-16 -5.355043191430374e-17 1.013897439686819e-15 3.699116679165983e-17 2.221717036327360e-16 -2.404888471829797e-16
4.489052023772048e-15 5.279607069858460e-15 4.813555683246310e-15 1.142596318876267e-16 -7.574963547157822e-17 3.993831793139926e-16
-3.654321880875720e-15 -6.063937735477143e-15 -2.996273493390457e-15 -1.115931542110632e-16 2.449458525721133e-16 -5.165709048434387e-16
-7.260347431391466e-16 1.043313973427171e-16 -1.029402679423516e-15 -5.455252109781586e-17 -7.488470436653674e-17 -6.757833963024639e-16
-3.284299935607010e-15 -2.120044206112202e-15 -8.831682805265099e-16 -9.457090159523950e-16 1.466138183075076e-15 6.683994837347218e-17
-8.006531684197419e-16 -5.102000973434136e-15 -5.396606151430213e-15 9.287152561788597e-17 -9.703920647752360e-17 -9.921062021567474e-16
-6.699023764196327e-17 -1.242271440167108e-15 -9.654875600456653e-16 -2.120000393388499e-16 -3.565151273624544e-17 3.607486757427622e-16
-1.877333768627508e-15 -2.571824071653096e-15 -1.172954014749806e-15 -4.417856399315398e-16 1.188760579335410e-16 4.742358942655620e-16
8.936137580646844e-16 -1.962688096183805e-15 3.217725035986754e-15 -1.911578130852883e-15 1.340969439222969e-15 -8.167855015795851e-16
4.694979988286714e-15 1.405043922293027e-15 -9.329949483210558e-15 2.355556354293849e-16 -4.040212627934288e-15 2.324903208445232e-15
-4.290308458863909e-15 -6.503823603035759e-15 -4.995386083896974e-15 -1.561349231595405e-16 -9.044534131937081e-17 -1.561764897745266e-17
1.300661882825300e-15 2.634783616881332e-16 8.117097951500699e-16 3.552841697072028e-16 -4.159786833412424e-17 8.836258068678634e-16
1.056448041213911e-15 3.832235723687452e-15 1.997395931032399e-15 -5.736094088422114e-17 1.330386291407626e-16 5.003272433168331e-16
-8.203867459014037e-16 4.372771443076734e-16 2.152481413357319e-16 2.283760033802180e-16 1.002925560316990e-16 -5.851407593860882e-16
3.090895261837858e-16 -5.355043191430374e-17 1.013897439686819e-15 3.699116679165983e-17 2.221717036327360e-16 -2.404888471829797e-16
3.241760033299206e-15 5.517525362454813e-15 1.876188339202490e-15 6.917984428701412e-16 -8.691125716758705e-16 -5.206383492514000e-16
-1.671464479239792e-17 2.368423888842812e-15 1.081295777863232e-14 -1.826269582352271e-16 7.811300186407104e-16 1.369809700930078e-16
3.437127496600318e-15 3.560243235724480e-15 4.249663248579917e-15 2.413351758035220e-16 9.492839971197434e-16 -4.846294919380484e-16
4.489052023772048e-15 5.279607069858460e-15 4.813555683246310e-15 1.142596318876267e-16 -7.574963547157822e-17 3.993831793139926e-16
2.073919093476882e-16 2.906481280537658e-15 -2.441424254832699e-15 4.133566954782378e-16 -3.584221554014772e-16 1.543137741616046e-16
5.615962939938538e-15 6.364020343302854e-15 4.821361528578873e-15 -4.757729914364787e-16 -3.217173643564875e-15 1.166422374399557e-15
8.151163720270460e-15 -3.834404354840471e-16 1.675266478380744e-14 -2.836791571223532e-15 1.523007792813225e-16 6.522793284048987e-16
2.849688868488810e-15 6.770201795805528e-15 1.469373104759398e-15 1.805294958016741e-16 -4.912940748240070e-16 5.551711726515668e-16
-3.654321880875720e-15 -6.063937735477143e-15 -2.996273493390457e-15 -1.115931542110632e-16 2.449458525721133e-16 -5.165709048434387e-16
-8.561593734434704e-15 -4.143031486561651e-15 -2.037400619198960e-14 2.198969660442619e-15 1.372133664715472e-15 -4.944092801941694e-16
-2.236369643453931e-15 -5.088130223567990e-15 2.391206897134065e-15 -6.668199939957413e-16 8.103031056992240e-16 -1.118947738382355e-16
-7.602004277365657e-15 -1.309270905061760e-14 -6.330135298498130e-15 -1.403915337064955e-17 8.559348005577832e-16 -8.979204353487192e-16
2.852683120704687e-16 1.374426677647295e-15 -2.534196921959868e-16 -8.381830135073868e-17 -3.046650790248392e-16 3.850554211355870e-16
-3.867317387045002e-15 -3.871456078835681e-15 -3.874200896880147e-15 -1.593709040981470e-16 -9.807328467004332e-17 -5.669494126673053e-16
9.278716874800641e-15 1.174679524051807e-14 8.355751101992700e-15 -3.809207569414017e-18 -4.996194731672963e-16 8.197351914346767e-16
-8.481187790141084e-16 1.970984736026950e-16 -1.574431353364226e-15 9.946988542651900e-18 -6.867976037439780e-16 8.782787753416727e-17
2.852683120704687e-16 1.374426677647295e-15 -2.534196921959868e-16 -8.381830135073868e-17 -3.046650790248392e-16 3.850554211355870e-16
-4.192472332176872e-15 -5.358946464316682e-15 -2.700842338537795e-15 5.855035750176157e-17 -1.587632024622626e-15 6.189989728688074e-16
-4.221647114672860e-15 -2.552179057945786e-15 -3.589808820362502e-15 -2.301552069871024e-16 2.822376572000719e-16 1.220171737522567e-15
-2.989227492395014e-15 -2.754359259947953e-15 7.563942858495816e-18 -2.523958647637063e-16 1.066205421044136e-17 -6.733933006355585e-16
-3.867317387045002e-15 -3.871456078835681e-15 -3.874200896880147e-15 -1.593709040981470e-16 -9.807328467004332e-17 -5.669494126673053e-16
1.384213359371831e-14 1.112782237368265e-14 1.181029825572992e-14 -3.042882432506234e-16 -4.836276303383544e-16 -1.319406273262556e-15
9.815359744671794e-16 4.517766340473406e-16 3.256286384229423e-15 1.465015633552635e-16 2.721282285677008e-15 3.893808832271909e-16
3.090895261837858e-16 -5.355043191430374e-17 1.013897439686819e-15 3.699116679165983e-17 2.221717036327360e-16 -2.404888471829797e-16
-8.203867459014037e-16 4.372771443076734e-16 2.152481413357319e-16 2.283760033802180e-16 1.002925560316990e-16 -5.851407593860882e-16
1.357236039673939e-15 2.754078538261064e-15 1.172636805577269e-15 1.816838062987937e-16 7.622086489144953e-16 -6.418524826000445e-16
2.409199269986013e-15 3.211113732999287e-15 2.985921085554238e-15 4.474676812127914e-16 3.954584766234924e-16 -6.372866242606440e-16
4.489052023772048e-15 5.279607069858460e-15 4.813555683246310e-15 1.142596318876267e-16 -7.574963547157822e-17 3.993831793139926e-16
3.437127496600318e-15 3.560243235724480e-15 4.249663248579917e-15 2.413351758035220e-16 9.492839971197434e-16 -4.846294919380484e-16
-4.060529017089199e-15 -9.412458600839869e-16 -3.752590011203080e-15 7.466931996384480e-17 -1.195651908886452e-15 8.429932761946604e-16
5.347253785753384e-15 5.973769929698755e-15 2.185663627803274e-15 1.806705661189970e-16 -6.536503603681371e-16 3.154443296857244e-16
4.038504878260980e-15 6.235896340590541e-15 1.729599599952394e-15 7.922671142844731e-17 -8.936965876814803e-16 7.392497088514894e-16
9.278716874800641e-15 1.174679524051807e-14 8.355751101992700e-15 -3.809207569414017e-18 -4.996194731672963e-16 8.197351914346767e-16
8.563578369975824e-15 8.733218505007272e-15 9.401827612894700e-15 -4.629915782138207e-16 3.069678844821524e-16 2.216761477712136e-15
1.684651438720160e-15 3.416446797495060e-15 9.767867263925734e-16 -2.280556319994559e-16 -2.539500543989677e-15 6.979841599184735e-16
-6.338726500930541e-15 -1.062360511726516e-14 -3.540931646989774e-15 -1.105972744051970e-16 1.457740555285091e-15 -7.525219029470577e-16
-7.602004277365657e-15 -1.309270905061760e-14 -6.330135298498130e-15 -1.403915337064955e-17 8.559348005577832e-16 -8.979204353487192e-16
-3.654321880875720e-15 -6.063937735477143e-15 -2.996273493390457e-15 -1.115931542110632e-16 2.449458525721133e-16 -5.165709048434387e-16
-3.402143024210995e-15 -4.407548775151274e-15 -3.135624665933447e-15 1.904910406313578e-16 1.533489314792120e-15 -9.088739703356179e-16
-6.699023764196327e-17 -1.242271440167108e-15 -9.654875600456653e-16 -2.120000393388499e-16 -3.565151273624544e-17 3.607486757427622e-16
-4.290308458863909e-15 -6.503823603035759e-15 -4.995386083896974e-15 -1.561349231595405e-16 -9.044534131937081e-17 -1.561764897745266e-17
2.849688868488810e-15 6.770201795805528e-15 1.469373104759398e-15 1.805294958016741e-16 -4.912940748240070e-16 5.551711726515668e-16
3.090895261837858e-16 -5.355043191430374e-17 1.013897439686819e-15 3.699116679165983e-17 2.221717036327360e-16 -2.404888471829797e-16
1.056448041213911e-15 3.832235723687452e-15 1.997395931032399e-15 -5.736094088422114e-17 1.330386291407626e-16 5.003272433168331e-16
8.338244366562546e-15 1.891254614015845e-14 1.693028439660148e-14 -1.475122611133717e-15 1.080185410652592e-15 3.279471183117886e-15
1.357236039673939e-15 2.754078538261064e-15 1.172636805577269e-15 1.816838062987937e-16 7.622086489144953e-16 -6.418524826000445e-16
4.489052023772048e-15 5.279607069858460e-15 4.813555683246310e-15 1.142596318876267e-16 -7.574963547157822e-17 3.993831793139926e-16
-1.671464479239792e-17 2.368423888842812e-15 1.081295777863232e-14 -1.826269582352271e-16 7.811300186407104e-16 1.369809700930078e-16
-2.156659127599182e-14 -1.577633899179565e-14 4.355749638615585e-15 -3.505467383964843e-15 3.697362696403926e-15 -5.193092528698561e-16
-4.060529017089199e-15 -9.412458600839869e-16 -3.752590011203080e-15 7.466931996384480e-17 -1.195651908886452e-15 8.429932761946604e-16
2.852683120704687e-16 1.374426677647295e-15 -2.534196921959868e-16 -8.381830135073868e-17 -3.046650790248392e-16 3.850554211355870e-16
-8.006531684197419e-16 -5.102000973434136e-15 -5.396606151430213e-15 9.287152561788597e-17 -9.703920647752360e-17 -9.921062021567474e-16
-4.192472332176872e-15 -5.358946464316682e-15 -2.700842338537795e-15 5.855035750176157e-17 -1.587632024622626e-15 6.189989728688074e-16
-6.699023764196327e-17 -1.242271440167108e-15 -9.654875600456653e-16 -2.120000393388499e-16 -3.565151273624544e-17 3.607486757427622e-16
-3.867317387045002e-15 -3.871456078835681e-15 -3.874200896880147e-15 -1.593709040981470e-16 -9.807328467004332e-17 -5.669494126673053e-16
4.694979988286714e-15 1.405043922293027e-15 -9.329949483210558e-15 2.355556354293849e-16 -4.040212627934288e-15 2.324903208445232e-15
1.384213359371831e-14 1.112782237368265e-14 1.181029825572992e-14 -3.042882432506234e-16 -4.836276303383544e-16 -1.319406273262556e-15
-4.290308458863909e-15 -6.503823603035759e-15 -4.995386083896974e-15 -1.561349231595405e-16 -9.044534131937081e-17 -1.561764897745266e-17
-3.654321880875720e-15 -6.063937735477143e-15 -2.996273493390457e-15 -1.115931542110632e-16 2.449458525721133e-16 -5.165709048434387e-16
-8.561593734434704e-15 -4.143031486561651e-15 -2.037400619198960e-14 2.198969660442619e-15 1.372133664715472e-15 -4.944092801941694e-16
-7.243248551436001e-16 7.212909793391398e-15 -2.827398777319480e-15 1.352776553752691e-15 -6.764632048237249e-15 -2.218239196505696e-15
-3.402143024210995e-15 -4.407548775151274e-15 -3.135624665933447e-15 1.904910406313578e-16 1.533489314792120e-15 -9.088739703356179e-16
2.849688868488810e-15 6.770201795805528e-15 1.469373104759398e-15 1.805294958016741e-16 -4.912940748240070e-16 5.551711726515668e-16
8.151163720270460e-15 -3.834404354840471e-16 1.675266478380744e-14 -2.836791571223532e-15 1.523007792813225e-16 6.522793284048987e-16
9.278716874800641e-15 1.174679524051807e-14 8.355751101992700e-15 -3.809207569414017e-18 -4.996194731672963e-16 8.197351914346767e-16
8.563578369975824e-15 8.733218505007272e-15 9.401827612894700e-15 -4.629915782138207e-16 3.069678844821524e-16 2.216761477712136e-15
-8.203867459014037e-16 4.372771443076734e-16 2.152481413357319e-16 2.283760033802180e-16 1.002925560316990e-16 -5.851407593860882e-16
3.437127496600318e-15 3.560243235724480e-15 4.249663248579917e-15 2.413351758035220e-16 9.492839971197434e-16 -4.846294919380484e-16
-7.602004277365657e-15 -1.309270905061760e-14 -6.330135298498130e-15 -1.403915337064955e-17 8.559348005577832e-16 -8.979204353487192e-16
2.409199269986013e-15 3.211113732999287e-15 2.985921085554238e-15 4.474676812127914e-16 3.954584766234924e-16 -6.372866242606440e-16
-8.203867459014037e-16 4.372771443076734e-16 2.152481413357319e-16 2.283760033802180e-16 1.002925560316990e-16 -5.851407593860882e-16
-4.995882688072903e-15 4.872417475482497e-15 -1.576986782696234e-16 1.119054818208035e-16 4.268207216345919e-15 2.327076374898260e-15
-2.859987658274536e-15 -2.827698579905365e-15 -2.366569079286832e-15 9.043898458504500e-16 -1.826168769034763e-15 -1.257414645229944e-15
5.347253785753384e-15 5.973769929698755e-15 2.185663627803274e-15 1.806705661189970e-16 -6.536503603681371e-16 3.154443296857244e-16
3.437127496600318e-15 3.560243235724480e-15 4.249663248579917e-15 2.413351758035220e-16 9.492839971197434e-16 -4.846294919380484e-16
-2.099688863685471e-14 -1.883632432078721e-14 -2.088578937444514e-14 -9.004052131444736e-17 -8.392474757615578e-15 -9.872545884272559e-16
-2.496316430274928e-14 -1.782982373526769e-14 -2.968764691467053e-14 -1.264709988639457e-15 -8.458351822980475e-15 -1.710225295534311e-15
-6.699023764196327e-17 -1.242271440167108e-15 -9.654875600456653e-16 -2.120000393388499e-16 -3.565151273624544e-17 3.607486757427622e-16
-4.192472332176872e-15 -5.358946464316682e-15 -2.700842338537795e-15 5.855035750176157e-17 -1.587632024622626e-15 6.189989728688074e-16
4.439844718960849e-15 5.794858148938184e-16 2.773057575604853e-15 -3.041855714168452e-16 -1.591201571920249e-15 -4.902920408117550e-16
-4.221647114672860e-15 -2.552179057945786e-15 -3.589808820362502e-15 -2.301552069871024e-16 2.822376572000719e-16 1.220171737522567e-15
-4.290308458863909e-15 -6.503823603035759e-15 -4.995386083896974e-15 -1.561349231595405e-16 -9.044534131937081e-17 -1.561764897745266e-17
1.384213359371831e-14 1.112782237368265e-14 1.181029825572992e-14 -3.042882432506234e-16 -4.836276303383544e-16 -1.319406273262556e-15
1.006063997129753e-14 6.181948511093858e-15 1.178589696689439e-14 6.078269397283428e-17 6.555973691220294e-15 1.442284488369767e-15
9.815359744671794e-16 4.517766340473406e-16 3.256286384229423e-15 1.465015633552635e-16 2.721282285677008e-15 3.893808832271909e-16
-6.338726500930541e-15 -1.062360511726516e-14 -3.540931646989774e-15 -1.105972744051970e-16 1.457740555285091e-15 -7.525219029470577e-16
-7.602004277365657e-15 -1.309270905061760e-14 -6.330135298498130e-15 -1.403915337064955e-17 8.559348005577832e-16 -8.979204353487192e-16
1.280513184865646e-14 1.381572809867491e-14 1.440672311034094e-14 3.764252042518993e-16 5.364001773784287e-15 -4.967135145602624e-16
1.123723819547977e-14 7.274780564810746e-15 1.709270088978582e-14 1.131295349681401e-15 6.825294296124353e-15 -5.368331338338605e-16
1.684651438720160e-15 3.416446797495060e-15 9.767867263925734e-16 -2.280556319994559e-16 -2.539500543989677e-15 6.979841599184735e-16
8.563578369975824e-15 8.733218505007272e-15 9.401827612894700e-15 -4.629915782138207e-16 3.069678844821524e-16 2.216761477712136e-15
2.849688868488810e-15 6.770201795805528e-15 1.469373104759398e-15 1.805294958016741e-16 -4.912940748240070e-16 5.551711726515668e-16
-6.282702110792969e-15 -6.086844068703656e-15 -7.831445113747438e-15 -1.958690988347216e-16 -6.421250923201437e-15 -7.516109199791048e-16
1.357236039673939e-15 2.754078538261064e-15 1.172636805577269e-15 1.816838062987937e-16 7.622086489144953e-16 -6.418524826000445e-16
-4.060529017089199e-15 -9.412458600839869e-16 -3.752590011203080e-15 7.466931996384480e-17 -1.195651908886452e-15 8.429932761946604e-16
-3.402143024210995e-15 -4.407548775151274e-15 -3.135624665933447e-15 1.904910406313578e-16 1.533489314792120e-15 -9.088739703356179e-16
-6.699023764196327e-17 -1.242271440167108e-15 -9.654875600456653e-16 -2.120000393388499e-16 -3.565151273624544e-17 3.607486757427622e-16
-8.006531684197419e-16 -5.102000973434136e-15 -5.396606151430213e-15 9.287152561788597e-17 -9.703920647752360e-17 -9.921062021567474e-16
-3.945050903060155e-15 -2.398553045747582e-14 -3.272956049860506e-14 -5.079966619705114e-16 -1.185338183447590e-14 -8.549852975753410e-15
4.439844718960849e-15 5.794858148938184e-16 2.773057575604853e-15 -3.041855714168452e-16 -1.591201571920249e-15 -4.902920408117550e-16
-4.290308458863909e-15 -6.503823603035759e-15 -4.995386083896974e-15 -1.561349231595405e-16 -9.044534131937081e-17 -1.561764897745266e-17
4.694979988286714e-15 1.405043922293027e-15 -9.329949483210558e-15 2.355556354293849e-16 -4.040212627934288e-15 2.324903208445232e-15
1.377931846313096e-15 2.341576380588853e-14 1.636068219110216e-14 9.957345740600144e-15 -7.004164696486498e-15 1.015816183349593e-14
1.006063997129753e-14 6.181948511093858e-15 1.178589696689439e-14 6.078269397283428e-17 6.555973691220294e-15 1.442284488369767e-15
-8.203867459014037e-16 4.372771443076734e-16 2.152481413357319e-16 2.283760033802180e-16 1.002925560316990e-16 -5.851407593860882e-16
8.338244366562546e-15 1.891254614015845e-14 1.693028439660148e-14 -1.475122611133717e-15 1.080185410652592e-15 3.279471183117886e-15
-4.995882688072903e-15 4.872417475482497e-15 -1.576986782696234e-16 1.119054818208035e-16 4.268207216345919e-15 2.327076374898260e-15
1.357236039673939e-15 2.754078538261064e-15 1.172636805577269e-15 1.816838062987937e-16 7.622086489144953e-16 -6.418524826000445e-16
3.437127496600318e-15 3.560243235724480e-15 4.249663248579917e-15 2.413351758035220e-16 9.492839971197434e-16 -4.846294919380484e-16
-2.156659127599182e-14 -1.577633899179565e-14 4.355749638615585e-15 -3.505467383964843e-15 3.697362696403926e-15 -5.193092528698561e-16
-2.099688863685471e-14 -1.883632432078721e-14 -2.088578937444514e-14 -9.004052131444736e-17 -8.392474757615578e-15 -9.872545884272559e-16
-4.060529017089199e-15 -9.412458600839869e-16 -3.752590011203080e-15 7.466931996384480e-17 -1.195651908886452e-15 8.429932761946604e-16
2.849688868488810e-15 6.770201795805528e-15 1.469373104759398e-15 1.805294958016741e-16 -4.912940748240070e-16 5.551711726515668e-16
8.151163720270460e-15 -3.834404354840471e-16 1.675266478380744e-14 -2.836791571223532e-15 1.523007792813225e-16 6.522793284048987e-16
3.467524377367837e-14 1.654436120353029e-14 1.905746506704599e-15 -2.404189817788351e-15 1.560692005370879e-14 -1.009512032242441e-15
-6.282702110792969e-15 -6.086844068703656e-15 -7.831445113747438e-15 -1.958690988347216e-16 -6.421250923201437e-15 -7.516109199791048e-16
-3.402143024210995e-15 -4.407548775151274e-15 -3.135624665933447e-15 1.904910406313578e-16 1.533489314792120e-15 -9.088739703356179e-16
-7.243248551436001e-16 7.212909793391398e-15 -2.827398777319480e-15 1.352776553752691e-15 -6.764632048237249e-15 -2.218239196505696e-15
-7.602004277365657e-15 -1.309270905061760e-14 -6.330135298498130e-15 -1.403915337064955e-17 8.559348005577832e-16 -8.979204353487192e-16
1.280513184865646e-14 1.381572809867491e-14 1.440672311034094e-14 3.764252042518993e-16 5.364001773784287e-15 -4.967135145602624e-16
-4.192472332176872e-15 -5.358946464316682e-15 -2.700842338537795e-15 5.855035750176157e-17 -1.587632024622626e-15 6.189989728688074e-16
1.384213359371831e-14 1.112782237368265e-14 1.181029825572992e-14 -3.042882432506234e-16 -4.836276303383544e-16 -1.319406273262556e-15
8.563578369975824e-15 8.733218505007272e-15 9.401827612894700e-15 -4.629915782138207e-16 3.069678844821524e-16 2.216761477712136e-15
-2.831602544509854e-15 -2.763740060364071e-15 9.448248650048215e-16 -5.792574103232881e-16 3.059084345361047e-16 -5.685619710897104e-16
-2.236369643453931e-15 -5.088130223567990e-15 2.391206897134065e-15 -6.668199939957413e-16 8.103031056992240e-16 -1.118947738382355e-16
-7.602004277365657e-15 -1.309270905061760e-14 -6.330135298498130e-15 -1.403915337064955e-17 8.559348005577832e-16 -8.979204353487192e-16
-6.338726500930541e-15 -1.062360511726516e-14 -3.540931646989774e-15 -1.105972744051970e-16 1.457740555285091e-15 -7.525219029470577e-16
-4.380292603429828e-15 -5.556416583306560e-15 -2.164684423345378e-16 -3.694526668427568e-15 2.972022069651424e-15 -1.058937851447513e-15
8.690678608068781e-15 1.082031555945144e-14 1.395664134117004e-14 -3.356107013887138e-15 -2.037828136795565e-15 -5.721998912600789e-16
-7.853057623720727e-15 -6.559928139584442e-15 -1.511999819453722e-14 -1.619422103372160e-15 -2.339024948118866e-15 1.924760664571411e-15
-1.157312367946010e-14 -1.461798632886652e-14 -8.084882124826923e-15 -8.580874893953740e-16 2.869253011900476e-15 -1.933191671968830e-15
2.073919093476882e-16 2.906481280537658e-15 -2.441424254832699e-15 4.133566954782378e-16 -3.584221554014772e-16 1.543137741616046e-16
9.278716874800641e-15 1.174679524051807e-14 8.355751101992700e-15 -3.809207569414017e-18 -4.996194731672963e-16 8.197351914346767e-16
2.849688868488810e-15 6.770201795805528e-15 1.469373104759398e-15 1.805294958016741e-16 -4.912940748240070e-16 5.551711726515668e-16
4.038504878260980e-15 6.235896340590541e-15 1.729599599952394e-15 7.922671142844731e-17 -8.936965876814803e-16 7.392497088514894e-16
-1.114354757182179e-15 7.916772933928694e-16 -3.934256576783395e-15 1.647481664625958e-15 -1.354878869064059e-15 1.179735589742451e-16
1.431143341143677e-14 8.999344564372602e-15 3.017331000972588e-14 1.246925473328093e-15 3.628413532369384e-15 5.406668918672991e-16
7.161659797275912e-15 6.672729580789192e-15 9.419265687707126e-15 6.859659030401069e-16 -1.631950788279323e-15 -1.068440753077859e-15
1.272548364896147e-14 1.550567544374507e-14 1.742653686551450e-14 1.705167442717821e-15 -2.068474191221949e-15 1.694938071131258e-15
4.455279826114817e-15 8.705802782737197e-16 7.522990057972838e-16 9.679355273173451e-16 -5.896834236587463e-16 -1.015971239951087e-15
3.241760033299206e-15 5.517525362454813e-15 1.876188339202490e-15 6.917984428701412e-16 -8.691125716758705e-16 -5.206383492514000e-16
3.437127496600318e-15 3.560243235724480e-15 4.249663248579917e-15 2.413351758035220e-16 9.492839971197434e-16 -4.846294919380484e-16
5.347253785753384e-15 5.973769929698755e-15 2.185663627803274e-15 1.806705661189970e-16 -6.536503603681371e-16 3.154443296857244e-16
-2.989227492395014e-15 -2.754359259947953e-15 7.563942858495816e-18 -2.523958647637063e-16 1.066205421044136e-17 -6.733933006355585e-16
-3.867317387045002e-15 -3.871456078835681e-15 -3.874200896880147e-15 -1.593709040981470e-16 -9.807328467004332e-17 -5.669494126673053e-16
-1.877333768627508e-15 -2.571824071653096e-15 -1.172954014749806e-15 -4.417856399315398e-16 1.188760579335410e-16 4.742358942655620e-16
-4.290308458863909e-15 -6.503823603035759e-15 -4.995386083896974e-15 -1.561349231595405e-16 -9.044534131937081e-17 -1.561764897745266e-17
-3.654321880875720e-15 -6.063937735477143e-15 -2.996273493390457e-15 -1.115931542110632e-16 2.449458525721133e-16 -5.165709048434387e-16
-1.184236955173806e-14 -1.013960864070194e-14 -2.036281665744394e-14 -5.627960045696416e-16 4.188778963561084e-16 -2.888995339736900e-16
4.489052023772048e-15 5.279607069858460e-15 4.813555683246310e-15 1.142596318876267e-16 -7.574963547157822e-17 3.993831793139926e-16
2.073919093476882e-16 2.906481280537658e-15 -2.441424254832699e-15 4.133566954782378e-16 -3.584221554014772e-16 1.543137741616046e-16
5.615962939938538e-15 6.364020343302854e-15 4.821361528578873e-15 -4.757729914364787e-16 -3.217173643564875e-15 1.166422374399557e-15
8.151163720270460e-15 -3.834404354840471e-16 1.675266478380744e-14 -2.836791571223532e-15 1.523007792813225e-16 6.522793284048987e-16
2.849688868488810e-15 6.770201795805528e-15 1.469373104759398e-15 1.805294958016741e-16 -4.912940748240070e-16 5.551711726515668e-16
-1.114354757182179e-15 7.916772933928694e-16 -3.934256576783395e-15 1.647481664625958e-15 -1.354878869064059e-15 1.179735589742451e-16
1.533755330483625e-14 5.707147370864637e-15 1.769471445754302e-14 1.744339445326617e-15 7.600403637523204e-15 2.390766442022578e-15
-3.595605632018653e-15 -9.326885319997197e-15 1.497058437089839e-14 1.677928956862909e-17 8.034152719585607e-15 -6.134791208054560e-15
7.161659797275912e-15 6.672729580789192e-15 9.419265687707126e-15 6.859659030401069e-16 -1.631950788279323e-15 -1.068440753077859e-15
-2.236369643453931e-15 -5.088130223567990e-15 2.391206897134065e-15 -6.668199939957413e-16 8.103031056992240e-16 -1.118947738382355e-16
-8.561593734434704e-15 -4.143031486561651e-15 -2.037400619198960e-14 2.198969660442619e-15 1.372133664715472e-15 -4.944092801941694e-16
-7.602004277365657e-15 -1.309270905061760e-14 -6.330135298498130e-15 -1.403915337064955e-17 8.559348005577832e-16 -8.979204353487192e-16
-3.654321880875720e-15 -6.063937735477143e-15 -2.996273493390457e-15 -1.115931542110632e-16 2.449458525721133e-16 -5.165709048434387e-16
8.690678608068781e-15 1.082031555945144e-14 1.395664134117004e-14 -3.356107013887138e-15 -2.037828136795565e-15 -5.721998912600789e-16
-1.167900784206301e-14 -6.399048650900149e-15 -3.979457226928564e-14 4.438695133165036e-16 -5.390955954731281e-15 8.440765178978138e-16
-7.853057623720727e-15 -6.559928139584442e-15 -1.511999819453722e-14 -1.619422103372160e-15 -2.339024948118866e-15 1.924760664571411e-15
-1.184236955173806e-14 -1.013960864070194e-14 -2.036281665744394e-14 -5.627960045696416e-16 4.188778963561084e-16 -2.888995339736900e-16
-1.877333768627508e-15 -2.571824071653096e-15 -1.172954014749806e-15 -4.417856399315398e-16 1.188760579335410e-16 4.742358942655620e-16
8.936137580646844e-16 -1.962688096183805e-15 3.217725035986754e-15 -1.911578130852883e-15 1.340969439222969e-15 -8.167855015795851e-16
4.694979988286714e-15 1.405043922293027e-15 -9.329949483210558e-15 2.355556354293849e-16 -4.040212627934288e-15 2.324903208445232e-15
-4.290308458863909e-15 -6.503823603035759e-15 -4.995386083896974e-15 -1.561349231595405e-16 -9.044534131937081e-17 -1.561764897745266e-17
4.489052023772048e-15 5.279607069858460e-15 4.813555683246310e-15 1.142596318876267e-16 -7.574963547157822e-17 3.993831793139926e-16
-1.671464479239792e-17 2.368423888842812e-15 1.081295777863232e-14 -1.826269582352271e-16 7.811300186407104e-16 1.369809700930078e-16
3.241760033299206e-15 5.517525362454813e-15 1.876188339202490e-15 6.917984428701412e-16 -8.691125716758705e-16 -5.206383492514000e-16
3.437127496600318e-15 3.560243235724480e-15 4.249663248579917e-15 2.413351758035220e-16 9.492839971197434e-16 -4.846294919380484e-16
9.278716874800641e-15 1.174679524051807e-14 8.355751101992700e-15 -3.809207569414017e-18 -4.996194731672963e-16 8.197351914346767e-16
1.431143341143677e-14 8.999344564372602e-15 3.017331000972588e-14 1.246925473328093e-15 3.628413532369384e-15 5.406668918672991e-16
-3.867317387045002e-15 -3.871456078835681e-15 -3.874200896880147e-15 -1.593709040981470e-16 -9.807328467004332e-17 -5.669494126673053e-16
4.038504878260980e-15 6.235896340590541e-15 1.729599599952394e-15 7.922671142844731e-17 -8.936965876814803e-16 7.392497088514894e-16
9.278716874800641e-15 1.174679524051807e-14 8.355751101992700e-15 -3.809207569414017e-18 -4.996194731672963e-16 8.197351914346767e-16
8.563578369975824e-15 8.733218505007272e-15 9.401827612894700e-15 -4.629915782138207e-16 3.069678844821524e-16 2.216761477712136e-15
1.684651438720160e-15 3.416446797495060e-15 9.767867263925734e-16 -2.280556319994559e-16 -2.539500543989677e-15 6.979841599184735e-16
1.272548364896147e-14 1.550567544374507e-14 1.742653686551450e-14 1.705167442717821e-15 -2.068474191221949e-15 1.694938071131258e-15
1.431143341143677e-14 8.999344564372602e-15 3.017331000972588e-14 1.246925473328093e-15 3.628413532369384e-15 5.406668918672991e-16
2.369259428166265e-14 1.467605892996140e-14 2.628435680217419e-14 2.280321889971085e-15 -2.039762326855637e-15 4.411706817607220e-15
9.287624456853814e-16 1.299093601898729e-15 -1.360743206550529e-14 -7.230014326117462e-16 -6.733641386018645e-15 2.957094582070775e-15
-3.654321880875720e-15 -6.063937735477143e-15 -2.996273493390457e-15 -1.115931542110632e-16 2.449458525721133e-16 -5.165709048434387e-16
-7.602004277365657e-15 -1.309270905061760e-14 -6.330135298498130e-15 -1.403915337064955e-17 8.559348005577832e-16 -8.979204353487192e-16
-3.402143024210995e-15 -4.407548775151274e-15 -3.135624665933447e-15 1.904910406313578e-16 1.533489314792120e-15 -9.088739703356179e-16
-6.338726500930541e-15 -1.062360511726516e-14 -3.540931646989774e-15 -1.105972744051970e-16 1.457740555285091e-15 -7.525219029470577e-16
-1.184236955173806e-14 -1.013960864070194e-14 -2.036281665744394e-14 -5.627960045696416e-16 4.188778963561084e-16 -2.888995339736900e-16
-7.853057623720727e-15 -6.559928139584442e-15 -1.511999819453722e-14 -1.619422103372160e-15 -2.339024948118866e-15 1.924760664571411e-15
-7.708071349614475e-15 -1.619059403795684e-15 -4.975470790793379e-15 -7.174093022787267e-16 5.335156493834540e-15 -2.343936106660872e-15
-1.157312367946010e-14 -1.461798632886652e-14 -8.084882124826923e-15 -8.580874893953740e-16 2.869253011900476e-15 -1.933191671968830e-15
-2.989227492395014e-15 -2.754359259947953e-15 7.563942858495816e-18 -2.523958647637063e-16 1.066205421044136e-17 -6.733933006355585e-16
-3.867317387045002e-15 -3.871456078835681e-15 -3.874200896880147e-15 -1.593709040981470e-16 -9.807328467004332e-17 -5.669494126673053e-16
1.384213359371831e-14 1.112782237368265e-14 1.181029825572992e-14 -3.042882432506234e-16 -4.836276303383544e-16 -1.319406273262556e-15
9.815359744671794e-16 4.517766340473406e-16 3.256286384229423e-15 1.465015633552635e-16 2.721282285677008e-15 3.893808832271909e-16
5.347253785753384e-15 5.973769929698755e-15 2.185663627803274e-15 1.806705661189970e-16 -6.536503603681371e-16 3.154443296857244e-16
3.437127496600318e-15 3.560243235724480e-15 4.249663248579917e-15 2.413351758035220e-16 9.492839971197434e-16 -4.846294919380484e-16
4.489052023772048e-15 5.279607069858460e-15 4.813555683246310e-15 1.142596318876267e-16 -7.574963547157822e-17 3.993831793139926e-16
-4.060529017089199e-15 -9.412458600839869e-16 -3.752590011203080e-15 7.466931996384480e-17 -1.195651908886452e-15 8.429932761946604e-16
2.849688868488810e-15 6.770201795805528e-15 1.469373104759398e-15 1.805294958016741e-16 -4.912940748240070e-16 5.551711726515668e-16
7.161659797275912e-15 6.672729580789192e-15 9.419265687707126e-15 6.859659030401069e-16 -1.631950788279323e-15 -1.068440753077859e-15
-4.290308458863909e-15 -6.503823603035759e-15 -4.995386083896974e-15 -1.561349231595405e-16 -9.044534131937081e-17 -1.561764897745266e-17
-3.654321880875720e-15 -6.063937735477143e-15 -2.996273493390457e-15 -1.115931542110632e-16 2.449458525721133e-16 -5.165709048434387e-16
-8.561593734434704e-15 -4.143031486561651e-15 -2.037400619198960e-14 2.198969660442619e-15 1.372133664715472e-15 -4.944092801941694e-16
-7.243248551436001e-16 7.212909793391398e-15 -2.827398777319480e-15 1.352776553752691e-15 -6.764632048237249e-15 -2.218239196505696e-15
-3.402143024210995e-15 -4.407548775151274e-15 -3.135624665933447e-15 1.904910406313578e-16 1.533489314792120e-15 -9.088739703356179e-16
-1.184236955173806e-14 -1.013960864070194e-14 -2.036281665744394e-14 -5.627960045696416e-16 4.188778963561084e-16 -2.888995339736900e-16
-1.167900784206301e-14 -6.399048650900149e-15 -3.979457226928564e-14 4.438695133165036e-16 -5.390955954731281e-15 8.440765178978138e-16
1.656194883670520e-14 2.381074006261431e-14 -1.761852464513359e-14 1.072618123274690e-15 -1.590628270080386e-14 -2.807023551695816e-15
-7.708071349614475e-15 -1.619059403795684e-15 -4.975470790793379e-15 -7.174093022787267e-16 5.335156493834540e-15 -2.343936106660872e-15
9.278716874800641e-15 1.174679524051807e-14 8.355751101992700e-15 -3.809207569414017e-18 -4.996194731672963e-16 8.197351914346767e-16
8.151163720270460e-15 -3.834404354840471e-16 1.675266478380744e-14 -2.836791571223532e-15 1.523007792813225e-16 6.522793284048987e-16
8.563578369975824e-15 8.733218505007272e-15 9.401827612894700e-15 -4.629915782138207e-16 3.069678844821524e-16 2.216761477712136e-15
2.849688868488810e-15 6.770201795805528e-15 1.469373104759398e-15 1.805294958016741e-16 -4.912940748240070e-16 5.551711726515668e-16
1.431143341143677e-14 8.999344564372602e-15 3.017331000972588e-14 1.246925473328093e-15 3.628413532369384e-15 5.406668918672991e-16
-3.595605632018653e-15 -9.326885319997197e-15 1.497058437089839e-14 1.677928956862909e-17 8.034152719585607e-15 -6.134791208054560e-15
2.369259428166265e-14 1.467605892996140e-14 2.628435680217419e-14 2.280321889971085e-15 -2.039762326855637e-15 4.411706817607220e-15
7.161659797275912e-15 6.672729580789192e-15 9.419265687707126e-15 6.859659030401069e-16 -1.631950788279323e-15 -1.068440753077859e-15
4.489052023772048e-15 5.279607069858460e-15 4.813555683246310e-15 1.142596318876267e-16 -7.574963547157822e-17 3.993831793139926e-16
-1.671464479239792e-17 2.368423888842812e-15 1.081295777863232e-14 -1.826269582352271e-16 7.811300186407104e-16 1.369809700930078e-16
-2.156659127599182e-14 -1.577633899179565e-14 4.355749638615585e-15 -3.505467383964843e-15 3.697362696403926e-15 -5.193092528698561e-16
-4.060529017089199e-15 -9.412458600839869e-16 -3.752590011203080e-15 7.466931996384480e-17 -1.195651908886452e-15 8.429932761946604e-16
-4.290308458863909e-15 -6.503823603035759e-15 -4.995386083896974e-15 -1.561349231595405e-16 -9.044534131937081e-17 -1.561764897745266e-17
4.694979988286714e-15 1.405043922293027e-15 -9.329949483210558e-15 2.355556354293849e-16 -4.040212627934288e-15 2.324903208445232e-15
-3.867317387045002e-15 -3.871456078835681e-15 -3.874200896880147e-15 -1.593709040981470e-16 -9.807328467004332e-17 -5.669494126673053e-16
1.384213359371831e-14 1.112782237368265e-14 1.181029825572992e-14 -3.042882432506234e-16 -4.836276303383544e-16 -1.319406273262556e-15
-7.602004277365657e-15 -1.309270905061760e-14 -6.330135298498130e-15 -1.403915337064955e-17 8.559348005577832e-16 -8.979204353487192e-16
-7.853057623720727e-15 -6.559928139584442e-15 -1.511999819453722e-14 -1.619422103372160e-15 -2.339024948118866e-15 1.924760664571411e-15
3.437127496600318e-15 3.560243235724480e-15 4.249663248579917e-15 2.413351758035220e-16 9.492839971197434e-16 -4.846294919380484e-16
-6.338726500930541e-15 -1.062360511726516e-14 -3.540931646989774e-15 -1.105972744051970e-16 1.457740555285091e-15 -7.525219029470577e-16
-7.602004277365657e-15 -1.309270905061760e-14 -6.330135298498130e-15 -1.403915337064955e-17 8.559348005577832e-16 -8.979204353487192e-16
1.280513184865646e-14 1.381572809867491e-14 1.440672311034094e-14 3.764252042518993e-16 5.364001773784287e-15 -4.967135145602624e-16
1.123723819547977e-14 7.274780564810746e-15 1.709270088978582e-14 1.131295349681401e-15 6.825294296124353e-15 -5.368331338338605e-16
-1.157312367946010e-14 -1.461798632886652e-14 -8.084882124826923e-15 -8.580874893953740e-16 2.869253011900476e-15 -1.933191671968830e-15
-7.853057623720727e-15 -6.559928139584442e-15 -1.511999819453722e-14 -1.619422103372160e-15 -2.339024948118866e-15 1.924760664571411e-15
4.832410998443779e-14 5.903356981617404e-14 9.039633100442641e-14 -4.142780752012468e-15 9.284229156299020e-15 4.434510763646043e-15
8.539827090685348e-14 8.710636767300162e-14 1.778797427509231e-13 4.291150137578330e-15 1.559594910825686e-14 8.354636190402029e-16
2.849688868488810e-15 6.770201795805528e-15 1.469373104759398e-15 1.805294958016741e-16 -4.912940748240070e-16 5.551711726515668e-16
8.563578369975824e-15 8.733218505007272e-15 9.401827612894700e-15 -4.629915782138207e-16 3.069678844821524e-16 2.216761477712136e-15
-6.282702110792969e-15 -6.086844068703656e-15 -7.831445113747438e-15 -1.958690988347216e-16 -6.421250923201437e-15 -7.516109199791048e-16
1.684651438720160e-15 3.416446797495060e-15 9.767867263925734e-16 -2.280556319994559e-16 -2.539500543989677e-15 6.979841599184735e-16
7.161659797275912e-15 6.672729580789192e-15 9.419265687707126e-15 6.859659030401069e-16 -1.631950788279323e-15 -1.068440753077859e-15
2.369259428166265e-14 1.467605892996140e-14 2.628435680217419e-14 2.280321889971085e-15 -2.039762326855637e-15 4.411706817607220e-15
-2.834921986171820e-14 -3.497638635148145e-14 -5.270624343686001e-14 1.346132958786139e-15 -1.320737085053881e-14 -2.178241181756905e-15
9.287624456853814e-16 1.299093601898729e-15 -1.360743206550529e-14 -7.230014326117462e-16 -6.733641386018645e-15 2.957094582070775e-15
5.347253785753384e-15 5.973769929698755e-15 2.185663627803274e-15 1.806705661189970e-16 -6.536503603681371e-16 3.154443296857244e-16
3.437127496600318e-15 3.560243235724480e-15 4.249663248579917e-15 2.413351758035220e-16 9.492839971197434e-16 -4.846294919380484e-16
-2.099688863685471e-14 -1.883632432078721e-14 -2.088578937444514e-14 -9.004052131444736e-17 -8.392474757615578e-15 -9.872545884272559e-16
-2.496316430274928e-14 -1.782982373526769e-14 -2.968764691467053e-14 -1.264709988639457e-15 -8.458351822980475e-15 -1.710225295534311e-15
9.815359744671794e-16 4.517766340473406e-16 3.256286384229423e-15 1.465015633552635e-16 2.721282285677008e-15 3.893808832271909e-16
1.384213359371831e-14 1.112782237368265e-14 1.181029825572992e-14 -3.042882432506234e-16 -4.836276303383544e-16 -1.319406273262556e-15
-4.290308458863909e-15 -6.503823603035759e-15 -4.995386083896974e-15 -1.561349231595405e-16 -9.044534131937081e-17 -1.561764897745266e-17
1.006063997129753e-14 6.181948511093858e-15 1.178589696689439e-14 6.078269397283428e-17 6.555973691220294e-15 1.442284488369767e-15
-3.402143024210995e-15 -4.407548775151274e-15 -3.135624665933447e-15 1.904910406313578e-16 1.533489314792120e-15 -9.088739703356179e-16
-7.708071349614475e-15 -1.619059403795684e-15 -4.975470790793379e-15 -7.174093022787267e-16 5.335156493834540e-15 -2.343936106660872e-15
-4.060529017089199e-15 -9.412458600839869e-16 -3.752590011203080e-15 7.466931996384480e-17 -1.195651908886452e-15 8.429932761946604e-16
2.849688868488810e-15 6.770201795805528e-15 1.469373104759398e-15 1.805294958016741e-16 -4.912940748240070e-16 5.551711726515668e-16
8.151163720270460e-15 -3.834404354840471e-16 1.675266478380744e-14 -2.836791571223532e-15 1.523007792813225e-16 6.522793284048987e-16
3.467524377367837e-14 1.654436120353029e-14 1.905746506704599e-15 -2.404189817788351e-15 1.560692005370879e-14 -1.009512032242441e-15
-6.282702110792969e-15 -6.086844068703656e-15 -7.831445113747438e-15 -1.958690988347216e-16 -6.421250923201437e-15 -7.516109199791048e-16
7.161659797275912e-15 6.672729580789192e-15 9.419265687707126e-15 6.859659030401069e-16 -1.631950788279323e-15 -1.068440753077859e-15
-3.595605632018653e-15 -9.326885319997197e-15 1.497058437089839e-14 1.677928956862909e-17 8.034152719585607e-15 -6.134791208054560e-15
7.090651059505851e-14 6.190914359938605e-14 5.950258088203782e-14 -1.815786701366517e-15 6.191528006212239e-14 -2.357841756423408e-14
-2.834921986171820e-14 -3.497638635148145e-14 -5.270624343686001e-14 1.346132958786139e-15 -1.320737085053881e-14 -2.178241181756905e-15
-7.602004277365657e-15 -1.309270905061760e-14 -6.330135298498130e-15 -1.403915337064955e-17 8.559348005577832e-16 -8.979204353487192e-16
-7.243248551436001e-16 7.212909793391398e-15 -2.827398777319480e-15 1.352776553752691e-15 -6.764632048237249e-15 -2.218239196505696e-15
1.280513184865646e-14 1.381572809867491e-14 1.440672311034094e-14 3.764252042518993e-16 5.364001773784287e-15 -4.967135145602624e-16
-3.402143024210995e-15 -4.407548775151274e-15 -3.135624665933447e-15 1.904910406313578e-16 1.533489314792120e-15 -9.088739703356179e-16
-7.853057623720727e-15 -6.559928139584442e-15 -1.511999819453722e-14 -1.619422103372160e-15 -2.339024948118866e-15 1.924760664571411e-15
1.656194883670520e-14 2.381074006261431e-14 -1.761852464513359e-14 1.072618123274690e-15 -1.590628270080386e-14 -2.807023551695816e-15
4.832410998443779e-14 5.903356981617404e-14 9.039633100442641e-14 -4.142780752012468e-15 9.284229156299020e-15 4.434510763646043e-15
-7.708071349614475e-15 -1.619059403795684e-15 -4.975470790793379e-15 -7.174093022787267e-16 5.335156493834540e-15 -2.343936106660872e-15
-4.290308458863909e-15 -6.503823603035759e-15 -4.995386083896974e-15 -1.561349231595405e-16 -9.044534131937081e-17 -1.561764897745266e-17
4.694979988286714e-15 1.405043922293027e-15 -9.329949483210558e-15 2.355556354293849e-16 -4.040212627934288e-15 2.324903208445232e-15
1.377931846313096e-15 2.341576380588853e-14 1.636068219110216e-14 9.957345740600144e-15 -7.004164696486498e-15 1.015816183349593e-14
1.006063997129753e-14 6.181948511093858e-15 1.178589696689439e-14 6.078269397283428e-17 6.555973691220294e-15 1.442284488369767e-15
-4.060529017089199e-15 -9.412458600839869e-16 -3.752590011203080e-15 7.466931996384480e-17 -1.195651908886452e-15 8.429932761946604e-16
-2.156659127599182e-14 -1.577633899179565e-14 4.355749638615585e-15 -3.505467383964843e-15 3.697362696403926e-15 -5.193092528698561e-16
3.437127496600318e-15 3.560243235724480e-15 4.249663248579917e-15 2.413351758035220e-16 9.492839971197434e-16 -4.846294919380484e-16
-2.099688863685471e-14 -1.883632432078721e-14 -2.088578937444514e-14 -9.004052131444736e-17 -8.392474757615578e-15 -9.872545884272559e-16
8.563578369975824e-15 8.733218505007272e-15 9.401827612894700e-15 -4.629915782138207e-16 3.069678844821524e-16 2.216761477712136e-15
2.369259428166265e-14 1.467605892996140e-14 2.628435680217419e-14 2.280321889971085e-15 -2.039762326855637e-15 4.411706817607220e-15
1.384213359371831e-14 1.112782237368265e-14 1.181029825572992e-14 -3.042882432506234e-16 -4.836276303383544e-16 -1.319406273262556e-15
        </DataArray>
  </PointData>
  <CellData>
        <DataArray type="Float64" Name="element_GL_strains_xyz" NumberOfComponents="6" format="ascii">
-4.934324553889584e-17 3.700743415417188e-17 7.401486830834377e-17 8.237097381937000e-18 -4.650192057471725e-17 -1.348413708847568e-17
-2.055968564120660e-17 1.480297366166875e-16 2.467162276944792e-17 5.334080184766717e-18 -4.766059890337986e-17 5.652125370665388e-18
2.055968564120660e-17 -1.233581138472396e-17 2.878355989768924e-17 2.007758272206101e-18 -6.419098018608910e-19 1.401549340492456e-17
3.700743415417188e-17 3.289549702593056e-17 4.111937128241320e-18 -6.787824009184892e-18 9.528304995254266e-18 -1.136144115106576e-17
-4.111937128241320e-17 -3.289549702593056e-17 1.233581138472396e-17 1.031551231915990e-17 4.867791684462291e-17 2.450099268796214e-17
4.111937128241320e-18 3.289549702593056e-17 2.055968564120660e-17 3.980301933919875e-18 1.888845826468323e-17 -1.427664621119931e-17
-4.111937128241320e-18 -8.635067969306772e-17 -1.603655480014115e-16 7.881500402043382e-18 -1.656865462328819e-17 -8.298068068343982e-18
2.467162276944792e-17 2.878355989768924e-17 -9.868649107779169e-17 7.711325208621875e-18 -3.099638641500515e-17 -2.047284907831772e-17
-4.111937128241320e-18 -2.055968564120660e-17 -4.111937128241320e-18 -7.195325285790804e-18 9.432778501758354e-18 -3.466510571069799e-17
1.644774851296528e-17 8.223874256482641e-18 8.635067969306772e-17 5.361530326575885e-18 -1.667155344058425e-17 9.018830363276118e-18
4.111937128241320e-17 8.223874256482641e-18 -1.356939252319636e-16 9.231247403493114e-18 8.491536667815001e-18 -9.711828800492664e-18
2.878355989768924e-17 3.700743415417188e-17 -1.644774851296528e-16 7.949435581572250e-18 7.640111697871230e-18 -1.920945238010221e-18
        </DataArray>
        <DataArray type="Float64" Name="element_cauchy_stresses_xyz" NumberOfComponents="6" format="ascii">
-2.372271420139258e-18 6.405132834375910e-17 9.251858538542975e-17 6.336228755336160e-18 -3.577070813439791e-17 -1.037241314498132e-17
7.195889974422307e-17 2.016430707118341e-16 1.067522139062651e-16 4.103138603666699e-18 -3.666199915644607e-17 4.347788746665689e-18
3.716558558218115e-17 1.186135710069610e-17 4.349164270255247e-17 1.544429440158543e-18 -4.937767706622304e-19 1.078114877301887e-17
7.116814260417671e-17 6.800511404399112e-17 4.586391412269163e-17 -5.221403083988383e-18 7.329465380964828e-18 -8.739570116204425e-18
-6.721435690394467e-17 -6.088829978357341e-17 -2.609498562153141e-17 7.935009476276839e-18 3.744455141894069e-17 1.884691745227855e-17
3.637482844213473e-17 5.851602836343421e-17 4.902694268287733e-17 3.061770718399901e-18 1.452958328052556e-17 -1.098203554707638e-17
-1.478715851886784e-16 -2.111321563923909e-16 -2.680666704757318e-16 6.062692616956499e-18 -1.274511894099096e-17 -6.383129283341582e-18
-7.116814260417773e-18 -3.953785700232079e-18 -1.020076710659863e-16 5.931788622016814e-18 -2.384337416538862e-17 -1.574834544485979e-17
-1.976892850116036e-17 -3.242104274190290e-17 -1.976892850115972e-17 -5.534865604454469e-18 7.255983462891068e-18 -2.666546593130612e-17
7.670344258450124e-17 7.037738546413000e-17 1.304749281076579e-16 4.124254097366065e-18 -1.282427187737250e-17 6.937561817904744e-18
-1.818741422106778e-17 -4.349164270255282e-17 -1.541976423090485e-16 7.100959541148553e-18 6.531951282934764e-18 -7.470637538840530e-18
-3.479331416204214e-17 -2.846725704167082e-17 -1.834556564907659e-16 6.114950447363257e-18 5.877008998362567e-18 -1.477650183084821e-18
        </DataArray>
        <DataArray type="Float64" Name="element_owner" format="ascii">
1.000000000000000e+00
1.000000000000000e+00
1.000000000000000e+00
1.000000000000000e+00
1.000000000000000e+00
1.000000000000000e+00
1.000000000000000e+00
1.000000000000000e+00
1.000000000000000e+00
1.000000000000000e+00
1.000000000000000e+00
1.000000000000000e+00
        </DataArray>
      </CellData>

    </Piece>
  </UnstructuredGrid>
</VTKFile>
