<?xml version="1.0" ?> 
<!-- 
# vtk DataFile Version 3.0
-->
<VTKFile type="UnstructuredGrid" version="0.1" compressor="vtkZLibDataCompressor" byte_order="LittleEndian">
  <UnstructuredGrid>
    <FieldData>
      <DataArray type="Float64" Name="TIME" NumberOfTuples="1" format="ascii">
1.000000000000000e+00 
      </DataArray>
    </FieldData>

    <Piece NumberOfPoints="324" NumberOfCells="12" >
      <Points>
        <DataArray type="Float64" NumberOfComponents="3" format="ascii">
-5.000000000000000e-01 -5.000000000000000e-01 4.000000000000000e-01
0.000000000000000e+00 -5.000000000000000e-01 4.000000000000000e-01
0.000000000000000e+00 -1.666666666665000e-01 4.000000000000000e-01
-5.000000000000000e-01 -1.666666666665000e-01 4.000000000000000e-01
-5.000000000000000e-01 -5.000000000000000e-01 6.500000000000000e-01
0.000000000000000e+00 -5.000000000000000e-01 6.500000000000000e-01
0.000000000000000e+00 -1.666666666665000e-01 6.500000000000000e-01
-5.000000000000000e-01 -1.666666666665000e-01 6.500000000000000e-01
-2.500000000000000e-01 -5.000000000000000e-01 4.000000000000000e-01
0.000000000000000e+00 -3.333333333331250e-01 4.000000000000000e-01
-2.500000000000000e-01 -1.666666666665000e-01 4.000000000000000e-01
-5.000000000000000e-01 -3.333333333331250e-01 4.000000000000000e-01
-2.500000000000000e-01 -5.000000000000000e-01 6.500000000000000e-01
0.000000000000000e+00 -3.333333333331250e-01 6.499999999999999e-01
-2.500000000000000e-01 -1.666666666665000e-01 6.500000000000000e-01
-5.000000000000000e-01 -3.333333333331250e-01 6.500000000000000e-01
-5.000000000000000e-01 -5.000000000000000e-01 5.250000000000000e-01
0.000000000000000e+00 -5.000000000000000e-01 5.250000000000000e-01
0.000000000000000e+00 -1.666666666665000e-01 5.250000000000000e-01
-5.000000000000000e-01 -1.666666666665000e-01 5.250000000000000e-01
-5.000000000000000e-01 -3.333333333331250e-01 5.250000000000000e-01
0.000000000000000e+00 -3.333333333331250e-01 5.250000000000000e-01
-2.500000000000000e-01 -5.000000000000000e-01 5.250000000000000e-01
-2.500000000000000e-01 -1.666666666665000e-01 5.250000000000000e-01
-2.500000000000000e-01 -3.333333333331250e-01 4.000000000000000e-01
-2.500000000000000e-01 -3.333333333331250e-01 6.500000000000000e-01
-2.500000000000000e-01 -3.333333333331250e-01 5.250000000000000e-01
0.000000000000000e+00 -5.000000000000000e-01 4.000000000000000e-01
5.000000000000000e-01 -5.000000000000000e-01 4.000000000000000e-01
5.000000000000000e-01 -1.666666666665000e-01 4.000000000000000e-01
0.000000000000000e+00 -1.666666666665000e-01 4.000000000000000e-01
0.000000000000000e+00 -5.000000000000000e-01 6.500000000000000e-01
5.000000000000000e-01 -5.000000000000000e-01 6.500000000000000e-01
5.000000000000000e-01 -1.666666666665000e-01 6.500000000000000e-01
0.000000000000000e+00 -1.666666666665000e-01 6.500000000000000e-01
2.500000000000000e-01 -5.000000000000000e-01 4.000000000000000e-01
5.000000000000000e-01 -3.333333333331250e-01 4.000000000000000e-01
2.500000000000000e-01 -1.666666666665000e-01 4.000000000000001e-01
0.000000000000000e+00 -3.333333333331250e-01 4.000000000000000e-01
2.500000000000000e-01 -5.000000000000000e-01 6.500000000000001e-01
5.000000000000000e-01 -3.333333333331250e-01 6.500000000000000e-01
2.500000000000000e-01 -1.666666666665000e-01 6.500000000000000e-01
0.000000000000000e+00 -3.333333333331250e-01 6.499999999999999e-01
0.000000000000000e+00 -5.000000000000000e-01 5.250000000000000e-01
5.000000000000000e-01 -5.000000000000000e-01 5.250000000000000e-01
5.000000000000000e-01 -1.666666666665000e-01 5.250000000000000e-01
0.000000000000000e+00 -1.666666666665000e-01 5.250000000000000e-01
0.000000000000000e+00 -3.333333333331250e-01 5.250000000000000e-01
5.000000000000000e-01 -3.333333333331250e-01 5.250000000000000e-01
2.500000000000000e-01 -5.000000000000000e-01 5.249999999999999e-01
2.500000000000000e-01 -1.666666666665000e-01 5.249999999999999e-01
2.500000000000000e-01 -3.333333333331251e-01 4.000000000000000e-01
2.500000000000000e-01 -3.333333333331251e-01 6.500000000000000e-01
2.500000000000000e-01 -3.333333333331249e-01 5.250000000000000e-01
-5.000000000000000e-01 -1.666666666665000e-01 4.000000000000000e-01
0.000000000000000e+00 -1.666666666665000e-01 4.000000000000000e-01
0.000000000000000e+00 1.666666666665000e-01 4.000000000000000e-01
-5.000000000000000e-01 1.666666666665000e-01 4.000000000000000e-01
-5.000000000000000e-01 -1.666666666665000e-01 6.500000000000000e-01
0.000000000000000e+00 -1.666666666665000e-01 6.500000000000000e-01
0.000000000000000e+00 1.666666666665000e-01 6.499999999999999e-01
-5.000000000000000e-01 1.666666666665000e-01 6.499999999999999e-01
-2.500000000000000e-01 -1.666666666665000e-01 4.000000000000000e-01
0.000000000000000e+00 3.469446951953614e-17 4.000000000000001e-01
-2.500000000000000e-01 1.666666666665000e-01 4.000000000000000e-01
-5.000000000000001e-01 2.775557561562891e-17 4.000000000000001e-01
-2.500000000000000e-01 -1.666666666665000e-01 6.500000000000000e-01
0.000000000000000e+00 3.469446951953614e-17 6.499999999999999e-01
-2.500000000000000e-01 1.666666666665000e-01 6.500000000000000e-01
-5.000000000000001e-01 2.775557561562891e-17 6.500000000000001e-01
-5.000000000000000e-01 -1.666666666665000e-01 5.250000000000000e-01
0.000000000000000e+00 -1.666666666665000e-01 5.250000000000000e-01
0.000000000000000e+00 1.666666666665000e-01 5.249999999999999e-01
-5.000000000000000e-01 1.666666666665000e-01 5.250000000000000e-01
-5.000000000000000e-01 3.469446951953614e-17 5.250000000000000e-01
0.000000000000000e+00 3.469446951953614e-17 5.250000000000001e-01
-2.500000000000000e-01 -1.666666666665000e-01 5.250000000000000e-01
-2.500000000000000e-01 1.666666666665000e-01 5.249999999999999e-01
-2.500000000000000e-01 2.602085213965211e-17 4.000000000000000e-01
-2.500000000000000e-01 2.602085213965211e-17 6.500000000000000e-01
-2.500000000000000e-01 3.079134169858833e-17 5.250000000000000e-01
0.000000000000000e+00 -1.666666666665000e-01 4.000000000000000e-01
5.000000000000000e-01 -1.666666666665000e-01 4.000000000000000e-01
5.000000000000000e-01 1.666666666665000e-01 4.000000000000000e-01
0.000000000000000e+00 1.666666666665000e-01 4.000000000000000e-01
0.000000000000000e+00 -1.666666666665000e-01 6.500000000000000e-01
5.000000000000000e-01 -1.666666666665000e-01 6.500000000000000e-01
5.000000000000000e-01 1.666666666665000e-01 6.499999999999999e-01
0.000000000000000e+00 1.666666666665000e-01 6.499999999999999e-01
2.500000000000000e-01 -1.666666666665000e-01 4.000000000000001e-01
5.000000000000001e-01 2.775557561562891e-17 4.000000000000001e-01
2.500000000000000e-01 1.666666666665000e-01 4.000000000000000e-01
0.000000000000000e+00 3.469446951953614e-17 4.000000000000001e-01
2.500000000000000e-01 -1.666666666665000e-01 6.500000000000000e-01
5.000000000000001e-01 2.775557561562891e-17 6.500000000000001e-01
2.500000000000000e-01 1.666666666665000e-01 6.500000000000000e-01
0.000000000000000e+00 3.469446951953614e-17 6.499999999999999e-01
0.000000000000000e+00 -1.666666666665000e-01 5.250000000000000e-01
5.000000000000000e-01 -1.666666666665000e-01 5.250000000000000e-01
5.000000000000000e-01 1.666666666665000e-01 5.250000000000000e-01
0.000000000000000e+00 1.666666666665000e-01 5.249999999999999e-01
0.000000000000000e+00 3.469446951953614e-17 5.250000000000001e-01
5.000000000000000e-01 3.469446951953614e-17 5.250000000000000e-01
2.500000000000000e-01 -1.666666666665000e-01 5.249999999999999e-01
2.500000000000000e-01 1.666666666665000e-01 5.249999999999999e-01
2.500000000000000e-01 2.428612866367530e-17 4.000000000000000e-01
2.500000000000000e-01 2.428612866367530e-17 6.499999999999999e-01
2.500000000000000e-01 2.515349040166370e-17 5.250000000000000e-01
-5.000000000000000e-01 1.666666666665000e-01 4.000000000000000e-01
0.000000000000000e+00 1.666666666665000e-01 4.000000000000000e-01
0.000000000000000e+00 5.000000000000000e-01 4.000000000000000e-01
-5.000000000000000e-01 5.000000000000000e-01 4.000000000000000e-01
-5.000000000000000e-01 1.666666666665000e-01 6.499999999999999e-01
0.000000000000000e+00 1.666666666665000e-01 6.499999999999999e-01
0.000000000000000e+00 5.000000000000000e-01 6.500000000000000e-01
-5.000000000000000e-01 5.000000000000000e-01 6.500000000000000e-01
-2.500000000000000e-01 1.666666666665000e-01 4.000000000000000e-01
0.000000000000000e+00 3.333333333331250e-01 4.000000000000000e-01
-2.500000000000000e-01 5.000000000000000e-01 4.000000000000000e-01
-5.000000000000000e-01 3.333333333331250e-01 4.000000000000001e-01
-2.500000000000000e-01 1.666666666665000e-01 6.500000000000000e-01
0.000000000000000e+00 3.333333333331250e-01 6.500000000000001e-01
-2.500000000000000e-01 5.000000000000000e-01 6.500000000000000e-01
-5.000000000000000e-01 3.333333333331250e-01 6.500000000000000e-01
-5.000000000000000e-01 1.666666666665000e-01 5.250000000000000e-01
0.000000000000000e+00 1.666666666665000e-01 5.249999999999999e-01
0.000000000000000e+00 5.000000000000000e-01 5.250000000000000e-01
-5.000000000000000e-01 5.000000000000000e-01 5.250000000000000e-01
-5.000000000000000e-01 3.333333333331250e-01 5.250000000000000e-01
0.000000000000000e+00 3.333333333331250e-01 5.249999999999999e-01
-2.500000000000000e-01 1.666666666665000e-01 5.249999999999999e-01
-2.500000000000000e-01 5.000000000000000e-01 5.250000000000000e-01
-2.499999999999999e-01 3.333333333331250e-01 3.999999999999999e-01
-2.499999999999999e-01 3.333333333331250e-01 6.499999999999998e-01
-2.500000000000000e-01 3.333333333331249e-01 5.250000000000001e-01
0.000000000000000e+00 1.666666666665000e-01 4.000000000000000e-01
5.000000000000000e-01 1.666666666665000e-01 4.000000000000000e-01
5.000000000000000e-01 5.000000000000000e-01 4.000000000000000e-01
0.000000000000000e+00 5.000000000000000e-01 4.000000000000000e-01
0.000000000000000e+00 1.666666666665000e-01 6.499999999999999e-01
5.000000000000000e-01 1.666666666665000e-01 6.499999999999999e-01
5.000000000000000e-01 5.000000000000000e-01 6.500000000000000e-01
0.000000000000000e+00 5.000000000000000e-01 6.500000000000000e-01
2.500000000000000e-01 1.666666666665000e-01 4.000000000000000e-01
5.000000000000000e-01 3.333333333331250e-01 4.000000000000001e-01
2.500000000000000e-01 5.000000000000000e-01 4.000000000000000e-01
0.000000000000000e+00 3.333333333331250e-01 4.000000000000000e-01
2.500000000000000e-01 1.666666666665000e-01 6.500000000000000e-01
5.000000000000000e-01 3.333333333331250e-01 6.500000000000000e-01
2.500000000000000e-01 5.000000000000000e-01 6.500000000000001e-01
0.000000000000000e+00 3.333333333331250e-01 6.500000000000001e-01
0.000000000000000e+00 1.666666666665000e-01 5.249999999999999e-01
5.000000000000000e-01 1.666666666665000e-01 5.250000000000000e-01
5.000000000000000e-01 5.000000000000000e-01 5.250000000000000e-01
0.000000000000000e+00 5.000000000000000e-01 5.250000000000000e-01
0.000000000000000e+00 3.333333333331250e-01 5.249999999999999e-01
5.000000000000000e-01 3.333333333331250e-01 5.250000000000000e-01
2.500000000000000e-01 1.666666666665000e-01 5.249999999999999e-01
2.500000000000000e-01 5.000000000000000e-01 5.249999999999999e-01
2.499999999999999e-01 3.333333333331250e-01 4.000000000000000e-01
2.499999999999999e-01 3.333333333331250e-01 6.499999999999999e-01
2.500000000000000e-01 3.333333333331250e-01 5.250000000000001e-01
-5.000000000000000e-01 -5.000000000000000e-01 6.500000000000000e-01
0.000000000000000e+00 -5.000000000000000e-01 6.500000000000000e-01
0.000000000000000e+00 -1.666666666665000e-01 6.500000000000000e-01
-5.000000000000000e-01 -1.666666666665000e-01 6.500000000000000e-01
-5.000000000000000e-01 -5.000000000000000e-01 9.000000000000000e-01
0.000000000000000e+00 -5.000000000000000e-01 9.000000000000000e-01
0.000000000000000e+00 -1.666666666665000e-01 9.000000000000000e-01
-5.000000000000000e-01 -1.666666666665000e-01 9.000000000000000e-01
-2.500000000000000e-01 -5.000000000000000e-01 6.500000000000000e-01
0.000000000000000e+00 -3.333333333331250e-01 6.499999999999999e-01
-2.500000000000000e-01 -1.666666666665000e-01 6.500000000000000e-01
-5.000000000000000e-01 -3.333333333331250e-01 6.500000000000000e-01
-2.500000000000000e-01 -5.000000000000000e-01 9.000000000000000e-01
0.000000000000000e+00 -3.333333333331250e-01 9.000000000000000e-01
-2.500000000000000e-01 -1.666666666665000e-01 9.000000000000000e-01
-5.000000000000000e-01 -3.333333333331250e-01 9.000000000000000e-01
-5.000000000000000e-01 -5.000000000000000e-01 7.750000000000000e-01
0.000000000000000e+00 -5.000000000000000e-01 7.750000000000001e-01
0.000000000000000e+00 -1.666666666665000e-01 7.750000000000001e-01
-5.000000000000000e-01 -1.666666666665000e-01 7.750000000000001e-01
-5.000000000000000e-01 -3.333333333331250e-01 7.750000000000000e-01
0.000000000000000e+00 -3.333333333331251e-01 7.749999999999999e-01
-2.500000000000000e-01 -5.000000000000000e-01 7.750000000000000e-01
-2.500000000000000e-01 -1.666666666665000e-01 7.749999999999999e-01
-2.500000000000000e-01 -3.333333333331250e-01 6.500000000000000e-01
-2.500000000000000e-01 -3.333333333331250e-01 8.999999999999999e-01
-2.500000000000000e-01 -3.333333333331250e-01 7.750000000000001e-01
0.000000000000000e+00 -5.000000000000000e-01 6.500000000000000e-01
5.000000000000000e-01 -5.000000000000000e-01 6.500000000000000e-01
5.000000000000000e-01 -1.666666666665000e-01 6.500000000000000e-01
0.000000000000000e+00 -1.666666666665000e-01 6.500000000000000e-01
0.000000000000000e+00 -5.000000000000000e-01 9.000000000000000e-01
5.000000000000000e-01 -5.000000000000000e-01 9.000000000000000e-01
5.000000000000000e-01 -1.666666666665000e-01 9.000000000000000e-01
0.000000000000000e+00 -1.666666666665000e-01 9.000000000000000e-01
2.500000000000000e-01 -5.000000000000000e-01 6.500000000000001e-01
5.000000000000000e-01 -3.333333333331250e-01 6.500000000000000e-01
2.500000000000000e-01 -1.666666666665000e-01 6.500000000000000e-01
0.000000000000000e+00 -3.333333333331250e-01 6.499999999999999e-01
2.500000000000000e-01 -5.000000000000000e-01 9.000000000000000e-01
5.000000000000000e-01 -3.333333333331250e-01 9.000000000000000e-01
2.500000000000000e-01 -1.666666666665000e-01 9.000000000000000e-01
0.000000000000000e+00 -3.333333333331250e-01 9.000000000000000e-01
0.000000000000000e+00 -5.000000000000000e-01 7.750000000000001e-01
5.000000000000000e-01 -5.000000000000000e-01 7.750000000000000e-01
5.000000000000000e-01 -1.666666666665000e-01 7.750000000000001e-01
0.000000000000000e+00 -1.666666666665000e-01 7.750000000000001e-01
0.000000000000000e+00 -3.333333333331251e-01 7.749999999999999e-01
5.000000000000000e-01 -3.333333333331250e-01 7.750000000000000e-01
2.500000000000000e-01 -5.000000000000000e-01 7.750000000000000e-01
2.500000000000000e-01 -1.666666666665000e-01 7.749999999999999e-01
2.500000000000000e-01 -3.333333333331251e-01 6.500000000000000e-01
2.500000000000000e-01 -3.333333333331250e-01 8.999999999999999e-01
2.500000000000000e-01 -3.333333333331250e-01 7.750000000000001e-01
-5.000000000000000e-01 -1.666666666665000e-01 6.500000000000000e-01
0.000000000000000e+00 -1.666666666665000e-01 6.500000000000000e-01
0.000000000000000e+00 1.666666666665000e-01 6.499999999999999e-01
-5.000000000000000e-01 1.666666666665000e-01 6.499999999999999e-01
-5.000000000000000e-01 -1.666666666665000e-01 9.000000000000000e-01
0.000000000000000e+00 -1.666666666665000e-01 9.000000000000000e-01
0.000000000000000e+00 1.666666666665000e-01 9.000000000000000e-01
-5.000000000000000e-01 1.666666666665000e-01 8.999999999999999e-01
-2.500000000000000e-01 -1.666666666665000e-01 6.500000000000000e-01
0.000000000000000e+00 3.469446951953614e-17 6.499999999999999e-01
-2.500000000000000e-01 1.666666666665000e-01 6.500000000000000e-01
-5.000000000000001e-01 2.775557561562891e-17 6.500000000000001e-01
-2.500000000000000e-01 -1.666666666665000e-01 9.000000000000000e-01
0.000000000000000e+00 2.775557561562891e-17 9.000000000000001e-01
-2.500000000000000e-01 1.666666666665000e-01 9.000000000000000e-01
-5.000000000000001e-01 2.775557561562891e-17 9.000000000000001e-01
-5.000000000000000e-01 -1.666666666665000e-01 7.750000000000001e-01
0.000000000000000e+00 -1.666666666665000e-01 7.750000000000001e-01
0.000000000000000e+00 1.666666666665000e-01 7.750000000000000e-01
-5.000000000000000e-01 1.666666666665000e-01 7.749999999999999e-01
-5.000000000000000e-01 2.602085213965211e-17 7.750000000000000e-01
0.000000000000000e+00 2.602085213965211e-17 7.749999999999999e-01
-2.500000000000000e-01 -1.666666666665000e-01 7.749999999999999e-01
-2.500000000000000e-01 1.666666666665000e-01 7.749999999999998e-01
-2.500000000000000e-01 2.602085213965211e-17 6.500000000000000e-01
-2.500000000000000e-01 2.428612866367530e-17 9.000000000000000e-01
-2.500000000000000e-01 2.168404344971009e-17 7.750000000000002e-01
0.000000000000000e+00 -1.666666666665000e-01 6.500000000000000e-01
5.000000000000000e-01 -1.666666666665000e-01 6.500000000000000e-01
5.000000000000000e-01 1.666666666665000e-01 6.499999999999999e-01
0.000000000000000e+00 1.666666666665000e-01 6.499999999999999e-01
0.000000000000000e+00 -1.666666666665000e-01 9.000000000000000e-01
5.000000000000000e-01 -1.666666666665000e-01 9.000000000000000e-01
5.000000000000000e-01 1.666666666665000e-01 8.999999999999999e-01
0.000000000000000e+00 1.666666666665000e-01 9.000000000000000e-01
2.500000000000000e-01 -1.666666666665000e-01 6.500000000000000e-01
5.000000000000001e-01 2.775557561562891e-17 6.500000000000001e-01
2.500000000000000e-01 1.666666666665000e-01 6.500000000000000e-01
0.000000000000000e+00 3.469446951953614e-17 6.499999999999999e-01
2.500000000000000e-01 -1.666666666665000e-01 9.000000000000000e-01
5.000000000000001e-01 2.775557561562891e-17 9.000000000000001e-01
2.500000000000000e-01 1.666666666665000e-01 8.999999999999999e-01
0.000000000000000e+00 2.775557561562891e-17 9.000000000000001e-01
0.000000000000000e+00 -1.666666666665000e-01 7.750000000000001e-01
5.000000000000000e-01 -1.666666666665000e-01 7.750000000000001e-01
5.000000000000000e-01 1.666666666665000e-01 7.749999999999999e-01
0.000000000000000e+00 1.666666666665000e-01 7.750000000000000e-01
0.000000000000000e+00 2.602085213965211e-17 7.749999999999999e-01
5.000000000000000e-01 2.602085213965211e-17 7.750000000000000e-01
2.500000000000000e-01 -1.666666666665000e-01 7.749999999999999e-01
2.500000000000000e-01 1.666666666665000e-01 7.749999999999998e-01
2.500000000000000e-01 2.428612866367530e-17 6.499999999999999e-01
2.500000000000000e-01 2.081668171172169e-17 8.999999999999999e-01
2.500000000000000e-01 1.908195823574488e-17 7.750000000000002e-01
-5.000000000000000e-01 1.666666666665000e-01 6.499999999999999e-01
0.000000000000000e+00 1.666666666665000e-01 6.499999999999999e-01
0.000000000000000e+00 5.000000000000000e-01 6.500000000000000e-01
-5.000000000000000e-01 5.000000000000000e-01 6.500000000000000e-01
-5.000000000000000e-01 1.666666666665000e-01 8.999999999999999e-01
0.000000000000000e+00 1.666666666665000e-01 9.000000000000000e-01
0.000000000000000e+00 5.000000000000000e-01 9.000000000000000e-01
-5.000000000000000e-01 5.000000000000000e-01 9.000000000000000e-01
-2.500000000000000e-01 1.666666666665000e-01 6.500000000000000e-01
0.000000000000000e+00 3.333333333331250e-01 6.500000000000001e-01
-2.500000000000000e-01 5.000000000000000e-01 6.500000000000000e-01
-5.000000000000000e-01 3.333333333331250e-01 6.500000000000000e-01
-2.500000000000000e-01 1.666666666665000e-01 9.000000000000000e-01
0.000000000000000e+00 3.333333333331250e-01 9.000000000000001e-01
-2.500000000000000e-01 5.000000000000000e-01 9.000000000000000e-01
-5.000000000000000e-01 3.333333333331250e-01 9.000000000000000e-01
-5.000000000000000e-01 1.666666666665000e-01 7.749999999999999e-01
0.000000000000000e+00 1.666666666665000e-01 7.750000000000000e-01
0.000000000000000e+00 5.000000000000000e-01 7.750000000000001e-01
-5.000000000000000e-01 5.000000000000000e-01 7.750000000000000e-01
-5.000000000000000e-01 3.333333333331250e-01 7.750000000000001e-01
0.000000000000000e+00 3.333333333331250e-01 7.749999999999998e-01
-2.500000000000000e-01 1.666666666665000e-01 7.749999999999998e-01
-2.500000000000000e-01 5.000000000000000e-01 7.750000000000000e-01
-2.499999999999999e-01 3.333333333331250e-01 6.499999999999998e-01
-2.500000000000000e-01 3.333333333331250e-01 9.000000000000000e-01
-2.500000000000000e-01 3.333333333331250e-01 7.750000000000001e-01
0.000000000000000e+00 1.666666666665000e-01 6.499999999999999e-01
5.000000000000000e-01 1.666666666665000e-01 6.499999999999999e-01
5.000000000000000e-01 5.000000000000000e-01 6.500000000000000e-01
0.000000000000000e+00 5.000000000000000e-01 6.500000000000000e-01
0.000000000000000e+00 1.666666666665000e-01 9.000000000000000e-01
5.000000000000000e-01 1.666666666665000e-01 8.999999999999999e-01
5.000000000000000e-01 5.000000000000000e-01 9.000000000000000e-01
0.000000000000000e+00 5.000000000000000e-01 9.000000000000000e-01
2.500000000000000e-01 1.666666666665000e-01 6.500000000000000e-01
5.000000000000000e-01 3.333333333331250e-01 6.500000000000000e-01
2.500000000000000e-01 5.000000000000000e-01 6.500000000000001e-01
0.000000000000000e+00 3.333333333331250e-01 6.500000000000001e-01
2.500000000000000e-01 1.666666666665000e-01 8.999999999999999e-01
5.000000000000000e-01 3.333333333331250e-01 9.000000000000000e-01
2.500000000000000e-01 5.000000000000000e-01 9.000000000000000e-01
0.000000000000000e+00 3.333333333331250e-01 9.000000000000001e-01
0.000000000000000e+00 1.666666666665000e-01 7.750000000000000e-01
5.000000000000000e-01 1.666666666665000e-01 7.749999999999999e-01
5.000000000000000e-01 5.000000000000000e-01 7.750000000000000e-01
0.000000000000000e+00 5.000000000000000e-01 7.750000000000001e-01
0.000000000000000e+00 3.333333333331250e-01 7.749999999999998e-01
5.000000000000000e-01 3.333333333331250e-01 7.750000000000001e-01
2.500000000000000e-01 1.666666666665000e-01 7.749999999999998e-01
2.500000000000000e-01 5.000000000000000e-01 7.750000000000000e-01
2.499999999999999e-01 3.333333333331250e-01 6.499999999999999e-01
2.500000000000000e-01 3.333333333331250e-01 8.999999999999999e-01
2.500000000000000e-01 3.333333333331250e-01 7.750000000000001e-01
        </DataArray>
      </Points>

      <Cells>
        <DataArray type="Int32" Name="connectivity" format="ascii">
0 1 2 3 4 5 6 7 8 9 10 11 12 13 14 15 16 17 18 19 20 21 22 23 24 25 26 27 28 29 30 31 32 33 34 35 36 37 38 39 40 41 42 43 44 45 46 47 48 49 50 51 52 53 54 55 56 57 58 59 60 61 62 63 64 65 66 67 68 69 70 71 72 73 74 75 76 77 78 79 80 81 82 83 84 85 86 87 88 89 90 91 92 93 94 95 96 97 98 99 100 101 102 103 104 105 106 107 108 109 110 111 112 113 114 115 116 117 118 119 120 121 122 123 124 125 126 127 128 129 130 131 132 133 134 135 136 137 138 139 140 141 142 143 144 145 146 147 148 149 150 151 152 153 154 155 156 157 158 159 160 161 162 163 164 165 166 167 168 169 170 171 172 173 174 175 176 177 178 179 180 181 182 183 184 185 186 187 188 189 190 191 192 193 194 195 196 197 198 199 200 201 202 203 204 205 206 207 208 209 210 211 212 213 214 215 216 217 218 219 220 221 222 223 224 225 226 227 228 229 230 231 232 233 234 235 236 237 238 239 240 241 242 243 244 245 246 247 248 249 250 251 252 253 254 255 256 257 258 259 260 261 262 263 264 265 266 267 268 269 270 271 272 273 274 275 276 277 278 279 280 281 282 283 284 285 286 287 288 289 290 291 292 293 294 295 296 297 298 299 300 301 302 303 304 305 306 307 308 309 310 311 312 313 314 315 316 317 318 319 320 321 322 323 
        </DataArray>
        <DataArray type="Int32" Name="offsets" format="ascii">
27 54 81 108 135 162 189 216 243 270 297 324 
        </DataArray>
        <DataArray type="UInt8" Name="types" format="ascii">
29 29 29 29 29 29 29 29 29 29 29 29 
        </DataArray>
      </Cells>

  <PointData>
        <DataArray type="Float64" Name="displacement" NumberOfComponents="3" format="ascii">
2.457090776255629e-02 2.462224021071000e-02 7.853157122033076e-02
-3.035766082959412e-18 2.556143495083017e-02 7.490720249775260e-02
-1.517883041479706e-18 8.407511870415055e-03 7.195668959970244e-02
2.525436284842851e-02 8.335406626078488e-03 7.545935094470248e-02
2.658140328921309e-02 2.644545614567165e-02 1.160315792645802e-01
-3.903127820947816e-18 2.675806272913940e-02 1.141238786003127e-01
4.336808689942018e-19 8.956871820690991e-03 1.126053927789349e-01
2.670231632640694e-02 8.922314835981824e-03 1.143810030723665e-01
1.244955611391917e-02 2.532663626580013e-02 7.581329467839713e-02
-2.059984127722458e-18 1.689974857572636e-02 7.324570090825962e-02
1.258649951946399e-02 8.389485559330914e-03 7.283235493595246e-02
2.489808618241907e-02 1.657481833527561e-02 7.677459829504113e-02
1.338317753093017e-02 2.667991108327247e-02 1.146008037663796e-01
-1.517883041479706e-18 1.788560545814859e-02 1.133601319504250e-01
1.342519382118607e-02 8.948232574513697e-03 1.130492953522928e-01
2.657321613894590e-02 1.776425758139519e-02 1.151730171602557e-01
2.598396080634171e-02 2.579475551690492e-02 9.693933505230284e-02
-3.252606517456513e-18 2.639131619871052e-02 9.438881865285428e-02
-3.252606517456513e-19 8.758663179743833e-03 9.233005679298924e-02
2.627374264989894e-02 8.703046738903217e-03 9.474758962152419e-02
2.601697893082346e-02 1.732749730285525e-02 9.572570521110302e-02
-1.680513367352532e-18 1.754615802435742e-02 9.327491607472971e-02
1.303895972481084e-02 2.624217602825913e-02 9.502644775271643e-02
1.312387267643840e-02 8.744759069533679e-03 9.293444000012301e-02
1.243243370176852e-02 1.681851601561368e-02 7.412792525495501e-02
1.336625813581781e-02 1.785526848896024e-02 1.138133532528827e-01
1.301834373654077e-02 1.749149284398188e-02 9.388761335882302e-02
-3.035766082959412e-18 2.556143495083017e-02 7.490720249775260e-02
-2.457090776255631e-02 2.462224021070999e-02 7.853157122033078e-02
-2.525436284842850e-02 8.335406626078477e-03 7.545935094470246e-02
-1.517883041479706e-18 8.407511870415055e-03 7.195668959970244e-02
-3.903127820947816e-18 2.675806272913940e-02 1.141238786003127e-01
-2.658140328921308e-02 2.644545614567165e-02 1.160315792645802e-01
-2.670231632640693e-02 8.922314835981809e-03 1.143810030723665e-01
4.336808689942018e-19 8.956871820690991e-03 1.126053927789349e-01
-1.244955611391918e-02 2.532663626580012e-02 7.581329467839712e-02
-2.489808618241907e-02 1.657481833527559e-02 7.677459829504113e-02
-1.258649951946399e-02 8.389485559330908e-03 7.283235493595244e-02
-2.059984127722458e-18 1.689974857572636e-02 7.324570090825962e-02
-1.338317753093018e-02 2.667991108327245e-02 1.146008037663796e-01
-2.657321613894589e-02 1.776425758139517e-02 1.151730171602557e-01
-1.342519382118607e-02 8.948232574513696e-03 1.130492953522928e-01
-1.517883041479706e-18 1.788560545814859e-02 1.133601319504250e-01
-3.252606517456513e-18 2.639131619871052e-02 9.438881865285428e-02
-2.598396080634171e-02 2.579475551690490e-02 9.693933505230286e-02
-2.627374264989893e-02 8.703046738903205e-03 9.474758962152419e-02
-3.252606517456513e-19 8.758663179743833e-03 9.233005679298924e-02
-1.680513367352532e-18 1.754615802435742e-02 9.327491607472971e-02
-2.601697893082346e-02 1.732749730285523e-02 9.572570521110303e-02
-1.303895972481084e-02 2.624217602825912e-02 9.502644775271642e-02
-1.312387267643840e-02 8.744759069533675e-03 9.293444000012298e-02
-1.243243370176852e-02 1.681851601561367e-02 7.412792525495500e-02
-1.336625813581781e-02 1.785526848896023e-02 1.138133532528827e-01
-1.301834373654077e-02 1.749149284398187e-02 9.388761335882302e-02
2.525436284842851e-02 8.335406626078488e-03 7.545935094470248e-02
-1.517883041479706e-18 8.407511870415055e-03 7.195668959970244e-02
0.000000000000000e+00 -8.407511870415055e-03 7.195668959970243e-02
2.525436284842851e-02 -8.335406626078481e-03 7.545935094470248e-02
2.670231632640694e-02 8.922314835981824e-03 1.143810030723665e-01
4.336808689942018e-19 8.956871820690991e-03 1.126053927789349e-01
3.035766082959412e-18 -8.956871820690986e-03 1.126053927789349e-01
2.670231632640695e-02 -8.922314835981812e-03 1.143810030723665e-01
1.258649951946399e-02 8.389485559330914e-03 7.283235493595246e-02
-3.794707603699266e-19 -1.951563910473908e-18 7.140530651565780e-02
1.258649951946399e-02 -8.389485559330914e-03 7.283235493595244e-02
2.543977574296990e-02 2.385244779468110e-18 7.491215866327092e-02
1.342519382118607e-02 8.948232574513697e-03 1.130492953522928e-01
2.547875105340935e-18 -2.059984127722458e-18 1.122302750627893e-01
1.342519382118607e-02 -8.948232574513694e-03 1.130492953522928e-01
2.680118825456953e-02 7.155734338404329e-18 1.140016330325307e-01
2.627374264989894e-02 8.703046738903217e-03 9.474758962152419e-02
-3.252606517456513e-19 8.758663179743833e-03 9.233005679298924e-02
1.897353801849633e-18 -8.758663179743831e-03 9.233005679298922e-02
2.627374264989893e-02 -8.703046738903208e-03 9.474758962152419e-02
2.645806090808511e-02 2.710505431213761e-18 9.431741038964002e-02
9.622294280808852e-19 -2.574980159653073e-18 9.189988797621507e-02
1.312387267643840e-02 8.744759069533679e-03 9.293444000012301e-02
1.312387267643840e-02 -8.744759069533675e-03 9.293444000012298e-02
1.270632948577325e-02 8.131516293641283e-20 7.228201955256110e-02
1.347362543399035e-02 8.402566836762659e-19 1.126731145552246e-01
1.320817337842915e-02 3.726944967918921e-19 9.250426857957129e-02
-1.517883041479706e-18 8.407511870415055e-03 7.195668959970244e-02
-2.525436284842850e-02 8.335406626078477e-03 7.545935094470246e-02
-2.525436284842850e-02 -8.335406626078481e-03 7.545935094470246e-02
0.000000000000000e+00 -8.407511870415055e-03 7.195668959970243e-02
4.336808689942018e-19 8.956871820690991e-03 1.126053927789349e-01
-2.670231632640693e-02 8.922314835981809e-03 1.143810030723665e-01
-2.670231632640693e-02 -8.922314835981812e-03 1.143810030723665e-01
3.035766082959412e-18 -8.956871820690986e-03 1.126053927789349e-01
-1.258649951946399e-02 8.389485559330908e-03 7.283235493595244e-02
-2.543977574296988e-02 -3.252606517456513e-18 7.491215866327092e-02
-1.258649951946399e-02 -8.389485559330912e-03 7.283235493595244e-02
-3.794707603699266e-19 -1.951563910473908e-18 7.140530651565780e-02
-1.342519382118607e-02 8.948232574513696e-03 1.130492953522928e-01
-2.680118825456953e-02 -2.385244779468110e-18 1.140016330325307e-01
-1.342519382118607e-02 -8.948232574513694e-03 1.130492953522928e-01
2.547875105340935e-18 -2.059984127722458e-18 1.122302750627893e-01
-3.252606517456513e-19 8.758663179743833e-03 9.233005679298924e-02
-2.627374264989893e-02 8.703046738903205e-03 9.474758962152419e-02
-2.627374264989893e-02 -8.703046738903208e-03 9.474758962152417e-02
1.897353801849633e-18 -8.758663179743831e-03 9.233005679298922e-02
9.622294280808852e-19 -2.574980159653073e-18 9.189988797621507e-02
-2.645806090808510e-02 -3.577867169202165e-18 9.431741038964001e-02
-1.312387267643840e-02 8.744759069533675e-03 9.293444000012298e-02
-1.312387267643840e-02 -8.744759069533675e-03 9.293444000012298e-02
-1.270632948577325e-02 -2.818925648462312e-18 7.228201955256107e-02
-1.347362543399035e-02 -2.114194236346734e-18 1.126731145552246e-01
-1.320817337842914e-02 -3.455894424797545e-18 9.250426857957127e-02
2.525436284842851e-02 -8.335406626078481e-03 7.545935094470248e-02
0.000000000000000e+00 -8.407511870415055e-03 7.195668959970243e-02
4.336808689942018e-19 -2.556143495083017e-02 7.490720249775258e-02
2.457090776255630e-02 -2.462224021071000e-02 7.853157122033078e-02
2.670231632640695e-02 -8.922314835981812e-03 1.143810030723665e-01
3.035766082959412e-18 -8.956871820690986e-03 1.126053927789349e-01
4.336808689942018e-18 -2.675806272913939e-02 1.141238786003127e-01
2.658140328921309e-02 -2.644545614567166e-02 1.160315792645802e-01
1.258649951946399e-02 -8.389485559330914e-03 7.283235493595244e-02
7.589415207398531e-19 -1.689974857572636e-02 7.324570090825962e-02
1.244955611391918e-02 -2.532663626580013e-02 7.581329467839712e-02
2.489808618241908e-02 -1.657481833527560e-02 7.677459829504114e-02
1.342519382118607e-02 -8.948232574513694e-03 1.130492953522928e-01
3.361026734705064e-18 -1.788560545814858e-02 1.133601319504250e-01
1.338317753093018e-02 -2.667991108327246e-02 1.146008037663796e-01
2.657321613894590e-02 -1.776425758139519e-02 1.151730171602558e-01
2.627374264989893e-02 -8.703046738903208e-03 9.474758962152419e-02
1.897353801849633e-18 -8.758663179743831e-03 9.233005679298922e-02
2.493664996716660e-18 -2.639131619871053e-02 9.438881865285426e-02
2.598396080634171e-02 -2.579475551690492e-02 9.693933505230287e-02
2.601697893082347e-02 -1.732749730285525e-02 9.572570521110302e-02
1.707618421664669e-18 -1.754615802435742e-02 9.327491607472965e-02
1.312387267643840e-02 -8.744759069533675e-03 9.293444000012298e-02
1.303895972481084e-02 -2.624217602825912e-02 9.502644775271640e-02
1.243243370176853e-02 -1.681851601561367e-02 7.412792525495497e-02
1.336625813581781e-02 -1.785526848896023e-02 1.138133532528827e-01
1.301834373654077e-02 -1.749149284398188e-02 9.388761335882302e-02
0.000000000000000e+00 -8.407511870415055e-03 7.195668959970243e-02
-2.525436284842850e-02 -8.335406626078481e-03 7.545935094470246e-02
-2.457090776255630e-02 -2.462224021070999e-02 7.853157122033075e-02
4.336808689942018e-19 -2.556143495083017e-02 7.490720249775258e-02
3.035766082959412e-18 -8.956871820690986e-03 1.126053927789349e-01
-2.670231632640693e-02 -8.922314835981812e-03 1.143810030723665e-01
-2.658140328921308e-02 -2.644545614567165e-02 1.160315792645802e-01
4.336808689942018e-18 -2.675806272913939e-02 1.141238786003127e-01
-1.258649951946399e-02 -8.389485559330912e-03 7.283235493595244e-02
-2.489808618241907e-02 -1.657481833527560e-02 7.677459829504112e-02
-1.244955611391918e-02 -2.532663626580013e-02 7.581329467839712e-02
7.589415207398531e-19 -1.689974857572636e-02 7.324570090825962e-02
-1.342519382118607e-02 -8.948232574513694e-03 1.130492953522928e-01
-2.657321613894589e-02 -1.776425758139518e-02 1.151730171602557e-01
-1.338317753093017e-02 -2.667991108327246e-02 1.146008037663796e-01
3.361026734705064e-18 -1.788560545814858e-02 1.133601319504250e-01
1.897353801849633e-18 -8.758663179743831e-03 9.233005679298922e-02
-2.627374264989893e-02 -8.703046738903208e-03 9.474758962152417e-02
-2.598396080634170e-02 -2.579475551690490e-02 9.693933505230282e-02
2.493664996716660e-18 -2.639131619871053e-02 9.438881865285426e-02
1.707618421664669e-18 -1.754615802435742e-02 9.327491607472965e-02
-2.601697893082345e-02 -1.732749730285524e-02 9.572570521110300e-02
-1.312387267643840e-02 -8.744759069533675e-03 9.293444000012298e-02
-1.303895972481084e-02 -2.624217602825913e-02 9.502644775271642e-02
-1.243243370176852e-02 -1.681851601561367e-02 7.412792525495500e-02
-1.336625813581780e-02 -1.785526848896023e-02 1.138133532528827e-01
-1.301834373654077e-02 -1.749149284398187e-02 9.388761335882305e-02
2.658140328921309e-02 2.644545614567165e-02 1.160315792645802e-01
-3.903127820947816e-18 2.675806272913940e-02 1.141238786003127e-01
4.336808689942018e-19 8.956871820690991e-03 1.126053927789349e-01
2.670231632640694e-02 8.922314835981824e-03 1.143810030723665e-01
2.744753864110083e-02 2.719356163853905e-02 1.553974853928492e-01
2.602085213965211e-18 2.715378116167291e-02 1.539995169726856e-01
6.505213034913027e-18 9.267271717588890e-03 1.529457005363496e-01
2.731386783187746e-02 9.266345126175565e-03 1.541978243880779e-01
1.338317753093017e-02 2.667991108327247e-02 1.146008037663796e-01
-1.517883041479706e-18 1.788560545814859e-02 1.133601319504250e-01
1.342519382118607e-02 8.948232574513697e-03 1.130492953522928e-01
2.657321613894590e-02 1.776425758139519e-02 1.151730171602557e-01
1.382180367986625e-02 2.716372628088945e-02 1.543490090777265e-01
5.204170427930421e-18 1.837253493740434e-02 1.535176367877370e-01
1.381275231041019e-02 9.267040069735564e-03 1.532587314992817e-01
2.733863191135283e-02 1.838132181735422e-02 1.548193423958723e-01
2.689275572839221e-02 2.682737916391482e-02 1.355902979978625e-01
-2.818925648462312e-18 2.692458192312434e-02 1.340236791152243e-01
2.493664996716660e-18 9.095340448293640e-03 1.328036299094262e-01
2.692178950978797e-02 9.080863453133033e-03 1.342382088202207e-01
2.690202480103836e-02 1.805792410739499e-02 1.349323057020089e-01
2.168404344971009e-19 1.810032104114814e-02 1.334561162749071e-01
1.360364652003078e-02 2.690028123332197e-02 1.344153338358839e-01
1.361373101280924e-02 9.091721199503487e-03 1.331622746371248e-01
1.336625813581781e-02 1.785526848896024e-02 1.138133532528827e-01
1.381090178058297e-02 1.837473165739181e-02 1.538430631897708e-01
1.359187733777382e-02 1.808972180770985e-02 1.338251636316825e-01
-3.903127820947816e-18 2.675806272913940e-02 1.141238786003127e-01
-2.658140328921308e-02 2.644545614567165e-02 1.160315792645802e-01
-2.670231632640693e-02 8.922314835981809e-03 1.143810030723665e-01
4.336808689942018e-19 8.956871820690991e-03 1.126053927789349e-01
2.602085213965211e-18 2.715378116167291e-02 1.539995169726856e-01
-2.744753864110084e-02 2.719356163853904e-02 1.553974853928492e-01
-2.731386783187747e-02 9.266345126175569e-03 1.541978243880779e-01
6.505213034913027e-18 9.267271717588890e-03 1.529457005363496e-01
-1.338317753093018e-02 2.667991108327245e-02 1.146008037663796e-01
-2.657321613894589e-02 1.776425758139517e-02 1.151730171602557e-01
-1.342519382118607e-02 8.948232574513696e-03 1.130492953522928e-01
-1.517883041479706e-18 1.788560545814859e-02 1.133601319504250e-01
-1.382180367986625e-02 2.716372628088944e-02 1.543490090777265e-01
-2.733863191135284e-02 1.838132181735422e-02 1.548193423958723e-01
-1.381275231041018e-02 9.267040069735555e-03 1.532587314992817e-01
5.204170427930421e-18 1.837253493740434e-02 1.535176367877370e-01
-2.818925648462312e-18 2.692458192312434e-02 1.340236791152243e-01
-2.689275572839220e-02 2.682737916391482e-02 1.355902979978625e-01
-2.692178950978796e-02 9.080863453133020e-03 1.342382088202207e-01
2.493664996716660e-18 9.095340448293640e-03 1.328036299094262e-01
2.168404344971009e-19 1.810032104114814e-02 1.334561162749071e-01
-2.690202480103835e-02 1.805792410739498e-02 1.349323057020089e-01
-1.360364652003078e-02 2.690028123332196e-02 1.344153338358839e-01
-1.361373101280924e-02 9.091721199503487e-03 1.331622746371248e-01
-1.336625813581781e-02 1.785526848896023e-02 1.138133532528827e-01
-1.381090178058296e-02 1.837473165739180e-02 1.538430631897708e-01
-1.359187733777382e-02 1.808972180770984e-02 1.338251636316825e-01
2.670231632640694e-02 8.922314835981824e-03 1.143810030723665e-01
4.336808689942018e-19 8.956871820690991e-03 1.126053927789349e-01
3.035766082959412e-18 -8.956871820690986e-03 1.126053927789349e-01
2.670231632640695e-02 -8.922314835981812e-03 1.143810030723665e-01
2.731386783187746e-02 9.266345126175565e-03 1.541978243880779e-01
6.505213034913027e-18 9.267271717588890e-03 1.529457005363496e-01
5.204170427930421e-18 -9.267271717588878e-03 1.529457005363495e-01
2.731386783187748e-02 -9.266345126175564e-03 1.541978243880780e-01
1.342519382118607e-02 8.948232574513697e-03 1.130492953522928e-01
2.547875105340935e-18 -2.059984127722458e-18 1.122302750627893e-01
1.342519382118607e-02 -8.948232574513694e-03 1.130492953522928e-01
2.680118825456953e-02 7.155734338404329e-18 1.140016330325307e-01
1.381275231041019e-02 9.267040069735564e-03 1.532587314992817e-01
6.505213034913027e-18 3.252606517456513e-18 1.526372183940461e-01
1.381275231041020e-02 -9.267040069735550e-03 1.532587314992817e-01
2.732252145470795e-02 -1.301042606982605e-18 1.538762216314765e-01
2.692178950978797e-02 9.080863453133033e-03 1.342382088202207e-01
2.493664996716660e-18 9.095340448293640e-03 1.328036299094262e-01
4.770489558936220e-18 -9.095340448293633e-03 1.328036299094262e-01
2.692178950978798e-02 -9.080863453133019e-03 1.342382088202207e-01
2.693429577318865e-02 7.589415207398531e-18 1.338821342328429e-01
3.794707603699266e-18 -5.421010862427522e-20 1.324561558453948e-01
1.361373101280924e-02 9.091721199503487e-03 1.331622746371248e-01
1.361373101280925e-02 -9.091721199503480e-03 1.331622746371248e-01
1.347362543399035e-02 8.402566836762659e-19 1.126731145552246e-01
1.381686568260143e-02 4.770489558936220e-18 1.529469692034038e-01
1.363306356465006e-02 2.385244779468110e-18 1.328126504422568e-01
4.336808689942018e-19 8.956871820690991e-03 1.126053927789349e-01
-2.670231632640693e-02 8.922314835981809e-03 1.143810030723665e-01
-2.670231632640693e-02 -8.922314835981812e-03 1.143810030723665e-01
3.035766082959412e-18 -8.956871820690986e-03 1.126053927789349e-01
6.505213034913027e-18 9.267271717588890e-03 1.529457005363496e-01
-2.731386783187747e-02 9.266345126175569e-03 1.541978243880779e-01
-2.731386783187745e-02 -9.266345126175565e-03 1.541978243880779e-01
5.204170427930421e-18 -9.267271717588878e-03 1.529457005363495e-01
-1.342519382118607e-02 8.948232574513696e-03 1.130492953522928e-01
-2.680118825456953e-02 -2.385244779468110e-18 1.140016330325307e-01
-1.342519382118607e-02 -8.948232574513694e-03 1.130492953522928e-01
2.547875105340935e-18 -2.059984127722458e-18 1.122302750627893e-01
-1.381275231041018e-02 9.267040069735555e-03 1.532587314992817e-01
-2.732252145470794e-02 4.336808689942018e-19 1.538762216314765e-01
-1.381275231041018e-02 -9.267040069735550e-03 1.532587314992817e-01
6.505213034913027e-18 3.252606517456513e-18 1.526372183940461e-01
2.493664996716660e-18 9.095340448293640e-03 1.328036299094262e-01
-2.692178950978796e-02 9.080863453133020e-03 1.342382088202207e-01
-2.692178950978796e-02 -9.080863453133022e-03 1.342382088202206e-01
4.770489558936220e-18 -9.095340448293633e-03 1.328036299094262e-01
3.794707603699266e-18 -5.421010862427522e-20 1.324561558453948e-01
-2.693429577318864e-02 -1.084202172485504e-18 1.338821342328428e-01
-1.361373101280924e-02 9.091721199503487e-03 1.331622746371248e-01
-1.361373101280924e-02 -9.091721199503482e-03 1.331622746371248e-01
-1.347362543399035e-02 -2.114194236346734e-18 1.126731145552246e-01
-1.381686568260142e-02 0.000000000000000e+00 1.529469692034037e-01
-1.363306356465005e-02 -3.252606517456513e-19 1.328126504422568e-01
2.670231632640695e-02 -8.922314835981812e-03 1.143810030723665e-01
3.035766082959412e-18 -8.956871820690986e-03 1.126053927789349e-01
4.336808689942018e-18 -2.675806272913939e-02 1.141238786003127e-01
2.658140328921309e-02 -2.644545614567166e-02 1.160315792645802e-01
2.731386783187748e-02 -9.266345126175564e-03 1.541978243880780e-01
5.204170427930421e-18 -9.267271717588878e-03 1.529457005363495e-01
3.469446951953614e-18 -2.715378116167289e-02 1.539995169726855e-01
2.744753864110084e-02 -2.719356163853901e-02 1.553974853928491e-01
1.342519382118607e-02 -8.948232574513694e-03 1.130492953522928e-01
3.361026734705064e-18 -1.788560545814858e-02 1.133601319504250e-01
1.338317753093018e-02 -2.667991108327246e-02 1.146008037663796e-01
2.657321613894590e-02 -1.776425758139519e-02 1.151730171602558e-01
1.381275231041020e-02 -9.267040069735550e-03 1.532587314992817e-01
4.336808689942018e-18 -1.837253493740432e-02 1.535176367877370e-01
1.382180367986625e-02 -2.716372628088942e-02 1.543490090777264e-01
2.733863191135285e-02 -1.838132181735421e-02 1.548193423958723e-01
2.692178950978798e-02 -9.080863453133019e-03 1.342382088202207e-01
4.770489558936220e-18 -9.095340448293633e-03 1.328036299094262e-01
5.204170427930421e-18 -2.692458192312433e-02 1.340236791152243e-01
2.689275572839221e-02 -2.682737916391483e-02 1.355902979978625e-01
2.690202480103836e-02 -1.805792410739498e-02 1.349323057020090e-01
4.553649124439119e-18 -1.810032104114813e-02 1.334561162749070e-01
1.361373101280925e-02 -9.091721199503480e-03 1.331622746371248e-01
1.360364652003078e-02 -2.690028123332195e-02 1.344153338358839e-01
1.336625813581781e-02 -1.785526848896023e-02 1.138133532528827e-01
1.381090178058298e-02 -1.837473165739180e-02 1.538430631897708e-01
1.359187733777382e-02 -1.808972180770984e-02 1.338251636316825e-01
3.035766082959412e-18 -8.956871820690986e-03 1.126053927789349e-01
-2.670231632640693e-02 -8.922314835981812e-03 1.143810030723665e-01
-2.658140328921308e-02 -2.644545614567165e-02 1.160315792645802e-01
4.336808689942018e-18 -2.675806272913939e-02 1.141238786003127e-01
5.204170427930421e-18 -9.267271717588878e-03 1.529457005363495e-01
-2.731386783187745e-02 -9.266345126175565e-03 1.541978243880779e-01
-2.744753864110083e-02 -2.719356163853903e-02 1.553974853928492e-01
3.469446951953614e-18 -2.715378116167289e-02 1.539995169726855e-01
-1.342519382118607e-02 -8.948232574513694e-03 1.130492953522928e-01
-2.657321613894589e-02 -1.776425758139518e-02 1.151730171602557e-01
-1.338317753093017e-02 -2.667991108327246e-02 1.146008037663796e-01
3.361026734705064e-18 -1.788560545814858e-02 1.133601319504250e-01
-1.381275231041018e-02 -9.267040069735550e-03 1.532587314992817e-01
-2.733863191135282e-02 -1.838132181735422e-02 1.548193423958723e-01
-1.382180367986624e-02 -2.716372628088943e-02 1.543490090777264e-01
4.336808689942018e-18 -1.837253493740432e-02 1.535176367877370e-01
4.770489558936220e-18 -9.095340448293633e-03 1.328036299094262e-01
-2.692178950978796e-02 -9.080863453133022e-03 1.342382088202206e-01
-2.689275572839219e-02 -2.682737916391482e-02 1.355902979978625e-01
5.204170427930421e-18 -2.692458192312433e-02 1.340236791152243e-01
4.553649124439119e-18 -1.810032104114813e-02 1.334561162749070e-01
-2.690202480103835e-02 -1.805792410739499e-02 1.349323057020089e-01
-1.361373101280924e-02 -9.091721199503482e-03 1.331622746371248e-01
-1.360364652003077e-02 -2.690028123332196e-02 1.344153338358839e-01
-1.336625813581780e-02 -1.785526848896023e-02 1.138133532528827e-01
-1.381090178058297e-02 -1.837473165739180e-02 1.538430631897708e-01
-1.359187733777381e-02 -1.808972180770984e-02 1.338251636316825e-01
        </DataArray>
        <DataArray type="Float64" Name="nodal_GL_strains_xyz" NumberOfComponents="6" format="ascii">
-4.725802888929460e-02 -4.684500205097099e-02 1.551333867172059e-01 2.374352479049143e-03 -5.348523067083937e-03 -6.539203876618714e-03
-4.928857330150338e-02 -5.102209114164191e-02 1.664993417528923e-01 3.887534006947330e-07 -6.263354294054302e-03 -5.717173236496546e-04
-4.952386606681074e-02 -4.964167636415326e-02 1.791541468678681e-01 -8.930905664177486e-05 -4.425511945472648e-04 -6.353844667922036e-04
-4.973386692543265e-02 -4.908416686714837e-02 1.672314493181885e-01 6.219738118329896e-04 -4.199712231776080e-04 -7.495757889070687e-03
-5.102213534271768e-02 -5.025105508778735e-02 1.656746694683241e-01 3.904540126684823e-04 -1.552860196272761e-03 -3.086168320792157e-03
-5.226156026536421e-02 -5.163597274984316e-02 1.716070826569925e-01 -2.523890003037422e-05 -2.302406113761156e-03 6.105546356266938e-04
-5.241595677554759e-02 -5.225464350839228e-02 1.761651902962235e-01 -3.439921067835601e-05 -1.342354906743812e-03 5.811984435406606e-04
-5.142557064738692e-02 -5.200844830219019e-02 1.702769688518447e-01 2.938136813073962e-04 -1.311478916595889e-03 -3.540822310785211e-03
-4.863896981845264e-02 -4.997840119629095e-02 1.636824794393240e-01 5.932965547117538e-04 -6.037357803519496e-03 -1.206012976417461e-03
-4.919252399829172e-02 -5.013431290840463e-02 1.765784702774989e-01 -8.123183129846925e-05 -1.936549844885600e-03 -6.383137634502971e-04
-4.959555149401336e-02 -4.950227181461457e-02 1.762004803354777e-01 2.224752454395761e-04 -4.352308180632348e-04 -1.397401122173556e-03
-4.898412756611969e-02 -4.827577054597147e-02 1.647593371214428e-01 1.359167403744640e-03 -1.689463007494682e-03 -7.050277894716335e-03
-5.186817105851450e-02 -5.128969108503856e-02 1.701201026225354e-01 1.165426781898810e-04 -2.114910695046112e-03 -1.229458056918043e-03
-5.227172063570271e-02 -5.203672604850677e-02 1.744580524310678e-01 -4.081574335467179e-05 -2.267878462235683e-03 5.689099613305207e-04
-5.210233775054345e-02 -5.219310816767989e-02 1.746900370726297e-01 9.925282833562469e-05 -1.334841659827829e-03 -1.321104410351811e-03
-5.121097839157349e-02 -5.138195969023288e-02 1.685995269961821e-01 4.110631429273423e-04 -2.061640664819698e-03 -3.246442607673481e-03
-5.037985996476763e-02 -4.910910391908921e-02 1.599417821976243e-01 8.466086976896884e-04 -2.544529191331937e-03 -3.597286825009014e-03
-5.097261913789956e-02 -5.178167286486726e-02 1.696115704675418e-01 -6.074192293125661e-05 -3.542220643249816e-03 5.206749871025241e-04
-5.123646347955471e-02 -5.127848100658142e-02 1.779065367790233e-01 -5.295829412658172e-05 -1.260738076445955e-03 4.561588098729821e-04
-5.135297360457852e-02 -5.086590232726397e-02 1.681246344798201e-01 5.435043731278671e-04 -1.219733172069793e-03 -4.546780156352933e-03
-5.085977120850773e-02 -5.023988644075657e-02 1.655318950752286e-01 7.978819329304385e-04 -2.211427077422770e-03 -4.167681985436403e-03
-5.099878132935513e-02 -5.146383913162703e-02 1.752554953879930e-01 -6.835543821810393e-05 -2.490994559434342e-03 4.407451621598554e-04
-5.078824865629032e-02 -5.111359633501007e-02 1.671953095817278e-01 2.572086166208490e-04 -3.293100823469216e-03 -1.289827946579151e-03
-5.128014040490093e-02 -5.117536688477935e-02 1.754638683975630e-01 1.755948138769038e-04 -1.250362083311408e-03 -1.478814146493006e-03
-4.912980530532166e-02 -4.966988498590690e-02 1.736503976318793e-01 4.007157244100066e-04 -1.873890831049991e-03 -1.283834151091383e-03
-5.193545229006703e-02 -5.187303382690487e-02 1.729902258432044e-01 1.333775932478482e-04 -2.216462710127569e-03 -1.238293122916262e-03
-5.096027610040301e-02 -5.115790536221675e-02 1.728271797068406e-01 2.507370618961873e-04 -2.421030838753223e-03 -1.372479367979011e-03
-4.928857330150338e-02 -5.102209114164191e-02 1.664993417528923e-01 3.887534006947330e-07 -6.263354294054302e-03 -5.717173236496546e-04
-4.607928875707683e-02 -4.266441899639961e-02 1.436196730093938e-01 -4.751217634901627e-03 -4.417423942868271e-03 1.540663192953387e-02
-4.982875650877203e-02 -4.852682042186804e-02 1.551467046383302e-01 -8.864340626739600e-04 -4.074435536573671e-04 1.757947013848157e-02
-4.952386606681074e-02 -4.964167636415326e-02 1.791541468678681e-01 -8.930905664177486e-05 -4.425511945472648e-04 -6.353844667922036e-04
-5.226156026536421e-02 -5.163597274984316e-02 1.716070826569925e-01 -2.523890003037422e-05 -2.302406113761156e-03 6.105546356266938e-04
-5.028390827719831e-02 -4.886645092147616e-02 1.597655167033940e-01 -6.796697945582444e-04 -8.039679148411684e-04 3.735711516922235e-03
-5.083131947701026e-02 -5.176217233095928e-02 1.644073345824590e-01 -4.501047228343272e-04 -1.279368422722210e-03 4.760970210932489e-03
-5.241595677554759e-02 -5.225464350839228e-02 1.761651902962235e-01 -3.439921067835601e-05 -1.342354906743812e-03 5.811984435406606e-04
-4.862821954539528e-02 -4.893209077801457e-02 1.607547981216644e-01 -1.186929713573833e-03 -5.799160390050008e-03 2.565294004171767e-03
-4.883944864351022e-02 -4.641598217487470e-02 1.527799401050194e-01 -2.393568188861926e-03 -1.447699997031066e-03 1.669785374644090e-02
-4.958090346475392e-02 -4.936298955386939e-02 1.731252784554541e-01 -4.225538931124810e-04 -4.354496679664062e-04 2.965252484337970e-03
-4.919252399829172e-02 -5.013431290840463e-02 1.765784702774989e-01 -8.123183129846925e-05 -1.936549844885600e-03 -6.383137634502971e-04
-5.185068024451082e-02 -5.094364454204205e-02 1.686505679058829e-01 -2.267049737078828e-04 -1.927905503374104e-03 2.307675809390603e-03
-5.057673285506445e-02 -5.072719712415921e-02 1.627601729361461e-01 -6.588208149479907e-04 -1.854540683928447e-03 4.221428210176580e-03
-5.208581994387725e-02 -5.213151225319591e-02 1.732288242302814e-01 -1.899244047348915e-04 -1.326402535117414e-03 2.497939050699621e-03
-5.227172063570271e-02 -5.203672604850677e-02 1.744580524310678e-01 -4.081574335467179e-05 -2.267878462235683e-03 5.689099613305207e-04
-5.097261913789956e-02 -5.178167286486726e-02 1.696115704675418e-01 -6.074192293125661e-05 -3.542220643249816e-03 5.206749871025241e-04
-5.000418492159261e-02 -4.643614073378749e-02 1.502648768377073e-01 -1.450254179705171e-03 -1.545019480222206e-03 5.129165891592635e-03
-5.138218736506117e-02 -5.045314035978254e-02 1.583258890205708e-01 -8.751985832066290e-04 -1.179476869936525e-03 7.285709198223933e-03
-5.123646347955471e-02 -5.127848100658142e-02 1.779065367790233e-01 -5.295829412658172e-05 -1.260738076445955e-03 4.561588098729821e-04
-5.099878132935513e-02 -5.146383913162703e-02 1.752554953879930e-01 -6.835543821810393e-05 -2.490994559434342e-03 4.407451621598554e-04
-5.074327728010215e-02 -4.901560733004177e-02 1.557927883802311e-01 -1.322356488939888e-03 -1.932290696480565e-03 6.588631044114853e-03
-5.076669127214909e-02 -5.044522412551000e-02 1.647737108784178e-01 -4.992328715216046e-04 -3.042617309294044e-03 2.453810193878841e-03
-5.125834505684104e-02 -5.107211529685438e-02 1.730085676460695e-01 -3.379558075864667e-04 -1.240547541859103e-03 2.847784621770230e-03
-4.911487474452341e-02 -4.920452255691158e-02 1.706021270909845e-01 -7.811636676370322e-04 -1.815224687409846e-03 2.738257468847080e-03
-5.191905647514652e-02 -5.170934444945330e-02 1.715367777864792e-01 -2.565406262850179e-04 -2.164400320412990e-03 2.335404465537818e-03
-5.093865801578218e-02 -5.085172677792340e-02 1.703872342390139e-01 -4.843888582257056e-04 -2.351390443874122e-03 2.638834375888406e-03
-4.973386692543265e-02 -4.908416686714837e-02 1.672314493181885e-01 6.219738118329896e-04 -4.199712231776080e-04 -7.495757889070687e-03
-4.952386606681074e-02 -4.964167636415326e-02 1.791541468678681e-01 -8.930905664177486e-05 -4.425511945472648e-04 -6.353844667922036e-04
-4.929042360140582e-02 -4.963541914501443e-02 1.796602542639670e-01 8.092708916705240e-05 3.493180498574418e-04 -6.511976330251715e-04
-4.962098749506313e-02 -4.907635749820927e-02 1.677076467100483e-01 -9.121851815856641e-04 3.321505430687536e-04 -7.321764225510397e-03
-5.142557064738692e-02 -5.200844830219019e-02 1.702769688518447e-01 2.938136813073962e-04 -1.311478916595889e-03 -3.540822310785211e-03
-5.241595677554759e-02 -5.225464350839228e-02 1.761651902962235e-01 -3.439921067835601e-05 -1.342354906743812e-03 5.811984435406606e-04
-5.232542351798741e-02 -5.224887238560179e-02 1.756789789288499e-01 3.673262574785275e-05 2.039018295897151e-03 5.643693179130843e-04
-5.132816948064655e-02 -5.200219561774021e-02 1.698261516200706e-01 -3.465383263438782e-04 2.027345876221833e-03 -3.385423287705074e-03
-4.959555149401336e-02 -4.950227181461457e-02 1.762004803354777e-01 2.224752454395761e-04 -4.352308180632348e-04 -1.397401122173556e-03
-4.973802432765170e-02 -4.949257920948933e-02 1.786926490285181e-01 -3.240279302225621e-05 -2.057860079845117e-04 -6.204916759067149e-04
-4.940124805768886e-02 -4.949557254174273e-02 1.766993719617814e-01 -2.887416122717010e-04 3.434326333336862e-04 -1.342042831608712e-03
-4.983642691811872e-02 -4.933081964204613e-02 1.667980952126536e-01 -6.066486162928599e-05 -1.945869582755262e-04 -7.658600964421974e-03
-5.210233775054345e-02 -5.219310816767989e-02 1.746900370726297e-01 9.925282833562469e-05 -1.334841659827829e-03 -1.321104410351811e-03
-5.249896047345658e-02 -5.231645049794288e-02 1.766112484097281e-01 -7.909641233492581e-06 1.884991476539638e-04 5.966186923654148e-04
-5.200950202837996e-02 -5.218722613255629e-02 1.742127424365690e-01 -1.141840508968630e-04 2.036256945032204e-03 -1.269632810361082e-03
-5.151495378534795e-02 -5.219402543943429e-02 1.706911315536838e-01 4.063630061490297e-05 2.130437099131328e-04 -3.682688760628644e-03
-5.135297360457852e-02 -5.086590232726397e-02 1.681246344798201e-01 5.435043731278671e-04 -1.219733172069793e-03 -4.546780156352933e-03
-5.123646347955471e-02 -5.127848100658142e-02 1.779065367790233e-01 -5.295829412658172e-05 -1.260738076445955e-03 4.561588098729821e-04
-5.108932112879012e-02 -5.127206180828016e-02 1.774126144194750e-01 5.663447214606318e-05 1.944481573405305e-03 4.291968414508824e-04
-5.113874975878525e-02 -5.085828997470535e-02 1.676577093893026e-01 -6.522372448349978e-04 1.919879206450468e-03 -4.425430822014883e-03
-5.154934162924827e-02 -5.105081552358803e-02 1.685549295412333e-01 6.596748997503484e-05 2.256648230977138e-04 -4.658167660848971e-03
-5.137139895664935e-02 -5.121731604653192e-02 1.783603560022961e-01 -1.210886566806700e-05 2.004526773042824e-04 4.809610097879691e-04
-5.128014040490093e-02 -5.117536688477935e-02 1.754638683975630e-01 1.755948138769038e-04 -1.250362083311408e-03 -1.478814146493006e-03
-5.111141629554386e-02 -5.116866749175066e-02 1.749768206301792e-01 -2.055351653182983e-04 1.938157096993224e-03 -1.428255336591862e-03
-4.977357640473376e-02 -4.945201617052337e-02 1.757457857216136e-01 9.135879359370595e-06 -2.024366885913129e-04 -1.449281484175494e-03
-5.218747260747175e-02 -5.228585772901365e-02 1.751280410305162e-01 1.609130607884338e-05 1.945367828823496e-04 -1.368136209431234e-03
-5.143485074490693e-02 -5.117571092164248e-02 1.759116554424809e-01 2.557352174480588e-05 2.067517821671130e-04 -1.525262672553253e-03
-4.952386606681074e-02 -4.964167636415326e-02 1.791541468678681e-01 -8.930905664177486e-05 -4.425511945472648e-04 -6.353844667922036e-04
-4.982875650877203e-02 -4.852682042186804e-02 1.551467046383302e-01 -8.864340626739600e-04 -4.074435536573671e-04 1.757947013848157e-02
-4.978245049150862e-02 -4.851778300082636e-02 1.555914216383666e-01 1.500719144764950e-03 3.245442752389483e-04 1.729378681084107e-02
-4.929042360140582e-02 -4.963541914501443e-02 1.796602542639670e-01 8.092708916705240e-05 3.493180498574418e-04 -6.511976330251715e-04
-5.241595677554759e-02 -5.225464350839228e-02 1.761651902962235e-01 -3.439921067835601e-05 -1.342354906743812e-03 5.811984435406606e-04
-5.083131947701026e-02 -5.176217233095928e-02 1.644073345824590e-01 -4.501047228343272e-04 -1.279368422722210e-03 4.760970210932489e-03
-5.073056332493898e-02 -5.175538121635936e-02 1.639915023018074e-01 5.461416561659780e-04 2.014732932223349e-03 4.517236199265411e-03
-5.232542351798741e-02 -5.224887238560179e-02 1.756789789288499e-01 3.673262574785275e-05 2.039018295897151e-03 5.643693179130843e-04
-4.958090346475392e-02 -4.936298955386939e-02 1.731252784554541e-01 -4.225538931124810e-04 -4.354496679664062e-04 2.965252484337970e-03
-4.986912093179418e-02 -4.916979895723387e-02 1.547428905144160e-01 2.512924723168169e-04 -1.866852503623154e-04 1.784645614637518e-02
-4.938524684106281e-02 -4.935609130053782e-02 1.736157765212729e-01 5.572657368171010e-04 3.447181460294018e-04 2.858252028403624e-03
-4.973802432765170e-02 -4.949257920948933e-02 1.786926490285181e-01 -3.240279302225621e-05 -2.057860079845117e-04 -6.204916759067149e-04
-5.208581994387725e-02 -5.213151225319591e-02 1.732288242302814e-01 -1.899244047348915e-04 -1.326402535117414e-03 2.497939050699621e-03
-5.092386426098528e-02 -5.207151940673861e-02 1.647900836888427e-01 -4.971830390156655e-05 2.381793041906783e-04 4.983264035269065e-03
-5.199331644999755e-02 -5.212547665437128e-02 1.727601394371754e-01 2.191838219741671e-04 2.032790200924819e-03 2.399140015120793e-03
-5.249896047345658e-02 -5.231645049794288e-02 1.766112484097281e-01 -7.909641233492581e-06 1.884991476539638e-04 5.966186923654148e-04
-5.123646347955471e-02 -5.127848100658142e-02 1.779065367790233e-01 -5.295829412658172e-05 -1.260738076445955e-03 4.561588098729821e-04
-5.138218736506117e-02 -5.045314035978254e-02 1.583258890205708e-01 -8.751985832066290e-04 -1.179476869936525e-03 7.285709198223933e-03
-5.112975033325137e-02 -5.044422628994483e-02 1.578852095496477e-01 1.077940441050326e-03 1.896320147535166e-03 7.150299259277602e-03
-5.108932112879012e-02 -5.127206180828016e-02 1.774126144194750e-01 5.663447214606318e-05 1.944481573405305e-03 4.291968414508824e-04
-5.137139895664935e-02 -5.121731604653192e-02 1.783603560022961e-01 -1.210886566806700e-05 2.004526773042824e-04 4.809610097879691e-04
-5.161348758120061e-02 -5.088419496556512e-02 1.587335667474638e-01 -8.351982053376683e-05 2.509005584040170e-04 7.409799040938608e-03
-5.125834505684104e-02 -5.107211529685438e-02 1.730085676460695e-01 -3.379558075864667e-04 -1.240547541859103e-03 2.847784621770230e-03
-5.108969042065046e-02 -5.106505428683208e-02 1.725278307337708e-01 3.969126725912250e-04 1.932615101611143e-03 2.753267708083866e-03
-4.975984704922199e-02 -4.941200729353062e-02 1.726784342529309e-01 -1.008316622087220e-05 -2.015603755449150e-04 3.065507765803724e-03
-5.217067261429643e-02 -5.225520422944389e-02 1.736591353947075e-01 -3.022626875074814e-05 2.010176921245487e-04 2.588208066639462e-03
-5.141295499267928e-02 -5.113401577044371e-02 1.734510026331376e-01 -4.812490288658939e-05 2.130685791647431e-04 2.934612032257615e-03
-4.962098749506313e-02 -4.907635749820927e-02 1.677076467100483e-01 -9.121851815856641e-04 3.321505430687536e-04 -7.321764225510397e-03
-4.929042360140582e-02 -4.963541914501443e-02 1.796602542639670e-01 8.092708916705240e-05 3.493180498574418e-04 -6.511976330251715e-04
-5.006560150713295e-02 -5.174835560435120e-02 1.516560923404516e-01 -2.785398942445629e-05 1.257330389290494e-02 -4.379957413073933e-04
-4.526772343619106e-02 -4.569345225502604e-02 1.409793462543483e-01 -3.564310959483656e-03 1.073745998000243e-02 -6.349923257603105e-03
-5.132816948064655e-02 -5.200219561774021e-02 1.698261516200706e-01 -3.465383263438782e-04 2.027345876221833e-03 -3.385423287705074e-03
-5.232542351798741e-02 -5.224887238560179e-02 1.756789789288499e-01 3.673262574785275e-05 2.039018295897151e-03 5.643693179130843e-04
-5.249953954905653e-02 -5.129098408215417e-02 1.691569594716177e-01 2.413055763560619e-05 1.850046552772825e-03 7.128062917219402e-04
-5.104116262781584e-02 -4.931207708259470e-02 1.630289243609161e-01 -4.623614227415555e-04 3.143489245853739e-04 -3.302683784335045e-03
-4.940124805768886e-02 -4.949557254174273e-02 1.766993719617814e-01 -2.887416122717010e-04 3.434326333336862e-04 -1.342042831608712e-03
-4.909497796794296e-02 -5.030805750015844e-02 1.735002921695123e-01 1.245026652562771e-04 3.762451257360091e-03 -6.246498256559417e-04
-4.852407365025121e-02 -5.023541552582772e-02 1.490080716281113e-01 -8.701872478025622e-04 1.212044530477471e-02 -1.258984008420289e-03
-4.834545191488192e-02 -4.797812138581138e-02 1.618160737455532e-01 -2.043197197661877e-03 3.272184962084860e-03 -6.785465660512071e-03
-5.200950202837996e-02 -5.218722613255629e-02 1.742127424365690e-01 -1.141840508968630e-04 2.036256945032204e-03 -1.269632810361082e-03
-5.221804888467557e-02 -5.194326497809642e-02 1.732377574255071e-01 6.044141659458426e-05 2.996951207699018e-03 5.734364683198620e-04
-5.203644006153912e-02 -5.079613668280297e-02 1.676199408678844e-01 -1.336882739121091e-04 1.465920352623428e-03 -1.360275664875054e-03
-5.109398375442259e-02 -5.113939933337226e-02 1.673745691796124e-01 -6.025807254892604e-04 2.578692606416990e-03 -3.106322694709034e-03
-5.113874975878525e-02 -5.085828997470535e-02 1.676577093893026e-01 -6.522372448349978e-04 1.919879206450468e-03 -4.425430822014883e-03
-5.108932112879012e-02 -5.127206180828016e-02 1.774126144194750e-01 5.663447214606318e-05 1.944481573405305e-03 4.291968414508824e-04
-5.134663119378026e-02 -5.201766465842605e-02 1.634594068777856e-01 8.069030350937616e-05 4.422261331779850e-03 7.023580344639128e-04
-5.033505123950728e-02 -4.816820728050911e-02 1.537894144252331e-01 -1.071939884518247e-03 2.403170057877870e-03 -3.174334012302580e-03
-5.058078921995107e-02 -4.999514684041327e-02 1.634101467689840e-01 -1.176432235075127e-03 2.950013208030009e-03 -3.910257114337232e-03
-5.090835640486956e-02 -5.151481308214016e-02 1.731000515411185e-01 1.039935762328604e-04 3.506650496637149e-03 4.524634634725779e-04
-5.111141629554386e-02 -5.116866749175066e-02 1.749768206301792e-01 -2.055351653182983e-04 1.938157096993224e-03 -1.428255336591862e-03
-5.102770456879246e-02 -5.105534936534748e-02 1.610408007490022e-01 -3.285026987615723e-04 3.918297023459832e-03 -1.320352028923584e-03
-4.885820196786565e-02 -4.972576447720129e-02 1.706054102119556e-01 -6.041762983576688e-04 3.638889260269710e-03 -1.227879045886035e-03
-5.186147488811882e-02 -5.174229268244150e-02 1.717685671094658e-01 -1.959762438182590e-04 2.892618307864856e-03 -1.206658024917105e-03
-5.080923494183220e-02 -5.113496937851525e-02 1.706797427894294e-01 -3.721032409434206e-04 3.367467598359829e-03 -1.316911876188690e-03
-4.929042360140582e-02 -4.963541914501443e-02 1.796602542639670e-01 8.092708916705240e-05 3.493180498574418e-04 -6.511976330251715e-04
-4.978245049150862e-02 -4.851778300082636e-02 1.555914216383666e-01 1.500719144764950e-03 3.245442752389483e-04 1.729378681084107e-02
-4.252219540013316e-02 -3.963383435285546e-02 1.301756053131308e-01 7.241184925942935e-03 8.865001726528279e-03 1.449222650607802e-02
-5.006560150713295e-02 -5.174835560435120e-02 1.516560923404516e-01 -2.785398942445629e-05 1.257330389290494e-02 -4.379957413073933e-04
-5.232542351798741e-02 -5.224887238560179e-02 1.756789789288499e-01 3.673262574785275e-05 2.039018295897151e-03 5.643693179130843e-04
-5.073056332493898e-02 -5.175538121635936e-02 1.639915023018074e-01 5.461416561659780e-04 2.014732932223349e-03 4.517236199265411e-03
-5.017381724981958e-02 -4.733389397980288e-02 1.569309482065696e-01 8.277988779200960e-04 -1.220137944985713e-03 3.762332884653192e-03
-5.249953954905653e-02 -5.129098408215417e-02 1.691569594716177e-01 2.413055763560619e-05 1.850046552772825e-03 7.128062917219402e-04
-4.938524684106281e-02 -4.935609130053782e-02 1.736157765212729e-01 5.572657368171010e-04 3.447181460294018e-04 2.858252028403624e-03
-4.789229278269505e-02 -4.564703923768657e-02 1.499748194309991e-01 3.588473960647852e-03 2.787891206438465e-03 1.611214823102633e-02
-4.852180831952926e-02 -4.871893953266945e-02 1.462648047744359e-01 1.747624755280697e-03 1.164012596121537e-02 2.637566208577926e-03
-4.909497796794296e-02 -5.030805750015844e-02 1.735002921695123e-01 1.245026652562771e-04 3.762451257360091e-03 -6.246498256559417e-04
-5.199331644999755e-02 -5.212547665437128e-02 1.727601394371754e-01 2.191838219741671e-04 2.032790200924819e-03 2.399140015120793e-03
-5.042326490813068e-02 -5.033556899549099e-02 1.615317404611256e-01 9.633543269219759e-04 2.159043502217366e-03 3.923416037525472e-03
-5.201661423145452e-02 -5.030183220602769e-02 1.661054664814137e-01 2.612434741601535e-04 1.082702221435725e-03 2.544397377537502e-03
-5.221804888467557e-02 -5.194326497809642e-02 1.732377574255071e-01 6.044141659458426e-05 2.996951207699018e-03 5.734364683198620e-04
-5.108932112879012e-02 -5.127206180828016e-02 1.774126144194750e-01 5.663447214606318e-05 1.944481573405305e-03 4.291968414508824e-04
-5.112975033325137e-02 -5.044422628994483e-02 1.578852095496477e-01 1.077940441050326e-03 1.896320147535166e-03 7.150299259277602e-03
-4.971966110375510e-02 -4.431845559419179e-02 1.441260700665508e-01 1.821144877895499e-03 3.792277230432396e-04 3.559487664717004e-03
-5.134663119378026e-02 -5.201766465842605e-02 1.634594068777856e-01 8.069030350937616e-05 4.422261331779850e-03 7.023580344639128e-04
-5.090835640486956e-02 -5.151481308214016e-02 1.731000515411185e-01 1.039935762328604e-04 3.506650496637149e-03 4.524634634725779e-04
-5.035660003588053e-02 -4.847504345784574e-02 1.537072373487881e-01 1.936917055781473e-03 2.393517376175412e-03 6.026949063713032e-03
-5.108969042065046e-02 -5.106505428683208e-02 1.725278307337708e-01 3.969126725912250e-04 1.932615101611143e-03 2.753267708083866e-03
-5.100592030769351e-02 -5.009281334096682e-02 1.586271806906221e-01 6.368394023699493e-04 3.410694419440220e-03 2.470177493723059e-03
-4.884370115844302e-02 -4.914261192891083e-02 1.675927513364509e-01 1.177249486988578e-03 3.519806667901257e-03 2.622574950030687e-03
-5.184491060453283e-02 -5.154134686691893e-02 1.703146464389793e-01 3.768317690683143e-04 2.787242530842258e-03 2.271086063101008e-03
-5.078764697943007e-02 -5.075479781925974e-02 1.682496805516916e-01 7.182148104692980e-04 3.228390792647251e-03 2.524780058741507e-03
-5.102213534271768e-02 -5.025105508778735e-02 1.656746694683241e-01 3.904540126684823e-04 -1.552860196272761e-03 -3.086168320792157e-03
-5.226156026536421e-02 -5.163597274984316e-02 1.716070826569925e-01 -2.523890003037422e-05 -2.302406113761156e-03 6.105546356266938e-04
-5.241595677554759e-02 -5.225464350839228e-02 1.761651902962235e-01 -3.439921067835601e-05 -1.342354906743812e-03 5.811984435406606e-04
-5.142557064738692e-02 -5.200844830219019e-02 1.702769688518447e-01 2.938136813073962e-04 -1.311478916595889e-03 -3.540822310785211e-03
-5.483185187690191e-02 -5.038275630135820e-02 1.744938437434227e-01 -1.454498547021986e-03 -6.452985832711960e-04 4.202748584507237e-04
-5.453454388532808e-02 -4.970957278767587e-02 1.736367709120685e-01 -9.960811255138930e-05 -2.559443080973450e-04 4.111597461775356e-04
-5.471344685248500e-02 -5.489895874962843e-02 1.734242387730603e-01 1.579413530827787e-05 -4.143380023650124e-04 2.425224263592072e-04
-5.316505250621414e-02 -5.497699694514192e-02 1.739440205595668e-01 6.337205846493823e-05 -4.823204780012067e-04 -1.218880700279998e-04
-5.186817105851450e-02 -5.128969108503856e-02 1.701201026225354e-01 1.165426781898810e-04 -2.114910695046112e-03 -1.229458056918043e-03
-5.227172063570271e-02 -5.203672604850677e-02 1.744580524310678e-01 -4.081574335467179e-05 -2.267878462235683e-03 5.689099613305207e-04
-5.210233775054345e-02 -5.219310816767989e-02 1.746900370726297e-01 9.925282833562469e-05 -1.334841659827829e-03 -1.321104410351811e-03
-5.121097839157349e-02 -5.138195969023288e-02 1.685995269961821e-01 4.110631429273423e-04 -2.061640664819698e-03 -3.246442607673481e-03
-5.463093702695442e-02 -4.987795868449721e-02 1.738497651452787e-01 -2.889185523419531e-04 -3.528737399822980e-04 -2.033010950206338e-04
-5.470787275577452e-02 -5.303851113166899e-02 1.731753651799052e-01 -1.946431983601257e-05 -4.118248296915331e-04 2.606760247698413e-04
-5.421669386685805e-02 -5.491847983287378e-02 1.735536751640796e-01 3.997413134984483e-06 -4.313376364354794e-04 -2.123638372765574e-04
-5.341046511923988e-02 -5.332967223798317e-02 1.738029874846735e-01 -4.093396084600368e-04 -6.197899204664153e-04 -2.744112617319748e-04
-5.167581324085803e-02 -5.057441830067409e-02 1.709770296200190e-01 -3.096419568017581e-05 -1.283216515665987e-03 -2.561697910721218e-03
-5.337550055685461e-02 -5.085520224222691e-02 1.728330816841872e-01 -1.921266901978374e-06 -1.541213177929830e-03 3.550175719694870e-04
-5.344679991359064e-02 -5.323864303445244e-02 1.744858450755441e-01 -1.701925222432654e-05 -9.670165828978326e-04 3.174233453297596e-04
-5.151011222441356e-02 -5.316206107909388e-02 1.725846862673858e-01 6.855261640770910e-05 -9.730581281187443e-04 -2.668864799599555e-03
-5.155534455019240e-02 -5.223441379058141e-02 1.720079765705736e-01 5.616973028172578e-05 -1.458347151797051e-03 -2.533154215185897e-03
-5.338389881271548e-02 -5.238445595115153e-02 1.738700421229597e-01 -1.804221459752422e-05 -1.497916802563465e-03 3.182103451658116e-04
-5.283148464283319e-02 -5.078503026274481e-02 1.723679054982260e-01 -6.300098743577409e-06 -1.476823104975400e-03 -9.066876566574369e-04
-5.282642756113208e-02 -5.321948327861255e-02 1.740097260862708e-01 2.990259327017348e-05 -9.685425200550133e-04 -9.052837088972379e-04
-5.193545229006703e-02 -5.187303382690487e-02 1.729902258432044e-01 1.333775932478482e-04 -2.216462710127569e-03 -1.238293122916262e-03
-5.429181624217260e-02 -5.311133121067812e-02 1.733317471825654e-01 -8.773666223804782e-05 -4.637003333188726e-04 -2.641098340105791e-04
-5.279830772157112e-02 -5.234694942728683e-02 1.734036952615775e-01 2.757409351857457e-05 -1.488061017530347e-03 -8.719463126708741e-04
-5.226156026536421e-02 -5.163597274984316e-02 1.716070826569925e-01 -2.523890003037422e-05 -2.302406113761156e-03 6.105546356266938e-04
-5.028390827719831e-02 -4.886645092147616e-02 1.597655167033940e-01 -6.796697945582444e-04 -8.039679148411684e-04 3.735711516922235e-03
-5.083131947701026e-02 -5.176217233095928e-02 1.644073345824590e-01 -4.501047228343272e-04 -1.279368422722210e-03 4.760970210932489e-03
-5.241595677554759e-02 -5.225464350839228e-02 1.761651902962235e-01 -3.439921067835601e-05 -1.342354906743812e-03 5.811984435406606e-04
-5.453454388532808e-02 -4.970957278767587e-02 1.736367709120685e-01 -9.960811255138930e-05 -2.559443080973450e-04 4.111597461775356e-04
-5.499676300608103e-02 -5.105539970463768e-02 1.753585604225265e-01 3.307285730336108e-03 -1.037107679905891e-03 -2.484833899870555e-03
-5.227458455430188e-02 -5.505496593445458e-02 1.744668566797167e-01 -1.898810549476833e-04 -5.502788626687290e-04 -7.260150264055882e-04
-5.471344685248500e-02 -5.489895874962843e-02 1.734242387730603e-01 1.579413530827787e-05 -4.143380023650124e-04 2.425224263592072e-04
-5.185068024451082e-02 -5.094364454204205e-02 1.686505679058829e-01 -2.267049737078828e-04 -1.927905503374104e-03 2.307675809390603e-03
-5.057673285506445e-02 -5.072719712415921e-02 1.627601729361461e-01 -6.588208149479907e-04 -1.854540683928447e-03 4.221428210176580e-03
-5.208581994387725e-02 -5.213151225319591e-02 1.732288242302814e-01 -1.899244047348915e-04 -1.326402535117414e-03 2.497939050699621e-03
-5.227172063570271e-02 -5.203672604850677e-02 1.744580524310678e-01 -4.081574335467179e-05 -2.267878462235683e-03 5.689099613305207e-04
-5.462803252178344e-02 -5.004593949851557e-02 1.740684922643114e-01 6.027031793433996e-04 -4.516442879579913e-04 3.039009539319793e-04
-5.266328510951429e-02 -5.362065452971382e-02 1.744337512306428e-01 8.965227813355270e-04 -8.284496256398632e-04 -4.936425793193373e-04
-5.421338567699846e-02 -5.493794901146799e-02 1.736854023053318e-01 -1.193345929325395e-05 -4.483192022795231e-04 3.641717027069712e-04
-5.470787275577452e-02 -5.303851113166899e-02 1.731753651799052e-01 -1.946431983601257e-05 -4.118248296915331e-04 2.606760247698413e-04
-5.337550055685461e-02 -5.085520224222691e-02 1.728330816841872e-01 -1.921266901978374e-06 -1.541213177929830e-03 3.550175719694870e-04
-5.069069043499431e-02 -5.029349032368609e-02 1.691279565753637e-01 6.976651172642444e-05 -1.024565297733088e-03 3.704850891206546e-03
-5.039062711622271e-02 -5.308556472573704e-02 1.706885031826294e-01 -6.903728045027261e-05 -9.790063682283134e-04 4.069109896193794e-03
-5.344679991359064e-02 -5.323864303445244e-02 1.744858450755441e-01 -1.701925222432654e-05 -9.670165828978326e-04 3.174233453297596e-04
-5.338389881271548e-02 -5.238445595115153e-02 1.738700421229597e-01 -1.804221459752422e-05 -1.497916802563465e-03 3.182103451658116e-04
-5.049750544075066e-02 -5.208434753234416e-02 1.701508938579036e-01 -4.013608536369818e-05 -1.418557735079839e-03 3.794564062930409e-03
-5.282339211141181e-02 -5.071475025668561e-02 1.719079635769005e-01 1.311877740217202e-05 -1.411942115269112e-03 1.725002259732999e-03
-5.281895714441291e-02 -5.320038772427383e-02 1.735373388895491e-01 -5.555263761730414e-05 -9.699984783784998e-04 1.731480001040437e-03
-5.191905647514652e-02 -5.170934444945330e-02 1.715367777864792e-01 -2.565406262850179e-04 -2.164400320412990e-03 2.335404465537818e-03
-5.428843044867771e-02 -5.318401717874962e-02 1.734904852661215e-01 1.803359757029015e-04 -5.160967977449970e-04 4.631104109025131e-04
-5.279075299523788e-02 -5.230942483017187e-02 1.729410855299815e-01 -5.062900418535399e-05 -1.478040408034073e-03 1.664614292355719e-03
-5.142557064738692e-02 -5.200844830219019e-02 1.702769688518447e-01 2.938136813073962e-04 -1.311478916595889e-03 -3.540822310785211e-03
-5.241595677554759e-02 -5.225464350839228e-02 1.761651902962235e-01 -3.439921067835601e-05 -1.342354906743812e-03 5.811984435406606e-04
-5.232542351798741e-02 -5.224887238560179e-02 1.756789789288499e-01 3.673262574785275e-05 2.039018295897151e-03 5.643693179130843e-04
-5.132816948064655e-02 -5.200219561774021e-02 1.698261516200706e-01 -3.465383263438782e-04 2.027345876221833e-03 -3.385423287705074e-03
-5.316505250621414e-02 -5.497699694514192e-02 1.739440205595668e-01 6.337205846493823e-05 -4.823204780012067e-04 -1.218880700279998e-04
-5.471344685248500e-02 -5.489895874962843e-02 1.734242387730603e-01 1.579413530827787e-05 -4.143380023650124e-04 2.425224263592072e-04
-5.474700660012777e-02 -5.489657469962116e-02 1.731649991653099e-01 1.342167221998149e-06 3.238622997350712e-04 2.219174504052465e-04
-5.301817244444247e-02 -5.497402847515717e-02 1.737050202501701e-01 1.235785878478409e-04 4.707431140461704e-04 -3.690735176190390e-04
-5.210233775054345e-02 -5.219310816767989e-02 1.746900370726297e-01 9.925282833562469e-05 -1.334841659827829e-03 -1.321104410351811e-03
-5.249896047345658e-02 -5.231645049794288e-02 1.766112484097281e-01 -7.909641233492581e-06 1.884991476539638e-04 5.966186923654148e-04
-5.200950202837996e-02 -5.218722613255629e-02 1.742127424365690e-01 -1.141840508968630e-04 2.036256945032204e-03 -1.269632810361082e-03
-5.151495378534795e-02 -5.219402543943429e-02 1.706911315536838e-01 4.063630061490297e-05 2.130437099131328e-04 -3.682688760628644e-03
-5.421669386685805e-02 -5.491847983287378e-02 1.735536751640796e-01 3.997413134984483e-06 -4.313376364354794e-04 -2.123638372765574e-04
-5.468268514431695e-02 -5.546146386459791e-02 1.736614354990299e-01 1.858903646608158e-05 -1.927026759465539e-04 2.613769139146651e-04
-5.419230914406528e-02 -5.491595953752881e-02 1.732996430758495e-01 2.988802154545640e-05 3.605551934640391e-04 -2.587064672085336e-04
-5.329961972041744e-02 -5.547501937385856e-02 1.741627593530749e-01 1.716677063639078e-04 -1.473296638416511e-04 1.043794918978962e-04
-5.151011222441356e-02 -5.316206107909388e-02 1.725846862673858e-01 6.855261640770910e-05 -9.730581281187443e-04 -2.668864799599555e-03
-5.344679991359064e-02 -5.323864303445244e-02 1.744858450755441e-01 -1.701925222432654e-05 -9.670165828978326e-04 3.174233453297596e-04
-5.340817169857440e-02 -5.323424523128142e-02 1.743121673311191e-01 1.903178057297858e-05 1.282340957838550e-03 3.100370897637630e-04
-5.151329444706097e-02 -5.315759994524658e-02 1.724346847808579e-01 -6.472189311527525e-05 1.321863022161013e-03 -2.575413545325088e-03
-5.150710070840769e-02 -5.344168238953957e-02 1.727219814307244e-01 2.273767213097506e-05 8.421586242691164e-06 -2.754420848225013e-03
-5.348221912152769e-02 -5.349587046890421e-02 1.746450377441830e-01 -3.209035321215524e-06 -1.732612680610312e-05 3.241883382621404e-04
-5.282642756113208e-02 -5.321948327861255e-02 1.740097260862708e-01 2.990259327017348e-05 -9.685425200550133e-04 -9.052837088972379e-04
-5.280122604746461e-02 -5.321505472690165e-02 1.738420467840819e-01 -3.045430870855742e-05 1.292225277254514e-03 -8.763812036540717e-04
-5.218747260747175e-02 -5.228585772901365e-02 1.751280410305162e-01 1.609130607884338e-05 1.945367828823496e-04 -1.368136209431234e-03
-5.423903610086939e-02 -5.546486809413905e-02 1.737861176188360e-01 2.897514924140036e-05 -1.813857579639114e-04 -1.699378124615488e-04
-5.284951129270148e-02 -5.348229673804363e-02 1.741633819384058e-01 8.091194523651926e-06 -1.090221948239470e-05 -9.317464657528601e-04
-5.241595677554759e-02 -5.225464350839228e-02 1.761651902962235e-01 -3.439921067835601e-05 -1.342354906743812e-03 5.811984435406606e-04
-5.083131947701026e-02 -5.176217233095928e-02 1.644073345824590e-01 -4.501047228343272e-04 -1.279368422722210e-03 4.760970210932489e-03
-5.073056332493898e-02 -5.175538121635936e-02 1.639915023018074e-01 5.461416561659780e-04 2.014732932223349e-03 4.517236199265411e-03
-5.232542351798741e-02 -5.224887238560179e-02 1.756789789288499e-01 3.673262574785275e-05 2.039018295897151e-03 5.643693179130843e-04
-5.471344685248500e-02 -5.489895874962843e-02 1.734242387730603e-01 1.579413530827787e-05 -4.143380023650124e-04 2.425224263592072e-04
-5.227458455430188e-02 -5.505496593445458e-02 1.744668566797167e-01 -1.898810549476833e-04 -5.502788626687290e-04 -7.260150264055882e-04
-5.202427179161052e-02 -5.505135388655612e-02 1.742472094990815e-01 -2.525385107995227e-04 6.177877874455908e-04 -1.493084351300509e-04
-5.474700660012777e-02 -5.489657469962116e-02 1.731649991653099e-01 1.342167221998149e-06 3.238622997350712e-04 2.219174504052465e-04
-5.208581994387725e-02 -5.213151225319591e-02 1.732288242302814e-01 -1.899244047348915e-04 -1.326402535117414e-03 2.497939050699621e-03
-5.092386426098528e-02 -5.207151940673861e-02 1.647900836888427e-01 -4.971830390156655e-05 2.381793041906783e-04 4.983264035269065e-03
-5.199331644999755e-02 -5.212547665437128e-02 1.727601394371754e-01 2.191838219741671e-04 2.032790200924819e-03 2.399140015120793e-03
-5.249896047345658e-02 -5.231645049794288e-02 1.766112484097281e-01 -7.909641233492581e-06 1.884991476539638e-04 5.966186923654148e-04
-5.421338567699846e-02 -5.493794901146799e-02 1.736854023053318e-01 -1.193345929325395e-05 -4.483192022795231e-04 3.641717027069712e-04
-5.250385042136143e-02 -5.548848276976651e-02 1.746679762693343e-01 -4.176575588729057e-04 -1.017986414783052e-04 -1.253915544039197e-03
-5.418881181513963e-02 -5.493524810233125e-02 1.734359131094282e-01 -6.011475145037962e-05 3.973709815115081e-04 4.619871546291309e-04
-5.468268514431695e-02 -5.546146386459791e-02 1.736614354990299e-01 1.858903646608158e-05 -1.927026759465539e-04 2.613769139146651e-04
-5.344679991359064e-02 -5.323864303445244e-02 1.744858450755441e-01 -1.701925222432654e-05 -9.670165828978326e-04 3.174233453297596e-04
-5.039062711622271e-02 -5.308556472573704e-02 1.706885031826294e-01 -6.903728045027261e-05 -9.790063682283134e-04 4.069109896193794e-03
-5.041777522493689e-02 -5.308112975643982e-02 1.705617016874254e-01 5.331720168999799e-05 1.361362266470992e-03 3.911674633548270e-03
-5.340817169857440e-02 -5.323424523128142e-02 1.743121673311191e-01 1.903178057297858e-05 1.282340957838550e-03 3.100370897637630e-04
-5.348221912152769e-02 -5.349587046890421e-02 1.746450377441830e-01 -3.209035321215524e-06 -1.732612680610312e-05 3.241883382621404e-04
-5.036555164856622e-02 -5.338765457629289e-02 1.708042754817378e-01 -3.264890695760512e-05 3.424742492184545e-05 4.213232162548985e-03
-5.281895714441291e-02 -5.320038772427383e-02 1.735373388895491e-01 -5.555263761730414e-05 -9.699984783784998e-04 1.731480001040437e-03
-5.279379891839645e-02 -5.319599554544210e-02 1.733753008296676e-01 5.615080671170598e-05 1.302092481661313e-03 1.675502110355511e-03
-5.217067261429643e-02 -5.225520422944389e-02 1.736591353947075e-01 -3.022626875074814e-05 2.010176921245487e-04 2.588208066639462e-03
-5.423585915105074e-02 -5.546820323866408e-02 1.739137195353111e-01 -6.258905766952744e-05 -1.699503322859085e-04 2.746191702982213e-04
-5.284198047883354e-02 -5.346884320677080e-02 1.736857389059842e-01 -1.538255621213271e-05 -4.419717935625855e-06 1.782731801727064e-03
-5.132816948064655e-02 -5.200219561774021e-02 1.698261516200706e-01 -3.465383263438782e-04 2.027345876221833e-03 -3.385423287705074e-03
-5.232542351798741e-02 -5.224887238560179e-02 1.756789789288499e-01 3.673262574785275e-05 2.039018295897151e-03 5.643693179130843e-04
-5.249953954905653e-02 -5.129098408215417e-02 1.691569594716177e-01 2.413055763560619e-05 1.850046552772825e-03 7.128062917219402e-04
-5.104116262781584e-02 -4.931207708259470e-02 1.630289243609161e-01 -4.623614227415555e-04 3.143489245853739e-04 -3.302683784335045e-03
-5.301817244444247e-02 -5.497402847515717e-02 1.737050202501701e-01 1.235785878478409e-04 4.707431140461704e-04 -3.690735176190390e-04
-5.474700660012777e-02 -5.489657469962116e-02 1.731649991653099e-01 1.342167221998149e-06 3.238622997350712e-04 2.219174504052465e-04
-5.421022068697801e-02 -4.699592454659327e-02 1.749708884942421e-01 1.592784464555852e-04 5.336387996855998e-04 6.689510267979407e-04
-5.713484489062881e-02 -4.798070488492689e-02 1.760778248097266e-01 2.411127375725652e-03 1.048229672959776e-03 2.032252021088594e-03
-5.200950202837996e-02 -5.218722613255629e-02 1.742127424365690e-01 -1.141840508968630e-04 2.036256945032204e-03 -1.269632810361082e-03
-5.221804888467557e-02 -5.194326497809642e-02 1.732377574255071e-01 6.044141659458426e-05 2.996951207699018e-03 5.734364683198620e-04
-5.203644006153912e-02 -5.079613668280297e-02 1.676199408678844e-01 -1.336882739121091e-04 1.465920352623428e-03 -1.360275664875054e-03
-5.109398375442259e-02 -5.113939933337226e-02 1.673745691796124e-01 -6.025807254892604e-04 2.578692606416990e-03 -3.106322694709034e-03
-5.419230914406528e-02 -5.491595953752881e-02 1.732996430758495e-01 2.988802154545640e-05 3.605551934640391e-04 -2.587064672085336e-04
-5.466874164074048e-02 -5.235711900888926e-02 1.731848450657606e-01 2.719235980788139e-05 7.083213248793078e-04 2.993676249824917e-04
-5.515080884620890e-02 -4.724230197429066e-02 1.752449364701855e-01 4.833230090897240e-04 6.615489289875999e-04 6.349735173091136e-06
-5.380261329545703e-02 -5.272544879639441e-02 1.739002323645036e-01 6.323250339555008e-04 9.949216336505493e-04 -1.803987805613065e-04
-5.151329444706097e-02 -5.315759994524658e-02 1.724346847808579e-01 -6.472189311527525e-05 1.321863022161013e-03 -2.575413545325088e-03
-5.340817169857440e-02 -5.323424523128142e-02 1.743121673311191e-01 1.903178057297858e-05 1.282340957838550e-03 3.100370897637630e-04
-5.347163367833228e-02 -4.960488150254132e-02 1.719327775383144e-01 -1.163835279818464e-05 1.629544170527022e-03 4.245902244916343e-04
-5.182733478392144e-02 -4.921844762837117e-02 1.700182648821598e-01 9.010185446641297e-05 1.014775742240742e-03 -2.859109473328615e-03
-5.159720271426754e-02 -5.188984470519657e-02 1.715807835279488e-01 -8.015689408535752e-05 1.984802350529328e-03 -2.490693037994662e-03
-5.335964682431463e-02 -5.206637851226638e-02 1.734278689059604e-01 2.459230492505561e-05 2.106469460471226e-03 3.263706888388525e-04
-5.280122604746461e-02 -5.321505472690165e-02 1.738420467840819e-01 -3.045430870855742e-05 1.292225277254514e-03 -8.763812036540717e-04
-5.294567614763124e-02 -4.950828503388656e-02 1.714523625773986e-01 3.125422821519917e-05 1.476082063915887e-03 -1.033220036700797e-03
-5.186147488811882e-02 -5.174229268244150e-02 1.717685671094658e-01 -1.959762438182590e-04 2.892618307864856e-03 -1.206658024917105e-03
-5.439130329349529e-02 -5.244926666394528e-02 1.733629999035045e-01 1.376869886329613e-04 7.797713712980003e-04 -2.696254138771183e-04
-5.279535370568628e-02 -5.202222743043364e-02 1.729652104036345e-01 -3.848345221514493e-05 2.076125021329384e-03 -8.674512761277564e-04
-5.232542351798741e-02 -5.224887238560179e-02 1.756789789288499e-01 3.673262574785275e-05 2.039018295897151e-03 5.643693179130843e-04
-5.073056332493898e-02 -5.175538121635936e-02 1.639915023018074e-01 5.461416561659780e-04 2.014732932223349e-03 4.517236199265411e-03
-5.017381724981958e-02 -4.733389397980288e-02 1.569309482065696e-01 8.277988779200960e-04 -1.220137944985713e-03 3.762332884653192e-03
-5.249953954905653e-02 -5.129098408215417e-02 1.691569594716177e-01 2.413055763560619e-05 1.850046552772825e-03 7.128062917219402e-04
-5.474700660012777e-02 -5.489657469962116e-02 1.731649991653099e-01 1.342167221998149e-06 3.238622997350712e-04 2.219174504052465e-04
-5.202427179161052e-02 -5.505135388655612e-02 1.742472094990815e-01 -2.525385107995227e-04 6.177877874455908e-04 -1.493084351300509e-04
-5.880287644437843e-02 -4.896439116456763e-02 1.772008777427683e-01 -5.459141934221387e-03 1.567246080331389e-03 -6.739630360895324e-03
-5.421022068697801e-02 -4.699592454659327e-02 1.749708884942421e-01 1.592784464555852e-04 5.336387996855998e-04 6.689510267979407e-04
-5.199331644999755e-02 -5.212547665437128e-02 1.727601394371754e-01 2.191838219741671e-04 2.032790200924819e-03 2.399140015120793e-03
-5.042326490813068e-02 -5.033556899549099e-02 1.615317404611256e-01 9.633543269219759e-04 2.159043502217366e-03 3.923416037525472e-03
-5.201661423145452e-02 -5.030183220602769e-02 1.661054664814137e-01 2.612434741601535e-04 1.082702221435725e-03 2.544397377537502e-03
-5.221804888467557e-02 -5.194326497809642e-02 1.732377574255071e-01 6.044141659458426e-05 2.996951207699018e-03 5.734364683198620e-04
-5.418881181513963e-02 -5.493524810233125e-02 1.734359131094282e-01 -6.011475145037962e-05 3.973709815115081e-04 4.619871546291309e-04
-5.330192251572444e-02 -5.309338733482325e-02 1.746197715849092e-01 -1.373405954618645e-03 1.282722127062357e-03 -8.364584554811070e-04
-5.514895251800991e-02 -4.748785885797287e-02 1.755310719093013e-01 -1.006408979030280e-03 7.927782088635909e-04 -1.797677799278625e-04
-5.466874164074048e-02 -5.235711900888926e-02 1.731848450657606e-01 2.719235980788139e-05 7.083213248793078e-04 2.993676249824917e-04
-5.340817169857440e-02 -5.323424523128142e-02 1.743121673311191e-01 1.903178057297858e-05 1.282340957838550e-03 3.100370897637630e-04
-5.041777522493689e-02 -5.308112975643982e-02 1.705617016874254e-01 5.331720168999799e-05 1.361362266470992e-03 3.911674633548270e-03
-5.087233273210216e-02 -4.883194175486832e-02 1.681144730072784e-01 -1.339358130849674e-04 3.986273111931075e-04 4.022160698558456e-03
-5.347163367833228e-02 -4.960488150254132e-02 1.719327775383144e-01 -1.163835279818464e-05 1.629544170527022e-03 4.245902244916343e-04
-5.335964682431463e-02 -5.206637851226638e-02 1.734278689059604e-01 2.459230492505561e-05 2.106469460471226e-03 3.263706888388525e-04
-5.057685115092034e-02 -5.171341667851819e-02 1.697390210968773e-01 6.188143610879210e-05 1.862701210525842e-03 3.677097436461481e-03
-5.279379891839645e-02 -5.319599554544210e-02 1.733753008296676e-01 5.615080671170598e-05 1.302092481661313e-03 1.675502110355511e-03
-5.293669124887308e-02 -4.941163456573529e-02 1.709799882024326e-01 -5.967024706711476e-05 1.321584955233109e-03 1.960868179745708e-03
-5.184491060453283e-02 -5.154134686691893e-02 1.703146464389793e-01 3.768317690683143e-04 2.787242530842258e-03 2.271086063101008e-03
-5.438794312041079e-02 -5.254112088219301e-02 1.735442686824896e-01 -2.821686790869254e-04 8.521215561991878e-04 4.644625423402525e-04
-5.278762999708263e-02 -5.197815568389462e-02 1.725065441115127e-01 7.080304510858697e-05 2.045455059641248e-03 1.653608409002740e-03
        </DataArray>
        <DataArray type="Float64" Name="nodal_cauchy_stresses_xyz" NumberOfComponents="6" format="ascii">
-1.351406710584724e-03 -7.175074675239443e-04 1.948535595353892e-01 1.639551863265280e-03 -3.809516591026226e-03 -4.715885629082479e-03
-8.250539661803729e-05 -3.432097388979542e-04 2.136707596126153e-01 6.754651981874911e-05 -4.795446338362038e-03 -1.040868720977189e-03
6.841418063811335e-03 6.842811306248961e-03 2.376744453721132e-01 -8.017024104476329e-05 2.921871903060991e-04 -1.185927779021038e-03
1.202589404308592e-03 1.286555374778923e-03 2.155501198261464e-01 3.073674166690186e-04 2.447475583485115e-04 -5.769573682876800e-03
-1.827503764274080e-03 -1.305323281374710e-03 2.114370807304816e-01 2.415810568544178e-04 -6.536817118648263e-04 -1.994214555412271e-03
-9.430109532310483e-04 -5.639519913942563e-04 2.212882341223846e-01 -1.284237976534951e-05 -1.696459440646106e-03 5.060328431083387e-04
8.095401961542761e-04 9.052501600262258e-04 2.295835510041482e-01 -2.296837670275395e-05 -1.101076703587425e-03 4.970499089181572e-04
-8.579723886528594e-04 -1.215944798611084e-03 2.190359590806086e-01 1.928808772212755e-04 -1.044123026133718e-03 -2.640988054157833e-03
-1.678499435710182e-04 -3.728071799072245e-04 2.090400359772361e-01 3.592280759522493e-04 -4.548240206954430e-03 -3.983198665377529e-04
5.679031892617394e-03 5.314952891642144e-03 2.328521266010355e-01 -6.645953994775202e-05 -5.058778782728323e-04 -1.191791187249678e-03
5.486943168926187e-03 5.468976328060917e-03 2.321789466683737e-01 1.369695349508251e-04 2.825852159990329e-04 -5.529475864534397e-04
1.113672082720988e-03 1.463472270917056e-03 2.116150830913847e-01 7.907429519285411e-04 -3.334841094798870e-04 -5.294467295287525e-03
-1.081203671675646e-03 -7.081331948211969e-04 2.188563505662282e-01 7.002704903760372e-05 -1.434965722447745e-03 -8.780782711843147e-04
2.492098836763005e-04 3.711584682592791e-04 2.265101233513671e-01 -2.585835638511484e-05 -1.819157931371601e-03 4.747866740782354e-04
4.597430897940937e-04 4.106300245885638e-04 2.269747044802910e-01 6.544650183238989e-05 -1.086899241083535e-03 -1.033034445228084e-03
-1.137062964249230e-03 -1.241223672805743e-03 2.163021439850539e-01 2.630284364087414e-04 -1.496183682609520e-03 -2.261359716377979e-03
-3.469893642413672e-03 -2.523366353697338e-03 2.014517935523922e-01 5.553415967265201e-04 -1.267160169462571e-03 -2.057433635038752e-03
-5.843394209811738e-04 -9.401177063754571e-04 2.181490657037843e-01 -1.911774135563274e-05 -2.535724557978367e-03 3.389136007624457e-04
3.506555762234284e-03 3.485790113382164e-03 2.338943591383370e-01 -4.076525431953044e-05 -9.025735798807619e-04 2.688524516116560e-04
-1.237124889833012e-03 -9.664643073076255e-04 2.155623304426896e-01 3.322728507229853e-04 -8.571439661139423e-04 -3.241049479185243e-03
-1.682958824301214e-03 -1.291753643430908e-03 2.112354558039698e-01 4.903128080735020e-04 -1.396269625609646e-03 -2.788600780966270e-03
2.382394450275046e-03 2.098977792812113e-03 2.289091921462228e-01 -4.734656465136437e-05 -1.757614643588015e-03 2.427668658228383e-04
-1.263990447554261e-03 -1.319950209977059e-03 2.139802574584928e-01 1.531737051983443e-04 -2.217372347602672e-03 -7.685436093315325e-04
2.311788535555552e-03 2.375408666842136e-03 2.293097742791214e-01 1.136421534203943e-04 -8.907314515193966e-04 -1.011901708505077e-03
4.626179546873808e-03 4.377271977553454e-03 2.275880680915434e-01 2.475303929429449e-04 -4.600107409629367e-04 -4.297734333846350e-04
-2.535528062835648e-05 5.488224987377621e-06 2.239873835975233e-01 8.515087639102716e-05 -1.738231667352649e-03 -9.214299346531741e-04
1.376816962350063e-03 1.260850951552153e-03 2.244951256027554e-01 1.580881255068983e-04 -1.666359385732617e-03 -8.792253446087110e-04
-8.250539661803729e-05 -3.432097388979542e-04 2.136707596126153e-01 6.754651981874911e-05 -4.795446338362038e-03 -1.040868720977189e-03
-4.011592713786300e-03 -1.475667143036076e-03 1.755949011545887e-01 -3.547099486822253e-03 -2.827929011133619e-03 1.365710745649497e-02
-4.767632875138255e-03 -4.361074584768423e-03 1.932122981836644e-01 -2.936774395027496e-04 1.837603242971386e-04 1.635502846309848e-02
6.841418063811335e-03 6.842811306248961e-03 2.376744453721132e-01 -8.017024104476329e-05 2.921871903060991e-04 -1.185927779021038e-03
-9.430109532310483e-04 -5.639519913942563e-04 2.212882341223846e-01 -1.284237976534951e-05 -1.696459440646106e-03 5.060328431083387e-04
-3.209579481213423e-03 -2.293664285764835e-03 2.014004985876638e-01 -4.317410912938857e-04 3.843003008989393e-04 1.967874663835785e-03
-2.927971212510225e-03 -3.551211382578730e-03 2.083200584149014e-01 -2.940337338781813e-04 -9.868036075230066e-04 3.296877435603651e-03
8.095401961542761e-04 9.052501600262258e-04 2.295835510041482e-01 -2.296837670275395e-05 -1.101076703587425e-03 4.970499089181572e-04
-1.296658007448794e-03 -6.903010810797119e-04 2.040782186141814e-01 -7.347952021133690e-04 -4.304290701128589e-03 1.072322241925090e-03
-3.982613367558819e-03 -2.539143796363459e-03 1.901068253742099e-01 -1.314818495161768e-03 -1.777025113569468e-04 1.542344338809821e-02
3.883923059083397e-03 4.026610828815148e-03 2.265233258922487e-01 -2.538024022264029e-04 2.628225401215281e-04 1.420419612977301e-03
5.679031892617394e-03 5.314952891642144e-03 2.328521266010355e-01 -6.645953994775202e-05 -5.058778782728323e-04 -1.191791187249678e-03
-1.592583569542803e-03 -1.037541684055074e-03 2.162853954468852e-01 -1.368306272954950e-04 -1.177068791262886e-03 1.630542562952701e-03
-2.955354098235299e-03 -3.078157565836763e-03 2.059186340923329e-01 -4.227139382622385e-04 -1.174305644818091e-03 2.626467341370786e-03
-1.919186958534507e-04 -2.445438298466787e-04 2.242396263998087e-01 -1.251872810507472e-04 -1.072447472711785e-03 1.942581653966774e-03
2.492098836763005e-04 3.711584682592791e-04 2.265101233513671e-01 -2.585835638511484e-05 -1.819157931371601e-03 4.747866740782354e-04
-5.843394209811738e-04 -9.401177063754571e-04 2.181490657037843e-01 -1.911774135563274e-05 -2.535724557978367e-03 3.389136007624457e-04
-6.605873036559152e-03 -4.202492950395505e-03 1.847214626456501e-01 -1.033672426079895e-03 -5.862460428447301e-06 2.778620978569655e-03
-5.927723159930249e-03 -5.434811679792867e-03 1.972397678588619e-01 -5.015843701004648e-04 -8.146227018650077e-04 5.428353557939158e-03
3.506555762234284e-03 3.485790113382164e-03 2.338943591383370e-01 -4.076525431953044e-05 -9.025735798807619e-04 2.688524516116560e-04
2.382394450275046e-03 2.098977792812113e-03 2.289091921462228e-01 -4.734656465136437e-05 -1.757614643588015e-03 2.427668658228383e-04
-5.812877083192457e-03 -4.739821186478793e-03 1.935355142091408e-01 -7.911534778757240e-04 -1.040438627796163e-03 4.626309171020815e-03
-2.131460353660706e-03 -1.771691175609338e-03 2.097866551466943e-01 -3.014330245701372e-04 -1.904470146837633e-03 1.457210846357927e-03
1.156833095355058e-03 1.252957506455985e-03 2.247322890037721e-01 -2.171179147440598e-04 -8.810705852964839e-04 1.962006405611040e-03
3.175132970842829e-03 3.326239478548162e-03 2.221205989264085e-01 -4.782385886728796e-04 -4.266027316555198e-04 1.174330675712791e-03
-6.239341594783252e-04 -5.285958322590852e-04 2.213329959488742e-01 -1.638597864320737e-04 -1.658127561561655e-03 1.724886852018729e-03
3.228157361890878e-04 3.797220301885903e-04 2.200614051198565e-01 -3.043181399345003e-04 -1.579239643000858e-03 1.702802740856605e-03
1.202589404308592e-03 1.286555374778923e-03 2.155501198261464e-01 3.073674166690186e-04 2.447475583485115e-04 -5.769573682876800e-03
6.841418063811335e-03 6.842811306248961e-03 2.376744453721132e-01 -8.017024104476329e-05 2.921871903060991e-04 -1.185927779021038e-03
7.354838631985601e-03 7.211782653863740e-03 2.387025780965671e-01 9.078655044890046e-05 -9.995468576154318e-04 -1.222360163449149e-03
1.568833108060555e-03 1.626916803843999e-03 2.165150052273457e-01 -4.537342099379461e-04 -9.035726406782013e-04 -5.599981498402662e-03
-8.579723886528594e-04 -1.215944798611084e-03 2.190359590806086e-01 1.928808772212755e-04 -1.044123026133718e-03 -2.640988054157833e-03
8.095401961542761e-04 9.052501600262258e-04 2.295835510041482e-01 -2.296837670275395e-05 -1.101076703587425e-03 4.970499089181572e-04
6.749729253343633e-04 7.164637975928895e-04 2.287088515973353e-01 2.387637147572787e-05 1.684875161532037e-03 4.762099546467453e-04
-9.700734000190777e-04 -1.381828005325303e-03 2.182545504675495e-01 -2.219088183902102e-04 1.615101980923839e-03 -2.455772434705802e-03
5.486943168926187e-03 5.468976328060917e-03 2.321789466683737e-01 1.369695349508251e-04 2.825852159990329e-04 -5.529475864534397e-04
6.401178511941497e-03 6.666407296472744e-03 2.367528758844299e-01 -1.421255405248052e-05 -5.045896352623871e-04 -1.152907702388464e-03
5.954550988470017e-03 5.829337966151669e-03 2.331916623787801e-01 -1.815234653211590e-04 -9.785183273408266e-04 -4.832252520137819e-04
7.445686231108581e-04 6.937131253313428e-04 2.145522378385187e-01 -3.323741359318002e-05 -4.776668609234528e-04 -5.938860010898960e-03
4.597430897940937e-04 4.106300245885638e-04 2.269747044802910e-01 6.544650183238989e-05 -1.086899241083535e-03 -1.033034445228084e-03
8.980909035809424e-04 1.024844723329718e-03 2.303644745847850e-01 -5.835710741421488e-06 1.646468062119462e-04 5.163488887377714e-04
3.319232346274056e-04 2.282109258288485e-04 2.261243190500728e-01 -7.338448320435126e-05 1.667420233071388e-03 -9.711005746615019e-04
-8.492899098033481e-04 -1.254481346785887e-03 2.196747024353669e-01 3.121093903922365e-05 1.703542106736971e-04 -2.812619112388290e-03
-1.237124889833012e-03 -9.664643073076255e-04 2.155623304426896e-01 3.322728507229853e-04 -8.571439661139423e-04 -3.241049479185243e-03
3.506555762234284e-03 3.485790113382164e-03 2.338943591383370e-01 -4.076525431953044e-05 -9.025735798807619e-04 2.688524516116560e-04
3.430887946841528e-03 3.321402330319466e-03 2.330155350655519e-01 4.652031710387350e-05 1.349669318661485e-03 2.314554583199338e-04
-1.221772243309558e-03 -1.069838924126881e-03 2.148115664349886e-01 -3.861229184401305e-04 1.303339718519533e-03 -3.112230271595295e-03
-1.345644981879110e-03 -1.056244136986584e-03 2.161738798569098e-01 5.040113758257314e-05 1.195985637029740e-04 -3.365389414470107e-03
3.589076324541467e-03 3.725028533247135e-03 2.347234967536169e-01 -6.950672890871084e-06 1.072404639376515e-04 3.031040763652408e-04
2.311788535555552e-03 2.375408666842136e-03 2.293097742791214e-01 1.136421534203943e-04 -8.907314515193966e-04 -1.011901708505077e-03
2.265211864285842e-03 2.229764145930039e-03 2.284672343756025e-01 -1.314209674379392e-04 1.337346031901640e-03 -9.516491616387459e-04
5.050910467740225e-03 5.190325211099035e-03 2.312382765000213e-01 2.350062141065354e-06 -4.978010686123282e-04 -6.200342259334080e-04
5.276498060574371e-04 4.904762446473809e-04 2.277198405269885e-01 1.217951781587075e-05 1.659964333832590e-04 -1.090416444650406e-03
2.341171195166159e-03 2.529715532699297e-03 2.300814087744506e-01 1.781328906379434e-05 1.102556295282641e-04 -1.068675410891475e-03
6.841418063811335e-03 6.842811306248961e-03 2.376744453721132e-01 -8.017024104476329e-05 2.921871903060991e-04 -1.185927779021038e-03
-4.767632875138255e-03 -4.361074584768423e-03 1.932122981836644e-01 -2.936774395027496e-04 1.837603242971386e-04 1.635502846309848e-02
-4.494454840657941e-03 -4.040579694932126e-03 1.941115673610161e-01 5.440916444654117e-04 -7.898082799832726e-04 1.615938103362630e-02
7.354838631985601e-03 7.211782653863740e-03 2.387025780965671e-01 9.078655044890046e-05 -9.995468576154318e-04 -1.222360163449149e-03
8.095401961542761e-04 9.052501600262258e-04 2.295835510041482e-01 -2.296837670275395e-05 -1.101076703587425e-03 4.970499089181572e-04
-2.927971212510225e-03 -3.551211382578730e-03 2.083200584149014e-01 -2.940337338781813e-04 -9.868036075230066e-04 3.296877435603651e-03
-3.024391069161068e-03 -3.698040282036754e-03 2.076259929266608e-01 3.483907323402490e-04 1.545398600167374e-03 3.009516527393233e-03
6.749729253343633e-04 7.164637975928895e-04 2.287088515973353e-01 2.387637147572787e-05 1.684875161532037e-03 4.762099546467453e-04
3.883923059083397e-03 4.026610828815148e-03 2.265233258922487e-01 -2.538024022264029e-04 2.628225401215281e-04 1.420419612977301e-03
-5.295347833759625e-03 -5.381529790281226e-03 1.921382390301880e-01 1.235503753184330e-04 -4.510913249765683e-04 1.656322142907982e-02
4.346301526359037e-03 4.384920291871908e-03 2.275188479131609e-01 3.402926496263761e-04 -9.441471892476897e-04 1.289534890645969e-03
6.401178511941497e-03 6.666407296472744e-03 2.367528758844299e-01 -1.421255405248052e-05 -5.045896352623871e-04 -1.152907702388464e-03
-1.919186958534507e-04 -2.445438298466787e-04 2.242396263998087e-01 -1.251872810507472e-04 -1.072447472711785e-03 1.942581653966774e-03
-2.995095358123662e-03 -3.746585649981731e-03 2.088180764086004e-01 -3.917425229344251e-05 1.765249588001604e-04 3.563196609841946e-03
-3.180799639208976e-04 -4.234823012800288e-04 2.234090941944827e-01 1.408195189054528e-04 1.650017654499471e-03 1.823851529803477e-03
8.980909035809424e-04 1.024844723329718e-03 2.303644745847850e-01 -5.835710741421488e-06 1.646468062119462e-04 5.163488887377714e-04
3.506555762234284e-03 3.485790113382164e-03 2.338943591383370e-01 -4.076525431953044e-05 -9.025735798807619e-04 2.688524516116560e-04
-5.927723159930249e-03 -5.434811679792867e-03 1.972397678588619e-01 -5.015843701004648e-04 -8.146227018650077e-04 5.428353557939158e-03
-5.859366223352500e-03 -5.498112953904808e-03 1.965914489982815e-01 5.861785757836754e-04 1.261455438723157e-03 5.319427597152507e-03
3.430887946841528e-03 3.321402330319466e-03 2.330155350655519e-01 4.652031710387350e-05 1.349669318661485e-03 2.314554583199338e-04
3.589076324541467e-03 3.725028533247135e-03 2.347234967536169e-01 -6.950672890871084e-06 1.072404639376515e-04 3.031040763652408e-04
-6.195017471680829e-03 -5.837547809285586e-03 1.976523654901350e-01 -7.309653984902810e-05 1.324028195723291e-04 5.540733309818466e-03
1.156833095355058e-03 1.252957506455985e-03 2.247322890037721e-01 -2.171179147440598e-04 -8.810705852964839e-04 1.962006405611040e-03
1.110835439310936e-03 1.110351380041239e-03 2.239068220810430e-01 2.512153574296356e-04 1.328356735401259e-03 1.850631680507950e-03
3.413162497509828e-03 3.637331567372610e-03 2.255636565438002e-01 -1.090652788472892e-06 -4.912729307562577e-04 1.546763026895926e-03
-1.416097676677760e-04 -2.034759088447086e-04 2.249500660611809e-01 -2.292391224155771e-05 1.676935683031245e-04 2.052584152120476e-03
1.157277678256058e-03 1.334379280603362e-03 2.254603976927359e-01 -3.391314896671474e-05 1.136054121970387e-04 2.067167499276426e-03
1.568833108060555e-03 1.626916803843999e-03 2.165150052273457e-01 -4.537342099379461e-04 -9.035726406782013e-04 -5.599981498402662e-03
7.354838631985601e-03 7.211782653863740e-03 2.387025780965671e-01 9.078655044890046e-05 -9.995468576154318e-04 -1.222360163449149e-03
-9.075355709521921e-03 -8.437196861295786e-03 1.853011372858307e-01 -2.109091893578145e-04 1.186319938993175e-02 -7.398815158464044e-04
-6.016182018085377e-03 -5.457940064310712e-03 1.694655721848807e-01 -2.675352649618860e-03 9.718250170220537e-03 -4.461605721711309e-03
-9.700734000190777e-04 -1.381828005325303e-03 2.182545504675495e-01 -2.219088183902102e-04 1.615101980923839e-03 -2.455772434705802e-03
6.749729253343633e-04 7.164637975928895e-04 2.287088515973353e-01 2.387637147572787e-05 1.684875161532037e-03 4.762099546467453e-04
-2.264929038257153e-03 -1.451483299585463e-03 2.166909519762963e-01 1.019574502749019e-05 1.099439598011396e-03 6.061590886649452e-04
-2.724369598529891e-03 -1.516078860061888e-03 2.068825560493542e-01 -2.893654614769372e-04 -9.165265253593801e-04 -2.158328490542757e-03
5.954550988470017e-03 5.829337966151669e-03 2.331916623787801e-01 -1.815234653211590e-04 -9.785183273408266e-04 -4.832252520137819e-04
4.072595024609261e-03 3.752670295561165e-03 2.270448869249067e-01 7.762252212518685e-05 2.044115993898699e-03 -1.162084866502119e-03
-7.861320281049234e-03 -7.571202355210095e-03 1.814533839306056e-01 -5.106562703863452e-04 1.132890232186009e-02 -5.604902935430836e-04
4.052828855357802e-04 7.038159080517108e-04 2.064741930052567e-01 -1.239360209551199e-03 1.613057332048411e-03 -5.018907087852062e-03
3.319232346274056e-04 2.282109258288485e-04 2.261243190500728e-01 -7.338448320435126e-05 1.667420233071388e-03 -9.711005746615019e-04
-2.494787261051163e-04 -8.670731183019247e-05 2.242674285563291e-01 3.845711003619738e-05 2.362256659692103e-03 4.737682926281223e-04
-2.284285155375313e-03 -1.422084838586729e-03 2.142713250238067e-01 -7.998817413986240e-05 5.940242238772784e-04 -9.942014391342774e-04
-1.501405687020956e-03 -1.501266575870312e-03 2.141867520484482e-01 -3.881953126884545e-04 1.762136372838787e-03 -2.070868675845562e-03
-1.221772243309558e-03 -1.069838924126881e-03 2.148115664349886e-01 -3.861229184401305e-04 1.303339718519533e-03 -3.112230271595295e-03
3.430887946841528e-03 3.321402330319466e-03 2.330155350655519e-01 4.652031710387350e-05 1.349669318661485e-03 2.314554583199338e-04
-4.283026704719074e-03 -4.270796847992788e-03 2.063144114077954e-01 -1.132020385988188e-06 3.303939400646910e-03 5.708179014133603e-04
-6.179921081207998e-03 -4.452649429264238e-03 1.902538968185420e-01 -7.633559155719963e-04 7.939319768734882e-04 -1.460494229232053e-03
-2.341274875845479e-03 -1.903292683346702e-03 2.074975266108811e-01 -7.373562814550218e-04 1.819608016766212e-03 -2.478341920027160e-03
1.363137860099628e-03 1.060823278579410e-03 2.248519984812442e-01 6.625682987030167e-05 2.517604969246112e-03 2.539966993709139e-04
2.265211864285842e-03 2.229764145930039e-03 2.284672343756025e-01 -1.314209674379392e-04 1.337346031901640e-03 -9.516491616387459e-04
-4.690456984821140e-03 -4.299790266270334e-03 2.022969932384989e-01 -1.899899636034930e-04 2.675053397463979e-03 -7.932369833680436e-04
3.287321736934040e-03 3.028125231341179e-03 2.219572997178937e-01 -3.680569439816840e-04 1.932895462065866e-03 -3.831631220863953e-04
-4.859004705116327e-04 -4.010235594036494e-04 2.217781454241452e-01 -1.258916606992658e-04 2.211915161922260e-03 -8.730433884324371e-04
4.619794889462080e-04 3.338352863387140e-04 2.205211346683583e-01 -2.340316927664779e-04 2.341843904810341e-03 -8.100830045349243e-04
7.354838631985601e-03 7.211782653863740e-03 2.387025780965671e-01 9.078655044890046e-05 -9.995468576154318e-04 -1.222360163449149e-03
-4.494454840657941e-03 -4.040579694932126e-03 1.941115673610161e-01 5.440916444654117e-04 -7.898082799832726e-04 1.615938103362630e-02
-5.652460360339418e-03 -3.205765108368699e-03 1.529631795638517e-01 6.189784146551237e-03 7.561659529373066e-03 1.194244379079496e-02
-9.075355709521921e-03 -8.437196861295786e-03 1.853011372858307e-01 -2.109091893578145e-04 1.186319938993175e-02 -7.398815158464044e-04
6.749729253343633e-04 7.164637975928895e-04 2.287088515973353e-01 2.387637147572787e-05 1.684875161532037e-03 4.762099546467453e-04
-3.024391069161068e-03 -3.698040282036754e-03 2.076259929266608e-01 3.483907323402490e-04 1.545398600167374e-03 3.009516527393233e-03
-3.756834296501607e-03 -1.853958527243576e-03 1.968793279469447e-01 5.379372638311887e-04 -2.923949588980583e-03 1.897239980417946e-03
-2.264929038257153e-03 -1.451483299585463e-03 2.166909519762963e-01 1.019574502749019e-05 1.099439598011396e-03 6.061590886649452e-04
4.346301526359037e-03 4.384920291871908e-03 2.275188479131609e-01 3.402926496263761e-04 -9.441471892476897e-04 1.289534890645969e-03
-4.051357736096706e-03 -2.571049675401244e-03 1.855729814482152e-01 2.166613768141806e-03 1.202733868419209e-03 1.475021818483300e-02
-8.668873877839847e-03 -7.250519229903434e-03 1.771055099353235e-01 1.072900360582718e-03 1.078587418793594e-02 1.320877537044391e-03
4.072595024609261e-03 3.752670295561165e-03 2.270448869249067e-01 7.762252212518685e-05 2.044115993898699e-03 -1.162084866502119e-03
-3.180799639208976e-04 -4.234823012800288e-04 2.234090941944827e-01 1.408195189054528e-04 1.650017654499471e-03 1.823851529803477e-03
-3.212692622870900e-03 -3.151767250528979e-03 2.039207595718525e-01 6.227362332920680e-04 1.163884642325005e-03 2.249607535253304e-03
-2.733409375768292e-03 -1.597649457617831e-03 2.117055739397125e-01 1.574247422696605e-04 9.501614455482499e-05 1.838167944600493e-03
-2.494787261051163e-04 -8.670731183019247e-05 2.242674285563291e-01 3.845711003619738e-05 2.362256659692103e-03 4.737682926281223e-04
3.430887946841528e-03 3.321402330319466e-03 2.330155350655519e-01 4.652031710387350e-05 1.349669318661485e-03 2.314554583199338e-04
-5.859366223352500e-03 -5.498112953904808e-03 1.965914489982815e-01 5.861785757836754e-04 1.261455438723157e-03 5.319427597152507e-03
-8.477575341825931e-03 -4.733320372786107e-03 1.742071193611795e-01 1.530325289729130e-03 -1.707770563462357e-03 6.582107565994135e-04
-4.283026704719074e-03 -4.270796847992788e-03 2.063144114077954e-01 -1.132020385988188e-06 3.303939400646910e-03 5.708179014133603e-04
1.363137860099628e-03 1.060823278579410e-03 2.248519984812442e-01 6.625682987030167e-05 2.517604969246112e-03 2.539966993709139e-04
-6.195356488786965e-03 -4.951654634716370e-03 1.900965298122977e-01 1.209549633431707e-03 1.129182022180565e-03 3.960049164544941e-03
1.110835439310936e-03 1.110351380041239e-03 2.239068220810430e-01 2.512153574296356e-04 1.328356735401259e-03 1.850631680507950e-03
-5.398457178015955e-03 -4.402897456231434e-03 1.982898779181245e-01 3.800342765637941e-04 2.052396056859169e-03 1.448892967329924e-03
1.910052087339618e-03 2.134071770163185e-03 2.166218242828343e-01 7.163041168171156e-04 1.837226328899088e-03 1.072863596578450e-03
-1.066842196119005e-03 -8.922958649414620e-04 2.191498753154235e-01 2.422125559044652e-04 2.062975081406842e-03 1.628380542226556e-03
-5.514305399548769e-04 -4.563371979853656e-04 2.161553771593028e-01 4.514652755661017e-04 2.171761058795523e-03 1.561504864720741e-03
-1.827503764274080e-03 -1.305323281374710e-03 2.114370807304816e-01 2.415810568544178e-04 -6.536817118648263e-04 -1.994214555412271e-03
-9.430109532310483e-04 -5.639519913942563e-04 2.212882341223846e-01 -1.284237976534951e-05 -1.696459440646106e-03 5.060328431083387e-04
8.095401961542761e-04 9.052501600262258e-04 2.295835510041482e-01 -2.296837670275395e-05 -1.101076703587425e-03 4.970499089181572e-04
-8.579723886528594e-04 -1.215944798611084e-03 2.190359590806086e-01 1.928808772212755e-04 -1.044123026133718e-03 -2.640988054157833e-03
-1.897701142096047e-03 1.046764252042447e-03 2.260957041942424e-01 -9.649714120430118e-04 9.954332858371027e-06 1.786448085255760e-03
-1.640405846868583e-03 1.555771593585959e-03 2.249603208067282e-01 -6.584010069364971e-05 2.891560669943979e-04 3.448993822010306e-04
-4.542863764685827e-03 -4.667333578292934e-03 2.218693071233140e-01 1.054628070759144e-05 -1.317101105282967e-04 1.586285031607892e-04
-2.532152429726125e-03 -3.721850045070787e-03 2.236006629364949e-01 4.082269532654044e-05 -1.836209349224974e-04 9.471205031788622e-04
-1.081203671675646e-03 -7.081331948211969e-04 2.188563505662282e-01 7.002704903760372e-05 -1.434965722447745e-03 -8.780782711843147e-04
2.492098836763005e-04 3.711584682592791e-04 2.265101233513671e-01 -2.585835638511484e-05 -1.819157931371601e-03 4.747866740782354e-04
4.597430897940937e-04 4.106300245885638e-04 2.269747044802910e-01 6.544650183238989e-05 -1.086899241083535e-03 -1.033034445228084e-03
-1.137062964249230e-03 -1.241223672805743e-03 2.163021439850539e-01 2.630284364087414e-04 -1.496183682609520e-03 -2.261359716377979e-03
-1.732484094534360e-03 1.416711130362914e-03 2.252323238483360e-01 -1.918627774905153e-04 2.193000767606906e-04 1.879374846630496e-04
-3.730509319279068e-03 -2.631362331021082e-03 2.223261848257466e-01 -1.273626336446691e-05 1.005056353811354e-04 1.747302852963142e-04
-3.914451590960064e-03 -4.375741494777589e-03 2.223577833899599e-01 2.295963300913715e-06 -1.446639528721630e-04 1.178087484240163e-04
-2.065931092968115e-03 -2.007695682144223e-03 2.240286246965234e-01 -2.721517558659570e-04 -5.315102674771631e-05 8.126086450770169e-04
-8.363896716764130e-05 6.476956277648982e-04 2.209411434757381e-01 -2.432489863932644e-05 -6.632529628766322e-04 -1.666247584036334e-03
-1.260904819737054e-03 3.973301829560739e-04 2.234410555846286e-01 2.807764888833141e-07 -1.135537170832702e-03 2.461433292060227e-04
-1.717606893221493e-03 -1.584045441353817e-03 2.253669054917419e-01 -1.109330081889345e-05 -7.089222055559251e-04 2.198975928005174e-04
-3.822244495006607e-04 -1.466276558181966e-03 2.227793038688836e-01 4.409599310781769e-05 -6.937589172301307e-04 -1.926045896975991e-03
-2.607003746344134e-04 -7.061377185844972e-04 2.221286871205880e-01 3.387764555525612e-05 -9.446646823615346e-04 -1.723903456153325e-03
-1.521448981426014e-03 -8.713424502679281e-04 2.246505707375234e-01 -1.123992075436261e-05 -1.072465314192311e-03 2.151479198061741e-04
-8.328985694855518e-04 5.187264053591857e-04 2.228723583472424e-01 -6.291807026505186e-06 -1.017311268617380e-03 -6.011693929136154e-04
-1.229051006372880e-03 -1.486154921638458e-03 2.247864649558985e-01 1.934397389112523e-05 -7.051370943241872e-04 -6.464346688444039e-04
-2.535528062835648e-05 5.488224987377621e-06 2.239873835975233e-01 8.515087639102716e-05 -1.738231667352649e-03 -9.214299346531741e-04
-3.209551878685732e-03 -2.429489337230812e-03 2.227980051458751e-01 -5.848574144317119e-05 6.208545722258767e-05 7.210444729687174e-05
-1.060692966245580e-03 -7.656729539904259e-04 2.240824681028842e-01 1.689935195458583e-05 -1.040469436231445e-03 -5.923368038929909e-04
-9.430109532310483e-04 -5.639519913942563e-04 2.212882341223846e-01 -1.284237976534951e-05 -1.696459440646106e-03 5.060328431083387e-04
-3.209579481213423e-03 -2.293664285764835e-03 2.014004985876638e-01 -4.317410912938857e-04 3.843003008989393e-04 1.967874663835785e-03
-2.927971212510225e-03 -3.551211382578730e-03 2.083200584149014e-01 -2.940337338781813e-04 -9.868036075230066e-04 3.296877435603651e-03
8.095401961542761e-04 9.052501600262258e-04 2.295835510041482e-01 -2.296837670275395e-05 -1.101076703587425e-03 4.970499089181572e-04
-1.640405846868583e-03 1.555771593585959e-03 2.249603208067282e-01 -6.584010069364971e-05 2.891560669943979e-04 3.448993822010306e-04
-1.988469894183526e-03 6.086086775091248e-04 2.273021444133421e-01 2.193028644195089e-03 -2.689140610882294e-04 -4.951675567601644e-03
-1.275847134685825e-03 -3.107693713110941e-03 2.249981948695659e-01 -1.238058441768629e-04 -2.356749418444944e-04 -2.528315473509986e-03
-4.542863764685827e-03 -4.667333578292934e-03 2.218693071233140e-01 1.054628070759144e-05 -1.317101105282967e-04 1.586285031607892e-04
-1.592583569542803e-03 -1.037541684055074e-03 2.162853954468852e-01 -1.368306272954950e-04 -1.177068791262886e-03 1.630542562952701e-03
-2.955354098235299e-03 -3.078157565836763e-03 2.059186340923329e-01 -4.227139382622385e-04 -1.174305644818091e-03 2.626467341370786e-03
-1.919186958534507e-04 -2.445438298466787e-04 2.242396263998087e-01 -1.251872810507472e-04 -1.072447472711785e-03 1.942581653966774e-03
2.492098836763005e-04 3.711584682592791e-04 2.265101233513671e-01 -2.585835638511484e-05 -1.819157931371601e-03 4.747866740782354e-04
-1.699667434838409e-03 1.330789492403917e-03 2.255576195136525e-01 4.001169344880601e-04 1.496940916734416e-04 -4.618952819479746e-04
-1.030230170745718e-03 -1.659767022689092e-03 2.254538024527098e-01 5.951733935737075e-04 -2.067716131186628e-04 -2.323688207149127e-03
-3.851843947171664e-03 -4.332644812207243e-03 2.225958917465264e-01 -7.222329452107156e-06 -1.577251821120300e-04 -2.751647362656135e-04
-3.730509319279068e-03 -2.631362331021082e-03 2.223261848257466e-01 -1.273626336446691e-05 1.005056353811354e-04 1.747302852963142e-04
-1.260904819737054e-03 3.973301829560739e-04 2.234410555846286e-01 2.807764888833141e-07 -1.135537170832702e-03 2.461433292060227e-04
2.914881627465614e-04 5.452319053665153e-04 2.181035466278283e-01 4.754307848227573e-05 -1.918978562786058e-04 2.349548989407352e-03
2.489633870889155e-05 -1.759197468545070e-03 2.197929430267978e-01 -4.383705163671023e-05 -6.785613638063410e-04 2.973640842863440e-03
-1.717606893221493e-03 -1.584045441353817e-03 2.253669054917419e-01 -1.109330081889345e-05 -7.089222055559251e-04 2.198975928005174e-04
-1.521448981426014e-03 -8.713424502679281e-04 2.246505707375234e-01 -1.123992075436261e-05 -1.072465314192311e-03 2.151479198061741e-04
1.266350512633745e-04 -9.271428670394894e-04 2.192325938860886e-01 -2.282870491464892e-05 -8.171383705498764e-04 2.588330636272637e-03
-1.006496361225299e-03 3.755007523577785e-04 2.220503975555920e-01 1.251751672056749e-05 -8.997821924204826e-04 1.141209738065404e-03
-1.436691361157301e-03 -1.696281747074027e-03 2.239069550056348e-01 -3.591918975168854e-05 -7.013262842688182e-04 1.238179794517042e-03
-6.239341594783252e-04 -5.285958322590852e-04 2.213329959488742e-01 -1.638597864320737e-04 -1.658127561561655e-03 1.724886852018729e-03
-3.160252416161329e-03 -2.434419835509142e-03 2.230618788800531e-01 1.201367558234085e-04 2.369233588252059e-05 -1.877789098704280e-04
-1.254996836736201e-03 -9.496608678174629e-04 2.232337082550700e-01 -3.099699792597792e-05 -1.008679298284874e-03 1.131165478632080e-03
-8.579723886528594e-04 -1.215944798611084e-03 2.190359590806086e-01 1.928808772212755e-04 -1.044123026133718e-03 -2.640988054157833e-03
8.095401961542761e-04 9.052501600262258e-04 2.295835510041482e-01 -2.296837670275395e-05 -1.101076703587425e-03 4.970499089181572e-04
6.749729253343633e-04 7.164637975928895e-04 2.287088515973353e-01 2.387637147572787e-05 1.684875161532037e-03 4.762099546467453e-04
-9.700734000190777e-04 -1.381828005325303e-03 2.182545504675495e-01 -2.219088183902102e-04 1.615101980923839e-03 -2.455772434705802e-03
-2.532152429726125e-03 -3.721850045070787e-03 2.236006629364949e-01 4.082269532654044e-05 -1.836209349224974e-04 9.471205031788622e-04
-4.542863764685827e-03 -4.667333578292934e-03 2.218693071233140e-01 1.054628070759144e-05 -1.317101105282967e-04 1.586285031607892e-04
-4.710092735361807e-03 -4.812066152665606e-03 2.213581874788075e-01 7.397591895970364e-07 -1.399343828170395e-04 1.322330828116027e-04
-2.480625259582111e-03 -3.765522177752973e-03 2.232225031655423e-01 8.223470723963541e-05 -2.884171411126623e-05 6.498025261787311e-04
4.597430897940937e-04 4.106300245885638e-04 2.269747044802910e-01 6.544650183238989e-05 -1.086899241083535e-03 -1.033034445228084e-03
8.980909035809424e-04 1.024844723329718e-03 2.303644745847850e-01 -5.835710741421488e-06 1.646468062119462e-04 5.163488887377714e-04
3.319232346274056e-04 2.282109258288485e-04 2.261243190500728e-01 -7.338448320435126e-05 1.667420233071388e-03 -9.711005746615019e-04
-8.492899098033481e-04 -1.254481346785887e-03 2.196747024353669e-01 3.121093903922365e-05 1.703542106736971e-04 -2.812619112388290e-03
-3.914451590960064e-03 -4.375741494777589e-03 2.223577833899599e-01 2.295963300913715e-06 -1.446639528721630e-04 1.178087484240163e-04
-4.671410973307270e-03 -5.183711676188231e-03 2.220574029306084e-01 1.228059904984090e-05 -2.607653801292408e-04 1.824955856980279e-04
-4.011992556277610e-03 -4.488729363082522e-03 2.218864176216451e-01 2.000385741770738e-05 -1.121590661936875e-04 6.327581943610684e-05
-2.826879152040612e-03 -4.254768866889590e-03 2.237019215481652e-01 1.127016226549236e-04 -2.270022209492537e-04 1.217134762549899e-03
-3.822244495006607e-04 -1.466276558181966e-03 2.227793038688836e-01 4.409599310781769e-05 -6.937589172301307e-04 -1.926045896975991e-03
-1.717606893221493e-03 -1.584045441353817e-03 2.253669054917419e-01 -1.109330081889345e-05 -7.089222055559251e-04 2.198975928005174e-04
-1.757242084684035e-03 -1.646777508630598e-03 2.250629337242947e-01 1.217581751934269e-05 8.927731135284533e-04 2.103277034907978e-04
-4.612858945994474e-04 -1.537554427338318e-03 2.225046363645577e-01 -3.961518481976253e-05 8.862096641688580e-04 -1.808973123519392e-03
-4.488675150583496e-04 -1.715741818581807e-03 2.229017136428115e-01 1.628132324169818e-05 -4.023451816060487e-05 -2.033970566199592e-03
-1.809498084511498e-03 -1.817087543181429e-03 2.255257848273203e-01 -2.285881971921057e-06 -5.160900846763913e-05 2.288162275688072e-04
-1.229051006372880e-03 -1.486154921638458e-03 2.247864649558985e-01 1.934397389112523e-05 -7.051370943241872e-04 -6.464346688444039e-04
-1.281687404296631e-03 -1.552295606419479e-03 2.244887641996132e-01 -1.903565934445063e-05 8.911149693218138e-04 -6.099890584979258e-04
5.276498060574371e-04 4.904762446473809e-04 2.277198405269885e-01 1.217951781587075e-05 1.659964333832590e-04 -1.090416444650406e-03
-4.098244670457357e-03 -4.902127463115477e-03 2.225183553065601e-01 1.896495637633980e-05 -2.522961338890814e-04 1.674120013639419e-04
-1.311530036759286e-03 -1.721951728732335e-03 2.249375099676774e-01 5.784742289363066e-06 -4.878528007872778e-05 -6.801048122265005e-04
8.095401961542761e-04 9.052501600262258e-04 2.295835510041482e-01 -2.296837670275395e-05 -1.101076703587425e-03 4.970499089181572e-04
-2.927971212510225e-03 -3.551211382578730e-03 2.083200584149014e-01 -2.940337338781813e-04 -9.868036075230066e-04 3.296877435603651e-03
-3.024391069161068e-03 -3.698040282036754e-03 2.076259929266608e-01 3.483907323402490e-04 1.545398600167374e-03 3.009516527393233e-03
6.749729253343633e-04 7.164637975928895e-04 2.287088515973353e-01 2.387637147572787e-05 1.684875161532037e-03 4.762099546467453e-04
-4.542863764685827e-03 -4.667333578292934e-03 2.218693071233140e-01 1.054628070759144e-05 -1.317101105282967e-04 1.586285031607892e-04
-1.275847134685825e-03 -3.107693713110941e-03 2.249981948695659e-01 -1.238058441768629e-04 -2.356749418444944e-04 -2.528315473509986e-03
-1.095557644647709e-03 -3.089182977979827e-03 2.247139115253483e-01 -1.674014068705482e-04 8.223805790916587e-05 -1.828193563131859e-03
-4.710092735361807e-03 -4.812066152665606e-03 2.213581874788075e-01 7.397591895970364e-07 -1.399343828170395e-04 1.322330828116027e-04
-1.919186958534507e-04 -2.445438298466787e-04 2.242396263998087e-01 -1.251872810507472e-04 -1.072447472711785e-03 1.942581653966774e-03
-2.995095358123662e-03 -3.746585649981731e-03 2.088180764086004e-01 -3.917425229344251e-05 1.765249588001604e-04 3.563196609841946e-03
-3.180799639208976e-04 -4.234823012800288e-04 2.234090941944827e-01 1.408195189054528e-04 1.650017654499471e-03 1.823851529803477e-03
8.980909035809424e-04 1.024844723329718e-03 2.303644745847850e-01 -5.835710741421488e-06 1.646468062119462e-04 5.163488887377714e-04
-3.851843947171664e-03 -4.332644812207243e-03 2.225958917465264e-01 -7.222329452107156e-06 -1.577251821120300e-04 -2.751647362656135e-04
-1.654547415990829e-03 -3.621917122094996e-03 2.250475038363117e-01 -2.744753505078666e-04 -1.934098004428447e-04 -3.163752285799228e-03
-3.947192272822556e-03 -4.443046154849088e-03 2.221349672692887e-01 -4.018589354104002e-05 -8.439342208239686e-05 -1.595239544569847e-04
-4.671410973307270e-03 -5.183711676188231e-03 2.220574029306084e-01 1.228059904984090e-05 -2.607653801292408e-04 1.824955856980279e-04
-1.717606893221493e-03 -1.584045441353817e-03 2.253669054917419e-01 -1.109330081889345e-05 -7.089222055559251e-04 2.198975928005174e-04
2.489633870889155e-05 -1.759197468545070e-03 2.197929430267978e-01 -4.383705163671023e-05 -6.785613638063410e-04 2.973640842863440e-03
-7.472350171551539e-05 -1.831388137378312e-03 2.195539101133007e-01 3.058008212541404e-05 8.797499060093780e-04 2.777644061560952e-03
-1.757242084684035e-03 -1.646777508630598e-03 2.250629337242947e-01 1.217581751934269e-05 8.927731135284533e-04 2.103277034907978e-04
-1.809498084511498e-03 -1.817087543181429e-03 2.255257848273203e-01 -2.285881971921057e-06 -5.160900846763913e-05 2.288162275688072e-04
-3.509937794227586e-05 -2.033192393781065e-03 2.198711848393904e-01 -2.339608238849396e-05 -2.874066272694171e-05 3.153928890764600e-03
-1.436691361157301e-03 -1.696281747074027e-03 2.239069550056348e-01 -3.591918975168854e-05 -7.013262842688182e-04 1.238179794517042e-03
-1.488178071808161e-03 -1.760106297705576e-03 2.236202730062935e-01 3.504060994987754e-05 8.895345935154251e-04 1.167648348244512e-03
-1.416097676677760e-04 -2.034759088447086e-04 2.249500660611809e-01 -2.292391224155771e-05 1.676935683031245e-04 2.052584152120476e-03
-4.029228431511408e-03 -4.842611548413017e-03 2.227551054354717e-01 -4.098748976481417e-05 -2.439549416528043e-04 -3.803230036292321e-04
-1.523708813258116e-03 -1.940913139130527e-03 2.240443918938535e-01 -1.099225503394360e-05 -4.587202784461755e-05 1.303318734720963e-03
-9.700734000190777e-04 -1.381828005325303e-03 2.182545504675495e-01 -2.219088183902102e-04 1.615101980923839e-03 -2.455772434705802e-03
6.749729253343633e-04 7.164637975928895e-04 2.287088515973353e-01 2.387637147572787e-05 1.684875161532037e-03 4.762099546467453e-04
-2.264929038257153e-03 -1.451483299585463e-03 2.166909519762963e-01 1.019574502749019e-05 1.099439598011396e-03 6.061590886649452e-04
-2.724369598529891e-03 -1.516078860061888e-03 2.068825560493542e-01 -2.893654614769372e-04 -9.165265253593801e-04 -2.158328490542757e-03
-2.480625259582111e-03 -3.765522177752973e-03 2.232225031655423e-01 8.223470723963541e-05 -2.884171411126623e-05 6.498025261787311e-04
-4.710092735361807e-03 -4.812066152665606e-03 2.213581874788075e-01 7.397591895970364e-07 -1.399343828170395e-04 1.322330828116027e-04
7.469579934584990e-04 5.550635734057787e-03 2.290331785971554e-01 1.055004149003915e-04 1.225205320334280e-04 6.441007055938142e-04
-2.575674477679171e-03 3.483845895235021e-03 2.291501061303456e-01 1.602215951495907e-03 4.823957027543062e-04 3.902987789633992e-03
3.319232346274056e-04 2.282109258288485e-04 2.261243190500728e-01 -7.338448320435126e-05 1.667420233071388e-03 -9.711005746615019e-04
-2.494787261051163e-04 -8.670731183019247e-05 2.242674285563291e-01 3.845711003619738e-05 2.362256659692103e-03 4.737682926281223e-04
-2.284285155375313e-03 -1.422084838586729e-03 2.142713250238067e-01 -7.998817413986240e-05 5.940242238772784e-04 -9.942014391342774e-04
-1.501405687020956e-03 -1.501266575870312e-03 2.141867520484482e-01 -3.881953126884545e-04 1.762136372838787e-03 -2.070868675845562e-03
-4.011992556277610e-03 -4.488729363082522e-03 2.218864176216451e-01 2.000385741770738e-05 -1.121590661936875e-04 6.327581943610684e-05
-3.342704572542274e-03 -1.813562013868968e-03 2.227054997177202e-01 1.784071363655038e-05 4.856641127996432e-05 2.165363407080269e-04
-3.297155164315273e-04 4.927314216036496e-03 2.289555501367420e-01 3.214286766986851e-04 2.125365081963116e-04 4.926714182125883e-04
-2.171015464183879e-03 -1.453015437198814e-03 2.243195254668585e-01 4.214100999101414e-04 2.584333417403065e-04 9.700960999214107e-04
-4.612858945994474e-04 -1.537554427338318e-03 2.225046363645577e-01 -3.961518481976253e-05 8.862096641688580e-04 -1.808973123519392e-03
-1.757242084684035e-03 -1.646777508630598e-03 2.250629337242947e-01 1.217581751934269e-05 8.927731135284533e-04 2.103277034907978e-04
-1.196466281682510e-03 1.371931616805093e-03 2.223055955273956e-01 -9.926555687132267e-06 1.341649976861478e-03 3.144755290209102e-04
-5.459744052797475e-05 1.685007596902483e-03 2.197238568342959e-01 6.102354882585250e-05 3.814397033311523e-04 -1.916652989601412e-03
-3.522667993479806e-04 -5.359070627455419e-04 2.214810310798200e-01 -4.942421498792447e-05 1.291469210939148e-03 -1.640163840723846e-03
-1.554883336240555e-03 -7.061071759016499e-04 2.239867410139061e-01 1.529464412442867e-05 1.548950621586708e-03 2.202686081227463e-04
-1.281687404296631e-03 -1.552295606419479e-03 2.244887641996132e-01 -1.903565934445063e-05 8.911149693218138e-04 -6.099890584979258e-04
-7.837296976120195e-04 1.505690973596839e-03 2.217122278140481e-01 2.270080397178434e-05 1.101342645866039e-03 -7.150198941659966e-04
-4.859004705116327e-04 -4.010235594036494e-04 2.217781454241452e-01 -1.258916606992658e-04 2.211915161922260e-03 -8.730433884324371e-04
-2.980785940806957e-03 -1.693073401193583e-03 2.231396045075832e-01 9.197198975012094e-05 1.010256734295872e-04 8.012176944936952e-05
-1.114196245681886e-03 -6.016076679072887e-04 2.234203095242289e-01 -2.382703684031163e-05 1.484509121946912e-03 -5.752424162729883e-04
6.749729253343633e-04 7.164637975928895e-04 2.287088515973353e-01 2.387637147572787e-05 1.684875161532037e-03 4.762099546467453e-04
-3.024391069161068e-03 -3.698040282036754e-03 2.076259929266608e-01 3.483907323402490e-04 1.545398600167374e-03 3.009516527393233e-03
-3.756834296501607e-03 -1.853958527243576e-03 1.968793279469447e-01 5.379372638311887e-04 -2.923949588980583e-03 1.897239980417946e-03
-2.264929038257153e-03 -1.451483299585463e-03 2.166909519762963e-01 1.019574502749019e-05 1.099439598011396e-03 6.061590886649452e-04
-4.710092735361807e-03 -4.812066152665606e-03 2.213581874788075e-01 7.397591895970364e-07 -1.399343828170395e-04 1.322330828116027e-04
-1.095557644647709e-03 -3.089182977979827e-03 2.247139115253483e-01 -1.674014068705482e-04 8.223805790916587e-05 -1.828193563131859e-03
-4.422214596196399e-03 2.056800406301677e-03 2.299081957257822e-01 -3.626027216337008e-03 8.419877725770950e-04 -1.038087407298612e-02
7.469579934584990e-04 5.550635734057787e-03 2.290331785971554e-01 1.055004149003915e-04 1.225205320334280e-04 6.441007055938142e-04
-3.180799639208976e-04 -4.234823012800288e-04 2.234090941944827e-01 1.408195189054528e-04 1.650017654499471e-03 1.823851529803477e-03
-3.212692622870900e-03 -3.151767250528979e-03 2.039207595718525e-01 6.227362332920680e-04 1.163884642325005e-03 2.249607535253304e-03
-2.733409375768292e-03 -1.597649457617831e-03 2.117055739397125e-01 1.574247422696605e-04 9.501614455482499e-05 1.838167944600493e-03
-2.494787261051163e-04 -8.670731183019247e-05 2.242674285563291e-01 3.845711003619738e-05 2.362256659692103e-03 4.737682926281223e-04
-3.947192272822556e-03 -4.443046154849088e-03 2.221349672692887e-01 -4.018589354104002e-05 -8.439342208239686e-05 -1.595239544569847e-04
-1.413304483701291e-03 -1.274580671577061e-03 2.257499611005479e-01 -9.140850249264229e-04 4.683450949897436e-04 -2.805835445522586e-03
-2.993197618496165e-04 4.783800960434357e-03 2.293587932230231e-01 -6.691308705583728e-04 3.023401586866807e-04 -1.145991930659900e-03
-3.342704572542274e-03 -1.813562013868968e-03 2.227054997177202e-01 1.784071363655038e-05 4.856641127996432e-05 2.165363407080269e-04
-1.757242084684035e-03 -1.646777508630598e-03 2.250629337242947e-01 1.217581751934269e-05 8.927731135284533e-04 2.103277034907978e-04
-7.472350171551539e-05 -1.831388137378312e-03 2.195539101133007e-01 3.058008212541404e-05 8.797499060093780e-04 2.777644061560952e-03
3.236551579395672e-04 1.665141406403987e-03 2.168297163816461e-01 -8.248016142878972e-05 -5.772419945209762e-04 2.578041643479715e-03
-1.196466281682510e-03 1.371931616805093e-03 2.223055955273956e-01 -9.926555687132267e-06 1.341649976861478e-03 3.144755290209102e-04
-1.554883336240555e-03 -7.061071759016499e-04 2.239867410139061e-01 1.529464412442867e-05 1.548950621586708e-03 2.202686081227463e-04
1.015199953111707e-05 -7.374038278216754e-04 2.186153451826717e-01 3.768690231024005e-05 1.034414682159180e-03 2.400457823162617e-03
-1.488178071808161e-03 -1.760106297705576e-03 2.236202730062935e-01 3.504060994987754e-05 8.895345935154251e-04 1.167648348244512e-03
-9.437052955588484e-04 1.389743702437418e-03 2.208845587810309e-01 -4.295479065321705e-05 8.621817466287229e-04 1.352080351166938e-03
-1.066842196119005e-03 -8.922958649414620e-04 2.191498753154235e-01 2.422125559044652e-04 2.062975081406842e-03 1.628380542226556e-03
-2.929350904977747e-03 -1.709168646803839e-03 2.234360167108488e-01 -1.883796505493658e-04 1.535185526728718e-04 -2.142520947876231e-04
-1.303657458633164e-03 -7.758808185869908e-04 2.225838960622532e-01 4.383467485753355e-05 1.420387783707732e-03 1.095718824066800e-03
        </DataArray>
  </PointData>
  <CellData>
        <DataArray type="Float64" Name="element_GL_strains_xyz" NumberOfComponents="6" format="ascii">
-5.051030938844110e-02 -5.074834710995737e-02 1.702313554350194e-01 4.381638639555241e-04 -1.820669747196523e-03 -1.263388192850051e-03
-5.051030938844112e-02 -5.074834710995733e-02 1.702313554350194e-01 -4.381638639555249e-04 -1.820669747196532e-03 1.263388192850051e-03
-5.111447398041467e-02 -5.088172241675876e-02 1.734994829442658e-01 2.518902054817490e-19 -2.498298520414067e-18 -1.470328262088109e-03
-5.111447398041465e-02 -5.088172241675876e-02 1.734994829442657e-01 2.014469075880226e-19 -5.139247325206239e-18 1.470328262088105e-03
-5.051030938844112e-02 -5.074834710995731e-02 1.702313554350194e-01 -4.381638639555243e-04 1.820669747196515e-03 -1.263388192850071e-03
-5.051030938844110e-02 -5.074834710995733e-02 1.702313554350194e-01 4.381638639555303e-04 1.820669747196523e-03 1.263388192850057e-03
-5.240965158747111e-02 -5.196931370632589e-02 1.726095561200192e-01 7.271175410722250e-05 -1.327153552576114e-03 -9.841207943760233e-04
-5.240965158747111e-02 -5.196931370632588e-02 1.726095561200190e-01 -7.271175410722362e-05 -1.327153552576134e-03 9.841207943760235e-04
-5.248587703578923e-02 -5.308590314797609e-02 1.737079010861894e-01 1.072596754449470e-18 -1.910223611408572e-18 -1.074413561297670e-03
-5.248587703578923e-02 -5.308590314797611e-02 1.737079010861894e-01 5.394704332940795e-19 3.560636043566623e-19 1.074413561297653e-03
-5.240965158747111e-02 -5.196931370632586e-02 1.726095561200190e-01 -7.271175410721996e-05 1.327153552576101e-03 -9.841207943760328e-04
-5.240965158747109e-02 -5.196931370632588e-02 1.726095561200192e-01 7.271175410721868e-05 1.327153552576117e-03 9.841207943760309e-04
        </DataArray>
        <DataArray type="Float64" Name="element_cauchy_stresses_xyz" NumberOfComponents="6" format="ascii">
8.035110667864349e-04 6.428546490240446e-04 2.200041456645066e-01 2.868589620428897e-04 -7.089013901819869e-04 -3.656240325297669e-04
8.035110667864390e-04 6.428546490240545e-04 2.200041456645066e-01 -2.868589620428900e-04 -7.089013901819938e-04 3.656240325297703e-04
1.656910105366819e-03 1.815826463539026e-03 2.258358049893662e-01 1.615255098425664e-19 -1.145352310690094e-18 -6.189172912486191e-04
1.656910105366811e-03 1.815826463539016e-03 2.258358049893662e-01 1.446244547106980e-19 -3.577969297647953e-18 6.189172912486192e-04
8.035110667864370e-04 6.428546490240490e-04 2.200041456645065e-01 -2.868589620428895e-04 7.089013901819840e-04 -3.656240325297839e-04
8.035110667864216e-04 6.428546490240253e-04 2.200041456645065e-01 2.868589620428937e-04 7.089013901819885e-04 3.656240325297764e-04
-8.215784826557209e-04 -5.305686460319901e-04 2.229424875808685e-01 4.587112130614922e-05 -7.024527683881992e-04 -4.835610938582759e-04
-8.215784826557757e-04 -5.305686460320426e-04 2.229424875808683e-01 -4.587112130614994e-05 -7.024527683882173e-04 4.835610938582771e-04
-9.192199235927919e-04 -1.314770862304136e-03 2.244433902006195e-01 6.952788359084274e-19 -3.231248538791097e-19 -6.192224138102507e-04
-9.192199235928057e-04 -1.314770862304156e-03 2.244433902006195e-01 3.619568585354767e-19 1.919230403171276e-18 6.192224138102424e-04
-8.215784826557899e-04 -5.305686460320414e-04 2.229424875808683e-01 -4.587112130614753e-05 7.024527683881988e-04 -4.835610938582803e-04
-8.215784826557316e-04 -5.305686460319979e-04 2.229424875808685e-01 4.587112130614670e-05 7.024527683882077e-04 4.835610938582835e-04
        </DataArray>
        <DataArray type="Float64" Name="element_owner" format="ascii">
1.000000000000000e+00
1.000000000000000e+00
1.000000000000000e+00
1.000000000000000e+00
1.000000000000000e+00
1.000000000000000e+00
1.000000000000000e+00
1.000000000000000e+00
1.000000000000000e+00
1.000000000000000e+00
1.000000000000000e+00
1.000000000000000e+00
        </DataArray>
      </CellData>

    </Piece>
  </UnstructuredGrid>
</VTKFile>
