<?xml version="1.0" ?> 
<!-- 
# vtk DataFile Version 3.0
-->
<VTKFile type="UnstructuredGrid" version="0.1" compressor="vtkZLibDataCompressor" byte_order="LittleEndian">
  <UnstructuredGrid>
    <FieldData>
      <DataArray type="Float64" Name="TIME" NumberOfTuples="1" format="ascii">
1.000000000000000e+00 
      </DataArray>
    </FieldData>

    <Piece NumberOfPoints="324" NumberOfCells="12" >
      <Points>
        <DataArray type="Float64" NumberOfComponents="3" format="ascii">
-5.000000000000000e-01 -5.000000000000000e-01 -1.000000000000000e-01
0.000000000000000e+00 -5.000000000000000e-01 -1.000000000000000e-01
0.000000000000000e+00 -1.666666666665000e-01 -1.000000000000000e-01
-5.000000000000000e-01 -1.666666666665000e-01 -1.000000000000000e-01
-5.000000000000000e-01 -5.000000000000000e-01 1.500000000000000e-01
0.000000000000000e+00 -5.000000000000000e-01 1.500000000000000e-01
0.000000000000000e+00 -1.666666666665000e-01 1.500000000000000e-01
-5.000000000000000e-01 -1.666666666665000e-01 1.500000000000000e-01
-2.500000000000000e-01 -5.000000000000000e-01 -9.999999999999999e-02
0.000000000000000e+00 -3.333333333331250e-01 -1.000000000000000e-01
-2.500000000000000e-01 -1.666666666665000e-01 -1.000000000000000e-01
-5.000000000000000e-01 -3.333333333331250e-01 -9.999999999999999e-02
-2.500000000000000e-01 -5.000000000000000e-01 1.500000000000000e-01
0.000000000000000e+00 -3.333333333331250e-01 1.500000000000000e-01
-2.500000000000000e-01 -1.666666666665000e-01 1.500000000000000e-01
-5.000000000000000e-01 -3.333333333331250e-01 1.500000000000000e-01
-5.000000000000000e-01 -5.000000000000000e-01 2.500000000000000e-02
0.000000000000000e+00 -5.000000000000000e-01 2.500000000000000e-02
0.000000000000000e+00 -1.666666666665000e-01 2.500000000000000e-02
-5.000000000000000e-01 -1.666666666665000e-01 2.500000000000000e-02
-5.000000000000000e-01 -3.333333333331250e-01 2.500000000000000e-02
0.000000000000000e+00 -3.333333333331250e-01 2.500000000000000e-02
-2.500000000000000e-01 -5.000000000000000e-01 2.500000000000000e-02
-2.500000000000000e-01 -1.666666666665001e-01 2.500000000000000e-02
-2.500000000000000e-01 -3.333333333331250e-01 -9.999999999999999e-02
-2.500000000000000e-01 -3.333333333331250e-01 1.500000000000000e-01
-2.500000000000000e-01 -3.333333333331250e-01 2.500000000000000e-02
0.000000000000000e+00 -5.000000000000000e-01 -1.000000000000000e-01
5.000000000000000e-01 -5.000000000000000e-01 -1.000000000000000e-01
5.000000000000000e-01 -1.666666666665000e-01 -1.000000000000000e-01
0.000000000000000e+00 -1.666666666665000e-01 -1.000000000000000e-01
0.000000000000000e+00 -5.000000000000000e-01 1.500000000000000e-01
5.000000000000000e-01 -5.000000000000000e-01 1.500000000000000e-01
5.000000000000000e-01 -1.666666666665000e-01 1.500000000000000e-01
0.000000000000000e+00 -1.666666666665000e-01 1.500000000000000e-01
2.500000000000000e-01 -5.000000000000000e-01 -1.000000000000000e-01
5.000000000000000e-01 -3.333333333331250e-01 -9.999999999999999e-02
2.500000000000000e-01 -1.666666666665000e-01 -9.999999999999999e-02
0.000000000000000e+00 -3.333333333331250e-01 -1.000000000000000e-01
2.500000000000000e-01 -5.000000000000000e-01 1.500000000000000e-01
5.000000000000000e-01 -3.333333333331250e-01 1.500000000000000e-01
2.500000000000000e-01 -1.666666666665000e-01 1.500000000000000e-01
0.000000000000000e+00 -3.333333333331250e-01 1.500000000000000e-01
0.000000000000000e+00 -5.000000000000000e-01 2.500000000000000e-02
5.000000000000000e-01 -5.000000000000000e-01 2.500000000000000e-02
5.000000000000000e-01 -1.666666666665000e-01 2.500000000000000e-02
0.000000000000000e+00 -1.666666666665000e-01 2.500000000000000e-02
0.000000000000000e+00 -3.333333333331250e-01 2.500000000000000e-02
5.000000000000000e-01 -3.333333333331250e-01 2.500000000000000e-02
2.500000000000000e-01 -5.000000000000000e-01 2.500000000000000e-02
2.500000000000000e-01 -1.666666666665000e-01 2.500000000000000e-02
2.500000000000000e-01 -3.333333333331250e-01 -9.999999999999999e-02
2.500000000000000e-01 -3.333333333331251e-01 1.500000000000000e-01
2.500000000000000e-01 -3.333333333331250e-01 2.500000000000000e-02
-5.000000000000000e-01 -1.666666666665000e-01 -1.000000000000000e-01
0.000000000000000e+00 -1.666666666665000e-01 -1.000000000000000e-01
0.000000000000000e+00 1.666666666665000e-01 -9.999999999999999e-02
-5.000000000000000e-01 1.666666666665000e-01 -1.000000000000000e-01
-5.000000000000000e-01 -1.666666666665000e-01 1.500000000000000e-01
0.000000000000000e+00 -1.666666666665000e-01 1.500000000000000e-01
0.000000000000000e+00 1.666666666665000e-01 1.500000000000000e-01
-5.000000000000000e-01 1.666666666665000e-01 1.500000000000000e-01
-2.500000000000000e-01 -1.666666666665000e-01 -1.000000000000000e-01
0.000000000000000e+00 2.775557561562891e-17 -1.000000000000000e-01
-2.500000000000000e-01 1.666666666665000e-01 -9.999999999999999e-02
-5.000000000000001e-01 2.775557561562891e-17 -1.000000000000000e-01
-2.500000000000000e-01 -1.666666666665000e-01 1.500000000000000e-01
0.000000000000000e+00 3.469446951953614e-17 1.500000000000000e-01
-2.500000000000000e-01 1.666666666665000e-01 1.500000000000000e-01
-5.000000000000001e-01 2.775557561562891e-17 1.500000000000000e-01
-5.000000000000000e-01 -1.666666666665000e-01 2.500000000000000e-02
0.000000000000000e+00 -1.666666666665000e-01 2.500000000000000e-02
0.000000000000000e+00 1.666666666665000e-01 2.500000000000000e-02
-5.000000000000000e-01 1.666666666665000e-01 2.500000000000000e-02
-5.000000000000001e-01 2.428612866367530e-17 2.500000000000000e-02
0.000000000000000e+00 2.515349040166370e-17 2.500000000000000e-02
-2.500000000000000e-01 -1.666666666665001e-01 2.500000000000000e-02
-2.500000000000000e-01 1.666666666665000e-01 2.500000000000000e-02
-2.500000000000000e-01 2.428612866367530e-17 -9.999999999999999e-02
-2.500000000000000e-01 2.602085213965211e-17 1.500000000000000e-01
-2.500000000000000e-01 2.211772431870429e-17 2.500000000000000e-02
0.000000000000000e+00 -1.666666666665000e-01 -1.000000000000000e-01
5.000000000000000e-01 -1.666666666665000e-01 -1.000000000000000e-01
5.000000000000000e-01 1.666666666665000e-01 -1.000000000000000e-01
0.000000000000000e+00 1.666666666665000e-01 -9.999999999999999e-02
0.000000000000000e+00 -1.666666666665000e-01 1.500000000000000e-01
5.000000000000000e-01 -1.666666666665000e-01 1.500000000000000e-01
5.000000000000000e-01 1.666666666665000e-01 1.500000000000000e-01
0.000000000000000e+00 1.666666666665000e-01 1.500000000000000e-01
2.500000000000000e-01 -1.666666666665000e-01 -9.999999999999999e-02
5.000000000000001e-01 2.775557561562891e-17 -1.000000000000000e-01
2.500000000000000e-01 1.666666666665000e-01 -9.999999999999999e-02
0.000000000000000e+00 2.775557561562891e-17 -1.000000000000000e-01
2.500000000000000e-01 -1.666666666665000e-01 1.500000000000000e-01
5.000000000000001e-01 2.775557561562891e-17 1.500000000000000e-01
2.500000000000000e-01 1.666666666665000e-01 1.500000000000000e-01
0.000000000000000e+00 3.469446951953614e-17 1.500000000000000e-01
0.000000000000000e+00 -1.666666666665000e-01 2.500000000000000e-02
5.000000000000000e-01 -1.666666666665000e-01 2.500000000000000e-02
5.000000000000000e-01 1.666666666665000e-01 2.500000000000000e-02
0.000000000000000e+00 1.666666666665000e-01 2.500000000000000e-02
0.000000000000000e+00 2.515349040166370e-17 2.500000000000000e-02
5.000000000000001e-01 2.428612866367530e-17 2.500000000000000e-02
2.500000000000000e-01 -1.666666666665000e-01 2.500000000000000e-02
2.500000000000000e-01 1.666666666665000e-01 2.500000000000000e-02
2.500000000000000e-01 2.081668171172169e-17 -1.000000000000000e-01
2.500000000000000e-01 2.428612866367530e-17 1.500000000000000e-01
2.500000000000000e-01 2.341876692568690e-17 2.500000000000000e-02
-5.000000000000000e-01 1.666666666665000e-01 -1.000000000000000e-01
0.000000000000000e+00 1.666666666665000e-01 -9.999999999999999e-02
0.000000000000000e+00 5.000000000000000e-01 -1.000000000000000e-01
-5.000000000000000e-01 5.000000000000000e-01 -1.000000000000000e-01
-5.000000000000000e-01 1.666666666665000e-01 1.500000000000000e-01
0.000000000000000e+00 1.666666666665000e-01 1.500000000000000e-01
0.000000000000000e+00 5.000000000000000e-01 1.500000000000000e-01
-5.000000000000000e-01 5.000000000000000e-01 1.500000000000000e-01
-2.500000000000000e-01 1.666666666665000e-01 -9.999999999999999e-02
0.000000000000000e+00 3.333333333331250e-01 -1.000000000000000e-01
-2.500000000000000e-01 5.000000000000000e-01 -9.999999999999999e-02
-5.000000000000000e-01 3.333333333331250e-01 -1.000000000000000e-01
-2.500000000000000e-01 1.666666666665000e-01 1.500000000000000e-01
0.000000000000000e+00 3.333333333331250e-01 1.500000000000000e-01
-2.500000000000000e-01 5.000000000000000e-01 1.500000000000000e-01
-5.000000000000000e-01 3.333333333331250e-01 1.500000000000000e-01
-5.000000000000000e-01 1.666666666665000e-01 2.500000000000000e-02
0.000000000000000e+00 1.666666666665000e-01 2.500000000000000e-02
0.000000000000000e+00 5.000000000000000e-01 2.500000000000000e-02
-5.000000000000000e-01 5.000000000000000e-01 2.500000000000000e-02
-5.000000000000000e-01 3.333333333331250e-01 2.500000000000000e-02
0.000000000000000e+00 3.333333333331250e-01 2.499999999999999e-02
-2.500000000000000e-01 1.666666666665000e-01 2.500000000000000e-02
-2.500000000000000e-01 5.000000000000000e-01 2.500000000000000e-02
-2.500000000000000e-01 3.333333333331250e-01 -9.999999999999999e-02
-2.499999999999999e-01 3.333333333331250e-01 1.500000000000000e-01
-2.500000000000000e-01 3.333333333331249e-01 2.500000000000000e-02
0.000000000000000e+00 1.666666666665000e-01 -9.999999999999999e-02
5.000000000000000e-01 1.666666666665000e-01 -1.000000000000000e-01
5.000000000000000e-01 5.000000000000000e-01 -1.000000000000000e-01
0.000000000000000e+00 5.000000000000000e-01 -1.000000000000000e-01
0.000000000000000e+00 1.666666666665000e-01 1.500000000000000e-01
5.000000000000000e-01 1.666666666665000e-01 1.500000000000000e-01
5.000000000000000e-01 5.000000000000000e-01 1.500000000000000e-01
0.000000000000000e+00 5.000000000000000e-01 1.500000000000000e-01
2.500000000000000e-01 1.666666666665000e-01 -9.999999999999999e-02
5.000000000000000e-01 3.333333333331250e-01 -1.000000000000000e-01
2.500000000000000e-01 5.000000000000000e-01 -1.000000000000000e-01
0.000000000000000e+00 3.333333333331250e-01 -1.000000000000000e-01
2.500000000000000e-01 1.666666666665000e-01 1.500000000000000e-01
5.000000000000000e-01 3.333333333331250e-01 1.500000000000000e-01
2.500000000000000e-01 5.000000000000000e-01 1.500000000000000e-01
0.000000000000000e+00 3.333333333331250e-01 1.500000000000000e-01
0.000000000000000e+00 1.666666666665000e-01 2.500000000000000e-02
5.000000000000000e-01 1.666666666665000e-01 2.500000000000000e-02
5.000000000000000e-01 5.000000000000000e-01 2.500000000000000e-02
0.000000000000000e+00 5.000000000000000e-01 2.500000000000000e-02
0.000000000000000e+00 3.333333333331250e-01 2.499999999999999e-02
5.000000000000000e-01 3.333333333331250e-01 2.500000000000000e-02
2.500000000000000e-01 1.666666666665000e-01 2.500000000000000e-02
2.500000000000000e-01 5.000000000000000e-01 2.500000000000000e-02
2.500000000000000e-01 3.333333333331250e-01 -1.000000000000000e-01
2.499999999999999e-01 3.333333333331250e-01 1.500000000000000e-01
2.500000000000000e-01 3.333333333331249e-01 2.500000000000000e-02
-5.000000000000000e-01 -5.000000000000000e-01 1.500000000000000e-01
0.000000000000000e+00 -5.000000000000000e-01 1.500000000000000e-01
0.000000000000000e+00 -1.666666666665000e-01 1.500000000000000e-01
-5.000000000000000e-01 -1.666666666665000e-01 1.500000000000000e-01
-5.000000000000000e-01 -5.000000000000000e-01 4.000000000000000e-01
0.000000000000000e+00 -5.000000000000000e-01 4.000000000000000e-01
0.000000000000000e+00 -1.666666666665000e-01 4.000000000000000e-01
-5.000000000000000e-01 -1.666666666665000e-01 4.000000000000000e-01
-2.500000000000000e-01 -5.000000000000000e-01 1.500000000000000e-01
0.000000000000000e+00 -3.333333333331250e-01 1.500000000000000e-01
-2.500000000000000e-01 -1.666666666665000e-01 1.500000000000000e-01
-5.000000000000000e-01 -3.333333333331250e-01 1.500000000000000e-01
-2.500000000000000e-01 -5.000000000000000e-01 4.000000000000000e-01
0.000000000000000e+00 -3.333333333331250e-01 4.000000000000000e-01
-2.500000000000000e-01 -1.666666666665000e-01 4.000000000000000e-01
-5.000000000000000e-01 -3.333333333331250e-01 4.000000000000000e-01
-5.000000000000000e-01 -5.000000000000000e-01 2.750000000000000e-01
0.000000000000000e+00 -5.000000000000000e-01 2.750000000000000e-01
0.000000000000000e+00 -1.666666666665000e-01 2.750000000000001e-01
-5.000000000000000e-01 -1.666666666665000e-01 2.750000000000000e-01
-5.000000000000000e-01 -3.333333333331250e-01 2.750000000000000e-01
0.000000000000000e+00 -3.333333333331250e-01 2.750000000000000e-01
-2.500000000000000e-01 -5.000000000000000e-01 2.750000000000000e-01
-2.500000000000000e-01 -1.666666666665000e-01 2.750000000000000e-01
-2.500000000000000e-01 -3.333333333331250e-01 1.500000000000000e-01
-2.500000000000000e-01 -3.333333333331250e-01 4.000000000000000e-01
-2.500000000000000e-01 -3.333333333331250e-01 2.750000000000000e-01
0.000000000000000e+00 -5.000000000000000e-01 1.500000000000000e-01
5.000000000000000e-01 -5.000000000000000e-01 1.500000000000000e-01
5.000000000000000e-01 -1.666666666665000e-01 1.500000000000000e-01
0.000000000000000e+00 -1.666666666665000e-01 1.500000000000000e-01
0.000000000000000e+00 -5.000000000000000e-01 4.000000000000000e-01
5.000000000000000e-01 -5.000000000000000e-01 4.000000000000000e-01
5.000000000000000e-01 -1.666666666665000e-01 4.000000000000000e-01
0.000000000000000e+00 -1.666666666665000e-01 4.000000000000000e-01
2.500000000000000e-01 -5.000000000000000e-01 1.500000000000000e-01
5.000000000000000e-01 -3.333333333331250e-01 1.500000000000000e-01
2.500000000000000e-01 -1.666666666665000e-01 1.500000000000000e-01
0.000000000000000e+00 -3.333333333331250e-01 1.500000000000000e-01
2.500000000000000e-01 -5.000000000000000e-01 4.000000000000000e-01
5.000000000000000e-01 -3.333333333331250e-01 4.000000000000000e-01
2.500000000000000e-01 -1.666666666665000e-01 4.000000000000001e-01
0.000000000000000e+00 -3.333333333331250e-01 4.000000000000000e-01
0.000000000000000e+00 -5.000000000000000e-01 2.750000000000000e-01
5.000000000000000e-01 -5.000000000000000e-01 2.750000000000000e-01
5.000000000000000e-01 -1.666666666665000e-01 2.750000000000000e-01
0.000000000000000e+00 -1.666666666665000e-01 2.750000000000001e-01
0.000000000000000e+00 -3.333333333331250e-01 2.750000000000000e-01
5.000000000000000e-01 -3.333333333331250e-01 2.750000000000000e-01
2.500000000000000e-01 -5.000000000000000e-01 2.750000000000000e-01
2.500000000000000e-01 -1.666666666665000e-01 2.750000000000000e-01
2.500000000000000e-01 -3.333333333331251e-01 1.500000000000000e-01
2.500000000000000e-01 -3.333333333331251e-01 4.000000000000000e-01
2.500000000000000e-01 -3.333333333331249e-01 2.750000000000000e-01
-5.000000000000000e-01 -1.666666666665000e-01 1.500000000000000e-01
0.000000000000000e+00 -1.666666666665000e-01 1.500000000000000e-01
0.000000000000000e+00 1.666666666665000e-01 1.500000000000000e-01
-5.000000000000000e-01 1.666666666665000e-01 1.500000000000000e-01
-5.000000000000000e-01 -1.666666666665000e-01 4.000000000000000e-01
0.000000000000000e+00 -1.666666666665000e-01 4.000000000000000e-01
0.000000000000000e+00 1.666666666665000e-01 4.000000000000000e-01
-5.000000000000000e-01 1.666666666665000e-01 4.000000000000000e-01
-2.500000000000000e-01 -1.666666666665000e-01 1.500000000000000e-01
0.000000000000000e+00 3.469446951953614e-17 1.500000000000000e-01
-2.500000000000000e-01 1.666666666665000e-01 1.500000000000000e-01
-5.000000000000001e-01 2.775557561562891e-17 1.500000000000000e-01
-2.500000000000000e-01 -1.666666666665000e-01 4.000000000000000e-01
0.000000000000000e+00 3.469446951953614e-17 4.000000000000001e-01
-2.500000000000000e-01 1.666666666665000e-01 4.000000000000000e-01
-5.000000000000001e-01 2.775557561562891e-17 4.000000000000001e-01
-5.000000000000000e-01 -1.666666666665000e-01 2.750000000000000e-01
0.000000000000000e+00 -1.666666666665000e-01 2.750000000000001e-01
0.000000000000000e+00 1.666666666665000e-01 2.750000000000001e-01
-5.000000000000000e-01 1.666666666665000e-01 2.750000000000000e-01
-5.000000000000000e-01 3.469446951953614e-17 2.750000000000000e-01
0.000000000000000e+00 3.469446951953614e-17 2.750000000000000e-01
-2.500000000000000e-01 -1.666666666665000e-01 2.750000000000000e-01
-2.500000000000000e-01 1.666666666665000e-01 2.750000000000000e-01
-2.500000000000000e-01 2.602085213965211e-17 1.500000000000000e-01
-2.500000000000000e-01 2.602085213965211e-17 4.000000000000000e-01
-2.500000000000000e-01 3.079134169858833e-17 2.750000000000001e-01
0.000000000000000e+00 -1.666666666665000e-01 1.500000000000000e-01
5.000000000000000e-01 -1.666666666665000e-01 1.500000000000000e-01
5.000000000000000e-01 1.666666666665000e-01 1.500000000000000e-01
0.000000000000000e+00 1.666666666665000e-01 1.500000000000000e-01
0.000000000000000e+00 -1.666666666665000e-01 4.000000000000000e-01
5.000000000000000e-01 -1.666666666665000e-01 4.000000000000000e-01
5.000000000000000e-01 1.666666666665000e-01 4.000000000000000e-01
0.000000000000000e+00 1.666666666665000e-01 4.000000000000000e-01
2.500000000000000e-01 -1.666666666665000e-01 1.500000000000000e-01
5.000000000000001e-01 2.775557561562891e-17 1.500000000000000e-01
2.500000000000000e-01 1.666666666665000e-01 1.500000000000000e-01
0.000000000000000e+00 3.469446951953614e-17 1.500000000000000e-01
2.500000000000000e-01 -1.666666666665000e-01 4.000000000000001e-01
5.000000000000001e-01 2.775557561562891e-17 4.000000000000001e-01
2.500000000000000e-01 1.666666666665000e-01 4.000000000000000e-01
0.000000000000000e+00 3.469446951953614e-17 4.000000000000001e-01
0.000000000000000e+00 -1.666666666665000e-01 2.750000000000001e-01
5.000000000000000e-01 -1.666666666665000e-01 2.750000000000000e-01
5.000000000000000e-01 1.666666666665000e-01 2.750000000000000e-01
0.000000000000000e+00 1.666666666665000e-01 2.750000000000001e-01
0.000000000000000e+00 3.469446951953614e-17 2.750000000000000e-01
5.000000000000000e-01 3.469446951953614e-17 2.750000000000000e-01
2.500000000000000e-01 -1.666666666665000e-01 2.750000000000000e-01
2.500000000000000e-01 1.666666666665000e-01 2.750000000000000e-01
2.500000000000000e-01 2.428612866367530e-17 1.500000000000000e-01
2.500000000000000e-01 2.428612866367530e-17 4.000000000000000e-01
2.500000000000000e-01 2.515349040166370e-17 2.750000000000001e-01
-5.000000000000000e-01 1.666666666665000e-01 1.500000000000000e-01
0.000000000000000e+00 1.666666666665000e-01 1.500000000000000e-01
0.000000000000000e+00 5.000000000000000e-01 1.500000000000000e-01
-5.000000000000000e-01 5.000000000000000e-01 1.500000000000000e-01
-5.000000000000000e-01 1.666666666665000e-01 4.000000000000000e-01
0.000000000000000e+00 1.666666666665000e-01 4.000000000000000e-01
0.000000000000000e+00 5.000000000000000e-01 4.000000000000000e-01
-5.000000000000000e-01 5.000000000000000e-01 4.000000000000000e-01
-2.500000000000000e-01 1.666666666665000e-01 1.500000000000000e-01
0.000000000000000e+00 3.333333333331250e-01 1.500000000000000e-01
-2.500000000000000e-01 5.000000000000000e-01 1.500000000000000e-01
-5.000000000000000e-01 3.333333333331250e-01 1.500000000000000e-01
-2.500000000000000e-01 1.666666666665000e-01 4.000000000000000e-01
0.000000000000000e+00 3.333333333331250e-01 4.000000000000000e-01
-2.500000000000000e-01 5.000000000000000e-01 4.000000000000000e-01
-5.000000000000000e-01 3.333333333331250e-01 4.000000000000001e-01
-5.000000000000000e-01 1.666666666665000e-01 2.750000000000000e-01
0.000000000000000e+00 1.666666666665000e-01 2.750000000000001e-01
0.000000000000000e+00 5.000000000000000e-01 2.750000000000000e-01
-5.000000000000000e-01 5.000000000000000e-01 2.750000000000000e-01
-5.000000000000000e-01 3.333333333331250e-01 2.750000000000001e-01
0.000000000000000e+00 3.333333333331250e-01 2.749999999999999e-01
-2.500000000000000e-01 1.666666666665000e-01 2.750000000000000e-01
-2.500000000000000e-01 5.000000000000000e-01 2.750000000000000e-01
-2.499999999999999e-01 3.333333333331250e-01 1.500000000000000e-01
-2.499999999999999e-01 3.333333333331250e-01 3.999999999999999e-01
-2.500000000000000e-01 3.333333333331249e-01 2.750000000000000e-01
0.000000000000000e+00 1.666666666665000e-01 1.500000000000000e-01
5.000000000000000e-01 1.666666666665000e-01 1.500000000000000e-01
5.000000000000000e-01 5.000000000000000e-01 1.500000000000000e-01
0.000000000000000e+00 5.000000000000000e-01 1.500000000000000e-01
0.000000000000000e+00 1.666666666665000e-01 4.000000000000000e-01
5.000000000000000e-01 1.666666666665000e-01 4.000000000000000e-01
5.000000000000000e-01 5.000000000000000e-01 4.000000000000000e-01
0.000000000000000e+00 5.000000000000000e-01 4.000000000000000e-01
2.500000000000000e-01 1.666666666665000e-01 1.500000000000000e-01
5.000000000000000e-01 3.333333333331250e-01 1.500000000000000e-01
2.500000000000000e-01 5.000000000000000e-01 1.500000000000000e-01
0.000000000000000e+00 3.333333333331250e-01 1.500000000000000e-01
2.500000000000000e-01 1.666666666665000e-01 4.000000000000000e-01
5.000000000000000e-01 3.333333333331250e-01 4.000000000000001e-01
2.500000000000000e-01 5.000000000000000e-01 4.000000000000000e-01
0.000000000000000e+00 3.333333333331250e-01 4.000000000000000e-01
0.000000000000000e+00 1.666666666665000e-01 2.750000000000001e-01
5.000000000000000e-01 1.666666666665000e-01 2.750000000000000e-01
5.000000000000000e-01 5.000000000000000e-01 2.750000000000000e-01
0.000000000000000e+00 5.000000000000000e-01 2.750000000000000e-01
0.000000000000000e+00 3.333333333331250e-01 2.749999999999999e-01
5.000000000000000e-01 3.333333333331250e-01 2.750000000000001e-01
2.500000000000000e-01 1.666666666665000e-01 2.750000000000000e-01
2.500000000000000e-01 5.000000000000000e-01 2.750000000000000e-01
2.499999999999999e-01 3.333333333331250e-01 1.500000000000000e-01
2.499999999999999e-01 3.333333333331250e-01 4.000000000000000e-01
2.500000000000000e-01 3.333333333331250e-01 2.750000000000001e-01
        </DataArray>
      </Points>

      <Cells>
        <DataArray type="Int32" Name="connectivity" format="ascii">
0 1 2 3 4 5 6 7 8 9 10 11 12 13 14 15 16 17 18 19 20 21 22 23 24 25 26 27 28 29 30 31 32 33 34 35 36 37 38 39 40 41 42 43 44 45 46 47 48 49 50 51 52 53 54 55 56 57 58 59 60 61 62 63 64 65 66 67 68 69 70 71 72 73 74 75 76 77 78 79 80 81 82 83 84 85 86 87 88 89 90 91 92 93 94 95 96 97 98 99 100 101 102 103 104 105 106 107 108 109 110 111 112 113 114 115 116 117 118 119 120 121 122 123 124 125 126 127 128 129 130 131 132 133 134 135 136 137 138 139 140 141 142 143 144 145 146 147 148 149 150 151 152 153 154 155 156 157 158 159 160 161 162 163 164 165 166 167 168 169 170 171 172 173 174 175 176 177 178 179 180 181 182 183 184 185 186 187 188 189 190 191 192 193 194 195 196 197 198 199 200 201 202 203 204 205 206 207 208 209 210 211 212 213 214 215 216 217 218 219 220 221 222 223 224 225 226 227 228 229 230 231 232 233 234 235 236 237 238 239 240 241 242 243 244 245 246 247 248 249 250 251 252 253 254 255 256 257 258 259 260 261 262 263 264 265 266 267 268 269 270 271 272 273 274 275 276 277 278 279 280 281 282 283 284 285 286 287 288 289 290 291 292 293 294 295 296 297 298 299 300 301 302 303 304 305 306 307 308 309 310 311 312 313 314 315 316 317 318 319 320 321 322 323 
        </DataArray>
        <DataArray type="Int32" Name="offsets" format="ascii">
27 54 81 108 135 162 189 216 243 270 297 324 
        </DataArray>
        <DataArray type="UInt8" Name="types" format="ascii">
29 29 29 29 29 29 29 29 29 29 29 29 
        </DataArray>
      </Cells>

  <PointData>
        <DataArray type="Float64" Name="displacement" NumberOfComponents="3" format="ascii">
0.000000000000000e+00 0.000000000000000e+00 0.000000000000000e+00
0.000000000000000e+00 0.000000000000000e+00 0.000000000000000e+00
0.000000000000000e+00 0.000000000000000e+00 0.000000000000000e+00
0.000000000000000e+00 0.000000000000000e+00 0.000000000000000e+00
2.014281292180473e-02 2.041489066623613e-02 4.173188610276871e-02
-1.734723475976807e-18 2.155620710586199e-02 3.700715503832058e-02
-2.385244779468110e-18 5.429144740624988e-03 3.230087484289305e-02
2.107684111881318e-02 5.362708048962697e-03 3.703835224886796e-02
0.000000000000000e+00 0.000000000000000e+00 0.000000000000000e+00
0.000000000000000e+00 0.000000000000000e+00 0.000000000000000e+00
0.000000000000000e+00 0.000000000000000e+00 0.000000000000000e+00
0.000000000000000e+00 0.000000000000000e+00 0.000000000000000e+00
8.339645159767912e-03 2.127087799595553e-02 3.818833780443261e-02
-2.602085213965211e-18 1.217548270224673e-02 3.356404419553870e-02
8.496645229661415e-03 5.412535567709415e-03 3.348524419438677e-02
2.054080364428855e-02 1.180710772776240e-02 3.831549745847619e-02
1.380349143309897e-02 1.392420454989466e-02 2.193183383920522e-02
-6.505213034913027e-19 1.469526571021546e-02 1.848278967848609e-02
-1.572093150103981e-18 2.796486312333498e-03 1.460894015224376e-02
1.437626140627804e-02 2.756594808513022e-03 1.812609048363942e-02
1.392707172342383e-02 6.926794648114939e-03 1.885857487533292e-02
-1.734723475976807e-18 7.169424317970738e-03 1.533281219622227e-02
4.555776649389221e-03 1.450250042013526e-02 1.934505071866587e-02
4.655256358888671e-03 2.786513436378380e-03 1.548822773509268e-02
0.000000000000000e+00 0.000000000000000e+00 0.000000000000000e+00
8.313736408373705e-03 1.208338895862565e-02 3.475190751127308e-02
4.528407585842800e-03 7.108766900506790e-03 1.621425286599993e-02
0.000000000000000e+00 0.000000000000000e+00 0.000000000000000e+00
0.000000000000000e+00 0.000000000000000e+00 0.000000000000000e+00
0.000000000000000e+00 0.000000000000000e+00 0.000000000000000e+00
0.000000000000000e+00 0.000000000000000e+00 0.000000000000000e+00
-1.734723475976807e-18 2.155620710586199e-02 3.700715503832058e-02
-2.014281292180474e-02 2.041489066623611e-02 4.173188610276869e-02
-2.107684111881317e-02 5.362708048962691e-03 3.703835224886798e-02
-2.385244779468110e-18 5.429144740624988e-03 3.230087484289305e-02
0.000000000000000e+00 0.000000000000000e+00 0.000000000000000e+00
0.000000000000000e+00 0.000000000000000e+00 0.000000000000000e+00
0.000000000000000e+00 0.000000000000000e+00 0.000000000000000e+00
0.000000000000000e+00 0.000000000000000e+00 0.000000000000000e+00
-8.339645159767919e-03 2.127087799595553e-02 3.818833780443261e-02
-2.054080364428855e-02 1.180710772776239e-02 3.831549745847620e-02
-8.496645229661415e-03 5.412535567709412e-03 3.348524419438677e-02
-2.602085213965211e-18 1.217548270224673e-02 3.356404419553870e-02
-6.505213034913027e-19 1.469526571021546e-02 1.848278967848609e-02
-1.380349143309898e-02 1.392420454989464e-02 2.193183383920519e-02
-1.437626140627804e-02 2.756594808513019e-03 1.812609048363943e-02
-1.572093150103981e-18 2.796486312333498e-03 1.460894015224376e-02
-1.734723475976807e-18 7.169424317970738e-03 1.533281219622227e-02
-1.392707172342383e-02 6.926794648114938e-03 1.885857487533293e-02
-4.555776649389224e-03 1.450250042013526e-02 1.934505071866587e-02
-4.655256358888672e-03 2.786513436378380e-03 1.548822773509268e-02
0.000000000000000e+00 0.000000000000000e+00 0.000000000000000e+00
-8.313736408373710e-03 1.208338895862565e-02 3.475190751127308e-02
-4.528407585842803e-03 7.108766900506788e-03 1.621425286599993e-02
0.000000000000000e+00 0.000000000000000e+00 0.000000000000000e+00
0.000000000000000e+00 0.000000000000000e+00 0.000000000000000e+00
0.000000000000000e+00 0.000000000000000e+00 0.000000000000000e+00
0.000000000000000e+00 0.000000000000000e+00 0.000000000000000e+00
2.107684111881318e-02 5.362708048962697e-03 3.703835224886796e-02
-2.385244779468110e-18 5.429144740624988e-03 3.230087484289305e-02
-6.505213034913027e-19 -5.429144740624987e-03 3.230087484289304e-02
2.107684111881317e-02 -5.362708048962692e-03 3.703835224886797e-02
0.000000000000000e+00 0.000000000000000e+00 0.000000000000000e+00
0.000000000000000e+00 0.000000000000000e+00 0.000000000000000e+00
0.000000000000000e+00 0.000000000000000e+00 0.000000000000000e+00
0.000000000000000e+00 0.000000000000000e+00 0.000000000000000e+00
8.496645229661415e-03 5.412535567709415e-03 3.348524419438677e-02
-1.680513367352532e-18 -5.421010862427522e-19 3.221427553910428e-02
8.496645229661414e-03 -5.412535567709414e-03 3.348524419438677e-02
2.137937154408570e-02 2.602085213965211e-18 3.693459050273493e-02
1.437626140627804e-02 2.756594808513022e-03 1.812609048363942e-02
-1.572093150103981e-18 2.796486312333498e-03 1.460894015224376e-02
-1.626303258728257e-19 -2.796486312333499e-03 1.460894015224376e-02
1.437626140627803e-02 -2.756594808513020e-03 1.812609048363942e-02
1.468225859583748e-02 1.626303258728257e-18 1.834504193083738e-02
-8.538092108323347e-19 1.897353801849633e-19 1.485353048982584e-02
4.655256358888671e-03 2.786513436378380e-03 1.548822773509268e-02
4.655256358888670e-03 -2.786513436378378e-03 1.548822773509267e-02
0.000000000000000e+00 0.000000000000000e+00 0.000000000000000e+00
8.640304033475746e-03 -3.794707603699266e-19 3.339435428001195e-02
4.757235204559679e-03 -5.285485590866834e-19 1.572640835007872e-02
0.000000000000000e+00 0.000000000000000e+00 0.000000000000000e+00
0.000000000000000e+00 0.000000000000000e+00 0.000000000000000e+00
0.000000000000000e+00 0.000000000000000e+00 0.000000000000000e+00
0.000000000000000e+00 0.000000000000000e+00 0.000000000000000e+00
-2.385244779468110e-18 5.429144740624988e-03 3.230087484289305e-02
-2.107684111881317e-02 5.362708048962691e-03 3.703835224886798e-02
-2.107684111881317e-02 -5.362708048962691e-03 3.703835224886796e-02
-6.505213034913027e-19 -5.429144740624987e-03 3.230087484289304e-02
0.000000000000000e+00 0.000000000000000e+00 0.000000000000000e+00
0.000000000000000e+00 0.000000000000000e+00 0.000000000000000e+00
0.000000000000000e+00 0.000000000000000e+00 0.000000000000000e+00
0.000000000000000e+00 0.000000000000000e+00 0.000000000000000e+00
-8.496645229661415e-03 5.412535567709412e-03 3.348524419438677e-02
-2.137937154408569e-02 -3.469446951953614e-18 3.693459050273493e-02
-8.496645229661414e-03 -5.412535567709414e-03 3.348524419438677e-02
-1.680513367352532e-18 -5.421010862427522e-19 3.221427553910428e-02
-1.572093150103981e-18 2.796486312333498e-03 1.460894015224376e-02
-1.437626140627804e-02 2.756594808513019e-03 1.812609048363943e-02
-1.437626140627804e-02 -2.756594808513020e-03 1.812609048363942e-02
-1.626303258728257e-19 -2.796486312333499e-03 1.460894015224376e-02
-8.538092108323347e-19 1.897353801849633e-19 1.485353048982584e-02
-1.468225859583748e-02 -2.927345865710862e-18 1.834504193083737e-02
-4.655256358888672e-03 2.786513436378380e-03 1.548822773509268e-02
-4.655256358888670e-03 -2.786513436378380e-03 1.548822773509267e-02
0.000000000000000e+00 0.000000000000000e+00 0.000000000000000e+00
-8.640304033475748e-03 -1.626303258728257e-19 3.339435428001193e-02
-4.757235204559680e-03 3.930232875259954e-19 1.572640835007872e-02
0.000000000000000e+00 0.000000000000000e+00 0.000000000000000e+00
0.000000000000000e+00 0.000000000000000e+00 0.000000000000000e+00
0.000000000000000e+00 0.000000000000000e+00 0.000000000000000e+00
0.000000000000000e+00 0.000000000000000e+00 0.000000000000000e+00
2.107684111881317e-02 -5.362708048962692e-03 3.703835224886797e-02
-6.505213034913027e-19 -5.429144740624987e-03 3.230087484289304e-02
-8.673617379884035e-19 -2.155620710586200e-02 3.700715503832059e-02
2.014281292180473e-02 -2.041489066623611e-02 4.173188610276870e-02
0.000000000000000e+00 0.000000000000000e+00 0.000000000000000e+00
0.000000000000000e+00 0.000000000000000e+00 0.000000000000000e+00
0.000000000000000e+00 0.000000000000000e+00 0.000000000000000e+00
0.000000000000000e+00 0.000000000000000e+00 0.000000000000000e+00
8.496645229661414e-03 -5.412535567709414e-03 3.348524419438677e-02
0.000000000000000e+00 -1.217548270224674e-02 3.356404419553870e-02
8.339645159767914e-03 -2.127087799595553e-02 3.818833780443261e-02
2.054080364428855e-02 -1.180710772776240e-02 3.831549745847620e-02
1.437626140627803e-02 -2.756594808513020e-03 1.812609048363942e-02
-1.626303258728257e-19 -2.796486312333499e-03 1.460894015224376e-02
-1.084202172485504e-19 -1.469526571021546e-02 1.848278967848609e-02
1.380349143309898e-02 -1.392420454989464e-02 2.193183383920520e-02
1.392707172342383e-02 -6.926794648114937e-03 1.885857487533292e-02
2.710505431213761e-19 -7.169424317970738e-03 1.533281219622227e-02
4.655256358888670e-03 -2.786513436378378e-03 1.548822773509267e-02
4.555776649389219e-03 -1.450250042013526e-02 1.934505071866587e-02
0.000000000000000e+00 0.000000000000000e+00 0.000000000000000e+00
8.313736408373707e-03 -1.208338895862565e-02 3.475190751127306e-02
4.528407585842799e-03 -7.108766900506786e-03 1.621425286599993e-02
0.000000000000000e+00 0.000000000000000e+00 0.000000000000000e+00
0.000000000000000e+00 0.000000000000000e+00 0.000000000000000e+00
0.000000000000000e+00 0.000000000000000e+00 0.000000000000000e+00
0.000000000000000e+00 0.000000000000000e+00 0.000000000000000e+00
-6.505213034913027e-19 -5.429144740624987e-03 3.230087484289304e-02
-2.107684111881317e-02 -5.362708048962691e-03 3.703835224886796e-02
-2.014281292180474e-02 -2.041489066623612e-02 4.173188610276871e-02
-8.673617379884035e-19 -2.155620710586200e-02 3.700715503832059e-02
0.000000000000000e+00 0.000000000000000e+00 0.000000000000000e+00
0.000000000000000e+00 0.000000000000000e+00 0.000000000000000e+00
0.000000000000000e+00 0.000000000000000e+00 0.000000000000000e+00
0.000000000000000e+00 0.000000000000000e+00 0.000000000000000e+00
-8.496645229661414e-03 -5.412535567709414e-03 3.348524419438677e-02
-2.054080364428855e-02 -1.180710772776239e-02 3.831549745847619e-02
-8.339645159767917e-03 -2.127087799595553e-02 3.818833780443261e-02
0.000000000000000e+00 -1.217548270224674e-02 3.356404419553870e-02
-1.626303258728257e-19 -2.796486312333499e-03 1.460894015224376e-02
-1.437626140627804e-02 -2.756594808513020e-03 1.812609048363942e-02
-1.380349143309899e-02 -1.392420454989466e-02 2.193183383920522e-02
-1.084202172485504e-19 -1.469526571021546e-02 1.848278967848609e-02
2.710505431213761e-19 -7.169424317970738e-03 1.533281219622227e-02
-1.392707172342384e-02 -6.926794648114937e-03 1.885857487533292e-02
-4.655256358888670e-03 -2.786513436378380e-03 1.548822773509267e-02
-4.555776649389222e-03 -1.450250042013526e-02 1.934505071866587e-02
0.000000000000000e+00 0.000000000000000e+00 0.000000000000000e+00
-8.313736408373709e-03 -1.208338895862565e-02 3.475190751127306e-02
-4.528407585842800e-03 -7.108766900506790e-03 1.621425286599993e-02
2.014281292180473e-02 2.041489066623613e-02 4.173188610276871e-02
-1.734723475976807e-18 2.155620710586199e-02 3.700715503832058e-02
-2.385244779468110e-18 5.429144740624988e-03 3.230087484289305e-02
2.107684111881318e-02 5.362708048962697e-03 3.703835224886796e-02
2.457090776255629e-02 2.462224021071000e-02 7.853157122033076e-02
-3.035766082959412e-18 2.556143495083017e-02 7.490720249775260e-02
-1.517883041479706e-18 8.407511870415055e-03 7.195668959970244e-02
2.525436284842851e-02 8.335406626078488e-03 7.545935094470248e-02
8.339645159767912e-03 2.127087799595553e-02 3.818833780443261e-02
-2.602085213965211e-18 1.217548270224673e-02 3.356404419553870e-02
8.496645229661415e-03 5.412535567709415e-03 3.348524419438677e-02
2.054080364428855e-02 1.180710772776240e-02 3.831549745847619e-02
1.244955611391917e-02 2.532663626580013e-02 7.581329467839713e-02
-2.059984127722458e-18 1.689974857572636e-02 7.324570090825962e-02
1.258649951946399e-02 8.389485559330914e-03 7.283235493595246e-02
2.489808618241907e-02 1.657481833527561e-02 7.677459829504113e-02
2.255345489024719e-02 2.285369150213703e-02 6.029888812003053e-02
-2.059984127722458e-18 2.402940368628508e-02 5.575474350343294e-02
-2.602085213965211e-18 7.449108766207746e-03 5.183154451202142e-02
2.355259098404886e-02 7.371318921450644e-03 5.629627562583815e-02
2.310865528861376e-02 1.492757152734756e-02 5.780832088614166e-02
-2.249719507907422e-18 1.531873687933095e-02 5.332467932415071e-02
1.106608011874244e-02 2.373547564024807e-02 5.689077965758234e-02
1.123633636546945e-02 7.429661305018472e-03 5.294772729047562e-02
8.313736408373705e-03 1.208338895862565e-02 3.475190751127308e-02
1.243243370176852e-02 1.681851601561368e-02 7.412792525495501e-02
1.105030545215989e-02 1.522094554133511e-02 5.444558971464843e-02
-1.734723475976807e-18 2.155620710586199e-02 3.700715503832058e-02
-2.014281292180474e-02 2.041489066623611e-02 4.173188610276869e-02
-2.107684111881317e-02 5.362708048962691e-03 3.703835224886798e-02
-2.385244779468110e-18 5.429144740624988e-03 3.230087484289305e-02
-3.035766082959412e-18 2.556143495083017e-02 7.490720249775260e-02
-2.457090776255631e-02 2.462224021070999e-02 7.853157122033078e-02
-2.525436284842850e-02 8.335406626078477e-03 7.545935094470246e-02
-1.517883041479706e-18 8.407511870415055e-03 7.195668959970244e-02
-8.339645159767919e-03 2.127087799595553e-02 3.818833780443261e-02
-2.054080364428855e-02 1.180710772776239e-02 3.831549745847620e-02
-8.496645229661415e-03 5.412535567709412e-03 3.348524419438677e-02
-2.602085213965211e-18 1.217548270224673e-02 3.356404419553870e-02
-1.244955611391918e-02 2.532663626580012e-02 7.581329467839712e-02
-2.489808618241907e-02 1.657481833527559e-02 7.677459829504113e-02
-1.258649951946399e-02 8.389485559330908e-03 7.283235493595244e-02
-2.059984127722458e-18 1.689974857572636e-02 7.324570090825962e-02
-2.059984127722458e-18 2.402940368628508e-02 5.575474350343294e-02
-2.255345489024720e-02 2.285369150213701e-02 6.029888812003054e-02
-2.355259098404885e-02 7.371318921450636e-03 5.629627562583815e-02
-2.602085213965211e-18 7.449108766207746e-03 5.183154451202142e-02
-2.249719507907422e-18 1.531873687933095e-02 5.332467932415071e-02
-2.310865528861376e-02 1.492757152734755e-02 5.780832088614166e-02
-1.106608011874245e-02 2.373547564024806e-02 5.689077965758234e-02
-1.123633636546945e-02 7.429661305018469e-03 5.294772729047562e-02
-8.313736408373710e-03 1.208338895862565e-02 3.475190751127308e-02
-1.243243370176852e-02 1.681851601561367e-02 7.412792525495500e-02
-1.105030545215989e-02 1.522094554133510e-02 5.444558971464843e-02
2.107684111881318e-02 5.362708048962697e-03 3.703835224886796e-02
-2.385244779468110e-18 5.429144740624988e-03 3.230087484289305e-02
-6.505213034913027e-19 -5.429144740624987e-03 3.230087484289304e-02
2.107684111881317e-02 -5.362708048962692e-03 3.703835224886797e-02
2.525436284842851e-02 8.335406626078488e-03 7.545935094470248e-02
-1.517883041479706e-18 8.407511870415055e-03 7.195668959970244e-02
0.000000000000000e+00 -8.407511870415055e-03 7.195668959970243e-02
2.525436284842851e-02 -8.335406626078481e-03 7.545935094470248e-02
8.496645229661415e-03 5.412535567709415e-03 3.348524419438677e-02
-1.680513367352532e-18 -5.421010862427522e-19 3.221427553910428e-02
8.496645229661414e-03 -5.412535567709414e-03 3.348524419438677e-02
2.137937154408570e-02 2.602085213965211e-18 3.693459050273493e-02
1.258649951946399e-02 8.389485559330914e-03 7.283235493595246e-02
-3.794707603699266e-19 -1.951563910473908e-18 7.140530651565780e-02
1.258649951946399e-02 -8.389485559330914e-03 7.283235493595244e-02
2.543977574296990e-02 2.385244779468110e-18 7.491215866327092e-02
2.355259098404886e-02 7.371318921450644e-03 5.629627562583815e-02
-2.602085213965211e-18 7.449108766207746e-03 5.183154451202142e-02
-7.047314121155779e-19 -7.449108766207747e-03 5.183154451202141e-02
2.355259098404885e-02 -7.371318921450638e-03 5.629627562583815e-02
2.374674265603353e-02 2.331034670843835e-18 5.578488348908276e-02
-1.829591166069289e-18 -1.084202172485504e-18 5.131920944774503e-02
1.123633636546945e-02 7.429661305018472e-03 5.294772729047562e-02
1.123633636546945e-02 -7.429661305018470e-03 5.294772729047559e-02
8.640304033475746e-03 -3.794707603699266e-19 3.339435428001195e-02
1.270632948577325e-02 8.131516293641283e-20 7.228201955256110e-02
1.137980321709725e-02 2.913793338554793e-19 5.243562795807948e-02
-2.385244779468110e-18 5.429144740624988e-03 3.230087484289305e-02
-2.107684111881317e-02 5.362708048962691e-03 3.703835224886798e-02
-2.107684111881317e-02 -5.362708048962691e-03 3.703835224886796e-02
-6.505213034913027e-19 -5.429144740624987e-03 3.230087484289304e-02
-1.517883041479706e-18 8.407511870415055e-03 7.195668959970244e-02
-2.525436284842850e-02 8.335406626078477e-03 7.545935094470246e-02
-2.525436284842850e-02 -8.335406626078481e-03 7.545935094470246e-02
0.000000000000000e+00 -8.407511870415055e-03 7.195668959970243e-02
-8.496645229661415e-03 5.412535567709412e-03 3.348524419438677e-02
-2.137937154408569e-02 -3.469446951953614e-18 3.693459050273493e-02
-8.496645229661414e-03 -5.412535567709414e-03 3.348524419438677e-02
-1.680513367352532e-18 -5.421010862427522e-19 3.221427553910428e-02
-1.258649951946399e-02 8.389485559330908e-03 7.283235493595244e-02
-2.543977574296988e-02 -3.252606517456513e-18 7.491215866327092e-02
-1.258649951946399e-02 -8.389485559330912e-03 7.283235493595244e-02
-3.794707603699266e-19 -1.951563910473908e-18 7.140530651565780e-02
-2.602085213965211e-18 7.449108766207746e-03 5.183154451202142e-02
-2.355259098404885e-02 7.371318921450636e-03 5.629627562583815e-02
-2.355259098404884e-02 -7.371318921450637e-03 5.629627562583814e-02
-7.047314121155779e-19 -7.449108766207747e-03 5.183154451202141e-02
-1.829591166069289e-18 -1.084202172485504e-18 5.131920944774503e-02
-2.374674265603352e-02 -3.523657060577889e-18 5.578488348908275e-02
-1.123633636546945e-02 7.429661305018469e-03 5.294772729047562e-02
-1.123633636546945e-02 -7.429661305018469e-03 5.294772729047561e-02
-8.640304033475748e-03 -1.626303258728257e-19 3.339435428001193e-02
-1.270632948577325e-02 -2.818925648462312e-18 7.228201955256107e-02
-1.137980321709725e-02 -1.409462824231156e-18 5.243562795807947e-02
2.107684111881317e-02 -5.362708048962692e-03 3.703835224886797e-02
-6.505213034913027e-19 -5.429144740624987e-03 3.230087484289304e-02
-8.673617379884035e-19 -2.155620710586200e-02 3.700715503832059e-02
2.014281292180473e-02 -2.041489066623611e-02 4.173188610276870e-02
2.525436284842851e-02 -8.335406626078481e-03 7.545935094470248e-02
0.000000000000000e+00 -8.407511870415055e-03 7.195668959970243e-02
4.336808689942018e-19 -2.556143495083017e-02 7.490720249775258e-02
2.457090776255630e-02 -2.462224021071000e-02 7.853157122033078e-02
8.496645229661414e-03 -5.412535567709414e-03 3.348524419438677e-02
0.000000000000000e+00 -1.217548270224674e-02 3.356404419553870e-02
8.339645159767914e-03 -2.127087799595553e-02 3.818833780443261e-02
2.054080364428855e-02 -1.180710772776240e-02 3.831549745847620e-02
1.258649951946399e-02 -8.389485559330914e-03 7.283235493595244e-02
7.589415207398531e-19 -1.689974857572636e-02 7.324570090825962e-02
1.244955611391918e-02 -2.532663626580013e-02 7.581329467839712e-02
2.489808618241908e-02 -1.657481833527560e-02 7.677459829504114e-02
2.355259098404885e-02 -7.371318921450638e-03 5.629627562583815e-02
-7.047314121155779e-19 -7.449108766207747e-03 5.183154451202141e-02
-5.421010862427522e-19 -2.402940368628508e-02 5.575474350343293e-02
2.255345489024719e-02 -2.285369150213703e-02 6.029888812003054e-02
2.310865528861376e-02 -1.492757152734756e-02 5.780832088614166e-02
-1.355252715606881e-19 -1.531873687933095e-02 5.332467932415068e-02
1.123633636546945e-02 -7.429661305018470e-03 5.294772729047559e-02
1.106608011874245e-02 -2.373547564024807e-02 5.689077965758234e-02
8.313736408373707e-03 -1.208338895862565e-02 3.475190751127306e-02
1.243243370176853e-02 -1.681851601561367e-02 7.412792525495497e-02
1.105030545215989e-02 -1.522094554133511e-02 5.444558971464842e-02
-6.505213034913027e-19 -5.429144740624987e-03 3.230087484289304e-02
-2.107684111881317e-02 -5.362708048962691e-03 3.703835224886796e-02
-2.014281292180474e-02 -2.041489066623612e-02 4.173188610276871e-02
-8.673617379884035e-19 -2.155620710586200e-02 3.700715503832059e-02
0.000000000000000e+00 -8.407511870415055e-03 7.195668959970243e-02
-2.525436284842850e-02 -8.335406626078481e-03 7.545935094470246e-02
-2.457090776255630e-02 -2.462224021070999e-02 7.853157122033075e-02
4.336808689942018e-19 -2.556143495083017e-02 7.490720249775258e-02
-8.496645229661414e-03 -5.412535567709414e-03 3.348524419438677e-02
-2.054080364428855e-02 -1.180710772776239e-02 3.831549745847619e-02
-8.339645159767917e-03 -2.127087799595553e-02 3.818833780443261e-02
0.000000000000000e+00 -1.217548270224674e-02 3.356404419553870e-02
-1.258649951946399e-02 -8.389485559330912e-03 7.283235493595244e-02
-2.489808618241907e-02 -1.657481833527560e-02 7.677459829504112e-02
-1.244955611391918e-02 -2.532663626580013e-02 7.581329467839712e-02
7.589415207398531e-19 -1.689974857572636e-02 7.324570090825962e-02
-7.047314121155779e-19 -7.449108766207747e-03 5.183154451202141e-02
-2.355259098404884e-02 -7.371318921450637e-03 5.629627562583814e-02
-2.255345489024720e-02 -2.285369150213703e-02 6.029888812003052e-02
-5.421010862427522e-19 -2.402940368628508e-02 5.575474350343293e-02
-1.355252715606881e-19 -1.531873687933095e-02 5.332467932415068e-02
-2.310865528861376e-02 -1.492757152734755e-02 5.780832088614165e-02
-1.123633636546945e-02 -7.429661305018469e-03 5.294772729047561e-02
-1.106608011874245e-02 -2.373547564024807e-02 5.689077965758233e-02
-8.313736408373709e-03 -1.208338895862565e-02 3.475190751127306e-02
-1.243243370176852e-02 -1.681851601561367e-02 7.412792525495500e-02
-1.105030545215989e-02 -1.522094554133510e-02 5.444558971464843e-02
        </DataArray>
        <DataArray type="Float64" Name="nodal_GL_strains_xyz" NumberOfComponents="6" format="ascii">
-3.046490492461876e-04 -4.335322435293273e-04 2.189105048484127e-01 -3.553464849138336e-05 7.027453484936201e-02 6.992830547464940e-02
1.187314203763591e-05 -4.905572065065588e-04 1.686210939191475e-01 3.656601738148567e-06 7.418850133499585e-02 -1.147766678375132e-03
1.229444158343616e-05 -9.078486304853359e-06 1.107255086087827e-01 5.004193311674064e-07 6.715138118110320e-03 -1.058551825094436e-03
-3.337571477799492e-04 -9.345031340327554e-06 1.623933347364426e-01 1.272891691725522e-05 6.618399181910789e-03 7.294732448479282e-02
-5.059129664283618e-02 -5.342985283434179e-02 1.618339361890908e-01 3.405929622470391e-03 -2.014117415535671e-03 1.021848195737221e-03
-3.411525661213496e-02 -5.898569489140748e-02 1.615755114370738e-01 2.157215507095111e-05 -1.867167591687729e-03 -2.609443557668333e-03
-3.423469478583684e-02 -3.709940597538552e-02 1.656744464700911e-01 -9.667438599080379e-05 3.313185483208486e-03 -2.600665379104826e-03
-5.467783166890197e-02 -3.647684832487174e-02 1.652449600512024e-01 8.418887597995772e-04 3.279311269897054e-03 1.187174037927093e-03
-7.097162605508535e-05 -4.762331461241118e-04 1.806768122973257e-01 -1.162611342645964e-05 7.321084277280657e-02 1.834290137744368e-02
1.206390070554772e-05 -1.416126059197962e-04 1.219868071177676e-01 2.093762791255316e-06 2.888490398618963e-02 -1.060119568675997e-03
-7.759056623276541e-05 -9.085098787684061e-06 1.230770865338388e-01 2.806914730938050e-06 6.690349416881454e-03 1.903074499001902e-02
-3.173857848679229e-04 -1.266871726423364e-04 1.732286495761216e-01 -1.121659734646477e-06 2.774501092458029e-02 7.112861727176049e-02
-3.944465825048542e-02 -5.759770558235477e-02 1.617033546311313e-01 8.353032893143837e-04 -1.908753633867391e-03 2.212544717185527e-03
-3.388165082809131e-02 -4.501817146597128e-02 1.667933536917856e-01 -7.701655080154552e-05 3.932299015601593e-03 -2.572304521728688e-03
-4.084635383776488e-02 -3.694380337521587e-02 1.656297736487149e-01 2.829779794429969e-04 3.305628810076866e-03 2.247292543810373e-03
-5.338583929051663e-02 -4.261125840369096e-02 1.664697743663000e-01 1.905589060918947e-03 3.858081538633092e-03 1.303858668754921e-03
-4.186707308332673e-02 -4.488578668723821e-02 1.816264278825025e-01 2.029582961676282e-03 1.958032663451209e-02 2.410764671429630e-02
-1.893761492433859e-02 -4.894982366624007e-02 1.627102853883074e-01 -2.703879540130545e-05 2.107573959689765e-02 -2.466063133921280e-03
-1.901793657405456e-02 -2.253925176509990e-02 1.446969908599418e-01 -5.344004831048703e-05 5.448306026962266e-03 -2.410379897676570e-03
-4.475997615901343e-02 -2.210697833170573e-02 1.636706143672369e-01 7.481268669885662e-04 5.386839468900204e-03 2.542892145128880e-02
-4.363851271232751e-02 -3.034542813350829e-02 1.688272222762851e-01 1.377862803732825e-03 1.217466650258694e-02 2.486875368876116e-02
-1.878924373250255e-02 -3.209488396793862e-02 1.499062883275262e-01 -5.235896106046750e-05 1.263326212828098e-02 -2.384000668189763e-03
-2.634605933821644e-02 -4.793436233286124e-02 1.673605809901844e-01 5.276748369700512e-04 2.069909275555908e-02 7.876459029015013e-03
-2.733745653851265e-02 -2.243127556830793e-02 1.493472474044117e-01 2.271117529800080e-04 5.432010221041040e-03 8.165015286079614e-03
-7.361196837748216e-05 -1.378267571230687e-04 1.342589156162330e-01 -1.850737027103353e-06 2.859957016571169e-02 1.857724399444709e-02
-4.018947170679452e-02 -4.441681955917488e-02 1.667739238239879e-01 5.341596783308910e-04 3.913034314244764e-03 2.255193058485229e-03
-2.681939902182169e-02 -3.165777181135625e-02 1.545487598902334e-01 3.837349217285549e-04 1.251663381182504e-02 8.005188923332593e-03
1.187314203763591e-05 -4.905572065065588e-04 1.686210939191475e-01 3.656601738148567e-06 7.418850133499585e-02 -1.147766678375132e-03
-5.988859188993390e-04 -3.769141983808108e-04 2.722997219025030e-01 5.674297601785739e-05 6.635557000841318e-02 -1.352887533509102e-01
-6.595760742914349e-04 -9.971719031933644e-06 2.174534325052561e-01 -2.702145960203120e-05 6.525284048785111e-03 -1.416849416665756e-01
1.229444158343616e-05 -9.078486304853359e-06 1.107255086087827e-01 5.004193311674064e-07 6.715138118110320e-03 -1.058551825094436e-03
-3.411525661213496e-02 -5.898569489140748e-02 1.615755114370738e-01 2.157215507095111e-05 -1.867167591687729e-03 -2.609443557668333e-03
-5.980498688948632e-02 -4.786818354599398e-02 1.617129389047885e-01 -6.900863872059734e-03 -2.131975722077609e-03 8.418321740136184e-03
-6.611571956499644e-02 -3.585406979960523e-02 1.644392809322379e-01 -1.297374407745012e-03 3.239965775408209e-03 8.056516555953283e-03
-3.423469478583684e-02 -3.709940597538552e-02 1.656744464700911e-01 -9.667438599080379e-05 3.313185483208486e-03 -2.600665379104826e-03
-1.371024029248424e-04 -4.622142741132609e-04 1.950573852691246e-01 2.241309791530099e-05 7.222943544413099e-02 -3.640466336407157e-02
-6.269547843036017e-04 -1.120886822289141e-04 2.277006047312148e-01 -5.566539864124450e-06 2.660728119342454e-02 -1.380401032712689e-01
-1.523010769099264e-04 -9.361818262661278e-06 1.379728681897598e-01 -5.629421405380936e-06 6.668278567958002e-03 -3.780297702310637e-02
1.206390070554772e-05 -1.416126059197962e-04 1.219868071177676e-01 2.093762791255316e-06 2.888490398618963e-02 -1.060119568675997e-03
-3.932729755079766e-02 -5.620534584984038e-02 1.615466312979493e-01 -1.676678619105293e-03 -1.928521038067524e-03 -3.766667569719675e-03
-6.429938517436064e-02 -4.020208718876865e-02 1.657774052593726e-01 -3.504563302679552e-03 3.788126054352775e-03 7.708036362904036e-03
-4.070407614946498e-02 -3.678803511898167e-02 1.653029563022818e-01 -5.418609704155612e-04 3.293968676062176e-03 -3.837367963997518e-03
-3.388165082809131e-02 -4.501817146597128e-02 1.667933536917856e-01 -7.701655080154552e-05 3.932299015601593e-03 -2.572304521728688e-03
-1.893761492433859e-02 -4.894982366624007e-02 1.627102853883074e-01 -2.703879540130545e-05 2.107573959689765e-02 -2.466063133921280e-03
-5.474005199752974e-02 -4.081846224000661e-02 2.010150105067280e-01 -3.953208783508778e-03 1.810167527657971e-02 -3.836233806211257e-02
-5.919795533466199e-02 -2.167415192897218e-02 1.832031338686547e-01 -1.283103198737370e-03 5.330947909272274e-03 -4.122946074931345e-02
-1.901793657405456e-02 -2.253925176509990e-02 1.446969908599418e-01 -5.344004831048703e-05 5.448306026962266e-03 -2.410379897676570e-03
-1.878924373250255e-02 -3.209488396793862e-02 1.499062883275262e-01 -5.235896106046750e-05 1.263326212828098e-02 -2.384000668189763e-03
-5.758075342597494e-02 -2.859446148692664e-02 1.882747277719397e-01 -2.547786812440954e-03 1.172794733708748e-02 -4.021402355566760e-02
-2.621214431850557e-02 -4.691643539831008e-02 1.723652066895843e-01 -1.049139485530133e-03 2.033501711756034e-02 -1.513922656685100e-02
-2.717893119598804e-02 -2.232288464451139e-02 1.544166759444738e-01 -4.410159083829396e-04 5.419895663945479e-03 -1.573071995710063e-02
-1.443773228570774e-04 -1.342861154744382e-04 1.489536086372526e-01 3.319331314293595e-06 2.831585884307396e-02 -3.689529484733819e-02
-4.005431065156177e-02 -4.381377403789695e-02 1.664779016201086e-01 -1.049428064973361e-03 3.896966107404093e-03 -3.860676083163520e-03
-2.666928311150775e-02 -3.121952654566041e-02 1.595861601131122e-01 -7.547543654962885e-04 1.240891284051503e-02 -1.541750739234385e-02
-3.337571477799492e-04 -9.345031340327554e-06 1.623933347364426e-01 1.272891691725522e-05 6.618399181910789e-03 7.294732448479282e-02
1.229444158343616e-05 -9.078486304853359e-06 1.107255086087827e-01 5.004193311674064e-07 6.715138118110320e-03 -1.058551825094436e-03
1.218768706664528e-05 -9.880574598420795e-06 1.085069516298344e-01 -1.736060058316171e-06 -1.347708598813640e-02 -1.040845396139782e-03
-3.257966892858879e-04 -1.091287740860013e-05 1.600340730227817e-01 -4.766610268317561e-06 -1.326095398149155e-02 7.203647967056118e-02
-5.467783166890197e-02 -3.647684832487174e-02 1.652449600512024e-01 8.418887597995772e-04 3.279311269897054e-03 1.187174037927093e-03
-3.423469478583684e-02 -3.709940597538552e-02 1.656744464700911e-01 -9.667438599080379e-05 3.313185483208486e-03 -2.600665379104826e-03
-3.395785995971817e-02 -3.709565674703712e-02 1.674826856218848e-01 7.779037109752388e-05 -5.417567652234418e-03 -2.574510769646329e-03
-5.444512597583796e-02 -3.647036813576617e-02 1.669973387953066e-01 -1.266088875072224e-03 -5.375638298516962e-03 1.321863622806293e-03
-7.759056623276541e-05 -9.085098787684061e-06 1.230770865338388e-01 2.806914730938050e-06 6.690349416881454e-03 1.903074499001902e-02
1.239296894567683e-05 2.885431186271215e-06 1.133834671826519e-01 -8.629983745461073e-07 -3.634342972309283e-03 -1.074861187594386e-03
-7.555338760117838e-05 -1.002626813332034e-05 1.208363269805133e-01 1.103924766580900e-07 -1.342246785926719e-02 1.878975396474515e-02
-3.408613714350198e-04 1.558345397363244e-06 1.650974969963409e-01 1.013972042060407e-05 -3.564016934746496e-03 7.378356574173139e-02
-4.084635383776488e-02 -3.694380337521587e-02 1.656297736487149e-01 2.829779794429969e-04 3.305628810076866e-03 2.247292543810373e-03
-3.448867049362724e-02 -3.465127540671815e-02 1.639828652780907e-01 -4.315439664254138e-05 -7.837046017694031e-04 -2.624682128757216e-03
-4.058359215279654e-02 -3.693936294956734e-02 1.674228589231710e-01 -3.748649970911933e-04 -5.407342886109502e-03 2.261348982936316e-03
-5.489001386750487e-02 -3.457906932614365e-02 1.636054844566029e-01 -1.077957343700397e-04 -7.865535623006702e-04 1.062830342771599e-03
-4.475997615901343e-02 -2.210697833170573e-02 1.636706143672369e-01 7.481268669885662e-04 5.386839468900204e-03 2.542892145128880e-02
-1.901793657405456e-02 -2.253925176509990e-02 1.446969908599418e-01 -5.344004831048703e-05 5.448306026962266e-03 -2.410379897676570e-03
-1.883921377541704e-02 -2.253761085805766e-02 1.453976467921184e-01 4.309640310761032e-05 -9.143151625217907e-03 -2.376248257838781e-03
-4.441832966191363e-02 -2.210298258656858e-02 1.643218048465532e-01 -1.009173932674308e-03 -9.036931809960022e-03 2.523457972794755e-02
-4.507280221250274e-02 -1.956223168250201e-02 1.631657574568342e-01 -5.702459994819911e-07 -1.458558593098623e-03 2.561018509873300e-02
-1.918186830351819e-02 -1.958585231078568e-02 1.441661810074928e-01 -2.378670947868682e-05 -1.477656094917644e-03 -2.442147026265107e-03
-2.733745653851265e-02 -2.243127556830793e-02 1.493472474044117e-01 2.271117529800080e-04 5.432010221041040e-03 8.165015286079614e-03
-2.710585925423379e-02 -2.242910553542568e-02 1.500370754679023e-01 -2.846157854992834e-04 -9.114993503385614e-03 8.090831125365981e-03
-7.940513438573189e-05 2.634255377184587e-06 1.257349990039850e-01 3.182178886060041e-06 -3.616952312004667e-03 1.925203732612865e-02
-4.108712165067330e-02 -3.463315263662946e-02 1.639522900376599e-01 5.416863889401770e-06 -7.836152291236882e-04 2.234219182260792e-03
-2.754976543405985e-02 -1.958000850817737e-02 1.488215253309060e-01 1.769747060914901e-05 -1.472593667220110e-03 8.234156544382077e-03
1.229444158343616e-05 -9.078486304853359e-06 1.107255086087827e-01 5.004193311674064e-07 6.715138118110320e-03 -1.058551825094436e-03
-6.595760742914349e-04 -9.971719031933644e-06 2.174534325052561e-01 -2.702145960203120e-05 6.525284048785111e-03 -1.416849416665756e-01
-6.443111821595585e-04 -1.261947322495303e-05 2.148756244010761e-01 1.591993216221978e-05 -1.304833273809459e-02 -1.399333431529242e-01
1.218768706664528e-05 -9.880574598420795e-06 1.085069516298344e-01 -1.736060058316171e-06 -1.347708598813640e-02 -1.040845396139782e-03
-3.423469478583684e-02 -3.709940597538552e-02 1.656744464700911e-01 -9.667438599080379e-05 3.313185483208486e-03 -2.600665379104826e-03
-6.611571956499644e-02 -3.585406979960523e-02 1.644392809322379e-01 -1.297374407745012e-03 3.239965775408209e-03 8.056516555953283e-03
-6.590889785766695e-02 -3.584490939240764e-02 1.661429319211439e-01 2.222176566868347e-03 -5.332163510972936e-03 7.681903841368174e-03
-3.395785995971817e-02 -3.709565674703712e-02 1.674826856218848e-01 7.779037109752388e-05 -5.417567652234418e-03 -2.574510769646329e-03
-1.523010769099264e-04 -9.361818262661278e-06 1.379728681897598e-01 -5.629421405380936e-06 6.668278567958002e-03 -3.780297702310637e-02
-6.732086023982752e-04 -2.523142204273040e-07 2.202733806025642e-01 -1.679992249390305e-05 -3.492545802667231e-03 -1.432928333545531e-01
-1.486920496602153e-04 -1.067768142269914e-05 1.356515248202027e-01 7.384790934320851e-08 -1.337048280283394e-02 -3.732523792954558e-02
1.239296894567683e-05 2.885431186271215e-06 1.133834671826519e-01 -8.629983745461073e-07 -3.634342972309283e-03 -1.074861187594386e-03
-4.070407614946498e-02 -3.678803511898167e-02 1.653029563022818e-01 -5.418609704155612e-04 3.293968676062176e-03 -3.837367963997518e-03
-6.630266535992237e-02 -3.450729074523960e-02 1.628454838454675e-01 3.888298647641877e-04 -7.942121995030987e-04 8.401794866401979e-03
-4.044170374515692e-02 -3.678294155303180e-02 1.670862371887689e-01 7.305724766865099e-04 -5.395959044614599e-03 -3.872173271362192e-03
-3.448867049362724e-02 -3.465127540671815e-02 1.639828652780907e-01 -4.315439664254138e-05 -7.837046017694031e-04 -2.624682128757216e-03
-1.901793657405456e-02 -2.253925176509990e-02 1.446969908599418e-01 -5.344004831048703e-05 5.448306026962266e-03 -2.410379897676570e-03
-5.919795533466199e-02 -2.167415192897218e-02 1.832031338686547e-01 -1.283103198737370e-03 5.330947909272274e-03 -4.122946074931345e-02
-5.876624650525443e-02 -2.166744384363782e-02 1.837956279279366e-01 1.847206787678633e-03 -8.940331002809174e-03 -4.097719929061092e-02
-1.883921377541704e-02 -2.253761085805766e-02 1.453976467921184e-01 4.309640310761032e-05 -9.143151625217907e-03 -2.376248257838781e-03
-1.918186830351819e-02 -1.958585231078568e-02 1.441661810074928e-01 -2.378670947868682e-05 -1.477656094917644e-03 -2.442147026265107e-03
-5.959275420171407e-02 -1.953824292744274e-02 1.827326326397085e-01 9.663151537736236e-05 -1.441189404736440e-03 -4.146505190648343e-02
-2.717893119598804e-02 -2.232288464451139e-02 1.544166759444738e-01 -4.410159083829396e-04 5.419895663945479e-03 -1.573071995710063e-02
-2.694910545068378e-02 -2.231991735921241e-02 1.550887529138976e-01 5.587686039117801e-04 -9.094049637633547e-03 -1.559085840279000e-02
-1.555229056540766e-04 2.020399196456219e-06 1.406829211697190e-01 -6.141726966203946e-06 -3.598702830812689e-03 -3.824164601072564e-02
-4.094405389662436e-02 -3.461535049129359e-02 1.636347499549937e-01 1.100737453231320e-07 -7.871331139813586e-04 -3.805086073103223e-03
-2.738942612477164e-02 -1.957388861048732e-02 1.539023437044689e-01 -2.936221748270919e-05 -1.468827474615121e-03 -1.586109378571734e-02
-3.257966892858879e-04 -1.091287740860013e-05 1.600340730227817e-01 -4.766610268317561e-06 -1.326095398149155e-02 7.203647967056118e-02
1.218768706664528e-05 -9.880574598420795e-06 1.085069516298344e-01 -1.736060058316171e-06 -1.347708598813640e-02 -1.040845396139782e-03
1.191771032603428e-05 -9.191540632597188e-04 2.385707238261364e-01 -3.605030747146423e-06 -1.252379696200216e-01 -1.313992434454807e-03
-3.091802955121348e-04 -8.092742442523532e-04 2.877646998879494e-01 5.604446614705736e-05 -1.178051533511883e-01 7.086150602097901e-02
-5.444512597583796e-02 -3.647036813576617e-02 1.669973387953066e-01 -1.266088875072224e-03 -5.375638298516962e-03 1.321863622806293e-03
-3.395785995971817e-02 -3.709565674703712e-02 1.674826856218848e-01 7.779037109752388e-05 -5.417567652234418e-03 -2.574510769646329e-03
-3.519635253580448e-02 -7.010133407379744e-02 1.495029569058309e-01 -4.417719864756881e-05 1.166085715426078e-02 -2.731758372630946e-03
-4.750881767776469e-02 -6.203457380613994e-02 1.506950396003358e-01 -5.120156200210627e-03 1.190983345792772e-02 2.694848451406636e-04
-7.555338760117838e-05 -1.002626813332034e-05 1.208363269805133e-01 1.103924766580900e-07 -1.342246785926719e-02 1.878975396474515e-02
1.194159963165870e-05 -2.497644304750453e-04 1.367010183708295e-01 -2.517244566922905e-06 -4.621199388537314e-02 -1.079542971502598e-03
-7.294567877474609e-05 -8.915336843315106e-04 2.503464444300234e-01 1.671488959711960e-05 -1.233816892307315e-01 1.870087083108591e-02
-3.085680233168331e-04 -2.225824804084336e-04 1.874931211939298e-01 -9.629005700227859e-08 -4.412410257981020e-02 7.022336139055338e-02
-4.058359215279654e-02 -3.693936294956734e-02 1.674228589231710e-01 -3.748649970911933e-04 -5.407342886109502e-03 2.261348982936316e-03
-3.380588127636035e-02 -4.779239472613328e-02 1.660355139987170e-01 1.246270571292341e-04 -3.599136217214913e-03 -2.570189963646220e-03
-3.918130456476090e-02 -6.808607666740786e-02 1.498698379130965e-01 -1.246906151066987e-03 1.173140672529805e-02 2.116189990758334e-03
-5.232433743291875e-02 -4.475433841025855e-02 1.658755236492416e-01 -2.860904438341059e-03 -3.479617703518586e-03 1.284129812204781e-03
-4.441832966191363e-02 -2.210298258656858e-02 1.643218048465532e-01 -1.009173932674308e-03 -9.036931809960022e-03 2.523457972794755e-02
-1.883921377541704e-02 -2.253761085805766e-02 1.453976467921184e-01 4.309640310761032e-05 -9.143151625217907e-03 -2.376248257838781e-03
-1.963220566477403e-02 -6.236593024051026e-02 1.781214286731394e-01 5.335239488479737e-05 -2.849030113472396e-02 -2.671544936234715e-03
-4.045342345839839e-02 -5.646890850981591e-02 1.971179749894758e-01 -2.887144963204808e-03 -2.566123866365893e-02 2.364097356745564e-02
-4.285804218472068e-02 -3.323621390773127e-02 1.735140971521738e-01 -2.047945177066040e-03 -1.716543892053109e-02 2.450915824787444e-02
-1.873948791931452e-02 -3.544685947770335e-02 1.546348940639550e-01 8.840940078367988e-05 -1.799757011984964e-02 -2.392706568970885e-03
-2.710585925423379e-02 -2.242910553542568e-02 1.500370754679023e-01 -2.846157854992834e-04 -9.114993503385614e-03 8.090831125365981e-03
-2.635836961623848e-02 -6.089252504270479e-02 1.827996344957685e-01 -7.618005369647958e-04 -2.777990359672472e-02 7.913902094039936e-03
-7.155900826791357e-05 -2.428283533569636e-04 1.488753742077506e-01 1.863860910941504e-06 -4.568958443035863e-02 1.836549757626533e-02
-3.979518117915297e-02 -4.703336179837746e-02 1.660569012375494e-01 -8.086964024321893e-04 -3.568140216196844e-03 2.248674925785858e-03
-2.653297998597862e-02 -3.489459994771432e-02 1.592708083459927e-01 -5.782933448542711e-04 -1.778686993177923e-02 7.921819488696786e-03
1.218768706664528e-05 -9.880574598420795e-06 1.085069516298344e-01 -1.736060058316171e-06 -1.347708598813640e-02 -1.040845396139782e-03
-6.443111821595585e-04 -1.261947322495303e-05 2.148756244010761e-01 1.591993216221978e-05 -1.304833273809459e-02 -1.399333431529242e-01
-6.027449755093284e-04 -7.002969703013284e-04 3.400953164191609e-01 -9.768341259513372e-05 -1.103607950148461e-01 -1.364920262250252e-01
1.191771032603428e-05 -9.191540632597188e-04 2.385707238261364e-01 -3.605030747146423e-06 -1.252379696200216e-01 -1.313992434454807e-03
-3.395785995971817e-02 -3.709565674703712e-02 1.674826856218848e-01 7.779037109752388e-05 -5.417567652234418e-03 -2.574510769646329e-03
-6.590889785766695e-02 -3.584490939240764e-02 1.661429319211439e-01 2.222176566868347e-03 -5.332163510972936e-03 7.681903841368174e-03
-5.438026835892905e-02 -5.395921757533231e-02 1.514739602930048e-01 1.041988684983232e-02 1.210897679087259e-02 1.041085585686859e-02
-3.519635253580448e-02 -7.010133407379744e-02 1.495029569058309e-01 -4.417719864756881e-05 1.166085715426078e-02 -2.731758372630946e-03
-1.486920496602153e-04 -1.067768142269914e-05 1.356515248202027e-01 7.384790934320851e-08 -1.337048280283394e-02 -3.732523792954558e-02
-6.088384332912538e-04 -1.962440679503177e-04 2.414272432301542e-01 9.503602687941515e-06 -4.203883104598988e-02 -1.361514233477334e-01
-1.371590734915683e-04 -8.645902141964880e-04 2.644746453859588e-01 -3.253217232985833e-05 -1.215167522908095e-01 -3.707948953377968e-02
1.194159963165870e-05 -2.497644304750453e-04 1.367010183708295e-01 -2.517244566922905e-06 -4.621199388537314e-02 -1.079542971502598e-03
-4.044170374515692e-02 -3.678294155303180e-02 1.670862371887689e-01 7.305724766865099e-04 -5.395959044614599e-03 -3.872173271362192e-03
-6.268467840755945e-02 -4.171339518710625e-02 1.653472243425592e-01 5.225063096060160e-03 -3.366797425386112e-03 7.737903998855754e-03
-3.908549574811927e-02 -6.606437228865639e-02 1.499268474189850e-01 2.505573015501057e-03 1.176458156829320e-02 -3.543742374202439e-03
-3.380588127636035e-02 -4.779239472613328e-02 1.660355139987170e-01 1.246270571292341e-04 -3.599136217214913e-03 -2.570189963646220e-03
-1.883921377541704e-02 -2.253761085805766e-02 1.453976467921184e-01 4.309640310761032e-05 -9.143151625217907e-03 -2.376248257838781e-03
-5.876624650525443e-02 -2.166744384363782e-02 1.837956279279366e-01 1.847206787678633e-03 -8.940331002809174e-03 -4.097719929061092e-02
-5.214948423367240e-02 -5.056678536991246e-02 2.165401058445411e-01 5.563151710128424e-03 -2.285096771399146e-02 -3.660581542421438e-02
-1.963220566477403e-02 -6.236593024051026e-02 1.781214286731394e-01 5.335239488479737e-05 -2.849030113472396e-02 -2.671544936234715e-03
-1.873948791931452e-02 -3.544685947770335e-02 1.546348940639550e-01 8.840940078367988e-05 -1.799757011984964e-02 -2.392706568970885e-03
-5.639347544825118e-02 -3.102315716273515e-02 1.928966191804954e-01 3.744190793988350e-03 -1.634931205065712e-02 -3.945956607281492e-02
-2.694910545068378e-02 -2.231991735921241e-02 1.550887529138976e-01 5.587686039117801e-04 -9.094049637633547e-03 -1.559085840279000e-02
-2.624066580394026e-02 -5.941529378799269e-02 1.877970287224448e-01 1.510830816022896e-03 -2.708359969977381e-02 -1.516242996258169e-02
-1.398802064366201e-04 -2.365249294452921e-04 1.634062444545147e-01 -3.287899603591051e-06 -4.516913980415109e-02 -3.646682752281424e-02
-3.966589469550710e-02 -4.627216369016362e-02 1.658020567584763e-01 1.586676652555816e-03 -3.542167891851698e-03 -3.848451418490056e-03
-2.638913130123612e-02 -3.434053203645732e-02 1.642842118331072e-01 1.134968850260368e-03 -1.758817299079228e-02 -1.524848129838823e-02
-5.059129664283618e-02 -5.342985283434179e-02 1.618339361890908e-01 3.405929622470391e-03 -2.014117415535671e-03 1.021848195737221e-03
-3.411525661213496e-02 -5.898569489140748e-02 1.615755114370738e-01 2.157215507095111e-05 -1.867167591687729e-03 -2.609443557668333e-03
-3.423469478583684e-02 -3.709940597538552e-02 1.656744464700911e-01 -9.667438599080379e-05 3.313185483208486e-03 -2.600665379104826e-03
-5.467783166890197e-02 -3.647684832487174e-02 1.652449600512024e-01 8.418887597995772e-04 3.279311269897054e-03 1.187174037927093e-03
-4.725802888929460e-02 -4.684500205097099e-02 1.551333867172059e-01 2.374352479049143e-03 -5.348523067083937e-03 -6.539203876618714e-03
-4.928857330150338e-02 -5.102209114164191e-02 1.664993417528923e-01 3.887534006947330e-07 -6.263354294054302e-03 -5.717173236496546e-04
-4.952386606681074e-02 -4.964167636415326e-02 1.791541468678681e-01 -8.930905664177486e-05 -4.425511945472648e-04 -6.353844667922036e-04
-4.973386692543265e-02 -4.908416686714837e-02 1.672314493181885e-01 6.219738118329896e-04 -4.199712231776080e-04 -7.495757889070687e-03
-3.944465825048542e-02 -5.759770558235477e-02 1.617033546311313e-01 8.353032893143837e-04 -1.908753633867391e-03 2.212544717185527e-03
-3.388165082809131e-02 -4.501817146597128e-02 1.667933536917856e-01 -7.701655080154552e-05 3.932299015601593e-03 -2.572304521728688e-03
-4.084635383776488e-02 -3.694380337521587e-02 1.656297736487149e-01 2.829779794429969e-04 3.305628810076866e-03 2.247292543810373e-03
-5.338583929051663e-02 -4.261125840369096e-02 1.664697743663000e-01 1.905589060918947e-03 3.858081538633092e-03 1.303858668754921e-03
-4.863896981845264e-02 -4.997840119629095e-02 1.636824794393240e-01 5.932965547117538e-04 -6.037357803519496e-03 -1.206012976417461e-03
-4.919252399829172e-02 -5.013431290840463e-02 1.765784702774989e-01 -8.123183129846925e-05 -1.936549844885600e-03 -6.383137634502971e-04
-4.959555149401336e-02 -4.950227181461457e-02 1.762004803354777e-01 2.224752454395761e-04 -4.352308180632348e-04 -1.397401122173556e-03
-4.898412756611969e-02 -4.827577054597147e-02 1.647593371214428e-01 1.359167403744640e-03 -1.689463007494682e-03 -7.050277894716335e-03
-4.591054136556274e-02 -4.707862613789954e-02 1.546354492925384e-01 3.664015929668744e-03 -6.369999812246077e-03 -6.727599021182790e-03
-4.455444503373029e-02 -5.240688075790827e-02 1.634330906853133e-01 6.040836679244294e-05 -6.895204224193858e-03 -1.877973203087415e-03
-4.471199851100752e-02 -4.552254591059291e-02 1.762845927143575e-01 -1.137736900033705e-04 1.089618928741226e-03 -1.914102243952329e-03
-4.977367736264268e-02 -4.488167213022405e-02 1.666030217232244e-01 6.733819548983605e-04 1.081734425628672e-03 -7.285268745467627e-03
-4.876562456119433e-02 -4.567207390168160e-02 1.653744359475560e-01 1.820032223648093e-03 1.263427846340964e-04 -6.893380841367740e-03
-4.432834753403096e-02 -4.800135460959942e-02 1.749250615589687e-01 -8.295038226865430e-05 2.274930447418620e-06 -1.899064447434843e-03
-4.499841339863862e-02 -5.107585462627469e-02 1.612842738906749e-01 8.706977073228479e-04 -6.768851964038404e-03 -2.734198529801687e-04
-4.635035973319621e-02 -4.536226872286644e-02 1.739168047859897e-01 2.536757562271158e-04 1.090212643778816e-03 -3.857405034026875e-04
-4.018947170679452e-02 -4.441681955917488e-02 1.667739238239879e-01 5.341596783308910e-04 3.913034314244764e-03 2.255193058485229e-03
-4.912980530532166e-02 -4.966988498590690e-02 1.736503976318793e-01 4.007157244100066e-04 -1.873890831049991e-03 -1.283834151091383e-03
-4.576566285679486e-02 -4.741938546316356e-02 1.725894541577766e-01 5.172208426135075e-04 3.433749320753459e-05 -2.990468747658224e-04
-3.411525661213496e-02 -5.898569489140748e-02 1.615755114370738e-01 2.157215507095111e-05 -1.867167591687729e-03 -2.609443557668333e-03
-5.980498688948632e-02 -4.786818354599398e-02 1.617129389047885e-01 -6.900863872059734e-03 -2.131975722077609e-03 8.418321740136184e-03
-6.611571956499644e-02 -3.585406979960523e-02 1.644392809322379e-01 -1.297374407745012e-03 3.239965775408209e-03 8.056516555953283e-03
-3.423469478583684e-02 -3.709940597538552e-02 1.656744464700911e-01 -9.667438599080379e-05 3.313185483208486e-03 -2.600665379104826e-03
-4.928857330150338e-02 -5.102209114164191e-02 1.664993417528923e-01 3.887534006947330e-07 -6.263354294054302e-03 -5.717173236496546e-04
-4.607928875707683e-02 -4.266441899639961e-02 1.436196730093938e-01 -4.751217634901627e-03 -4.417423942868271e-03 1.540663192953387e-02
-4.982875650877203e-02 -4.852682042186804e-02 1.551467046383302e-01 -8.864340626739600e-04 -4.074435536573671e-04 1.757947013848157e-02
-4.952386606681074e-02 -4.964167636415326e-02 1.791541468678681e-01 -8.930905664177486e-05 -4.425511945472648e-04 -6.353844667922036e-04
-3.932729755079766e-02 -5.620534584984038e-02 1.615466312979493e-01 -1.676678619105293e-03 -1.928521038067524e-03 -3.766667569719675e-03
-6.429938517436064e-02 -4.020208718876865e-02 1.657774052593726e-01 -3.504563302679552e-03 3.788126054352775e-03 7.708036362904036e-03
-4.070407614946498e-02 -3.678803511898167e-02 1.653029563022818e-01 -5.418609704155612e-04 3.293968676062176e-03 -3.837367963997518e-03
-3.388165082809131e-02 -4.501817146597128e-02 1.667933536917856e-01 -7.701655080154552e-05 3.932299015601593e-03 -2.572304521728688e-03
-4.862821954539528e-02 -4.893209077801457e-02 1.607547981216644e-01 -1.186929713573833e-03 -5.799160390050008e-03 2.565294004171767e-03
-4.883944864351022e-02 -4.641598217487470e-02 1.527799401050194e-01 -2.393568188861926e-03 -1.447699997031066e-03 1.669785374644090e-02
-4.958090346475392e-02 -4.936298955386939e-02 1.731252784554541e-01 -4.225538931124810e-04 -4.354496679664062e-04 2.965252484337970e-03
-4.919252399829172e-02 -5.013431290840463e-02 1.765784702774989e-01 -8.123183129846925e-05 -1.936549844885600e-03 -6.383137634502971e-04
-4.455444503373029e-02 -5.240688075790827e-02 1.634330906853133e-01 6.040836679244294e-05 -6.895204224193858e-03 -1.877973203087415e-03
-4.663697200569379e-02 -4.174414637767946e-02 1.455342465784289e-01 -7.571705689301766e-03 -5.815102343309896e-03 2.101929031697277e-02
-5.259770715859854e-02 -4.424115080566066e-02 1.566058218155988e-01 -8.913222934491457e-04 1.058460877621974e-03 2.228786770121986e-02
-4.471199851100752e-02 -4.552254591059291e-02 1.762845927143575e-01 -1.137736900033705e-04 1.089618928741226e-03 -1.914102243952329e-03
-4.432834753403096e-02 -4.800135460959942e-02 1.749250615589687e-01 -8.295038226865430e-05 2.274930447418620e-06 -1.899064447434843e-03
-5.123492519251946e-02 -4.334068701050223e-02 1.555115163261777e-01 -3.308841823759887e-03 2.441370435400466e-04 2.144051571881666e-02
-4.497013249477094e-02 -4.974015963948247e-02 1.589077861050368e-01 -1.757007597042439e-03 -6.620229911141377e-03 1.029382872296541e-03
-4.631048416362540e-02 -4.520225587699410e-02 1.713122951702524e-01 -4.788213758698679e-04 1.079264575145684e-03 1.265236876412251e-03
-4.005431065156177e-02 -4.381377403789695e-02 1.664779016201086e-01 -1.049428064973361e-03 3.896966107404093e-03 -3.860676083163520e-03
-4.911487474452341e-02 -4.920452255691158e-02 1.706021270909845e-01 -7.811636676370322e-04 -1.815224687409846e-03 2.738257468847080e-03
-4.572699588268001e-02 -4.683583667928152e-02 1.700196262491099e-01 -1.013848816044437e-03 6.169485950712927e-05 1.087233922975788e-03
-5.467783166890197e-02 -3.647684832487174e-02 1.652449600512024e-01 8.418887597995772e-04 3.279311269897054e-03 1.187174037927093e-03
-3.423469478583684e-02 -3.709940597538552e-02 1.656744464700911e-01 -9.667438599080379e-05 3.313185483208486e-03 -2.600665379104826e-03
-3.395785995971817e-02 -3.709565674703712e-02 1.674826856218848e-01 7.779037109752388e-05 -5.417567652234418e-03 -2.574510769646329e-03
-5.444512597583796e-02 -3.647036813576617e-02 1.669973387953066e-01 -1.266088875072224e-03 -5.375638298516962e-03 1.321863622806293e-03
-4.973386692543265e-02 -4.908416686714837e-02 1.672314493181885e-01 6.219738118329896e-04 -4.199712231776080e-04 -7.495757889070687e-03
-4.952386606681074e-02 -4.964167636415326e-02 1.791541468678681e-01 -8.930905664177486e-05 -4.425511945472648e-04 -6.353844667922036e-04
-4.929042360140582e-02 -4.963541914501443e-02 1.796602542639670e-01 8.092708916705240e-05 3.493180498574418e-04 -6.511976330251715e-04
-4.962098749506313e-02 -4.907635749820927e-02 1.677076467100483e-01 -9.121851815856641e-04 3.321505430687536e-04 -7.321764225510397e-03
-4.084635383776488e-02 -3.694380337521587e-02 1.656297736487149e-01 2.829779794429969e-04 3.305628810076866e-03 2.247292543810373e-03
-3.448867049362724e-02 -3.465127540671815e-02 1.639828652780907e-01 -4.315439664254138e-05 -7.837046017694031e-04 -2.624682128757216e-03
-4.058359215279654e-02 -3.693936294956734e-02 1.674228589231710e-01 -3.748649970911933e-04 -5.407342886109502e-03 2.261348982936316e-03
-5.489001386750487e-02 -3.457906932614365e-02 1.636054844566029e-01 -1.077957343700397e-04 -7.865535623006702e-04 1.062830342771599e-03
-4.959555149401336e-02 -4.950227181461457e-02 1.762004803354777e-01 2.224752454395761e-04 -4.352308180632348e-04 -1.397401122173556e-03
-4.973802432765170e-02 -4.949257920948933e-02 1.786926490285181e-01 -3.240279302225621e-05 -2.057860079845117e-04 -6.204916759067149e-04
-4.940124805768886e-02 -4.949557254174273e-02 1.766993719617814e-01 -2.887416122717010e-04 3.434326333336862e-04 -1.342042831608712e-03
-4.983642691811872e-02 -4.933081964204613e-02 1.667980952126536e-01 -6.066486162928599e-05 -1.945869582755262e-04 -7.658600964421974e-03
-4.977367736264268e-02 -4.488167213022405e-02 1.666030217232244e-01 6.733819548983605e-04 1.081734425628672e-03 -7.285268745467627e-03
-4.471199851100752e-02 -4.552254591059291e-02 1.762845927143575e-01 -1.137736900033705e-04 1.089618928741226e-03 -1.914102243952329e-03
-4.441713514274500e-02 -4.551719919240123e-02 1.778681831141592e-01 9.338691081585956e-05 -2.265141837703460e-03 -1.908528653921951e-03
-4.973605534793058e-02 -4.487438721098515e-02 1.681096332796142e-01 -1.119197327897524e-03 -2.258726497421120e-03 -7.073105432475408e-03
-4.980654066114300e-02 -4.463868763087565e-02 1.652163672803187e-01 -1.737546408577480e-04 -6.609227236078872e-04 -7.484698390248249e-03
-4.498254527659916e-02 -4.476348424386732e-02 1.748271459624357e-01 -4.926133333432579e-05 -6.579330528099097e-04 -1.918714382745992e-03
-4.635035973319621e-02 -4.536226872286644e-02 1.739168047859897e-01 2.536757562271158e-04 1.090212643778816e-03 -3.857405034026875e-04
-4.613872933628356e-02 -4.535633859139433e-02 1.754811376524278e-01 -3.498395150862674e-04 -2.265779632262018e-03 -3.368798676773969e-04
-4.108712165067330e-02 -3.463315263662946e-02 1.639522900376599e-01 5.416863889401770e-06 -7.836152291236882e-04 2.234219182260792e-03
-4.977357640473376e-02 -4.945201617052337e-02 1.757457857216136e-01 9.135879359370595e-06 -2.024366885913129e-04 -1.449281484175494e-03
-4.654416242672998e-02 -4.473206592555336e-02 1.724771059069836e-01 -6.492660213688714e-06 -6.576764266144171e-04 -4.321388105025992e-04
-3.423469478583684e-02 -3.709940597538552e-02 1.656744464700911e-01 -9.667438599080379e-05 3.313185483208486e-03 -2.600665379104826e-03
-6.611571956499644e-02 -3.585406979960523e-02 1.644392809322379e-01 -1.297374407745012e-03 3.239965775408209e-03 8.056516555953283e-03
-6.590889785766695e-02 -3.584490939240764e-02 1.661429319211439e-01 2.222176566868347e-03 -5.332163510972936e-03 7.681903841368174e-03
-3.395785995971817e-02 -3.709565674703712e-02 1.674826856218848e-01 7.779037109752388e-05 -5.417567652234418e-03 -2.574510769646329e-03
-4.952386606681074e-02 -4.964167636415326e-02 1.791541468678681e-01 -8.930905664177486e-05 -4.425511945472648e-04 -6.353844667922036e-04
-4.982875650877203e-02 -4.852682042186804e-02 1.551467046383302e-01 -8.864340626739600e-04 -4.074435536573671e-04 1.757947013848157e-02
-4.978245049150862e-02 -4.851778300082636e-02 1.555914216383666e-01 1.500719144764950e-03 3.245442752389483e-04 1.729378681084107e-02
-4.929042360140582e-02 -4.963541914501443e-02 1.796602542639670e-01 8.092708916705240e-05 3.493180498574418e-04 -6.511976330251715e-04
-4.070407614946498e-02 -3.678803511898167e-02 1.653029563022818e-01 -5.418609704155612e-04 3.293968676062176e-03 -3.837367963997518e-03
-6.630266535992237e-02 -3.450729074523960e-02 1.628454838454675e-01 3.888298647641877e-04 -7.942121995030987e-04 8.401794866401979e-03
-4.044170374515692e-02 -3.678294155303180e-02 1.670862371887689e-01 7.305724766865099e-04 -5.395959044614599e-03 -3.872173271362192e-03
-3.448867049362724e-02 -3.465127540671815e-02 1.639828652780907e-01 -4.315439664254138e-05 -7.837046017694031e-04 -2.624682128757216e-03
-4.958090346475392e-02 -4.936298955386939e-02 1.731252784554541e-01 -4.225538931124810e-04 -4.354496679664062e-04 2.965252484337970e-03
-4.986912093179418e-02 -4.916979895723387e-02 1.547428905144160e-01 2.512924723168169e-04 -1.866852503623154e-04 1.784645614637518e-02
-4.938524684106281e-02 -4.935609130053782e-02 1.736157765212729e-01 5.572657368171010e-04 3.447181460294018e-04 2.858252028403624e-03
-4.973802432765170e-02 -4.949257920948933e-02 1.786926490285181e-01 -3.240279302225621e-05 -2.057860079845117e-04 -6.204916759067149e-04
-4.471199851100752e-02 -4.552254591059291e-02 1.762845927143575e-01 -1.137736900033705e-04 1.089618928741226e-03 -1.914102243952329e-03
-5.259770715859854e-02 -4.424115080566066e-02 1.566058218155988e-01 -8.913222934491457e-04 1.058460877621974e-03 2.228786770121986e-02
-5.270379069966303e-02 -4.423252086348646e-02 1.580355314636400e-01 1.865217831855680e-03 -2.238861379364140e-03 2.184016596714241e-02
-4.441713514274500e-02 -4.551719919240123e-02 1.778681831141592e-01 9.338691081585956e-05 -2.265141837703460e-03 -1.908528653921951e-03
-4.498254527659916e-02 -4.476348424386732e-02 1.748271459624357e-01 -4.926133333432579e-05 -6.579330528099097e-04 -1.918714382745992e-03
-5.249682622171757e-02 -4.451520600828023e-02 1.552896609077377e-01 5.452364192246475e-04 -6.699366577755951e-04 2.270614990404192e-02
-4.631048416362540e-02 -4.520225587699410e-02 1.713122951702524e-01 -4.788213758698679e-04 1.079264575145684e-03 1.265236876412251e-03
-4.609693488973237e-02 -4.519618721582542e-02 1.728574282046246e-01 6.764250072995956e-04 -2.256330093489485e-03 1.165852020461221e-03
-4.094405389662436e-02 -3.461535049129359e-02 1.636347499549937e-01 1.100737453231320e-07 -7.871331139813586e-04 -3.805086073103223e-03
-4.975984704922199e-02 -4.941200729353062e-02 1.726784342529309e-01 -1.008316622087220e-05 -2.015603755449150e-04 3.065507765803724e-03
-4.650549720888390e-02 -4.470163385003660e-02 1.698901200836840e-01 2.547110480392486e-05 -6.619379979463181e-04 1.359430114832030e-03
-5.444512597583796e-02 -3.647036813576617e-02 1.669973387953066e-01 -1.266088875072224e-03 -5.375638298516962e-03 1.321863622806293e-03
-3.395785995971817e-02 -3.709565674703712e-02 1.674826856218848e-01 7.779037109752388e-05 -5.417567652234418e-03 -2.574510769646329e-03
-3.519635253580448e-02 -7.010133407379744e-02 1.495029569058309e-01 -4.417719864756881e-05 1.166085715426078e-02 -2.731758372630946e-03
-4.750881767776469e-02 -6.203457380613994e-02 1.506950396003358e-01 -5.120156200210627e-03 1.190983345792772e-02 2.694848451406636e-04
-4.962098749506313e-02 -4.907635749820927e-02 1.677076467100483e-01 -9.121851815856641e-04 3.321505430687536e-04 -7.321764225510397e-03
-4.929042360140582e-02 -4.963541914501443e-02 1.796602542639670e-01 8.092708916705240e-05 3.493180498574418e-04 -6.511976330251715e-04
-5.006560150713295e-02 -5.174835560435120e-02 1.516560923404516e-01 -2.785398942445629e-05 1.257330389290494e-02 -4.379957413073933e-04
-4.526772343619106e-02 -4.569345225502604e-02 1.409793462543483e-01 -3.564310959483656e-03 1.073745998000243e-02 -6.349923257603105e-03
-4.058359215279654e-02 -3.693936294956734e-02 1.674228589231710e-01 -3.748649970911933e-04 -5.407342886109502e-03 2.261348982936316e-03
-3.380588127636035e-02 -4.779239472613328e-02 1.660355139987170e-01 1.246270571292341e-04 -3.599136217214913e-03 -2.570189963646220e-03
-3.918130456476090e-02 -6.808607666740786e-02 1.498698379130965e-01 -1.246906151066987e-03 1.173140672529805e-02 2.116189990758334e-03
-5.232433743291875e-02 -4.475433841025855e-02 1.658755236492416e-01 -2.860904438341059e-03 -3.479617703518586e-03 1.284129812204781e-03
-4.940124805768886e-02 -4.949557254174273e-02 1.766993719617814e-01 -2.887416122717010e-04 3.434326333336862e-04 -1.342042831608712e-03
-4.909497796794296e-02 -5.030805750015844e-02 1.735002921695123e-01 1.245026652562771e-04 3.762451257360091e-03 -6.246498256559417e-04
-4.852407365025121e-02 -5.023541552582772e-02 1.490080716281113e-01 -8.701872478025622e-04 1.212044530477471e-02 -1.258984008420289e-03
-4.834545191488192e-02 -4.797812138581138e-02 1.618160737455532e-01 -2.043197197661877e-03 3.272184962084860e-03 -6.785465660512071e-03
-4.973605534793058e-02 -4.487438721098515e-02 1.681096332796142e-01 -1.119197327897524e-03 -2.258726497421120e-03 -7.073105432475408e-03
-4.441713514274500e-02 -4.551719919240123e-02 1.778681831141592e-01 9.338691081585956e-05 -2.265141837703460e-03 -1.908528653921951e-03
-4.567574408813443e-02 -5.595294828708865e-02 1.436897107272540e-01 -1.274829478990512e-04 1.781542043433596e-02 -1.864089666652254e-03
-4.220402899117444e-02 -4.820863382421360e-02 1.361105959466023e-01 -5.670155960445283e-03 1.675906550775404e-02 -7.108850608900672e-03
-4.779196894920715e-02 -4.594546967421150e-02 1.626264870565593e-01 -2.754234852375268e-03 1.733032960821883e-03 -6.723489597056940e-03
-4.424009308730384e-02 -4.888118809415490e-02 1.719687045692060e-01 1.290275400825098e-04 1.986480137024014e-03 -1.888626575788080e-03
-4.613872933628356e-02 -4.535633859139433e-02 1.754811376524278e-01 -3.498395150862674e-04 -2.265779632262018e-03 -3.368798676773969e-04
-4.456284206315935e-02 -5.401832726094681e-02 1.418437513884100e-01 -1.321926779187045e-03 1.756170270318260e-02 -3.791454022360292e-04
-3.979518117915297e-02 -4.703336179837746e-02 1.660569012375494e-01 -8.086964024321893e-04 -3.568140216196844e-03 2.248674925785858e-03
-4.885820196786565e-02 -4.972576447720129e-02 1.706054102119556e-01 -6.041762983576688e-04 3.638889260269710e-03 -1.227879045886035e-03
-4.539223202678424e-02 -4.814759095749146e-02 1.696847396152580e-01 -7.853293681556946e-04 1.921985814961740e-03 -2.644024674231747e-04
-3.395785995971817e-02 -3.709565674703712e-02 1.674826856218848e-01 7.779037109752388e-05 -5.417567652234418e-03 -2.574510769646329e-03
-6.590889785766695e-02 -3.584490939240764e-02 1.661429319211439e-01 2.222176566868347e-03 -5.332163510972936e-03 7.681903841368174e-03
-5.438026835892905e-02 -5.395921757533231e-02 1.514739602930048e-01 1.041988684983232e-02 1.210897679087259e-02 1.041085585686859e-02
-3.519635253580448e-02 -7.010133407379744e-02 1.495029569058309e-01 -4.417719864756881e-05 1.166085715426078e-02 -2.731758372630946e-03
-4.929042360140582e-02 -4.963541914501443e-02 1.796602542639670e-01 8.092708916705240e-05 3.493180498574418e-04 -6.511976330251715e-04
-4.978245049150862e-02 -4.851778300082636e-02 1.555914216383666e-01 1.500719144764950e-03 3.245442752389483e-04 1.729378681084107e-02
-4.252219540013316e-02 -3.963383435285546e-02 1.301756053131308e-01 7.241184925942935e-03 8.865001726528279e-03 1.449222650607802e-02
-5.006560150713295e-02 -5.174835560435120e-02 1.516560923404516e-01 -2.785398942445629e-05 1.257330389290494e-02 -4.379957413073933e-04
-4.044170374515692e-02 -3.678294155303180e-02 1.670862371887689e-01 7.305724766865099e-04 -5.395959044614599e-03 -3.872173271362192e-03
-6.268467840755945e-02 -4.171339518710625e-02 1.653472243425592e-01 5.225063096060160e-03 -3.366797425386112e-03 7.737903998855754e-03
-3.908549574811927e-02 -6.606437228865639e-02 1.499268474189850e-01 2.505573015501057e-03 1.176458156829320e-02 -3.543742374202439e-03
-3.380588127636035e-02 -4.779239472613328e-02 1.660355139987170e-01 1.246270571292341e-04 -3.599136217214913e-03 -2.570189963646220e-03
-4.938524684106281e-02 -4.935609130053782e-02 1.736157765212729e-01 5.572657368171010e-04 3.447181460294018e-04 2.858252028403624e-03
-4.789229278269505e-02 -4.564703923768657e-02 1.499748194309991e-01 3.588473960647852e-03 2.787891206438465e-03 1.611214823102633e-02
-4.852180831952926e-02 -4.871893953266945e-02 1.462648047744359e-01 1.747624755280697e-03 1.164012596121537e-02 2.637566208577926e-03
-4.909497796794296e-02 -5.030805750015844e-02 1.735002921695123e-01 1.245026652562771e-04 3.762451257360091e-03 -6.246498256559417e-04
-4.441713514274500e-02 -4.551719919240123e-02 1.778681831141592e-01 9.338691081585956e-05 -2.265141837703460e-03 -1.908528653921951e-03
-5.270379069966303e-02 -4.423252086348646e-02 1.580355314636400e-01 1.865217831855680e-03 -2.238861379364140e-03 2.184016596714241e-02
-4.020215339863181e-02 -4.045557382387521e-02 1.282385650280390e-01 1.185255394295701e-02 1.564048457822090e-02 2.172214927978047e-02
-4.567574408813443e-02 -5.595294828708865e-02 1.436897107272540e-01 -1.274829478990512e-04 1.781542043433596e-02 -1.864089666652254e-03
-4.424009308730384e-02 -4.888118809415490e-02 1.719687045692060e-01 1.290275400825098e-04 1.986480137024014e-03 -1.888626575788080e-03
-4.975882496708459e-02 -4.300775644433343e-02 1.529747329986318e-01 4.992898240935839e-03 1.486380952690100e-03 2.105660329192176e-02
-4.609693488973237e-02 -4.519618721582542e-02 1.728574282046246e-01 6.764250072995956e-04 -2.256330093489485e-03 1.165852020461221e-03
-4.455231966649386e-02 -5.207714708170837e-02 1.397781049461313e-01 2.676301852966399e-03 1.726131546981507e-02 1.236335569977596e-03
-3.966589469550710e-02 -4.627216369016362e-02 1.658020567584763e-01 1.586676652555816e-03 -3.542167891851698e-03 -3.848451418490056e-03
-4.884370115844302e-02 -4.914261192891083e-02 1.675927513364509e-01 1.177249486988578e-03 3.519806667901257e-03 2.622574950030687e-03
-4.535560608324445e-02 -4.741249771337715e-02 1.671686222523488e-01 1.538536525419602e-03 1.862587868952274e-03 1.014741027457262e-03
        </DataArray>
        <DataArray type="Float64" Name="nodal_cauchy_stresses_xyz" NumberOfComponents="6" format="ascii">
1.220977044860658e-01 1.228582728753569e-01 3.487459831160777e-01 1.747661495375534e-02 9.399511678284739e-02 9.358331230273113e-02
8.464809908548503e-02 1.011791606072126e-01 2.595099234388488e-01 -3.200560717459049e-04 8.889501678604736e-02 -3.908385761745672e-04
5.730365947077742e-02 5.820637002369874e-02 1.647275503827067e-01 -1.545382291419748e-05 6.973439055601820e-03 -6.698038017287681e-05
9.720089773094563e-02 8.267968820108001e-02 2.495754415469048e-01 1.676463625068201e-03 7.801684515550303e-03 8.641414417602448e-02
-4.671725364850894e-03 -6.692725026249940e-03 2.025041355369097e-01 2.282148243636354e-03 2.778239632042670e-03 5.101309940194735e-03
1.204029728790500e-02 -4.938702996285812e-03 2.077856057562402e-01 -8.237769394343146e-05 3.098245439030242e-03 -3.557397068198535e-03
2.452670305342924e-02 2.256610002533276e-02 2.259376516258870e-01 -1.260508890886815e-04 4.450823680420251e-03 -3.573419293938107e-03
7.554056893076179e-04 1.323158423377476e-02 2.153964085110441e-01 7.121652617436286e-04 4.425505421268703e-03 5.546034144035763e-03
9.294512914568170e-02 1.063999564953054e-01 2.809262057880664e-01 4.609195792248253e-03 9.010376438142802e-02 2.368895700781365e-02
6.269492685020482e-02 6.678414969244090e-02 1.828994430706649e-01 -1.013444768360924e-04 3.221468563944050e-02 -1.323424990491019e-04
6.610961441353579e-02 6.406328282837775e-02 1.849436762485599e-01 4.307062734526976e-04 7.170385481013680e-03 2.165377132913579e-02
1.015751587849789e-01 9.070328753627667e-02 2.684716976187284e-01 6.838546012801777e-03 3.478773050754445e-02 8.633541102679804e-02
6.470947222789859e-03 -5.944947791928053e-03 2.059175944085005e-01 6.323203313666588e-04 3.020490162742546e-03 3.943375286197549e-03
2.169812674580483e-02 1.407214640245166e-02 2.242694581730971e-01 -1.608821870100559e-04 7.054555181717661e-03 -3.559705011248799e-03
1.687183266147984e-02 1.956145986212172e-02 2.226703250585940e-01 2.725794822524174e-04 4.445911885459165e-03 4.066573006462506e-03
-1.720502205477653e-04 7.227954931886095e-03 2.151635220941244e-01 1.480545138787967e-03 6.948465653039972e-03 5.703725992403724e-03
2.336101010233858e-02 2.104851073707806e-02 2.453422391506918e-01 5.667345546415592e-03 3.062973473305160e-02 3.410844254109362e-02
3.596694144435164e-02 1.875129387154143e-02 2.203480457124314e-01 -2.833264315534973e-04 2.997925922043535e-02 -3.030964688084962e-03
3.973669181791245e-02 3.746518097815504e-02 2.030093668001940e-01 -9.623742592728906e-05 6.314350972559238e-03 -2.856519514307440e-03
2.271861299631539e-02 3.493873001635994e-02 2.230050619153857e-01 1.209165844027979e-03 6.580255247957302e-03 3.316724336200105e-02
2.238794373391988e-02 2.889997748505099e-02 2.287133929658130e-01 2.996444935746044e-03 1.677714612507867e-02 3.310833351444180e-02
3.801769225839146e-02 2.964871748736941e-02 2.072781865411243e-01 -1.842464035919886e-04 1.620138757410313e-02 -2.868907707457897e-03
3.054108921473617e-02 1.849189644752856e-02 2.255946693030328e-01 1.629331210269018e-03 3.012822314048749e-02 1.080033415133709e-02
3.295536823218304e-02 3.590417628536544e-02 2.069162402089640e-01 3.744695304524616e-04 6.377748065830072e-03 1.043420047623082e-02
7.130923546413744e-02 7.252684258420145e-02 2.033468964036174e-01 1.785644860827512e-03 3.282604492555985e-02 2.168310963098631e-02
1.458848439808843e-02 1.171288185699831e-02 2.213773845198578e-01 4.907979249545287e-04 7.029995272792361e-03 4.095710256537518e-03
3.166334571255978e-02 2.856070189066174e-02 2.115716493396718e-01 8.872960366304993e-04 1.633721727968963e-02 1.042876415920385e-02
8.464809908548503e-02 1.011791606072126e-01 2.595099234388488e-01 -3.200560717459049e-04 8.889501678604736e-02 -3.908385761745672e-04
1.659395376263360e-01 1.457312782171589e-01 4.433384382138374e-01 -3.369526979897319e-02 9.949288120256314e-02 -1.849171396397690e-01
1.441082637248160e-01 1.087215068164593e-01 3.403984142622801e-01 -3.287177339307001e-03 8.690619612950293e-03 -1.718308793401515e-01
5.730365947077742e-02 5.820637002369874e-02 1.647275503827067e-01 -1.545382291419748e-05 6.973439055601820e-03 -6.698038017287681e-05
1.204029728790500e-02 -4.938702996285812e-03 2.077856057562402e-01 -8.237769394343146e-05 3.098245439030242e-03 -3.557397068198535e-03
-1.303568160604993e-02 -5.040311327307163e-03 2.005085280750205e-01 -4.235681062857877e-03 2.444756772299829e-03 4.061791178258134e-03
-1.274361536929996e-02 7.923135734146073e-03 2.086472601276947e-01 -9.203352104384847e-04 4.391680543156342e-03 3.241324710299159e-03
2.452670305342924e-02 2.256610002533276e-02 2.259376516258870e-01 -1.260508890886815e-04 4.450823680420251e-03 -3.573419293938107e-03
1.060363300106463e-01 1.125161721886424e-01 3.063597847026855e-01 -9.143943611171575e-03 9.161076029399565e-02 -4.710867170633497e-02
1.470898869383183e-01 1.160449747953029e-01 3.597176139911706e-01 -1.327146743068155e-02 3.755218696108806e-02 -1.714340400274016e-01
8.017316515657076e-02 7.109657096155519e-02 2.096411132777964e-01 -8.565654363836940e-04 7.412849134514198e-03 -4.310842569042685e-02
6.269492685020482e-02 6.678414969244090e-02 1.828994430706649e-01 -1.013444768360924e-04 3.221468563944050e-02 -1.323424990491019e-04
7.162646966342436e-03 -4.396365790889941e-03 2.065139801288423e-01 -1.244270077087187e-03 2.932627096888444e-03 -6.988695608882134e-03
-1.218963855013077e-02 4.273063528192487e-03 2.097511238161291e-01 -2.318509655879073e-03 6.830601284897488e-03 2.869187537174914e-03
1.692116949866593e-02 1.957637016785762e-02 2.222470695399212e-01 -5.136983030591538e-04 4.434620126277471e-03 -7.229862233785935e-03
2.169812674580483e-02 1.407214640245166e-02 2.242694581730971e-01 -1.608821870100559e-04 7.054555181717661e-03 -3.559705011248799e-03
3.596694144435164e-02 1.875129387154143e-02 2.203480457124314e-01 -2.833264315534973e-04 2.997925922043535e-02 -3.030964688084962e-03
2.440129512499866e-02 2.834793744499658e-02 2.763479812027332e-01 -1.021028157304425e-02 3.136213999427941e-02 -5.593677794512758e-02
2.086135745669918e-02 3.798863076860976e-02 2.495530592507444e-01 -2.033192485127339e-03 6.864633376827320e-03 -5.474571532699876e-02
3.973669181791245e-02 3.746518097815504e-02 2.030093668001940e-01 -9.623742592728906e-05 6.314350972559238e-03 -2.856519514307440e-03
3.801769225839146e-02 2.964871748736941e-02 2.072781865411243e-01 -1.842464035919886e-04 1.620138757410313e-02 -2.868907707457897e-03
2.143965169773101e-02 3.355622105950105e-02 2.565406322362492e-01 -5.257955801877185e-03 1.740156426899842e-02 -5.458163748482642e-02
3.534989925862560e-02 2.198415640530225e-02 2.353499543539705e-01 -3.190054864256430e-03 3.033863437199829e-02 -2.080386503447302e-02
3.754466210793928e-02 3.852543537810955e-02 2.157373402828595e-01 -7.248323296182352e-04 6.455000549204939e-03 -2.011359773894141e-02
8.489941624199411e-02 7.933644753735478e-02 2.280495961048547e-01 -3.545891930551596e-03 3.358096290075902e-02 -4.315628062971087e-02
1.486828352794918e-02 1.227059236169883e-02 2.212554642173513e-01 -9.416123347423890e-04 6.996604234268495e-03 -7.292039391016055e-03
3.632009153294014e-02 3.152642397653039e-02 2.206591367725302e-01 -1.729043358551267e-03 1.650954167998433e-02 -2.010045171298686e-02
9.720089773094563e-02 8.267968820108001e-02 2.495754415469048e-01 1.676463625068201e-03 7.801684515550303e-03 8.641414417602448e-02
5.730365947077742e-02 5.820637002369874e-02 1.647275503827067e-01 -1.545382291419748e-05 6.973439055601820e-03 -6.698038017287681e-05
5.627480812282117e-02 5.738461983632720e-02 1.610996942291422e-01 2.622808689109584e-05 -1.260121463466453e-02 -5.906226067849699e-05
9.573472893823631e-02 8.183160240819459e-02 2.454759124329001e-01 -3.165535521498436e-03 -1.431002353047197e-02 8.485793051295715e-02
7.554056893076179e-04 1.323158423377476e-02 2.153964085110441e-01 7.121652617436286e-04 4.425505421268703e-03 5.546034144035763e-03
2.452670305342924e-02 2.256610002533276e-02 2.259376516258870e-01 -1.260508890886815e-04 4.450823680420251e-03 -3.573419293938107e-03
2.573046853592680e-02 2.368471382421631e-02 2.293356726874834e-01 1.589183399754208e-04 -7.923518468165469e-03 -3.567530123140983e-03
1.896001653356312e-03 1.434709392402145e-02 2.187467511641698e-01 -1.102407603798752e-03 -7.895700515930441e-03 5.780645002601618e-03
6.610961441353579e-02 6.406328282837775e-02 1.849436762485599e-01 4.307062734526976e-04 7.170385481013680e-03 2.165377132913579e-02
5.849128915803788e-02 6.016635045399216e-02 1.693442869203930e-01 4.706746251093920e-06 -2.681076518192063e-03 -8.060328042347932e-05
6.500149948578605e-02 6.323997385304381e-02 1.812175253288318e-01 -8.110549455429337e-04 -1.300843990032227e-02 2.125877932374822e-02
9.868429616751506e-02 8.448871358623122e-02 2.544469385888733e-01 -7.460807171352507e-04 -3.163930421125142e-03 8.789611594116077e-02
1.687183266147984e-02 1.956145986212172e-02 2.226703250585940e-01 2.725794822524174e-04 4.445911885459165e-03 4.066573006462506e-03
2.453461929029698e-02 2.446350634253010e-02 2.239173388766643e-01 -9.058985114969010e-06 -1.584637918371095e-03 -3.581655727493242e-03
1.805476705160965e-02 2.068064316254566e-02 2.260586143464419e-01 -3.947906559312499e-04 -7.918023755630268e-03 4.120808843006129e-03
6.112278266355471e-04 1.453301364321892e-02 2.132438123477117e-01 -1.173620862131241e-04 -1.589572742108863e-03 5.335813959349012e-03
2.271861299631539e-02 3.493873001635994e-02 2.230050619153857e-01 1.209165844027979e-03 6.580255247957302e-03 3.316724336200105e-02
3.973669181791245e-02 3.746518097815504e-02 2.030093668001940e-01 -9.623742592728906e-05 6.314350972559238e-03 -2.856519514307440e-03
4.030038412613973e-02 3.807960530294376e-02 2.044046139621490e-01 1.322729828658659e-04 -1.087681764357521e-02 -2.833825045126170e-03
2.336338902287399e-02 3.563374007947490e-02 2.244065893473565e-01 -1.932871336543195e-03 -1.141810150339472e-02 3.294197859157580e-02
2.337107554185635e-02 3.767868024362717e-02 2.232314070317777e-01 -2.490776172359755e-04 -2.103854945728499e-03 3.340513681172712e-02
4.065417686110006e-02 4.075677877348446e-02 2.034240285778118e-01 2.126902529147149e-06 -1.954250721049234e-03 -2.882068997306044e-03
3.295536823218304e-02 3.590417628536544e-02 2.069162402089640e-01 3.744695304524616e-04 6.377748065830072e-03 1.043420047623082e-02
3.355787600600005e-02 3.654683637322628e-02 2.083242259048695e-01 -5.824225712851983e-04 -1.100600078680858e-02 1.036086343173858e-02
6.734184331403319e-02 6.597806424545249e-02 1.896045507484471e-01 -1.900502389721361e-04 -2.796635583762898e-03 2.203448144560784e-02
1.685069316273121e-02 2.131323177883868e-02 2.206221552567689e-01 -2.254628271705037e-05 -1.585510842825546e-03 4.020195285457161e-03
3.379444794089883e-02 3.905524574257512e-02 2.072824347757497e-01 -6.386458120585198e-05 -1.990039592524797e-03 1.051283595091130e-02
5.730365947077742e-02 5.820637002369874e-02 1.647275503827067e-01 -1.545382291419748e-05 6.973439055601820e-03 -6.698038017287681e-05
1.441082637248160e-01 1.087215068164593e-01 3.403984142622801e-01 -3.287177339307001e-03 8.690619612950293e-03 -1.718308793401515e-01
1.420243827989853e-01 1.078169347375631e-01 3.357094713441551e-01 6.218637672385391e-03 -1.613869417604403e-02 -1.687614576701427e-01
5.627480812282117e-02 5.738461983632720e-02 1.610996942291422e-01 2.622808689109584e-05 -1.260121463466453e-02 -5.906226067849699e-05
2.452670305342924e-02 2.256610002533276e-02 2.259376516258870e-01 -1.260508890886815e-04 4.450823680420251e-03 -3.573419293938107e-03
-1.274361536929996e-02 7.923135734146073e-03 2.086472601276947e-01 -9.203352104384847e-04 4.391680543156342e-03 3.241324710299159e-03
-1.163595664716674e-02 9.027468143558003e-03 2.119367974021340e-01 1.570286357942793e-03 -7.859123910554216e-03 2.747654132414686e-03
2.573046853592680e-02 2.368471382421631e-02 2.293356726874834e-01 1.589183399754208e-04 -7.923518468165469e-03 -3.567530123140983e-03
8.017316515657076e-02 7.109657096155519e-02 2.096411132777964e-01 -8.565654363836940e-04 7.412849134514198e-03 -4.310842569042685e-02
1.460634887552360e-01 1.104243386680666e-01 3.456419847917476e-01 1.471543390074104e-03 -3.677710785032848e-03 -1.747319283103035e-01
7.885049063275110e-02 7.024909018788641e-02 2.057283619591452e-01 1.613672613601316e-03 -1.350556147830352e-02 -4.232325450406235e-02
5.849128915803788e-02 6.016635045399216e-02 1.693442869203930e-01 4.706746251093920e-06 -2.681076518192063e-03 -8.060328042347932e-05
1.692116949866593e-02 1.957637016785762e-02 2.222470695399212e-01 -5.136983030591538e-04 4.434620126277471e-03 -7.229862233785935e-03
-1.309369406712335e-02 8.608429277089333e-03 2.063310977447016e-01 2.716581639925757e-04 -1.596672254726574e-03 3.695160855942032e-03
1.810594700382794e-02 2.069006809067367e-02 2.256157818263591e-01 7.501378544303911e-04 -7.905960053239102e-03 -7.340029243963530e-03
2.453461929029698e-02 2.446350634253010e-02 2.239173388766643e-01 -9.058985114969010e-06 -1.584637918371095e-03 -3.581655727493242e-03
3.973669181791245e-02 3.746518097815504e-02 2.030093668001940e-01 -9.623742592728906e-05 6.314350972559238e-03 -2.856519514307440e-03
2.086135745669918e-02 3.798863076860976e-02 2.495530592507444e-01 -2.033192485127339e-03 6.864633376827320e-03 -5.474571532699876e-02
2.147594998554809e-02 3.871569059910781e-02 2.508938561540525e-01 3.336483702641687e-03 -1.199621229354338e-02 -5.438797457874599e-02
4.030038412613973e-02 3.807960530294376e-02 2.044046139621490e-01 1.322729828658659e-04 -1.087681764357521e-02 -2.833825045126170e-03
4.065417686110006e-02 4.075677877348446e-02 2.034240285778118e-01 2.126902529147149e-06 -1.954250721049234e-03 -2.882068997306044e-03
2.132169576495444e-02 4.019263210443969e-02 2.495994159790638e-01 4.897176065855368e-04 -2.263132278573430e-03 -5.511812363664012e-02
3.754466210793928e-02 3.852543537810955e-02 2.157373402828595e-01 -7.248323296182352e-04 6.455000549204939e-03 -2.011359773894141e-02
3.810253493531506e-02 3.915992925083505e-02 2.171078064137063e-01 1.131735137108620e-03 -1.116280412778875e-02 -1.997309999622038e-02
8.158203665371139e-02 7.299972449911020e-02 2.144341104772977e-01 3.784760265834904e-04 -2.935389495064695e-03 -4.386433945852874e-02
1.683061921259232e-02 2.116738846503354e-02 2.201475805813309e-01 4.753182448945972e-05 -1.588007283939954e-03 -7.134935172874266e-03
3.836001017745394e-02 4.154775050466825e-02 2.160613138436784e-01 1.272149323369630e-04 -2.033083295124536e-03 -2.026418615309861e-02
9.573472893823631e-02 8.183160240819459e-02 2.454759124329001e-01 -3.165535521498436e-03 -1.431002353047197e-02 8.485793051295715e-02
5.627480812282117e-02 5.738461983632720e-02 1.610996942291422e-01 2.622808689109584e-05 -1.260121463466453e-02 -5.906226067849699e-05
1.174162993745924e-01 1.524741393175207e-01 3.750405317851991e-01 5.972357446601489e-04 -1.571177881848220e-01 -7.741462020605340e-04
1.538669978904892e-01 1.707636753431105e-01 4.699716545967826e-01 -2.971791007662673e-02 -1.643747035544439e-01 1.076930002904937e-01
1.896001653356312e-03 1.434709392402145e-02 2.187467511641698e-01 -1.102407603798752e-03 -7.895700515930441e-03 5.780645002601618e-03
2.573046853592680e-02 2.368471382421631e-02 2.293356726874834e-01 1.589183399754208e-04 -7.923518468165469e-03 -3.567530123140983e-03
-7.520960226002999e-04 -2.441044004777640e-02 1.797483806903758e-01 -6.681908810513091e-07 6.313595349857122e-03 -3.579367006896296e-03
-1.106245607886055e-02 -2.121108562698005e-02 1.791484624979325e-01 -3.038986800126659e-03 6.929049663663259e-03 3.662134564469234e-03
6.500149948578605e-02 6.323997385304381e-02 1.812175253288318e-01 -8.110549455429337e-04 -1.300843990032227e-02 2.125877932374822e-02
6.960091273753634e-02 7.858070663580349e-02 2.072472749652968e-01 1.800808645220377e-04 -5.375683271610976e-02 -2.182717561526188e-04
1.254287885654340e-01 1.568756869659440e-01 3.978912467537972e-01 -7.877404327651797e-03 -1.588327407688069e-01 2.750385972416884e-02
1.076847711451982e-01 1.016195309121083e-01 2.936537040963987e-01 -1.101258417800203e-02 -5.744435963430620e-02 8.791756594490453e-02
1.805476705160965e-02 2.068064316254566e-02 2.260586143464419e-01 -3.947906559312499e-04 -7.918023755630268e-03 4.120808843006129e-03
2.000473527130045e-02 1.060247938818346e-02 2.215076782336265e-01 2.157567250856670e-04 -7.609535026307774e-03 -3.557836032426834e-03
-4.359485862415592e-03 -2.406091272923377e-02 1.791569943928193e-01 -7.592455568708795e-04 6.464014239060362e-03 3.600058896289481e-03
-3.439879439893113e-04 4.992751894511936e-03 2.135125321507873e-01 -2.117954704080762e-03 -7.415339260553813e-03 5.637195721679669e-03
2.336338902287399e-02 3.563374007947490e-02 2.244065893473565e-01 -1.932871336543195e-03 -1.141810150339472e-02 3.294197859157580e-02
4.030038412613973e-02 3.807960530294376e-02 2.044046139621490e-01 1.322729828658659e-04 -1.087681764357521e-02 -2.833825045126170e-03
3.604135500714534e-02 1.424405482318299e-02 2.389608606157024e-01 4.084292276181304e-04 -4.318737259515472e-02 -3.323615285080374e-03
2.666007821507781e-02 1.892585716819219e-02 2.681297843467139e-01 -8.575034757494193e-03 -4.355711291359424e-02 3.615701332375274e-02
2.401868079530293e-02 2.923807667172323e-02 2.361621885547820e-01 -4.491696615945371e-03 -2.426751172577282e-02 3.333889524707503e-02
3.874091103437399e-02 2.928993813126570e-02 2.136754492193858e-01 2.743305221923619e-04 -2.357923114996244e-02 -2.913702270230164e-03
3.355787600600005e-02 3.654683637322628e-02 2.083242259048695e-01 -5.824225712851983e-04 -1.100600078680858e-02 1.036086343173858e-02
3.161510446867325e-02 1.466251471733276e-02 2.453314867487637e-01 -2.450080610087144e-03 -4.326274795420671e-02 1.153196479474844e-02
7.804500665938836e-02 8.411663898269363e-02 2.279304679953900e-01 -2.888206692892038e-03 -5.463161308866878e-02 2.214309530334066e-02
1.335954411444933e-02 8.582869748201818e-03 2.189225961257473e-01 -6.913062198344401e-04 -7.564043259489978e-03 4.077675954740029e-03
3.268498424331531e-02 2.840668156793884e-02 2.182658358209864e-01 -1.328672045630616e-03 -2.374021155978222e-02 1.052000051444138e-02
5.627480812282117e-02 5.738461983632720e-02 1.610996942291422e-01 2.622808689109584e-05 -1.260121463466453e-02 -5.906226067849699e-05
1.420243827989853e-01 1.078169347375631e-01 3.357094713441551e-01 6.218637672385391e-03 -1.613869417604403e-02 -1.687614576701427e-01
1.969188090351753e-01 1.900782295165465e-01 5.701951718141571e-01 5.710353189137850e-02 -1.722272764745894e-01 -2.116057946766934e-01
1.174162993745924e-01 1.524741393175207e-01 3.750405317851991e-01 5.972357446601489e-04 -1.571177881848220e-01 -7.741462020605340e-04
2.573046853592680e-02 2.368471382421631e-02 2.293356726874834e-01 1.589183399754208e-04 -7.923518468165469e-03 -3.567530123140983e-03
-1.163595664716674e-02 9.027468143558003e-03 2.119367974021340e-01 1.570286357942793e-03 -7.859123910554216e-03 2.747654132414686e-03
-1.519401718062119e-02 -1.530986348624407e-02 1.811969848021654e-01 6.079781348580918e-03 7.565172112959774e-03 7.025414139129682e-03
-7.520960226002999e-04 -2.441044004777640e-02 1.797483806903758e-01 -6.681908810513091e-07 6.313595349857122e-03 -3.579367006896296e-03
7.885049063275110e-02 7.024909018788641e-02 2.057283619591452e-01 1.613672613601316e-03 -1.350556147830352e-02 -4.232325450406235e-02
1.522298536332398e-01 1.260009975215295e-01 3.855706187435943e-01 2.131050175652185e-02 -6.141449469444295e-02 -1.742694266991218e-01
1.383921122278707e-01 1.620459982252513e-01 4.247112575267366e-01 1.561966339832997e-02 -1.609944365156845e-01 -5.464327762380958e-02
6.960091273753634e-02 7.858070663580349e-02 2.072472749652968e-01 1.800808645220377e-04 -5.375683271610976e-02 -2.182717561526188e-04
1.810594700382794e-02 2.069006809067367e-02 2.256157818263591e-01 7.501378544303911e-04 -7.905960053239102e-03 -7.340029243963530e-03
-1.134464904110705e-02 3.086091000223177e-03 2.090351595909645e-01 3.373632907457222e-03 -7.202800447075728e-03 2.993005055037208e-03
-3.332776486355292e-03 -2.168498462073685e-02 1.805519384677689e-01 1.518441907662867e-03 6.629934229881077e-03 -6.297222230734196e-03
2.000473527130045e-02 1.060247938818346e-02 2.215076782336265e-01 2.157567250856670e-04 -7.609535026307774e-03 -3.557836032426834e-03
4.030038412613973e-02 3.807960530294376e-02 2.044046139621490e-01 1.322729828658659e-04 -1.087681764357521e-02 -2.833825045126170e-03
2.147594998554809e-02 3.871569059910781e-02 2.508938561540525e-01 3.336483702641687e-03 -1.199621229354338e-02 -5.438797457874599e-02
2.976438946574108e-02 2.811960366581720e-02 3.028283368758748e-01 1.553422044915306e-02 -4.402921155538116e-02 -5.886383497226003e-02
3.604135500714534e-02 1.424405482318299e-02 2.389608606157024e-01 4.084292276181304e-04 -4.318737259515472e-02 -3.323615285080374e-03
3.874091103437399e-02 2.928993813126570e-02 2.136754492193858e-01 2.743305221923619e-04 -2.357923114996244e-02 -2.913702270230164e-03
2.354866594397777e-02 3.440796240282878e-02 2.648367172836698e-01 7.890264938383426e-03 -2.502233070638009e-02 -5.486622580629358e-02
3.810253493531506e-02 3.915992925083505e-02 2.171078064137063e-01 1.131735137108620e-03 -1.116280412778875e-02 -1.997309999622038e-02
3.655304496224949e-02 1.846493272594408e-02 2.558493344804372e-01 4.802520874429056e-03 -4.341489205576923e-02 -2.219409313449583e-02
9.133501864152566e-02 9.065955307942104e-02 2.527465251625535e-01 5.732807384305051e-03 -5.571834956768314e-02 -4.405846812612391e-02
1.372539954622726e-02 9.340560057757154e-03 2.189758441601303e-01 1.328860858307055e-03 -7.504794206879064e-03 -7.256879809201063e-03
3.731821899306584e-02 3.143973539759772e-02 2.274970644677053e-01 2.589809909528673e-03 -2.395109577319966e-02 -2.027238655959127e-02
-4.671725364850894e-03 -6.692725026249940e-03 2.025041355369097e-01 2.282148243636354e-03 2.778239632042670e-03 5.101309940194735e-03
1.204029728790500e-02 -4.938702996285812e-03 2.077856057562402e-01 -8.237769394343146e-05 3.098245439030242e-03 -3.557397068198535e-03
2.452670305342924e-02 2.256610002533276e-02 2.259376516258870e-01 -1.260508890886815e-04 4.450823680420251e-03 -3.573419293938107e-03
7.554056893076179e-04 1.323158423377476e-02 2.153964085110441e-01 7.121652617436286e-04 4.425505421268703e-03 5.546034144035763e-03
-1.351406710584724e-03 -7.175074675239443e-04 1.948535595353892e-01 1.639551863265280e-03 -3.809516591026226e-03 -4.715885629082479e-03
-8.250539661803729e-05 -3.432097388979542e-04 2.136707596126153e-01 6.754651981874911e-05 -4.795446338362038e-03 -1.040868720977189e-03
6.841418063811335e-03 6.842811306248961e-03 2.376744453721132e-01 -8.017024104476329e-05 2.921871903060991e-04 -1.185927779021038e-03
1.202589404308592e-03 1.286555374778923e-03 2.155501198261464e-01 3.073674166690186e-04 2.447475583485115e-04 -5.769573682876800e-03
6.470947222789859e-03 -5.944947791928053e-03 2.059175944085005e-01 6.323203313666588e-04 3.020490162742546e-03 3.943375286197549e-03
2.169812674580483e-02 1.407214640245166e-02 2.242694581730971e-01 -1.608821870100559e-04 7.054555181717661e-03 -3.559705011248799e-03
1.687183266147984e-02 1.956145986212172e-02 2.226703250585940e-01 2.725794822524174e-04 4.445911885459165e-03 4.066573006462506e-03
-1.720502205477653e-04 7.227954931886095e-03 2.151635220941244e-01 1.480545138787967e-03 6.948465653039972e-03 5.703725992403724e-03
-1.678499435710182e-04 -3.728071799072245e-04 2.090400359772361e-01 3.592280759522493e-04 -4.548240206954430e-03 -3.983198665377529e-04
5.679031892617394e-03 5.314952891642144e-03 2.328521266010355e-01 -6.645953994775202e-05 -5.058778782728323e-04 -1.191791187249678e-03
5.486943168926187e-03 5.468976328060917e-03 2.321789466683737e-01 1.369695349508251e-04 2.825852159990329e-04 -5.529475864534397e-04
1.113672082720988e-03 1.463472270917056e-03 2.116150830913847e-01 7.907429519285411e-04 -3.334841094798870e-04 -5.294467295287525e-03
-1.820237057446570e-04 -5.524069244947413e-04 1.943138498175395e-01 2.534918523294092e-03 -3.915975237032307e-03 -4.239620962389351e-03
3.234902909722606e-03 -9.503606488914913e-04 2.096255336847949e-01 9.663250265656117e-05 -4.306998449968656e-03 -2.663057738500779e-03
1.308963214587859e-02 1.264626439233103e-02 2.364976095773414e-01 -1.167449236954734e-04 2.178291109548116e-03 -2.816836466398201e-03
3.015367321459589e-03 5.900207228266928e-03 2.163709411944432e-01 3.550398090217687e-04 2.069610902420456e-03 -4.687049522660474e-03
3.026188652183447e-03 4.983644864576579e-03 2.140535853529018e-01 1.131695013618487e-03 2.259113953997429e-03 -4.292508592958582e-03
1.162298754602132e-02 9.484277762328838e-03 2.330638931364464e-01 -9.902788111905631e-05 2.307647138765282e-03 -2.801683230989995e-03
2.359651419976287e-03 -9.025308065710903e-04 2.057732827510435e-01 5.612552538310954e-04 -4.208606852755271e-03 9.373880632782121e-04
1.025152015565222e-02 1.082107829692681e-02 2.313699031081605e-01 1.763186450270453e-04 2.154362436611853e-03 9.408649691335242e-04
1.458848439808843e-02 1.171288185699831e-02 2.213773845198578e-01 4.907979249545287e-04 7.029995272792361e-03 4.095710256537518e-03
4.626179546873808e-03 4.377271977553454e-03 2.275880680915434e-01 2.475303929429449e-04 -4.600107409629367e-04 -4.297734333846350e-04
9.203234637325667e-03 8.234649535274450e-03 2.282281685639050e-01 3.571946642439081e-04 2.299284175648139e-03 1.028135275002845e-03
1.204029728790500e-02 -4.938702996285812e-03 2.077856057562402e-01 -8.237769394343146e-05 3.098245439030242e-03 -3.557397068198535e-03
-1.303568160604993e-02 -5.040311327307163e-03 2.005085280750205e-01 -4.235681062857877e-03 2.444756772299829e-03 4.061791178258134e-03
-1.274361536929996e-02 7.923135734146073e-03 2.086472601276947e-01 -9.203352104384847e-04 4.391680543156342e-03 3.241324710299159e-03
2.452670305342924e-02 2.256610002533276e-02 2.259376516258870e-01 -1.260508890886815e-04 4.450823680420251e-03 -3.573419293938107e-03
-8.250539661803729e-05 -3.432097388979542e-04 2.136707596126153e-01 6.754651981874911e-05 -4.795446338362038e-03 -1.040868720977189e-03
-4.011592713786300e-03 -1.475667143036076e-03 1.755949011545887e-01 -3.547099486822253e-03 -2.827929011133619e-03 1.365710745649497e-02
-4.767632875138255e-03 -4.361074584768423e-03 1.932122981836644e-01 -2.936774395027496e-04 1.837603242971386e-04 1.635502846309848e-02
6.841418063811335e-03 6.842811306248961e-03 2.376744453721132e-01 -8.017024104476329e-05 2.921871903060991e-04 -1.185927779021038e-03
7.162646966342436e-03 -4.396365790889941e-03 2.065139801288423e-01 -1.244270077087187e-03 2.932627096888444e-03 -6.988695608882134e-03
-1.218963855013077e-02 4.273063528192487e-03 2.097511238161291e-01 -2.318509655879073e-03 6.830601284897488e-03 2.869187537174914e-03
1.692116949866593e-02 1.957637016785762e-02 2.222470695399212e-01 -5.136983030591538e-04 4.434620126277471e-03 -7.229862233785935e-03
2.169812674580483e-02 1.407214640245166e-02 2.242694581730971e-01 -1.608821870100559e-04 7.054555181717661e-03 -3.559705011248799e-03
-1.296658007448794e-03 -6.903010810797119e-04 2.040782186141814e-01 -7.347952021133690e-04 -4.304290701128589e-03 1.072322241925090e-03
-3.982613367558819e-03 -2.539143796363459e-03 1.901068253742099e-01 -1.314818495161768e-03 -1.777025113569468e-04 1.542344338809821e-02
3.883923059083397e-03 4.026610828815148e-03 2.265233258922487e-01 -2.538024022264029e-04 2.628225401215281e-04 1.420419612977301e-03
5.679031892617394e-03 5.314952891642144e-03 2.328521266010355e-01 -6.645953994775202e-05 -5.058778782728323e-04 -1.191791187249678e-03
3.234902909722606e-03 -9.503606488914913e-04 2.096255336847949e-01 9.663250265656117e-05 -4.306998449968656e-03 -2.663057738500779e-03
-3.472831305936137e-03 1.554983325733920e-04 1.791481457519041e-01 -5.453832342691424e-03 -3.528766787972289e-03 1.921445666669627e-02
-5.141622798229680e-03 -1.381910946793275e-05 1.968205090522838e-01 -2.425240252328262e-04 1.941482422219049e-03 2.073873967318425e-02
1.308963214587859e-02 1.264626439233103e-02 2.364976095773414e-01 -1.167449236954734e-04 2.178291109548116e-03 -2.816836466398201e-03
1.162298754602132e-02 9.484277762328838e-03 2.330638931364464e-01 -9.902788111905631e-05 2.307647138765282e-03 -2.801683230989995e-03
-3.947291130237288e-03 1.229831982522534e-03 1.955421633292895e-01 -1.866380163402255e-03 2.187958770780592e-03 1.988276963076293e-02
1.578989191687423e-03 -6.222373147464842e-04 2.020305166685097e-01 -1.146034954695587e-03 -4.113076328448861e-03 -1.188265744952649e-03
8.851364193973157e-03 9.619915321269474e-03 2.266743738195335e-01 -3.233070846230197e-04 2.115847558870198e-03 -1.153197131099879e-03
1.486828352794918e-02 1.227059236169883e-02 2.212554642173513e-01 -9.416123347423890e-04 6.996604234268495e-03 -7.292039391016055e-03
3.175132970842829e-03 3.326239478548162e-03 2.221205989264085e-01 -4.782385886728796e-04 -4.266027316555198e-04 1.174330675712791e-03
8.000971062192865e-03 7.545136319993589e-03 2.237666083113125e-01 -6.894077733684346e-04 2.273954713694288e-03 -1.333094862036750e-03
7.554056893076179e-04 1.323158423377476e-02 2.153964085110441e-01 7.121652617436286e-04 4.425505421268703e-03 5.546034144035763e-03
2.452670305342924e-02 2.256610002533276e-02 2.259376516258870e-01 -1.260508890886815e-04 4.450823680420251e-03 -3.573419293938107e-03
2.573046853592680e-02 2.368471382421631e-02 2.293356726874834e-01 1.589183399754208e-04 -7.923518468165469e-03 -3.567530123140983e-03
1.896001653356312e-03 1.434709392402145e-02 2.187467511641698e-01 -1.102407603798752e-03 -7.895700515930441e-03 5.780645002601618e-03
1.202589404308592e-03 1.286555374778923e-03 2.155501198261464e-01 3.073674166690186e-04 2.447475583485115e-04 -5.769573682876800e-03
6.841418063811335e-03 6.842811306248961e-03 2.376744453721132e-01 -8.017024104476329e-05 2.921871903060991e-04 -1.185927779021038e-03
7.354838631985601e-03 7.211782653863740e-03 2.387025780965671e-01 9.078655044890046e-05 -9.995468576154318e-04 -1.222360163449149e-03
1.568833108060555e-03 1.626916803843999e-03 2.165150052273457e-01 -4.537342099379461e-04 -9.035726406782013e-04 -5.599981498402662e-03
1.687183266147984e-02 1.956145986212172e-02 2.226703250585940e-01 2.725794822524174e-04 4.445911885459165e-03 4.066573006462506e-03
2.453461929029698e-02 2.446350634253010e-02 2.239173388766643e-01 -9.058985114969010e-06 -1.584637918371095e-03 -3.581655727493242e-03
1.805476705160965e-02 2.068064316254566e-02 2.260586143464419e-01 -3.947906559312499e-04 -7.918023755630268e-03 4.120808843006129e-03
6.112278266355471e-04 1.453301364321892e-02 2.132438123477117e-01 -1.173620862131241e-04 -1.589572742108863e-03 5.335813959349012e-03
5.486943168926187e-03 5.468976328060917e-03 2.321789466683737e-01 1.369695349508251e-04 2.825852159990329e-04 -5.529475864534397e-04
6.401178511941497e-03 6.666407296472744e-03 2.367528758844299e-01 -1.421255405248052e-05 -5.045896352623871e-04 -1.152907702388464e-03
5.954550988470017e-03 5.829337966151669e-03 2.331916623787801e-01 -1.815234653211590e-04 -9.785183273408266e-04 -4.832252520137819e-04
7.445686231108581e-04 6.937131253313428e-04 2.145522378385187e-01 -3.323741359318002e-05 -4.776668609234528e-04 -5.938860010898960e-03
3.015367321459589e-03 5.900207228266928e-03 2.163709411944432e-01 3.550398090217687e-04 2.069610902420456e-03 -4.687049522660474e-03
1.308963214587859e-02 1.264626439233103e-02 2.364976095773414e-01 -1.167449236954734e-04 2.178291109548116e-03 -2.816836466398201e-03
1.420273036645216e-02 1.359656605592845e-02 2.395494631505034e-01 1.353581864322643e-04 -4.408650431742990e-03 -2.837825745617216e-03
3.806503968734700e-03 6.751530609566916e-03 2.192112668139597e-01 -6.255575020140293e-04 -4.228848313288486e-03 -4.456523834034744e-03
2.402982395753447e-03 5.416446899091858e-03 2.138841055966378e-01 -1.217950447658183e-04 -1.190903487946945e-03 -4.912101890138152e-03
1.237086899184026e-02 1.264667017792694e-02 2.339762704383903e-01 -1.809183215194731e-05 -1.219122694871019e-03 -2.798792339636804e-03
1.025152015565222e-02 1.082107829692681e-02 2.313699031081605e-01 1.763186450270453e-04 2.154362436611853e-03 9.408649691335242e-04
1.126328718997845e-02 1.174145632539109e-02 2.343659925416964e-01 -2.579080153276996e-04 -4.367774403552599e-03 1.014238350704230e-03
1.685069316273121e-02 2.131323177883868e-02 2.206221552567689e-01 -2.254628271705037e-05 -1.585510842825546e-03 4.020195285457161e-03
5.050910467740225e-03 5.190325211099035e-03 2.312382765000213e-01 2.350062141065354e-06 -4.978010686123282e-04 -6.200342259334080e-04
9.579780248641343e-03 1.070669928982077e-02 2.288615049215208e-01 -1.687988707749122e-05 -1.211835834807328e-03 8.710687821930516e-04
2.452670305342924e-02 2.256610002533276e-02 2.259376516258870e-01 -1.260508890886815e-04 4.450823680420251e-03 -3.573419293938107e-03
-1.274361536929996e-02 7.923135734146073e-03 2.086472601276947e-01 -9.203352104384847e-04 4.391680543156342e-03 3.241324710299159e-03
-1.163595664716674e-02 9.027468143558003e-03 2.119367974021340e-01 1.570286357942793e-03 -7.859123910554216e-03 2.747654132414686e-03
2.573046853592680e-02 2.368471382421631e-02 2.293356726874834e-01 1.589183399754208e-04 -7.923518468165469e-03 -3.567530123140983e-03
6.841418063811335e-03 6.842811306248961e-03 2.376744453721132e-01 -8.017024104476329e-05 2.921871903060991e-04 -1.185927779021038e-03
-4.767632875138255e-03 -4.361074584768423e-03 1.932122981836644e-01 -2.936774395027496e-04 1.837603242971386e-04 1.635502846309848e-02
-4.494454840657941e-03 -4.040579694932126e-03 1.941115673610161e-01 5.440916444654117e-04 -7.898082799832726e-04 1.615938103362630e-02
7.354838631985601e-03 7.211782653863740e-03 2.387025780965671e-01 9.078655044890046e-05 -9.995468576154318e-04 -1.222360163449149e-03
1.692116949866593e-02 1.957637016785762e-02 2.222470695399212e-01 -5.136983030591538e-04 4.434620126277471e-03 -7.229862233785935e-03
-1.309369406712335e-02 8.608429277089333e-03 2.063310977447016e-01 2.716581639925757e-04 -1.596672254726574e-03 3.695160855942032e-03
1.810594700382794e-02 2.069006809067367e-02 2.256157818263591e-01 7.501378544303911e-04 -7.905960053239102e-03 -7.340029243963530e-03
2.453461929029698e-02 2.446350634253010e-02 2.239173388766643e-01 -9.058985114969010e-06 -1.584637918371095e-03 -3.581655727493242e-03
3.883923059083397e-03 4.026610828815148e-03 2.265233258922487e-01 -2.538024022264029e-04 2.628225401215281e-04 1.420419612977301e-03
-5.295347833759625e-03 -5.381529790281226e-03 1.921382390301880e-01 1.235503753184330e-04 -4.510913249765683e-04 1.656322142907982e-02
4.346301526359037e-03 4.384920291871908e-03 2.275188479131609e-01 3.402926496263761e-04 -9.441471892476897e-04 1.289534890645969e-03
6.401178511941497e-03 6.666407296472744e-03 2.367528758844299e-01 -1.421255405248052e-05 -5.045896352623871e-04 -1.152907702388464e-03
1.308963214587859e-02 1.264626439233103e-02 2.364976095773414e-01 -1.167449236954734e-04 2.178291109548116e-03 -2.816836466398201e-03
-5.141622798229680e-03 -1.381910946793275e-05 1.968205090522838e-01 -2.425240252328262e-04 1.941482422219049e-03 2.073873967318425e-02
-4.547402966716364e-03 7.696003768869306e-04 1.994665996254412e-01 7.096281634852027e-04 -4.024599186294777e-03 2.035893661823892e-02
1.420273036645216e-02 1.359656605592845e-02 2.395494631505034e-01 1.353581864322643e-04 -4.408650431742990e-03 -2.837825745617216e-03
1.237086899184026e-02 1.264667017792694e-02 2.339762704383903e-01 -1.809183215194731e-05 -1.219122694871019e-03 -2.798792339636804e-03
-5.770201635270359e-03 -1.019285969359353e-03 1.943422865934724e-01 3.165430807514609e-04 -1.164076631018785e-03 2.111868820024725e-02
8.851364193973157e-03 9.619915321269474e-03 2.266743738195335e-01 -3.233070846230197e-04 2.115847558870198e-03 -1.153197131099879e-03
9.855583610204381e-03 1.053367550511503e-02 2.296276687939088e-01 4.819629603438895e-04 -4.308563118957702e-03 -1.295373773079009e-03
1.683061921259232e-02 2.116738846503354e-02 2.201475805813309e-01 4.753182448945972e-05 -1.588007283939954e-03 -7.134935172874266e-03
3.413162497509828e-03 3.637331567372610e-03 2.255636565438002e-01 -1.090652788472892e-06 -4.912729307562577e-04 1.546763026895926e-03
8.134718429239818e-03 9.362596209502763e-03 2.241594987835923e-01 3.842914784598089e-05 -1.205593237240632e-03 -1.017610714120984e-03
1.896001653356312e-03 1.434709392402145e-02 2.187467511641698e-01 -1.102407603798752e-03 -7.895700515930441e-03 5.780645002601618e-03
2.573046853592680e-02 2.368471382421631e-02 2.293356726874834e-01 1.589183399754208e-04 -7.923518468165469e-03 -3.567530123140983e-03
-7.520960226002999e-04 -2.441044004777640e-02 1.797483806903758e-01 -6.681908810513091e-07 6.313595349857122e-03 -3.579367006896296e-03
-1.106245607886055e-02 -2.121108562698005e-02 1.791484624979325e-01 -3.038986800126659e-03 6.929049663663259e-03 3.662134564469234e-03
1.568833108060555e-03 1.626916803843999e-03 2.165150052273457e-01 -4.537342099379461e-04 -9.035726406782013e-04 -5.599981498402662e-03
7.354838631985601e-03 7.211782653863740e-03 2.387025780965671e-01 9.078655044890046e-05 -9.995468576154318e-04 -1.222360163449149e-03
-9.075355709521921e-03 -8.437196861295786e-03 1.853011372858307e-01 -2.109091893578145e-04 1.186319938993175e-02 -7.398815158464044e-04
-6.016182018085377e-03 -5.457940064310712e-03 1.694655721848807e-01 -2.675352649618860e-03 9.718250170220537e-03 -4.461605721711309e-03
1.805476705160965e-02 2.068064316254566e-02 2.260586143464419e-01 -3.947906559312499e-04 -7.918023755630268e-03 4.120808843006129e-03
2.000473527130045e-02 1.060247938818346e-02 2.215076782336265e-01 2.157567250856670e-04 -7.609535026307774e-03 -3.557836032426834e-03
-4.359485862415592e-03 -2.406091272923377e-02 1.791569943928193e-01 -7.592455568708795e-04 6.464014239060362e-03 3.600058896289481e-03
-3.439879439893113e-04 4.992751894511936e-03 2.135125321507873e-01 -2.117954704080762e-03 -7.415339260553813e-03 5.637195721679669e-03
5.954550988470017e-03 5.829337966151669e-03 2.331916623787801e-01 -1.815234653211590e-04 -9.785183273408266e-04 -4.832252520137819e-04
4.072595024609261e-03 3.752670295561165e-03 2.270448869249067e-01 7.762252212518685e-05 2.044115993898699e-03 -1.162084866502119e-03
-7.861320281049234e-03 -7.571202355210095e-03 1.814533839306056e-01 -5.106562703863452e-04 1.132890232186009e-02 -5.604902935430836e-04
4.052828855357802e-04 7.038159080517108e-04 2.064741930052567e-01 -1.239360209551199e-03 1.613057332048411e-03 -5.018907087852062e-03
3.806503968734700e-03 6.751530609566916e-03 2.192112668139597e-01 -6.255575020140293e-04 -4.228848313288486e-03 -4.456523834034744e-03
1.420273036645216e-02 1.359656605592845e-02 2.395494631505034e-01 1.353581864322643e-04 -4.408650431742990e-03 -2.837825745617216e-03
-1.008426312477817e-02 -1.485047928079135e-02 1.707471276876187e-01 -3.128498751141238e-04 1.634411842121784e-02 -2.423942154740804e-03
-6.291058365267677e-03 -9.416051788962314e-03 1.604522160956008e-01 -4.081761124257192e-03 1.528657406303329e-02 -4.855962834853292e-03
2.487850796396582e-03 3.831887875084674e-03 2.091385839468128e-01 -1.748221537064081e-03 -8.133227406223516e-04 -4.158436950292406e-03
9.684568813113097e-03 7.197125183850653e-03 2.271591086036047e-01 1.137304120979447e-04 -7.632505700519804e-04 -2.768140934073770e-03
1.126328718997845e-02 1.174145632539109e-02 2.343659925416964e-01 -2.579080153276996e-04 -4.367774403552599e-03 1.014238350704230e-03
-8.762466191200436e-03 -1.342776265849993e-02 1.682401625115660e-01 -7.858028747287103e-04 1.608280970106056e-02 6.039659073422190e-04
1.335954411444933e-02 8.582869748201818e-03 2.189225961257473e-01 -6.913062198344401e-04 -7.564043259489978e-03 4.077675954740029e-03
3.287321736934040e-03 3.028125231341179e-03 2.219572997178937e-01 -3.680569439816840e-04 1.932895462065866e-03 -3.831631220863953e-04
7.687414027439283e-03 6.253814107872597e-03 2.225900002959555e-01 -5.223531933394745e-04 -7.805327361034726e-04 1.036496462982229e-03
2.573046853592680e-02 2.368471382421631e-02 2.293356726874834e-01 1.589183399754208e-04 -7.923518468165469e-03 -3.567530123140983e-03
-1.163595664716674e-02 9.027468143558003e-03 2.119367974021340e-01 1.570286357942793e-03 -7.859123910554216e-03 2.747654132414686e-03
-1.519401718062119e-02 -1.530986348624407e-02 1.811969848021654e-01 6.079781348580918e-03 7.565172112959774e-03 7.025414139129682e-03
-7.520960226002999e-04 -2.441044004777640e-02 1.797483806903758e-01 -6.681908810513091e-07 6.313595349857122e-03 -3.579367006896296e-03
7.354838631985601e-03 7.211782653863740e-03 2.387025780965671e-01 9.078655044890046e-05 -9.995468576154318e-04 -1.222360163449149e-03
-4.494454840657941e-03 -4.040579694932126e-03 1.941115673610161e-01 5.440916444654117e-04 -7.898082799832726e-04 1.615938103362630e-02
-5.652460360339418e-03 -3.205765108368699e-03 1.529631795638517e-01 6.189784146551237e-03 7.561659529373066e-03 1.194244379079496e-02
-9.075355709521921e-03 -8.437196861295786e-03 1.853011372858307e-01 -2.109091893578145e-04 1.186319938993175e-02 -7.398815158464044e-04
1.810594700382794e-02 2.069006809067367e-02 2.256157818263591e-01 7.501378544303911e-04 -7.905960053239102e-03 -7.340029243963530e-03
-1.134464904110705e-02 3.086091000223177e-03 2.090351595909645e-01 3.373632907457222e-03 -7.202800447075728e-03 2.993005055037208e-03
-3.332776486355292e-03 -2.168498462073685e-02 1.805519384677689e-01 1.518441907662867e-03 6.629934229881077e-03 -6.297222230734196e-03
2.000473527130045e-02 1.060247938818346e-02 2.215076782336265e-01 2.157567250856670e-04 -7.609535026307774e-03 -3.557836032426834e-03
4.346301526359037e-03 4.384920291871908e-03 2.275188479131609e-01 3.402926496263761e-04 -9.441471892476897e-04 1.289534890645969e-03
-4.051357736096706e-03 -2.571049675401244e-03 1.855729814482152e-01 2.166613768141806e-03 1.202733868419209e-03 1.475021818483300e-02
-8.668873877839847e-03 -7.250519229903434e-03 1.771055099353235e-01 1.072900360582718e-03 1.078587418793594e-02 1.320877537044391e-03
4.072595024609261e-03 3.752670295561165e-03 2.270448869249067e-01 7.762252212518685e-05 2.044115993898699e-03 -1.162084866502119e-03
1.420273036645216e-02 1.359656605592845e-02 2.395494631505034e-01 1.353581864322643e-04 -4.408650431742990e-03 -2.837825745617216e-03
-4.547402966716364e-03 7.696003768869306e-04 1.994665996254412e-01 7.096281634852027e-04 -4.024599186294777e-03 2.035893661823892e-02
-4.738828067963894e-03 -4.366282793138853e-03 1.497567281718755e-01 9.408780583200752e-03 1.421056548851675e-02 1.948611845947994e-02
-1.008426312477817e-02 -1.485047928079135e-02 1.707471276876187e-01 -3.128498751141238e-04 1.634411842121784e-02 -2.423942154740804e-03
9.684568813113097e-03 7.197125183850653e-03 2.271591086036047e-01 1.137304120979447e-04 -7.632505700519804e-04 -2.768140934073770e-03
-3.521015531352581e-03 1.078661059038053e-03 1.915019221507293e-01 3.039463303968324e-03 -8.348101707394324e-04 1.947593126027719e-02
9.855583610204381e-03 1.053367550511503e-02 2.296276687939088e-01 4.819629603438895e-04 -4.308563118957702e-03 -1.295373773079009e-03
-9.121400104274712e-03 -1.229353990821239e-02 1.654327650867311e-01 1.648282926793415e-03 1.580765281865371e-02 -5.823402332967634e-04
1.372539954622726e-02 9.340560057757154e-03 2.189758441601303e-01 1.328860858307055e-03 -7.504794206879064e-03 -7.256879809201063e-03
1.910052087339618e-03 2.134071770163185e-03 2.166218242828343e-01 7.163041168171156e-04 1.837226328899088e-03 1.072863596578450e-03
6.581148008491370e-03 5.769510901434066e-03 2.183087891338372e-01 1.015759253212452e-03 -7.763763468149464e-04 -1.359334286596692e-03
        </DataArray>
  </PointData>
  <CellData>
        <DataArray type="Float64" Name="element_GL_strains_xyz" NumberOfComponents="6" format="ascii">
-2.453428089481254e-02 -2.969496481382019e-02 1.556753375911108e-01 5.315729922910502e-04 1.876486019129086e-02 1.426280896568144e-02
-2.453428089481254e-02 -2.969496481382018e-02 1.556753375911107e-01 -5.315729922910514e-04 1.876486019129086e-02 -1.426280896568144e-02
-2.545608613088917e-02 -1.631412722469785e-02 1.461928449027480e-01 -2.077723436286742e-18 1.939438917032245e-18 1.479119553621683e-02
-2.545608613088917e-02 -1.631412722469785e-02 1.461928449027480e-01 -1.506910197314686e-18 -5.291117316339983e-18 -1.479119553621683e-02
-2.453428089481253e-02 -2.969496481382018e-02 1.556753375911108e-01 -5.315729922910520e-04 -1.876486019129086e-02 1.426280896568144e-02
-2.453428089481256e-02 -2.969496481382018e-02 1.556753375911107e-01 5.315729922910496e-04 -1.876486019129086e-02 -1.426280896568144e-02
-4.477049188277566e-02 -4.743374295703003e-02 1.679989356454128e-01 8.925752909489544e-04 1.330831578871842e-03 1.340319289163926e-03
-4.477049188277565e-02 -4.743374295703002e-02 1.679989356454128e-01 -8.925752909489570e-04 1.330831578871836e-03 -1.340319289163928e-03
-4.587709679753116e-02 -4.230555229807764e-02 1.680895874482503e-01 -1.316970832187883e-19 -1.615112566564439e-18 1.227163546313524e-03
-4.587709679753114e-02 -4.230555229807762e-02 1.680895874482503e-01 -9.327250561651658e-19 -2.885617080390615e-18 -1.227163546313529e-03
-4.477049188277566e-02 -4.743374295703003e-02 1.679989356454128e-01 -8.925752909489564e-04 -1.330831578871837e-03 1.340319289163923e-03
-4.477049188277565e-02 -4.743374295703003e-02 1.679989356454128e-01 8.925752909489526e-04 -1.330831578871834e-03 -1.340319289163930e-03
        </DataArray>
        <DataArray type="Float64" Name="element_cauchy_stresses_xyz" NumberOfComponents="6" format="ascii">
3.674354979507564e-02 3.361320274017774e-02 2.151106818254002e-01 1.802143264456123e-03 2.426811233343383e-02 1.827862948760467e-02
3.674354979507563e-02 3.361320274017773e-02 2.151106818254002e-01 -1.802143264456125e-03 2.426811233343382e-02 -1.827862948760467e-02
3.757613312528096e-02 4.260794644063608e-02 2.048155566101217e-01 -1.282464192231538e-18 2.732025077740164e-18 1.841297563278859e-02
3.757613312528096e-02 4.260794644063608e-02 2.048155566101217e-01 -6.850729009752363e-19 -4.376836000920396e-18 -1.841297563278859e-02
3.674354979507564e-02 3.361320274017773e-02 2.151106818254002e-01 -1.802143264456125e-03 -2.426811233343383e-02 1.827862948760467e-02
3.674354979507561e-02 3.361320274017771e-02 2.151106818254002e-01 1.802143264456122e-03 -2.426811233343382e-02 -1.827862948760467e-02
8.154496409338572e-03 6.361484201618481e-03 2.200941216732680e-01 6.929717739058166e-04 4.252823897712334e-03 3.553025445439131e-03
8.154496409338602e-03 6.361484201618499e-03 2.200941216732680e-01 -6.929717739058185e-04 4.252823897712330e-03 -3.553025445439134e-03
9.412462826068503e-03 1.183427243685073e-02 2.223147541065376e-01 -6.407203821903706e-20 -1.151587298001935e-18 3.405545943840991e-03
9.412462826068507e-03 1.183427243685073e-02 2.223147541065376e-01 -5.898997349505822e-19 -2.983649626810158e-18 -3.405545943840994e-03
8.154496409338557e-03 6.361484201618461e-03 2.200941216732679e-01 -6.929717739058181e-04 -4.252823897712330e-03 3.553025445439131e-03
8.154496409338569e-03 6.361484201618458e-03 2.200941216732679e-01 6.929717739058154e-04 -4.252823897712326e-03 -3.553025445439132e-03
        </DataArray>
        <DataArray type="Float64" Name="element_owner" format="ascii">
0.000000000000000e+00
0.000000000000000e+00
0.000000000000000e+00
0.000000000000000e+00
0.000000000000000e+00
0.000000000000000e+00
0.000000000000000e+00
0.000000000000000e+00
0.000000000000000e+00
0.000000000000000e+00
0.000000000000000e+00
0.000000000000000e+00
        </DataArray>
      </CellData>

    </Piece>
  </UnstructuredGrid>
</VTKFile>
