<?xml version="1.0" ?> 
<!-- 
# vtk DataFile Version 3.0
-->
<VTKFile type="UnstructuredGrid" version="0.1" compressor="vtkZLibDataCompressor" byte_order="LittleEndian">
  <UnstructuredGrid>
    <FieldData>
      <DataArray type="Float64" Name="TIME" NumberOfTuples="1" format="ascii">
1.000000000000000e+00 
      </DataArray>
    </FieldData>

    <Piece NumberOfPoints="324" NumberOfCells="12" >
      <Points>
        <DataArray type="Float64" NumberOfComponents="3" format="ascii">
-5.000000000000000e-01 -5.000000000000000e-01 -1.000000000000000e-01
0.000000000000000e+00 -5.000000000000000e-01 -1.000000000000000e-01
0.000000000000000e+00 -1.666666666665000e-01 -1.000000000000000e-01
-5.000000000000000e-01 -1.666666666665000e-01 -1.000000000000000e-01
-5.000000000000000e-01 -5.000000000000000e-01 1.500000000000000e-01
0.000000000000000e+00 -5.000000000000000e-01 1.500000000000000e-01
0.000000000000000e+00 -1.666666666665000e-01 1.500000000000000e-01
-5.000000000000000e-01 -1.666666666665000e-01 1.500000000000000e-01
-2.500000000000000e-01 -5.000000000000000e-01 -9.999999999999999e-02
0.000000000000000e+00 -3.333333333331250e-01 -1.000000000000000e-01
-2.500000000000000e-01 -1.666666666665000e-01 -1.000000000000000e-01
-5.000000000000000e-01 -3.333333333331250e-01 -9.999999999999999e-02
-2.500000000000000e-01 -5.000000000000000e-01 1.500000000000000e-01
0.000000000000000e+00 -3.333333333331250e-01 1.500000000000000e-01
-2.500000000000000e-01 -1.666666666665000e-01 1.500000000000000e-01
-5.000000000000000e-01 -3.333333333331250e-01 1.500000000000000e-01
-5.000000000000000e-01 -5.000000000000000e-01 2.500000000000000e-02
0.000000000000000e+00 -5.000000000000000e-01 2.500000000000000e-02
0.000000000000000e+00 -1.666666666665000e-01 2.500000000000000e-02
-5.000000000000000e-01 -1.666666666665000e-01 2.500000000000000e-02
-5.000000000000000e-01 -3.333333333331250e-01 2.500000000000000e-02
0.000000000000000e+00 -3.333333333331250e-01 2.500000000000000e-02
-2.500000000000000e-01 -5.000000000000000e-01 2.500000000000000e-02
-2.500000000000000e-01 -1.666666666665001e-01 2.500000000000000e-02
-2.500000000000000e-01 -3.333333333331250e-01 -9.999999999999999e-02
-2.500000000000000e-01 -3.333333333331250e-01 1.500000000000000e-01
-2.500000000000000e-01 -3.333333333331250e-01 2.500000000000000e-02
0.000000000000000e+00 -5.000000000000000e-01 -1.000000000000000e-01
5.000000000000000e-01 -5.000000000000000e-01 -1.000000000000000e-01
5.000000000000000e-01 -1.666666666665000e-01 -1.000000000000000e-01
0.000000000000000e+00 -1.666666666665000e-01 -1.000000000000000e-01
0.000000000000000e+00 -5.000000000000000e-01 1.500000000000000e-01
5.000000000000000e-01 -5.000000000000000e-01 1.500000000000000e-01
5.000000000000000e-01 -1.666666666665000e-01 1.500000000000000e-01
0.000000000000000e+00 -1.666666666665000e-01 1.500000000000000e-01
2.500000000000000e-01 -5.000000000000000e-01 -1.000000000000000e-01
5.000000000000000e-01 -3.333333333331250e-01 -9.999999999999999e-02
2.500000000000000e-01 -1.666666666665000e-01 -9.999999999999999e-02
0.000000000000000e+00 -3.333333333331250e-01 -1.000000000000000e-01
2.500000000000000e-01 -5.000000000000000e-01 1.500000000000000e-01
5.000000000000000e-01 -3.333333333331250e-01 1.500000000000000e-01
2.500000000000000e-01 -1.666666666665000e-01 1.500000000000000e-01
0.000000000000000e+00 -3.333333333331250e-01 1.500000000000000e-01
0.000000000000000e+00 -5.000000000000000e-01 2.500000000000000e-02
5.000000000000000e-01 -5.000000000000000e-01 2.500000000000000e-02
5.000000000000000e-01 -1.666666666665000e-01 2.500000000000000e-02
0.000000000000000e+00 -1.666666666665000e-01 2.500000000000000e-02
0.000000000000000e+00 -3.333333333331250e-01 2.500000000000000e-02
5.000000000000000e-01 -3.333333333331250e-01 2.500000000000000e-02
2.500000000000000e-01 -5.000000000000000e-01 2.500000000000000e-02
2.500000000000000e-01 -1.666666666665000e-01 2.500000000000000e-02
2.500000000000000e-01 -3.333333333331250e-01 -9.999999999999999e-02
2.500000000000000e-01 -3.333333333331251e-01 1.500000000000000e-01
2.500000000000000e-01 -3.333333333331250e-01 2.500000000000000e-02
-5.000000000000000e-01 -1.666666666665000e-01 -1.000000000000000e-01
0.000000000000000e+00 -1.666666666665000e-01 -1.000000000000000e-01
0.000000000000000e+00 1.666666666665000e-01 -9.999999999999999e-02
-5.000000000000000e-01 1.666666666665000e-01 -1.000000000000000e-01
-5.000000000000000e-01 -1.666666666665000e-01 1.500000000000000e-01
0.000000000000000e+00 -1.666666666665000e-01 1.500000000000000e-01
0.000000000000000e+00 1.666666666665000e-01 1.500000000000000e-01
-5.000000000000000e-01 1.666666666665000e-01 1.500000000000000e-01
-2.500000000000000e-01 -1.666666666665000e-01 -1.000000000000000e-01
0.000000000000000e+00 2.775557561562891e-17 -1.000000000000000e-01
-2.500000000000000e-01 1.666666666665000e-01 -9.999999999999999e-02
-5.000000000000001e-01 2.775557561562891e-17 -1.000000000000000e-01
-2.500000000000000e-01 -1.666666666665000e-01 1.500000000000000e-01
0.000000000000000e+00 3.469446951953614e-17 1.500000000000000e-01
-2.500000000000000e-01 1.666666666665000e-01 1.500000000000000e-01
-5.000000000000001e-01 2.775557561562891e-17 1.500000000000000e-01
-5.000000000000000e-01 -1.666666666665000e-01 2.500000000000000e-02
0.000000000000000e+00 -1.666666666665000e-01 2.500000000000000e-02
0.000000000000000e+00 1.666666666665000e-01 2.500000000000000e-02
-5.000000000000000e-01 1.666666666665000e-01 2.500000000000000e-02
-5.000000000000001e-01 2.428612866367530e-17 2.500000000000000e-02
0.000000000000000e+00 2.515349040166370e-17 2.500000000000000e-02
-2.500000000000000e-01 -1.666666666665001e-01 2.500000000000000e-02
-2.500000000000000e-01 1.666666666665000e-01 2.500000000000000e-02
-2.500000000000000e-01 2.428612866367530e-17 -9.999999999999999e-02
-2.500000000000000e-01 2.602085213965211e-17 1.500000000000000e-01
-2.500000000000000e-01 2.211772431870429e-17 2.500000000000000e-02
0.000000000000000e+00 -1.666666666665000e-01 -1.000000000000000e-01
5.000000000000000e-01 -1.666666666665000e-01 -1.000000000000000e-01
5.000000000000000e-01 1.666666666665000e-01 -1.000000000000000e-01
0.000000000000000e+00 1.666666666665000e-01 -9.999999999999999e-02
0.000000000000000e+00 -1.666666666665000e-01 1.500000000000000e-01
5.000000000000000e-01 -1.666666666665000e-01 1.500000000000000e-01
5.000000000000000e-01 1.666666666665000e-01 1.500000000000000e-01
0.000000000000000e+00 1.666666666665000e-01 1.500000000000000e-01
2.500000000000000e-01 -1.666666666665000e-01 -9.999999999999999e-02
5.000000000000001e-01 2.775557561562891e-17 -1.000000000000000e-01
2.500000000000000e-01 1.666666666665000e-01 -9.999999999999999e-02
0.000000000000000e+00 2.775557561562891e-17 -1.000000000000000e-01
2.500000000000000e-01 -1.666666666665000e-01 1.500000000000000e-01
5.000000000000001e-01 2.775557561562891e-17 1.500000000000000e-01
2.500000000000000e-01 1.666666666665000e-01 1.500000000000000e-01
0.000000000000000e+00 3.469446951953614e-17 1.500000000000000e-01
0.000000000000000e+00 -1.666666666665000e-01 2.500000000000000e-02
5.000000000000000e-01 -1.666666666665000e-01 2.500000000000000e-02
5.000000000000000e-01 1.666666666665000e-01 2.500000000000000e-02
0.000000000000000e+00 1.666666666665000e-01 2.500000000000000e-02
0.000000000000000e+00 2.515349040166370e-17 2.500000000000000e-02
5.000000000000001e-01 2.428612866367530e-17 2.500000000000000e-02
2.500000000000000e-01 -1.666666666665000e-01 2.500000000000000e-02
2.500000000000000e-01 1.666666666665000e-01 2.500000000000000e-02
2.500000000000000e-01 2.081668171172169e-17 -1.000000000000000e-01
2.500000000000000e-01 2.428612866367530e-17 1.500000000000000e-01
2.500000000000000e-01 2.341876692568690e-17 2.500000000000000e-02
-5.000000000000000e-01 1.666666666665000e-01 -1.000000000000000e-01
0.000000000000000e+00 1.666666666665000e-01 -9.999999999999999e-02
0.000000000000000e+00 5.000000000000000e-01 -1.000000000000000e-01
-5.000000000000000e-01 5.000000000000000e-01 -1.000000000000000e-01
-5.000000000000000e-01 1.666666666665000e-01 1.500000000000000e-01
0.000000000000000e+00 1.666666666665000e-01 1.500000000000000e-01
0.000000000000000e+00 5.000000000000000e-01 1.500000000000000e-01
-5.000000000000000e-01 5.000000000000000e-01 1.500000000000000e-01
-2.500000000000000e-01 1.666666666665000e-01 -9.999999999999999e-02
0.000000000000000e+00 3.333333333331250e-01 -1.000000000000000e-01
-2.500000000000000e-01 5.000000000000000e-01 -9.999999999999999e-02
-5.000000000000000e-01 3.333333333331250e-01 -1.000000000000000e-01
-2.500000000000000e-01 1.666666666665000e-01 1.500000000000000e-01
0.000000000000000e+00 3.333333333331250e-01 1.500000000000000e-01
-2.500000000000000e-01 5.000000000000000e-01 1.500000000000000e-01
-5.000000000000000e-01 3.333333333331250e-01 1.500000000000000e-01
-5.000000000000000e-01 1.666666666665000e-01 2.500000000000000e-02
0.000000000000000e+00 1.666666666665000e-01 2.500000000000000e-02
0.000000000000000e+00 5.000000000000000e-01 2.500000000000000e-02
-5.000000000000000e-01 5.000000000000000e-01 2.500000000000000e-02
-5.000000000000000e-01 3.333333333331250e-01 2.500000000000000e-02
0.000000000000000e+00 3.333333333331250e-01 2.499999999999999e-02
-2.500000000000000e-01 1.666666666665000e-01 2.500000000000000e-02
-2.500000000000000e-01 5.000000000000000e-01 2.500000000000000e-02
-2.500000000000000e-01 3.333333333331250e-01 -9.999999999999999e-02
-2.499999999999999e-01 3.333333333331250e-01 1.500000000000000e-01
-2.500000000000000e-01 3.333333333331249e-01 2.500000000000000e-02
0.000000000000000e+00 1.666666666665000e-01 -9.999999999999999e-02
5.000000000000000e-01 1.666666666665000e-01 -1.000000000000000e-01
5.000000000000000e-01 5.000000000000000e-01 -1.000000000000000e-01
0.000000000000000e+00 5.000000000000000e-01 -1.000000000000000e-01
0.000000000000000e+00 1.666666666665000e-01 1.500000000000000e-01
5.000000000000000e-01 1.666666666665000e-01 1.500000000000000e-01
5.000000000000000e-01 5.000000000000000e-01 1.500000000000000e-01
0.000000000000000e+00 5.000000000000000e-01 1.500000000000000e-01
2.500000000000000e-01 1.666666666665000e-01 -9.999999999999999e-02
5.000000000000000e-01 3.333333333331250e-01 -1.000000000000000e-01
2.500000000000000e-01 5.000000000000000e-01 -1.000000000000000e-01
0.000000000000000e+00 3.333333333331250e-01 -1.000000000000000e-01
2.500000000000000e-01 1.666666666665000e-01 1.500000000000000e-01
5.000000000000000e-01 3.333333333331250e-01 1.500000000000000e-01
2.500000000000000e-01 5.000000000000000e-01 1.500000000000000e-01
0.000000000000000e+00 3.333333333331250e-01 1.500000000000000e-01
0.000000000000000e+00 1.666666666665000e-01 2.500000000000000e-02
5.000000000000000e-01 1.666666666665000e-01 2.500000000000000e-02
5.000000000000000e-01 5.000000000000000e-01 2.500000000000000e-02
0.000000000000000e+00 5.000000000000000e-01 2.500000000000000e-02
0.000000000000000e+00 3.333333333331250e-01 2.499999999999999e-02
5.000000000000000e-01 3.333333333331250e-01 2.500000000000000e-02
2.500000000000000e-01 1.666666666665000e-01 2.500000000000000e-02
2.500000000000000e-01 5.000000000000000e-01 2.500000000000000e-02
2.500000000000000e-01 3.333333333331250e-01 -1.000000000000000e-01
2.499999999999999e-01 3.333333333331250e-01 1.500000000000000e-01
2.500000000000000e-01 3.333333333331249e-01 2.500000000000000e-02
-5.000000000000000e-01 -5.000000000000000e-01 1.500000000000000e-01
0.000000000000000e+00 -5.000000000000000e-01 1.500000000000000e-01
0.000000000000000e+00 -1.666666666665000e-01 1.500000000000000e-01
-5.000000000000000e-01 -1.666666666665000e-01 1.500000000000000e-01
-5.000000000000000e-01 -5.000000000000000e-01 4.000000000000000e-01
0.000000000000000e+00 -5.000000000000000e-01 4.000000000000000e-01
0.000000000000000e+00 -1.666666666665000e-01 4.000000000000000e-01
-5.000000000000000e-01 -1.666666666665000e-01 4.000000000000000e-01
-2.500000000000000e-01 -5.000000000000000e-01 1.500000000000000e-01
0.000000000000000e+00 -3.333333333331250e-01 1.500000000000000e-01
-2.500000000000000e-01 -1.666666666665000e-01 1.500000000000000e-01
-5.000000000000000e-01 -3.333333333331250e-01 1.500000000000000e-01
-2.500000000000000e-01 -5.000000000000000e-01 4.000000000000000e-01
0.000000000000000e+00 -3.333333333331250e-01 4.000000000000000e-01
-2.500000000000000e-01 -1.666666666665000e-01 4.000000000000000e-01
-5.000000000000000e-01 -3.333333333331250e-01 4.000000000000000e-01
-5.000000000000000e-01 -5.000000000000000e-01 2.750000000000000e-01
0.000000000000000e+00 -5.000000000000000e-01 2.750000000000000e-01
0.000000000000000e+00 -1.666666666665000e-01 2.750000000000001e-01
-5.000000000000000e-01 -1.666666666665000e-01 2.750000000000000e-01
-5.000000000000000e-01 -3.333333333331250e-01 2.750000000000000e-01
0.000000000000000e+00 -3.333333333331250e-01 2.750000000000000e-01
-2.500000000000000e-01 -5.000000000000000e-01 2.750000000000000e-01
-2.500000000000000e-01 -1.666666666665000e-01 2.750000000000000e-01
-2.500000000000000e-01 -3.333333333331250e-01 1.500000000000000e-01
-2.500000000000000e-01 -3.333333333331250e-01 4.000000000000000e-01
-2.500000000000000e-01 -3.333333333331250e-01 2.750000000000000e-01
0.000000000000000e+00 -5.000000000000000e-01 1.500000000000000e-01
5.000000000000000e-01 -5.000000000000000e-01 1.500000000000000e-01
5.000000000000000e-01 -1.666666666665000e-01 1.500000000000000e-01
0.000000000000000e+00 -1.666666666665000e-01 1.500000000000000e-01
0.000000000000000e+00 -5.000000000000000e-01 4.000000000000000e-01
5.000000000000000e-01 -5.000000000000000e-01 4.000000000000000e-01
5.000000000000000e-01 -1.666666666665000e-01 4.000000000000000e-01
0.000000000000000e+00 -1.666666666665000e-01 4.000000000000000e-01
2.500000000000000e-01 -5.000000000000000e-01 1.500000000000000e-01
5.000000000000000e-01 -3.333333333331250e-01 1.500000000000000e-01
2.500000000000000e-01 -1.666666666665000e-01 1.500000000000000e-01
0.000000000000000e+00 -3.333333333331250e-01 1.500000000000000e-01
2.500000000000000e-01 -5.000000000000000e-01 4.000000000000000e-01
5.000000000000000e-01 -3.333333333331250e-01 4.000000000000000e-01
2.500000000000000e-01 -1.666666666665000e-01 4.000000000000001e-01
0.000000000000000e+00 -3.333333333331250e-01 4.000000000000000e-01
0.000000000000000e+00 -5.000000000000000e-01 2.750000000000000e-01
5.000000000000000e-01 -5.000000000000000e-01 2.750000000000000e-01
5.000000000000000e-01 -1.666666666665000e-01 2.750000000000000e-01
0.000000000000000e+00 -1.666666666665000e-01 2.750000000000001e-01
0.000000000000000e+00 -3.333333333331250e-01 2.750000000000000e-01
5.000000000000000e-01 -3.333333333331250e-01 2.750000000000000e-01
2.500000000000000e-01 -5.000000000000000e-01 2.750000000000000e-01
2.500000000000000e-01 -1.666666666665000e-01 2.750000000000000e-01
2.500000000000000e-01 -3.333333333331251e-01 1.500000000000000e-01
2.500000000000000e-01 -3.333333333331251e-01 4.000000000000000e-01
2.500000000000000e-01 -3.333333333331249e-01 2.750000000000000e-01
-5.000000000000000e-01 -1.666666666665000e-01 1.500000000000000e-01
0.000000000000000e+00 -1.666666666665000e-01 1.500000000000000e-01
0.000000000000000e+00 1.666666666665000e-01 1.500000000000000e-01
-5.000000000000000e-01 1.666666666665000e-01 1.500000000000000e-01
-5.000000000000000e-01 -1.666666666665000e-01 4.000000000000000e-01
0.000000000000000e+00 -1.666666666665000e-01 4.000000000000000e-01
0.000000000000000e+00 1.666666666665000e-01 4.000000000000000e-01
-5.000000000000000e-01 1.666666666665000e-01 4.000000000000000e-01
-2.500000000000000e-01 -1.666666666665000e-01 1.500000000000000e-01
0.000000000000000e+00 3.469446951953614e-17 1.500000000000000e-01
-2.500000000000000e-01 1.666666666665000e-01 1.500000000000000e-01
-5.000000000000001e-01 2.775557561562891e-17 1.500000000000000e-01
-2.500000000000000e-01 -1.666666666665000e-01 4.000000000000000e-01
0.000000000000000e+00 3.469446951953614e-17 4.000000000000001e-01
-2.500000000000000e-01 1.666666666665000e-01 4.000000000000000e-01
-5.000000000000001e-01 2.775557561562891e-17 4.000000000000001e-01
-5.000000000000000e-01 -1.666666666665000e-01 2.750000000000000e-01
0.000000000000000e+00 -1.666666666665000e-01 2.750000000000001e-01
0.000000000000000e+00 1.666666666665000e-01 2.750000000000001e-01
-5.000000000000000e-01 1.666666666665000e-01 2.750000000000000e-01
-5.000000000000000e-01 3.469446951953614e-17 2.750000000000000e-01
0.000000000000000e+00 3.469446951953614e-17 2.750000000000000e-01
-2.500000000000000e-01 -1.666666666665000e-01 2.750000000000000e-01
-2.500000000000000e-01 1.666666666665000e-01 2.750000000000000e-01
-2.500000000000000e-01 2.602085213965211e-17 1.500000000000000e-01
-2.500000000000000e-01 2.602085213965211e-17 4.000000000000000e-01
-2.500000000000000e-01 3.079134169858833e-17 2.750000000000001e-01
0.000000000000000e+00 -1.666666666665000e-01 1.500000000000000e-01
5.000000000000000e-01 -1.666666666665000e-01 1.500000000000000e-01
5.000000000000000e-01 1.666666666665000e-01 1.500000000000000e-01
0.000000000000000e+00 1.666666666665000e-01 1.500000000000000e-01
0.000000000000000e+00 -1.666666666665000e-01 4.000000000000000e-01
5.000000000000000e-01 -1.666666666665000e-01 4.000000000000000e-01
5.000000000000000e-01 1.666666666665000e-01 4.000000000000000e-01
0.000000000000000e+00 1.666666666665000e-01 4.000000000000000e-01
2.500000000000000e-01 -1.666666666665000e-01 1.500000000000000e-01
5.000000000000001e-01 2.775557561562891e-17 1.500000000000000e-01
2.500000000000000e-01 1.666666666665000e-01 1.500000000000000e-01
0.000000000000000e+00 3.469446951953614e-17 1.500000000000000e-01
2.500000000000000e-01 -1.666666666665000e-01 4.000000000000001e-01
5.000000000000001e-01 2.775557561562891e-17 4.000000000000001e-01
2.500000000000000e-01 1.666666666665000e-01 4.000000000000000e-01
0.000000000000000e+00 3.469446951953614e-17 4.000000000000001e-01
0.000000000000000e+00 -1.666666666665000e-01 2.750000000000001e-01
5.000000000000000e-01 -1.666666666665000e-01 2.750000000000000e-01
5.000000000000000e-01 1.666666666665000e-01 2.750000000000000e-01
0.000000000000000e+00 1.666666666665000e-01 2.750000000000001e-01
0.000000000000000e+00 3.469446951953614e-17 2.750000000000000e-01
5.000000000000000e-01 3.469446951953614e-17 2.750000000000000e-01
2.500000000000000e-01 -1.666666666665000e-01 2.750000000000000e-01
2.500000000000000e-01 1.666666666665000e-01 2.750000000000000e-01
2.500000000000000e-01 2.428612866367530e-17 1.500000000000000e-01
2.500000000000000e-01 2.428612866367530e-17 4.000000000000000e-01
2.500000000000000e-01 2.515349040166370e-17 2.750000000000001e-01
-5.000000000000000e-01 1.666666666665000e-01 1.500000000000000e-01
0.000000000000000e+00 1.666666666665000e-01 1.500000000000000e-01
0.000000000000000e+00 5.000000000000000e-01 1.500000000000000e-01
-5.000000000000000e-01 5.000000000000000e-01 1.500000000000000e-01
-5.000000000000000e-01 1.666666666665000e-01 4.000000000000000e-01
0.000000000000000e+00 1.666666666665000e-01 4.000000000000000e-01
0.000000000000000e+00 5.000000000000000e-01 4.000000000000000e-01
-5.000000000000000e-01 5.000000000000000e-01 4.000000000000000e-01
-2.500000000000000e-01 1.666666666665000e-01 1.500000000000000e-01
0.000000000000000e+00 3.333333333331250e-01 1.500000000000000e-01
-2.500000000000000e-01 5.000000000000000e-01 1.500000000000000e-01
-5.000000000000000e-01 3.333333333331250e-01 1.500000000000000e-01
-2.500000000000000e-01 1.666666666665000e-01 4.000000000000000e-01
0.000000000000000e+00 3.333333333331250e-01 4.000000000000000e-01
-2.500000000000000e-01 5.000000000000000e-01 4.000000000000000e-01
-5.000000000000000e-01 3.333333333331250e-01 4.000000000000001e-01
-5.000000000000000e-01 1.666666666665000e-01 2.750000000000000e-01
0.000000000000000e+00 1.666666666665000e-01 2.750000000000001e-01
0.000000000000000e+00 5.000000000000000e-01 2.750000000000000e-01
-5.000000000000000e-01 5.000000000000000e-01 2.750000000000000e-01
-5.000000000000000e-01 3.333333333331250e-01 2.750000000000001e-01
0.000000000000000e+00 3.333333333331250e-01 2.749999999999999e-01
-2.500000000000000e-01 1.666666666665000e-01 2.750000000000000e-01
-2.500000000000000e-01 5.000000000000000e-01 2.750000000000000e-01
-2.499999999999999e-01 3.333333333331250e-01 1.500000000000000e-01
-2.499999999999999e-01 3.333333333331250e-01 3.999999999999999e-01
-2.500000000000000e-01 3.333333333331249e-01 2.750000000000000e-01
0.000000000000000e+00 1.666666666665000e-01 1.500000000000000e-01
5.000000000000000e-01 1.666666666665000e-01 1.500000000000000e-01
5.000000000000000e-01 5.000000000000000e-01 1.500000000000000e-01
0.000000000000000e+00 5.000000000000000e-01 1.500000000000000e-01
0.000000000000000e+00 1.666666666665000e-01 4.000000000000000e-01
5.000000000000000e-01 1.666666666665000e-01 4.000000000000000e-01
5.000000000000000e-01 5.000000000000000e-01 4.000000000000000e-01
0.000000000000000e+00 5.000000000000000e-01 4.000000000000000e-01
2.500000000000000e-01 1.666666666665000e-01 1.500000000000000e-01
5.000000000000000e-01 3.333333333331250e-01 1.500000000000000e-01
2.500000000000000e-01 5.000000000000000e-01 1.500000000000000e-01
0.000000000000000e+00 3.333333333331250e-01 1.500000000000000e-01
2.500000000000000e-01 1.666666666665000e-01 4.000000000000000e-01
5.000000000000000e-01 3.333333333331250e-01 4.000000000000001e-01
2.500000000000000e-01 5.000000000000000e-01 4.000000000000000e-01
0.000000000000000e+00 3.333333333331250e-01 4.000000000000000e-01
0.000000000000000e+00 1.666666666665000e-01 2.750000000000001e-01
5.000000000000000e-01 1.666666666665000e-01 2.750000000000000e-01
5.000000000000000e-01 5.000000000000000e-01 2.750000000000000e-01
0.000000000000000e+00 5.000000000000000e-01 2.750000000000000e-01
0.000000000000000e+00 3.333333333331250e-01 2.749999999999999e-01
5.000000000000000e-01 3.333333333331250e-01 2.750000000000001e-01
2.500000000000000e-01 1.666666666665000e-01 2.750000000000000e-01
2.500000000000000e-01 5.000000000000000e-01 2.750000000000000e-01
2.499999999999999e-01 3.333333333331250e-01 1.500000000000000e-01
2.499999999999999e-01 3.333333333331250e-01 4.000000000000000e-01
2.500000000000000e-01 3.333333333331250e-01 2.750000000000001e-01
        </DataArray>
      </Points>

      <Cells>
        <DataArray type="Int32" Name="connectivity" format="ascii">
0 1 2 3 4 5 6 7 8 9 10 11 12 13 14 15 16 17 18 19 20 21 22 23 24 25 26 27 28 29 30 31 32 33 34 35 36 37 38 39 40 41 42 43 44 45 46 47 48 49 50 51 52 53 54 55 56 57 58 59 60 61 62 63 64 65 66 67 68 69 70 71 72 73 74 75 76 77 78 79 80 81 82 83 84 85 86 87 88 89 90 91 92 93 94 95 96 97 98 99 100 101 102 103 104 105 106 107 108 109 110 111 112 113 114 115 116 117 118 119 120 121 122 123 124 125 126 127 128 129 130 131 132 133 134 135 136 137 138 139 140 141 142 143 144 145 146 147 148 149 150 151 152 153 154 155 156 157 158 159 160 161 162 163 164 165 166 167 168 169 170 171 172 173 174 175 176 177 178 179 180 181 182 183 184 185 186 187 188 189 190 191 192 193 194 195 196 197 198 199 200 201 202 203 204 205 206 207 208 209 210 211 212 213 214 215 216 217 218 219 220 221 222 223 224 225 226 227 228 229 230 231 232 233 234 235 236 237 238 239 240 241 242 243 244 245 246 247 248 249 250 251 252 253 254 255 256 257 258 259 260 261 262 263 264 265 266 267 268 269 270 271 272 273 274 275 276 277 278 279 280 281 282 283 284 285 286 287 288 289 290 291 292 293 294 295 296 297 298 299 300 301 302 303 304 305 306 307 308 309 310 311 312 313 314 315 316 317 318 319 320 321 322 323 
        </DataArray>
        <DataArray type="Int32" Name="offsets" format="ascii">
27 54 81 108 135 162 189 216 243 270 297 324 
        </DataArray>
        <DataArray type="UInt8" Name="types" format="ascii">
29 29 29 29 29 29 29 29 29 29 29 29 
        </DataArray>
      </Cells>

  <PointData>
        <DataArray type="Float64" Name="displacement" NumberOfComponents="3" format="ascii">
0.000000000000000e+00 0.000000000000000e+00 0.000000000000000e+00
0.000000000000000e+00 0.000000000000000e+00 0.000000000000000e+00
0.000000000000000e+00 0.000000000000000e+00 0.000000000000000e+00
0.000000000000000e+00 0.000000000000000e+00 0.000000000000000e+00
2.014281292180473e-02 2.041489066623609e-02 4.173188610276873e-02
5.204170427930421e-18 2.155620710586200e-02 3.700715503832060e-02
1.084202172485504e-18 5.429144740624983e-03 3.230087484289305e-02
2.107684111881317e-02 5.362708048962698e-03 3.703835224886797e-02
0.000000000000000e+00 0.000000000000000e+00 0.000000000000000e+00
0.000000000000000e+00 0.000000000000000e+00 0.000000000000000e+00
0.000000000000000e+00 0.000000000000000e+00 0.000000000000000e+00
0.000000000000000e+00 0.000000000000000e+00 0.000000000000000e+00
8.339645159767907e-03 2.127087799595554e-02 3.818833780443263e-02
4.391018798566293e-18 1.217548270224674e-02 3.356404419553870e-02
8.496645229661412e-03 5.412535567709410e-03 3.348524419438677e-02
2.054080364428853e-02 1.180710772776240e-02 3.831549745847619e-02
1.380349143309897e-02 1.392420454989462e-02 2.193183383920524e-02
-4.336808689942018e-18 1.469526571021545e-02 1.848278967848611e-02
1.788933584601082e-18 2.796486312333494e-03 1.460894015224376e-02
1.437626140627802e-02 2.756594808513026e-03 1.812609048363941e-02
1.392707172342381e-02 6.926794648114944e-03 1.885857487533292e-02
1.910906329005702e-18 7.169424317970735e-03 1.533281219622227e-02
4.555776649389201e-03 1.450250042013527e-02 1.934505071866589e-02
4.655256358888669e-03 2.786513436378374e-03 1.548822773509267e-02
0.000000000000000e+00 0.000000000000000e+00 0.000000000000000e+00
8.313736408373705e-03 1.208338895862566e-02 3.475190751127308e-02
4.528407585842794e-03 7.108766900506789e-03 1.621425286599994e-02
0.000000000000000e+00 0.000000000000000e+00 0.000000000000000e+00
0.000000000000000e+00 0.000000000000000e+00 0.000000000000000e+00
0.000000000000000e+00 0.000000000000000e+00 0.000000000000000e+00
0.000000000000000e+00 0.000000000000000e+00 0.000000000000000e+00
5.204170427930421e-18 2.155620710586200e-02 3.700715503832060e-02
-2.014281292180470e-02 2.041489066623615e-02 4.173188610276869e-02
-2.107684111881320e-02 5.362708048962694e-03 3.703835224886795e-02
1.084202172485504e-18 5.429144740624983e-03 3.230087484289305e-02
0.000000000000000e+00 0.000000000000000e+00 0.000000000000000e+00
0.000000000000000e+00 0.000000000000000e+00 0.000000000000000e+00
0.000000000000000e+00 0.000000000000000e+00 0.000000000000000e+00
0.000000000000000e+00 0.000000000000000e+00 0.000000000000000e+00
-8.339645159767891e-03 2.127087799595553e-02 3.818833780443263e-02
-2.054080364428854e-02 1.180710772776242e-02 3.831549745847616e-02
-8.496645229661419e-03 5.412535567709412e-03 3.348524419438677e-02
4.391018798566293e-18 1.217548270224674e-02 3.356404419553870e-02
-4.336808689942018e-18 1.469526571021545e-02 1.848278967848611e-02
-1.380349143309897e-02 1.392420454989469e-02 2.193183383920522e-02
-1.437626140627806e-02 2.756594808513018e-03 1.812609048363941e-02
1.788933584601082e-18 2.796486312333494e-03 1.460894015224376e-02
1.910906329005702e-18 7.169424317970735e-03 1.533281219622227e-02
-1.392707172342384e-02 6.926794648114951e-03 1.885857487533291e-02
-4.555776649389209e-03 1.450250042013523e-02 1.934505071866589e-02
-4.655256358888677e-03 2.786513436378379e-03 1.548822773509267e-02
0.000000000000000e+00 0.000000000000000e+00 0.000000000000000e+00
-8.313736408373703e-03 1.208338895862566e-02 3.475190751127306e-02
-4.528407585842800e-03 7.108766900506787e-03 1.621425286599993e-02
0.000000000000000e+00 0.000000000000000e+00 0.000000000000000e+00
0.000000000000000e+00 0.000000000000000e+00 0.000000000000000e+00
0.000000000000000e+00 0.000000000000000e+00 0.000000000000000e+00
0.000000000000000e+00 0.000000000000000e+00 0.000000000000000e+00
2.107684111881317e-02 5.362708048962698e-03 3.703835224886797e-02
1.084202172485504e-18 5.429144740624983e-03 3.230087484289305e-02
6.505213034913027e-19 -5.429144740624998e-03 3.230087484289304e-02
2.107684111881317e-02 -5.362708048962711e-03 3.703835224886796e-02
0.000000000000000e+00 0.000000000000000e+00 0.000000000000000e+00
0.000000000000000e+00 0.000000000000000e+00 0.000000000000000e+00
0.000000000000000e+00 0.000000000000000e+00 0.000000000000000e+00
0.000000000000000e+00 0.000000000000000e+00 0.000000000000000e+00
8.496645229661412e-03 5.412535567709410e-03 3.348524419438677e-02
-1.192622389734055e-18 -1.181780368009200e-17 3.221427553910428e-02
8.496645229661419e-03 -5.412535567709422e-03 3.348524419438677e-02
2.137937154408570e-02 -1.084202172485504e-17 3.693459050273495e-02
1.437626140627802e-02 2.756594808513026e-03 1.812609048363941e-02
1.788933584601082e-18 2.796486312333494e-03 1.460894015224376e-02
3.577867169202165e-18 -2.796486312333506e-03 1.460894015224375e-02
1.437626140627803e-02 -2.756594808513038e-03 1.812609048363942e-02
1.468225859583748e-02 -9.324138683375338e-18 1.834504193083736e-02
6.776263578034403e-19 -8.375461782450522e-18 1.485353048982583e-02
4.655256358888669e-03 2.786513436378374e-03 1.548822773509267e-02
4.655256358888679e-03 -2.786513436378380e-03 1.548822773509267e-02
0.000000000000000e+00 0.000000000000000e+00 0.000000000000000e+00
8.640304033475744e-03 -1.184490873440414e-17 3.339435428001193e-02
4.757235204559681e-03 -8.002767285658630e-18 1.572640835007871e-02
0.000000000000000e+00 0.000000000000000e+00 0.000000000000000e+00
0.000000000000000e+00 0.000000000000000e+00 0.000000000000000e+00
0.000000000000000e+00 0.000000000000000e+00 0.000000000000000e+00
0.000000000000000e+00 0.000000000000000e+00 0.000000000000000e+00
1.084202172485504e-18 5.429144740624983e-03 3.230087484289305e-02
-2.107684111881320e-02 5.362708048962694e-03 3.703835224886795e-02
-2.107684111881320e-02 -5.362708048962702e-03 3.703835224886795e-02
6.505213034913027e-19 -5.429144740624998e-03 3.230087484289304e-02
0.000000000000000e+00 0.000000000000000e+00 0.000000000000000e+00
0.000000000000000e+00 0.000000000000000e+00 0.000000000000000e+00
0.000000000000000e+00 0.000000000000000e+00 0.000000000000000e+00
0.000000000000000e+00 0.000000000000000e+00 0.000000000000000e+00
-8.496645229661419e-03 5.412535567709412e-03 3.348524419438677e-02
-2.137937154408573e-02 -1.279358563532895e-17 3.693459050273493e-02
-8.496645229661422e-03 -5.412535567709429e-03 3.348524419438677e-02
-1.192622389734055e-18 -1.181780368009200e-17 3.221427553910428e-02
1.788933584601082e-18 2.796486312333494e-03 1.460894015224376e-02
-1.437626140627806e-02 2.756594808513018e-03 1.812609048363941e-02
-1.437626140627806e-02 -2.756594808513025e-03 1.812609048363941e-02
3.577867169202165e-18 -2.796486312333506e-03 1.460894015224375e-02
6.776263578034403e-19 -8.375461782450522e-18 1.485353048982583e-02
-1.468225859583752e-02 -8.673617379884035e-18 1.834504193083738e-02
-4.655256358888677e-03 2.786513436378379e-03 1.548822773509267e-02
-4.655256358888682e-03 -2.786513436378394e-03 1.548822773509267e-02
0.000000000000000e+00 0.000000000000000e+00 0.000000000000000e+00
-8.640304033475751e-03 -1.116728237660070e-17 3.339435428001194e-02
-4.757235204559690e-03 -8.917562868693274e-18 1.572640835007871e-02
0.000000000000000e+00 0.000000000000000e+00 0.000000000000000e+00
0.000000000000000e+00 0.000000000000000e+00 0.000000000000000e+00
0.000000000000000e+00 0.000000000000000e+00 0.000000000000000e+00
0.000000000000000e+00 0.000000000000000e+00 0.000000000000000e+00
2.107684111881317e-02 -5.362708048962711e-03 3.703835224886796e-02
6.505213034913027e-19 -5.429144740624998e-03 3.230087484289304e-02
4.336808689942018e-18 -2.155620710586200e-02 3.700715503832058e-02
2.014281292180477e-02 -2.041489066623612e-02 4.173188610276869e-02
0.000000000000000e+00 0.000000000000000e+00 0.000000000000000e+00
0.000000000000000e+00 0.000000000000000e+00 0.000000000000000e+00
0.000000000000000e+00 0.000000000000000e+00 0.000000000000000e+00
0.000000000000000e+00 0.000000000000000e+00 0.000000000000000e+00
8.496645229661419e-03 -5.412535567709422e-03 3.348524419438677e-02
3.794707603699266e-18 -1.217548270224674e-02 3.356404419553869e-02
8.339645159767923e-03 -2.127087799595553e-02 3.818833780443261e-02
2.054080364428855e-02 -1.180710772776241e-02 3.831549745847618e-02
1.437626140627803e-02 -2.756594808513038e-03 1.812609048363942e-02
3.577867169202165e-18 -2.796486312333506e-03 1.460894015224375e-02
-5.529431079676073e-18 -1.469526571021546e-02 1.848278967848609e-02
1.380349143309904e-02 -1.392420454989466e-02 2.193183383920519e-02
1.392707172342384e-02 -6.926794648114957e-03 1.885857487533292e-02
3.876022766635678e-18 -7.169424317970742e-03 1.533281219622226e-02
4.655256358888679e-03 -2.786513436378380e-03 1.548822773509267e-02
4.555776649389229e-03 -1.450250042013527e-02 1.934505071866587e-02
0.000000000000000e+00 0.000000000000000e+00 0.000000000000000e+00
8.313736408373717e-03 -1.208338895862565e-02 3.475190751127306e-02
4.528407585842813e-03 -7.108766900506786e-03 1.621425286599993e-02
0.000000000000000e+00 0.000000000000000e+00 0.000000000000000e+00
0.000000000000000e+00 0.000000000000000e+00 0.000000000000000e+00
0.000000000000000e+00 0.000000000000000e+00 0.000000000000000e+00
0.000000000000000e+00 0.000000000000000e+00 0.000000000000000e+00
6.505213034913027e-19 -5.429144740624998e-03 3.230087484289304e-02
-2.107684111881320e-02 -5.362708048962702e-03 3.703835224886795e-02
-2.014281292180478e-02 -2.041489066623614e-02 4.173188610276871e-02
4.336808689942018e-18 -2.155620710586200e-02 3.700715503832058e-02
0.000000000000000e+00 0.000000000000000e+00 0.000000000000000e+00
0.000000000000000e+00 0.000000000000000e+00 0.000000000000000e+00
0.000000000000000e+00 0.000000000000000e+00 0.000000000000000e+00
0.000000000000000e+00 0.000000000000000e+00 0.000000000000000e+00
-8.496645229661422e-03 -5.412535567709429e-03 3.348524419438677e-02
-2.054080364428857e-02 -1.180710772776240e-02 3.831549745847618e-02
-8.339645159767917e-03 -2.127087799595554e-02 3.818833780443261e-02
3.794707603699266e-18 -1.217548270224674e-02 3.356404419553869e-02
3.577867169202165e-18 -2.796486312333506e-03 1.460894015224375e-02
-1.437626140627806e-02 -2.756594808513025e-03 1.812609048363941e-02
-1.380349143309901e-02 -1.392420454989467e-02 2.193183383920521e-02
-5.529431079676073e-18 -1.469526571021546e-02 1.848278967848609e-02
3.876022766635678e-18 -7.169424317970742e-03 1.533281219622226e-02
-1.392707172342385e-02 -6.926794648114941e-03 1.885857487533290e-02
-4.655256358888682e-03 -2.786513436378394e-03 1.548822773509267e-02
-4.555776649389229e-03 -1.450250042013526e-02 1.934505071866588e-02
0.000000000000000e+00 0.000000000000000e+00 0.000000000000000e+00
-8.313736408373717e-03 -1.208338895862566e-02 3.475190751127306e-02
-4.528407585842812e-03 -7.108766900506804e-03 1.621425286599992e-02
2.014281292180473e-02 2.041489066623609e-02 4.173188610276873e-02
5.204170427930421e-18 2.155620710586200e-02 3.700715503832060e-02
1.084202172485504e-18 5.429144740624983e-03 3.230087484289305e-02
2.107684111881317e-02 5.362708048962698e-03 3.703835224886797e-02
2.457090776255629e-02 2.462224021070997e-02 7.853157122033072e-02
2.255140518769849e-17 2.556143495083020e-02 7.490720249775255e-02
4.987329993433320e-18 8.407511870415055e-03 7.195668959970244e-02
2.525436284842851e-02 8.335406626078476e-03 7.545935094470249e-02
8.339645159767907e-03 2.127087799595554e-02 3.818833780443263e-02
4.391018798566293e-18 1.217548270224674e-02 3.356404419553870e-02
8.496645229661412e-03 5.412535567709410e-03 3.348524419438677e-02
2.054080364428853e-02 1.180710772776240e-02 3.831549745847619e-02
1.244955611391917e-02 2.532663626580012e-02 7.581329467839712e-02
1.404041813368728e-17 1.689974857572638e-02 7.324570090825962e-02
1.258649951946398e-02 8.389485559330912e-03 7.283235493595246e-02
2.489808618241903e-02 1.657481833527559e-02 7.677459829504110e-02
2.255345489024721e-02 2.285369150213700e-02 6.029888812003054e-02
1.767249541151372e-17 2.402940368628511e-02 5.575474350343294e-02
1.355252715606881e-18 7.449108766207747e-03 5.183154451202142e-02
2.355259098404885e-02 7.371318921450641e-03 5.629627562583818e-02
2.310865528861374e-02 1.492757152734756e-02 5.780832088614165e-02
8.172173875109490e-18 1.531873687933097e-02 5.332467932415069e-02
1.106608011874245e-02 2.373547564024808e-02 5.689077965758235e-02
1.123633636546944e-02 7.429661305018469e-03 5.294772729047561e-02
8.313736408373705e-03 1.208338895862566e-02 3.475190751127308e-02
1.243243370176852e-02 1.681851601561368e-02 7.412792525495500e-02
1.105030545215989e-02 1.522094554133512e-02 5.444558971464842e-02
5.204170427930421e-18 2.155620710586200e-02 3.700715503832060e-02
-2.014281292180470e-02 2.041489066623615e-02 4.173188610276869e-02
-2.107684111881320e-02 5.362708048962694e-03 3.703835224886795e-02
1.084202172485504e-18 5.429144740624983e-03 3.230087484289305e-02
2.255140518769849e-17 2.556143495083020e-02 7.490720249775255e-02
-2.457090776255624e-02 2.462224021071004e-02 7.853157122033073e-02
-2.525436284842850e-02 8.335406626078476e-03 7.545935094470246e-02
4.987329993433320e-18 8.407511870415055e-03 7.195668959970244e-02
-8.339645159767891e-03 2.127087799595553e-02 3.818833780443263e-02
-2.054080364428854e-02 1.180710772776242e-02 3.831549745847616e-02
-8.496645229661419e-03 5.412535567709412e-03 3.348524419438677e-02
4.391018798566293e-18 1.217548270224674e-02 3.356404419553870e-02
-1.244955611391913e-02 2.532663626580018e-02 7.581329467839708e-02
-2.489808618241904e-02 1.657481833527562e-02 7.677459829504110e-02
-1.258649951946397e-02 8.389485559330910e-03 7.283235493595246e-02
1.404041813368728e-17 1.689974857572638e-02 7.324570090825962e-02
1.767249541151372e-17 2.402940368628511e-02 5.575474350343294e-02
-2.255345489024713e-02 2.285369150213706e-02 6.029888812003049e-02
-2.355259098404886e-02 7.371318921450641e-03 5.629627562583812e-02
1.355252715606881e-18 7.449108766207747e-03 5.183154451202142e-02
8.172173875109490e-18 1.531873687933097e-02 5.332467932415069e-02
-2.310865528861374e-02 1.492757152734758e-02 5.780832088614161e-02
-1.106608011874241e-02 2.373547564024810e-02 5.689077965758232e-02
-1.123633636546944e-02 7.429661305018470e-03 5.294772729047561e-02
-8.313736408373703e-03 1.208338895862566e-02 3.475190751127306e-02
-1.243243370176850e-02 1.681851601561369e-02 7.412792525495497e-02
-1.105030545215988e-02 1.522094554133512e-02 5.444558971464841e-02
2.107684111881317e-02 5.362708048962698e-03 3.703835224886797e-02
1.084202172485504e-18 5.429144740624983e-03 3.230087484289305e-02
6.505213034913027e-19 -5.429144740624998e-03 3.230087484289304e-02
2.107684111881317e-02 -5.362708048962711e-03 3.703835224886796e-02
2.525436284842851e-02 8.335406626078476e-03 7.545935094470249e-02
4.987329993433320e-18 8.407511870415055e-03 7.195668959970244e-02
5.637851296924623e-18 -8.407511870415073e-03 7.195668959970243e-02
2.525436284842851e-02 -8.335406626078498e-03 7.545935094470249e-02
8.496645229661412e-03 5.412535567709410e-03 3.348524419438677e-02
-1.192622389734055e-18 -1.181780368009200e-17 3.221427553910428e-02
8.496645229661419e-03 -5.412535567709422e-03 3.348524419438677e-02
2.137937154408570e-02 -1.084202172485504e-17 3.693459050273495e-02
1.258649951946398e-02 8.389485559330912e-03 7.283235493595246e-02
6.505213034913027e-19 -1.366094737331736e-17 7.140530651565780e-02
1.258649951946399e-02 -8.389485559330929e-03 7.283235493595244e-02
2.543977574296993e-02 -1.691355389077387e-17 7.491215866327097e-02
2.355259098404885e-02 7.371318921450641e-03 5.629627562583818e-02
1.355252715606881e-18 7.449108766207747e-03 5.183154451202142e-02
-9.215718466126788e-19 -7.449108766207760e-03 5.183154451202140e-02
2.355259098404886e-02 -7.371318921450654e-03 5.629627562583814e-02
2.374674265603356e-02 -1.122149248522497e-17 5.578488348908280e-02
-2.873135757086587e-18 -1.257674520083185e-17 5.131920944774503e-02
1.123633636546944e-02 7.429661305018469e-03 5.294772729047561e-02
1.123633636546945e-02 -7.429661305018482e-03 5.294772729047559e-02
8.640304033475744e-03 -1.184490873440414e-17 3.339435428001193e-02
1.270632948577323e-02 -1.363384231900522e-17 7.228201955256107e-02
1.137980321709724e-02 -1.327470034936939e-17 5.243562795807948e-02
1.084202172485504e-18 5.429144740624983e-03 3.230087484289305e-02
-2.107684111881320e-02 5.362708048962694e-03 3.703835224886795e-02
-2.107684111881320e-02 -5.362708048962702e-03 3.703835224886795e-02
6.505213034913027e-19 -5.429144740624998e-03 3.230087484289304e-02
4.987329993433320e-18 8.407511870415055e-03 7.195668959970244e-02
-2.525436284842850e-02 8.335406626078476e-03 7.545935094470246e-02
-2.525436284842851e-02 -8.335406626078495e-03 7.545935094470248e-02
5.637851296924623e-18 -8.407511870415073e-03 7.195668959970243e-02
-8.496645229661419e-03 5.412535567709412e-03 3.348524419438677e-02
-2.137937154408573e-02 -1.279358563532895e-17 3.693459050273493e-02
-8.496645229661422e-03 -5.412535567709429e-03 3.348524419438677e-02
-1.192622389734055e-18 -1.181780368009200e-17 3.221427553910428e-02
-1.258649951946397e-02 8.389485559330910e-03 7.283235493595246e-02
-2.543977574296991e-02 -2.450296909817240e-17 7.491215866327092e-02
-1.258649951946398e-02 -8.389485559330931e-03 7.283235493595244e-02
6.505213034913027e-19 -1.366094737331736e-17 7.140530651565780e-02
1.355252715606881e-18 7.449108766207747e-03 5.183154451202142e-02
-2.355259098404886e-02 7.371318921450641e-03 5.629627562583812e-02
-2.355259098404886e-02 -7.371318921450654e-03 5.629627562583814e-02
-9.215718466126788e-19 -7.449108766207760e-03 5.183154451202140e-02
-2.873135757086587e-18 -1.257674520083185e-17 5.131920944774503e-02
-2.374674265603356e-02 -1.685934378214959e-17 5.578488348908275e-02
-1.123633636546944e-02 7.429661305018470e-03 5.294772729047561e-02
-1.123633636546945e-02 -7.429661305018483e-03 5.294772729047559e-02
-8.640304033475751e-03 -1.116728237660070e-17 3.339435428001194e-02
-1.270632948577323e-02 -1.729302465114380e-17 7.228201955256107e-02
-1.137980321709725e-02 -1.245477245642723e-17 5.243562795807948e-02
2.107684111881317e-02 -5.362708048962711e-03 3.703835224886796e-02
6.505213034913027e-19 -5.429144740624998e-03 3.230087484289304e-02
4.336808689942018e-18 -2.155620710586200e-02 3.700715503832058e-02
2.014281292180477e-02 -2.041489066623612e-02 4.173188610276869e-02
2.525436284842851e-02 -8.335406626078498e-03 7.545935094470249e-02
5.637851296924623e-18 -8.407511870415073e-03 7.195668959970243e-02
1.170938346284345e-17 -2.556143495083018e-02 7.490720249775255e-02
2.457090776255628e-02 -2.462224021070996e-02 7.853157122033076e-02
8.496645229661419e-03 -5.412535567709422e-03 3.348524419438677e-02
3.794707603699266e-18 -1.217548270224674e-02 3.356404419553869e-02
8.339645159767923e-03 -2.127087799595553e-02 3.818833780443261e-02
2.054080364428855e-02 -1.180710772776241e-02 3.831549745847618e-02
1.258649951946399e-02 -8.389485559330929e-03 7.283235493595244e-02
1.279358563532895e-17 -1.689974857572638e-02 7.324570090825962e-02
1.244955611391916e-02 -2.532663626580013e-02 7.581329467839711e-02
2.489808618241904e-02 -1.657481833527560e-02 7.677459829504113e-02
2.355259098404886e-02 -7.371318921450654e-03 5.629627562583814e-02
-9.215718466126788e-19 -7.449108766207760e-03 5.183154451202140e-02
1.496198998029996e-17 -2.402940368628509e-02 5.575474350343292e-02
2.255345489024718e-02 -2.285369150213700e-02 6.029888812003054e-02
2.310865528861374e-02 -1.492757152734756e-02 5.780832088614162e-02
4.499439015814843e-18 -1.531873687933096e-02 5.332467932415067e-02
1.123633636546945e-02 -7.429661305018482e-03 5.294772729047559e-02
1.106608011874245e-02 -2.373547564024807e-02 5.689077965758233e-02
8.313736408373717e-03 -1.208338895862565e-02 3.475190751127306e-02
1.243243370176853e-02 -1.681851601561368e-02 7.412792525495498e-02
1.105030545215990e-02 -1.522094554133511e-02 5.444558971464843e-02
6.505213034913027e-19 -5.429144740624998e-03 3.230087484289304e-02
-2.107684111881320e-02 -5.362708048962702e-03 3.703835224886795e-02
-2.014281292180478e-02 -2.041489066623614e-02 4.173188610276871e-02
4.336808689942018e-18 -2.155620710586200e-02 3.700715503832058e-02
5.637851296924623e-18 -8.407511870415073e-03 7.195668959970243e-02
-2.525436284842851e-02 -8.335406626078495e-03 7.545935094470248e-02
-2.457090776255631e-02 -2.462224021071001e-02 7.853157122033068e-02
1.170938346284345e-17 -2.556143495083018e-02 7.490720249775255e-02
-8.496645229661422e-03 -5.412535567709429e-03 3.348524419438677e-02
-2.054080364428857e-02 -1.180710772776240e-02 3.831549745847618e-02
-8.339645159767917e-03 -2.127087799595554e-02 3.818833780443261e-02
3.794707603699266e-18 -1.217548270224674e-02 3.356404419553869e-02
-1.258649951946398e-02 -8.389485559330931e-03 7.283235493595244e-02
-2.489808618241907e-02 -1.657481833527561e-02 7.677459829504112e-02
-1.244955611391915e-02 -2.532663626580013e-02 7.581329467839709e-02
1.279358563532895e-17 -1.689974857572638e-02 7.324570090825962e-02
-9.215718466126788e-19 -7.449108766207760e-03 5.183154451202140e-02
-2.355259098404886e-02 -7.371318921450654e-03 5.629627562583814e-02
-2.255345489024724e-02 -2.285369150213704e-02 6.029888812003052e-02
1.496198998029996e-17 -2.402940368628509e-02 5.575474350343292e-02
4.499439015814843e-18 -1.531873687933096e-02 5.332467932415067e-02
-2.310865528861377e-02 -1.492757152734756e-02 5.780832088614164e-02
-1.123633636546945e-02 -7.429661305018483e-03 5.294772729047559e-02
-1.106608011874244e-02 -2.373547564024807e-02 5.689077965758230e-02
-8.313736408373717e-03 -1.208338895862566e-02 3.475190751127306e-02
-1.243243370176852e-02 -1.681851601561368e-02 7.412792525495497e-02
-1.105030545215990e-02 -1.522094554133511e-02 5.444558971464842e-02
        </DataArray>
        <DataArray type="Float64" Name="nodal_GL_strains_xyz" NumberOfComponents="6" format="ascii">
-3.046490492459118e-04 -4.335322435296517e-04 2.189105048484112e-01 -3.553464849104164e-05 7.027453484936227e-02 6.992830547465012e-02
1.930158258260650e-05 -4.906928457844330e-04 1.696543626274226e-01 1.462640695318134e-05 7.418683521655772e-02 -4.591066713499500e-03
1.986585545675605e-05 1.510041621875675e-05 1.183408231699334e-01 -4.432705541930420e-06 -3.886967453230848e-03 -4.400095058286575e-03
-3.519458243347300e-04 1.324564517178548e-05 1.689812901130676e-01 1.629828751705872e-05 -3.806756469700843e-03 7.507522940578676e-02
-4.289641996505984e-02 -4.401982483314223e-02 1.507872371319289e-01 4.437890808577634e-03 -9.058679383181839e-03 -1.069652020192475e-02
-4.805562223351820e-02 -4.980727193834537e-02 1.627142440128293e-01 4.393451173961706e-04 -9.712912036614930e-03 -8.661463862062542e-03
-4.850278248416698e-02 -4.723933024353886e-02 1.753541808403007e-01 -4.316714403082915e-04 -1.021174186102239e-03 -8.889969562351779e-03
-4.710944216468150e-02 -4.766573742059780e-02 1.625445831678679e-01 -2.593454656884927e-04 -1.031595229244152e-03 -1.206176987486173e-02
4.444701493086858e-06 -4.904215672297783e-04 1.675878252108716e-01 -7.313203476473480e-06 7.419016745343454e-02 2.295533356749634e-03
1.821146961165573e-05 -3.349748393179867e-05 1.053717084750665e-01 8.436060191242990e-06 1.731965955816746e-02 -4.068319542468415e-03
5.223891676185526e-06 1.540036943238042e-05 1.159605853220563e-01 2.216352770842050e-06 -3.888456565979456e-03 2.200047529143131e-03
-3.155684712239431e-04 -3.193570785071107e-05 1.558053793598159e-01 9.159546317823125e-06 1.704355483352315e-02 7.081941956379925e-02
-4.675832798776659e-02 -4.981246506023611e-02 1.629432655384567e-01 -2.196725586978465e-04 -9.737382974418547e-03 4.330731931031018e-03
-4.664323872039615e-02 -4.811026027470870e-02 1.847141714005984e-01 -6.447738292150977e-04 2.493671413556006e-03 -8.791466957297168e-03
-4.814934498545224e-02 -4.723742338478885e-02 1.755921732008403e-01 2.158357201540808e-04 -1.011070855802470e-03 4.444984781175740e-03
-4.757356869155383e-02 -4.629993590827562e-02 1.713910943556394e-01 1.489010713649932e-03 2.499192885039439e-03 -1.077072125586530e-02
-5.828617332061140e-02 -6.283988083554057e-02 1.728806352462541e-01 2.373968436363322e-03 5.030444552110154e-03 1.274021659339874e-02
-1.533332446805048e-02 -6.816023302361505e-02 1.601838308371066e-01 -2.667678768286806e-04 5.997971198111283e-03 -1.221408459928415e-02
-1.528400327659353e-02 -1.717140899608453e-02 1.471584060431123e-01 -1.832628463994072e-04 -1.436633839360809e-05 -1.240423990275901e-02
-6.332765566059648e-02 -1.770332342333652e-02 1.596350558120367e-01 2.523626434811182e-04 -1.829199133832017e-05 1.380405358521425e-02
-6.070066015877544e-02 -3.423839654727568e-02 1.674091068692670e-01 1.885527147755876e-03 1.166793941513132e-02 1.377713369722089e-02
-1.450175601289726e-02 -3.587632988753954e-02 1.549694373295867e-01 -2.870820599299763e-04 1.178731600220379e-02 -1.152496964326900e-02
-2.631375175920456e-02 -6.816280954343309e-02 1.604607053599031e-01 1.333839384141797e-04 5.983653446171400e-03 6.107042299642327e-03
-2.758812371169534e-02 -1.717191518448742e-02 1.474438979565229e-01 9.163142319980573e-05 -1.426109580514485e-05 6.202119951379600e-03
5.876549589467830e-06 -3.331724693781822e-05 1.032289174680741e-01 -4.218030095597561e-06 1.731631693348411e-02 2.034159771234279e-03
-4.688350019275146e-02 -4.811118870262820e-02 1.849590295972030e-01 3.223869146074901e-04 2.514256480956190e-03 4.395733478648614e-03
-2.632480890274263e-02 -3.587739112930804e-02 1.552042753925660e-01 1.435410299649476e-04 1.177111244505525e-02 5.762484821634433e-03
4.444701493086858e-06 -4.904215672297783e-04 1.675878252108716e-01 -7.313203476473480e-06 7.419016745343454e-02 2.295533356749634e-03
-5.988859189016982e-04 -3.769141983759397e-04 2.722997219025053e-01 5.674297601504453e-05 6.635557000841166e-02 -1.352887533509101e-01
-6.944735765607261e-04 1.079096768548856e-05 2.243822327519523e-01 -2.804908126882496e-05 -3.723567260679272e-03 -1.457765242993574e-01
5.223891676185526e-06 1.540036943238042e-05 1.159605853220563e-01 2.216352770842050e-06 -3.888456565979456e-03 2.200047529143131e-03
-4.675832798776659e-02 -4.981246506023611e-02 1.629432655384567e-01 -2.196725586978465e-04 -9.737382974418547e-03 4.330731931031018e-03
-4.033180618810651e-02 -3.822199148416225e-02 1.384021871997738e-01 -9.317370625124041e-03 -8.355504854146817e-03 3.012610379911153e-02
-4.642297684261779e-02 -4.809595831518154e-02 1.492590007743448e-01 9.516996117154597e-04 -1.062222932992228e-03 3.310123427169085e-02
-4.814934498545224e-02 -4.723742338478885e-02 1.755921732008403e-01 2.158357201540808e-04 -1.011070855802470e-03 4.444984781175740e-03
1.930158258260650e-05 -4.906928457844330e-04 1.696543626274226e-01 1.462640695318134e-05 7.418683521655772e-02 -4.591066713499500e-03
-6.246785720171733e-04 -3.073440575015844e-05 2.105246322585521e-01 -2.599383793540447e-05 1.677413535825003e-02 -1.375933590337954e-01
1.986585545675605e-05 1.510041621875675e-05 1.183408231699334e-01 -4.432705541930420e-06 -3.886967453230848e-03 -4.400095058286575e-03
5.876549589467830e-06 -3.331724693781822e-05 1.032289174680741e-01 -4.218030095597561e-06 1.731631693348411e-02 2.034159771234279e-03
-4.805562223351820e-02 -4.980727193834537e-02 1.627142440128293e-01 4.393451173961706e-04 -9.712912036614930e-03 -8.661463862062542e-03
-4.802337571800404e-02 -4.448775468599049e-02 1.575783009174765e-01 -2.333180315093186e-03 2.463544221729121e-03 3.041424983875412e-02
-4.850278248416698e-02 -4.723933024353886e-02 1.753541808403007e-01 -4.316714403082915e-04 -1.021174186102239e-03 -8.889969562351779e-03
-4.688350019275146e-02 -4.811118870262820e-02 1.849590295972030e-01 3.223869146074901e-04 2.514256480956190e-03 4.395733478648614e-03
-2.631375175920456e-02 -6.816280954343309e-02 1.604607053599031e-01 1.333839384141797e-04 5.983653446171400e-03 6.107042299642327e-03
-7.927816759086723e-02 -5.751437560782340e-02 1.850236906098064e-01 -4.484357118995601e-03 4.091553409989115e-03 -1.328946031883770e-02
-8.676306717440758e-02 -1.823422547376258e-02 1.715407217541453e-01 -3.211823117814822e-04 -2.242812945651746e-05 -1.523247520340471e-02
-2.758812371169534e-02 -1.717191518448742e-02 1.474438979565229e-01 9.163142319980573e-05 -1.426109580514485e-05 6.202119951379600e-03
-2.632480890274263e-02 -3.587739112930804e-02 1.552042753925660e-01 1.435410299649476e-04 1.177111244505525e-02 5.762484821634433e-03
-8.325345852495528e-02 -3.259834072348561e-02 1.793791002829845e-01 -3.486834615820906e-03 1.158096994235319e-02 -1.605694268322768e-02
-1.533332446805048e-02 -6.816023302361505e-02 1.601838308371066e-01 -2.667678768286806e-04 5.997971198111283e-03 -1.221408459928415e-02
-1.528400327659353e-02 -1.717140899608453e-02 1.471584060431123e-01 -1.832628463994072e-04 -1.436633839360809e-05 -1.240423990275901e-02
1.821146961165573e-05 -3.349748393179867e-05 1.053717084750665e-01 8.436060191242990e-06 1.731965955816746e-02 -4.068319542468415e-03
-4.664323872039615e-02 -4.811026027470870e-02 1.847141714005984e-01 -6.447738292150977e-04 2.493671413556006e-03 -8.791466957297168e-03
-1.450175601289726e-02 -3.587632988753954e-02 1.549694373295867e-01 -2.870820599299763e-04 1.178731600220379e-02 -1.152496964326900e-02
-3.155684712239431e-04 -3.193570785071107e-05 1.558053793598159e-01 9.159546317823125e-06 1.704355483352315e-02 7.081941956379925e-02
1.821146961165573e-05 -3.349748393179867e-05 1.053717084750665e-01 8.436060191242990e-06 1.731965955816746e-02 -4.068319542468415e-03
1.748944099355665e-05 -3.531109408835831e-05 1.008827000799663e-01 -9.455774925331999e-06 -2.306954503187323e-02 -3.926668110831534e-03
-2.996475542379889e-04 -3.507139998987219e-05 1.510868559324985e-01 -2.583150805424752e-05 -2.271515149328096e-02 6.899772993533521e-02
-4.757356869155383e-02 -4.629993590827562e-02 1.713910943556394e-01 1.489010713649932e-03 2.499192885039439e-03 -1.077072125586530e-02
-4.664323872039615e-02 -4.811026027470870e-02 1.847141714005984e-01 -6.447738292150977e-04 2.493671413556006e-03 -8.791466957297168e-03
-4.584675973158742e-02 -4.809954580679512e-02 1.887324349437028e-01 1.290992172302411e-03 -2.956912749564348e-03 -8.743655289712845e-03
-4.776866575613948e-02 -4.628508578936552e-02 1.751889644452380e-01 -2.039169789244625e-03 -2.959823004991103e-03 -1.023075125233615e-02
5.876549589467830e-06 -3.331724693781822e-05 1.032289174680741e-01 -4.218030095597561e-06 1.731631693348411e-02 2.034159771234279e-03
1.986585545675605e-05 1.510041621875675e-05 1.183408231699334e-01 -4.432705541930420e-06 -3.886967453230848e-03 -4.400095058286575e-03
6.171560137760088e-06 -3.471198995864955e-05 9.884369794738060e-02 4.727887462856722e-06 -2.306337490146130e-02 1.963334055415655e-03
-3.519458243347300e-04 1.324564517178548e-05 1.689812901130676e-01 1.629828751705872e-05 -3.806756469700843e-03 7.507522940578676e-02
-4.688350019275146e-02 -4.811118870262820e-02 1.849590295972030e-01 3.223869146074901e-04 2.514256480956190e-03 4.395733478648614e-03
-4.850278248416698e-02 -4.723933024353886e-02 1.753541808403007e-01 -4.316714403082915e-04 -1.021174186102239e-03 -8.889969562351779e-03
-4.634162681850717e-02 -4.809914231998533e-02 1.889807961567310e-01 -6.454960861508585e-04 -2.995477705405556e-03 4.371827644856652e-03
-4.710944216468150e-02 -4.766573742059780e-02 1.625445831678679e-01 -2.593454656884927e-04 -1.031595229244152e-03 -1.206176987486173e-02
-6.070066015877544e-02 -3.423839654727568e-02 1.674091068692670e-01 1.885527147755876e-03 1.166793941513132e-02 1.377713369722089e-02
-1.450175601289726e-02 -3.587632988753954e-02 1.549694373295867e-01 -2.870820599299763e-04 1.178731600220379e-02 -1.152496964326900e-02
-1.416656883413720e-02 -3.587211509894781e-02 1.581936405969820e-01 5.685880519650702e-04 -1.767575675644148e-02 -1.115430755951710e-02
-5.957474032193390e-02 -3.422732590976322e-02 1.706207517560838e-01 -3.018202888837414e-03 -1.749284296849389e-02 1.377592203320871e-02
-6.332765566059648e-02 -1.770332342333652e-02 1.596350558120367e-01 2.523626434811182e-04 -1.829199133832017e-05 1.380405358521425e-02
-1.528400327659353e-02 -1.717140899608453e-02 1.471584060431123e-01 -1.832628463994072e-04 -1.436633839360809e-05 -1.240423990275901e-02
-2.632480890274263e-02 -3.587739112930804e-02 1.552042753925660e-01 1.435410299649476e-04 1.177111244505525e-02 5.762484821634433e-03
-2.578366983560608e-02 -3.587437294166927e-02 1.584059552368896e-01 -2.842940259827369e-04 -1.765152153036066e-02 5.577153779758341e-03
5.223891676185526e-06 1.540036943238042e-05 1.159605853220563e-01 2.216352770842050e-06 -3.888456565979456e-03 2.200047529143131e-03
-4.814934498545224e-02 -4.723742338478885e-02 1.755921732008403e-01 2.158357201540808e-04 -1.011070855802470e-03 4.444984781175740e-03
-2.758812371169534e-02 -1.717191518448742e-02 1.474438979565229e-01 9.163142319980573e-05 -1.426109580514485e-05 6.202119951379600e-03
5.876549589467830e-06 -3.331724693781822e-05 1.032289174680741e-01 -4.218030095597561e-06 1.731631693348411e-02 2.034159771234279e-03
-6.246785720171733e-04 -3.073440575015844e-05 2.105246322585521e-01 -2.599383793540447e-05 1.677413535825003e-02 -1.375933590337954e-01
-5.941487877598739e-04 -3.602991414146384e-05 2.053690160502000e-01 5.988894559326873e-05 -2.237309821550638e-02 -1.340901620064868e-01
6.171560137760088e-06 -3.471198995864955e-05 9.884369794738060e-02 4.727887462856722e-06 -2.306337490146130e-02 1.963334055415655e-03
-4.688350019275146e-02 -4.811118870262820e-02 1.849590295972030e-01 3.223869146074901e-04 2.514256480956190e-03 4.395733478648614e-03
-4.802337571800404e-02 -4.448775468599049e-02 1.575783009174765e-01 -2.333180315093186e-03 2.463544221729121e-03 3.041424983875412e-02
-4.870083760686159e-02 -4.447143274552900e-02 1.611487715207067e-01 2.786276004073331e-03 -2.885603348728795e-03 2.928373894466908e-02
-4.634162681850717e-02 -4.809914231998533e-02 1.889807961567310e-01 -6.454960861508585e-04 -2.995477705405556e-03 4.371827644856652e-03
1.821146961165573e-05 -3.349748393179867e-05 1.053717084750665e-01 8.436060191242990e-06 1.731965955816746e-02 -4.068319542468415e-03
-6.944735765607261e-04 1.079096768548856e-05 2.243822327519523e-01 -2.804908126882496e-05 -3.723567260679272e-03 -1.457765242993574e-01
1.748944099355665e-05 -3.531109408835831e-05 1.008827000799663e-01 -9.455774925331999e-06 -2.306954503187323e-02 -3.926668110831534e-03
5.223891676185526e-06 1.540036943238042e-05 1.159605853220563e-01 2.216352770842050e-06 -3.888456565979456e-03 2.200047529143131e-03
-4.664323872039615e-02 -4.811026027470870e-02 1.847141714005984e-01 -6.447738292150977e-04 2.493671413556006e-03 -8.791466957297168e-03
-4.642297684261779e-02 -4.809595831518154e-02 1.492590007743448e-01 9.516996117154597e-04 -1.062222932992228e-03 3.310123427169085e-02
-4.584675973158742e-02 -4.809954580679512e-02 1.887324349437028e-01 1.290992172302411e-03 -2.956912749564348e-03 -8.743655289712845e-03
-4.814934498545224e-02 -4.723742338478885e-02 1.755921732008403e-01 2.158357201540808e-04 -1.011070855802470e-03 4.444984781175740e-03
-2.632480890274263e-02 -3.587739112930804e-02 1.552042753925660e-01 1.435410299649476e-04 1.177111244505525e-02 5.762484821634433e-03
-8.325345852495528e-02 -3.259834072348561e-02 1.793791002829845e-01 -3.486834615820906e-03 1.158096994235319e-02 -1.605694268322768e-02
-8.174870980678491e-02 -3.257802103515241e-02 1.826232336353792e-01 5.471912963465771e-03 -1.735839963271499e-02 -1.642488264748315e-02
-2.578366983560608e-02 -3.587437294166927e-02 1.584059552368896e-01 -2.842940259827369e-04 -1.765152153036066e-02 5.577153779758341e-03
-2.758812371169534e-02 -1.717191518448742e-02 1.474438979565229e-01 9.163142319980573e-05 -1.426109580514485e-05 6.202119951379600e-03
-8.676306717440758e-02 -1.823422547376258e-02 1.715407217541453e-01 -3.211823117814822e-04 -2.242812945651746e-05 -1.523247520340471e-02
-1.450175601289726e-02 -3.587632988753954e-02 1.549694373295867e-01 -2.870820599299763e-04 1.178731600220379e-02 -1.152496964326900e-02
-1.416656883413720e-02 -3.587211509894781e-02 1.581936405969820e-01 5.685880519650702e-04 -1.767575675644148e-02 -1.115430755951710e-02
1.986585545675605e-05 1.510041621875675e-05 1.183408231699334e-01 -4.432705541930420e-06 -3.886967453230848e-03 -4.400095058286575e-03
-4.850278248416698e-02 -4.723933024353886e-02 1.753541808403007e-01 -4.316714403082915e-04 -1.021174186102239e-03 -8.889969562351779e-03
-1.528400327659353e-02 -1.717140899608453e-02 1.471584060431123e-01 -1.832628463994072e-04 -1.436633839360809e-05 -1.240423990275901e-02
-3.519458243347300e-04 1.324564517178548e-05 1.689812901130676e-01 1.629828751705872e-05 -3.806756469700843e-03 7.507522940578676e-02
1.986585545675605e-05 1.510041621875675e-05 1.183408231699334e-01 -4.432705541930420e-06 -3.886967453230848e-03 -4.400095058286575e-03
2.109548559603436e-05 -9.194549116087608e-04 2.396162706492760e-01 -1.442012298914492e-05 -1.252341222641924e-01 -5.255969737810146e-03
-3.091802955146050e-04 -8.092742442546430e-04 2.877646998879506e-01 5.604446614936064e-05 -1.178051533511892e-01 7.086150602098149e-02
-4.710944216468150e-02 -4.766573742059780e-02 1.625445831678679e-01 -2.593454656884927e-04 -1.031595229244152e-03 -1.206176987486173e-02
-4.850278248416698e-02 -4.723933024353886e-02 1.753541808403007e-01 -4.316714403082915e-04 -1.021174186102239e-03 -8.889969562351779e-03
-5.026518156207468e-02 -5.097743979611610e-02 1.366946455489199e-01 -8.758012070459208e-04 2.348668422834390e-02 -8.573209105338589e-03
-3.801978742537196e-02 -4.255325461784387e-02 1.263839989658614e-01 -6.998078341038774e-03 2.219448429654301e-02 -1.117748201156970e-02
5.223891676185526e-06 1.540036943238042e-05 1.159605853220563e-01 2.216352770842050e-06 -3.888456565979456e-03 2.200047529143131e-03
1.748944099355665e-05 -3.531109408835831e-05 1.008827000799663e-01 -9.455774925331999e-06 -2.306954503187323e-02 -3.926668110831534e-03
2.739935051218612e-06 -9.188532149047024e-04 2.375251770029990e-01 7.210061494157972e-06 -1.252418169758560e-01 2.627984868905904e-03
-2.996475542379889e-04 -3.507139998987219e-05 1.510868559324985e-01 -2.583150805424752e-05 -2.271515149328096e-02 6.899772993533521e-02
-4.814934498545224e-02 -4.723742338478885e-02 1.755921732008403e-01 2.158357201540808e-04 -1.011070855802470e-03 4.444984781175740e-03
-4.584675973158742e-02 -4.809954580679512e-02 1.887324349437028e-01 1.290992172302411e-03 -2.956912749564348e-03 -8.743655289712845e-03
-4.717584074753525e-02 -5.098466367408025e-02 1.369051481138187e-01 4.379006035222253e-04 2.354083646183765e-02 4.286604552669420e-03
-4.776866575613948e-02 -4.628508578936552e-02 1.751889644452380e-01 -2.039169789244625e-03 -2.959823004991103e-03 -1.023075125233615e-02
-6.332765566059648e-02 -1.770332342333652e-02 1.596350558120367e-01 2.523626434811182e-04 -1.829199133832017e-05 1.380405358521425e-02
-1.528400327659353e-02 -1.717140899608453e-02 1.471584060431123e-01 -1.832628463994072e-04 -1.436633839360809e-05 -1.240423990275901e-02
-1.650018053567430e-02 -8.921949770937357e-02 1.620358269281880e-01 5.223836178677155e-04 -1.981919003005332e-04 -1.328085787570938e-02
-5.699784793015891e-02 -8.151589299443519e-02 1.750060802348109e-01 -3.242234059380375e-03 1.625182619314026e-03 1.171645170185086e-02
-5.957474032193390e-02 -3.422732590976322e-02 1.706207517560838e-01 -3.018202888837414e-03 -1.749284296849389e-02 1.377592203320871e-02
-1.416656883413720e-02 -3.587211509894781e-02 1.581936405969820e-01 5.685880519650702e-04 -1.767575675644148e-02 -1.115430755951710e-02
-2.758812371169534e-02 -1.717191518448742e-02 1.474438979565229e-01 9.163142319980573e-05 -1.426109580514485e-05 6.202119951379600e-03
-2.684420729793737e-02 -8.922373511561509e-02 1.623762070324015e-01 -2.611918089334782e-04 -1.859001728369020e-04 6.640428937854478e-03
6.171560137760088e-06 -3.471198995864955e-05 9.884369794738060e-02 4.727887462856722e-06 -2.306337490146130e-02 1.963334055415655e-03
-4.634162681850717e-02 -4.809914231998533e-02 1.889807961567310e-01 -6.454960861508585e-04 -2.995477705405556e-03 4.371827644856652e-03
-2.578366983560608e-02 -3.587437294166927e-02 1.584059552368896e-01 -2.842940259827369e-04 -1.765152153036066e-02 5.577153779758341e-03
5.223891676185526e-06 1.540036943238042e-05 1.159605853220563e-01 2.216352770842050e-06 -3.888456565979456e-03 2.200047529143131e-03
-6.944735765607261e-04 1.079096768548856e-05 2.243822327519523e-01 -2.804908126882496e-05 -3.723567260679272e-03 -1.457765242993574e-01
-6.027449755169889e-04 -7.002969703041595e-04 3.400953164191356e-01 -9.768341259598981e-05 -1.103607950148623e-01 -1.364920262250523e-01
2.739935051218612e-06 -9.188532149047024e-04 2.375251770029990e-01 7.210061494157972e-06 -1.252418169758560e-01 2.627984868905904e-03
-4.814934498545224e-02 -4.723742338478885e-02 1.755921732008403e-01 2.158357201540808e-04 -1.011070855802470e-03 4.444984781175740e-03
-4.642297684261779e-02 -4.809595831518154e-02 1.492590007743448e-01 9.516996117154597e-04 -1.062222932992228e-03 3.310123427169085e-02
-3.195307491772544e-02 -3.411462168366201e-02 1.156523472529898e-01 1.487457199802860e-02 2.079397989771686e-02 3.099275737808189e-02
-4.717584074753525e-02 -5.098466367408025e-02 1.369051481138187e-01 4.379006035222253e-04 2.354083646183765e-02 4.286604552669420e-03
1.986585545675605e-05 1.510041621875675e-05 1.183408231699334e-01 -4.432705541930420e-06 -3.886967453230848e-03 -4.400095058286575e-03
-5.941487877598739e-04 -3.602991414146384e-05 2.053690160502000e-01 5.988894559326873e-05 -2.237309821550638e-02 -1.340901620064868e-01
2.109548559603436e-05 -9.194549116087608e-04 2.396162706492760e-01 -1.442012298914492e-05 -1.252341222641924e-01 -5.255969737810146e-03
6.171560137760088e-06 -3.471198995864955e-05 9.884369794738060e-02 4.727887462856722e-06 -2.306337490146130e-02 1.963334055415655e-03
-4.850278248416698e-02 -4.723933024353886e-02 1.753541808403007e-01 -4.316714403082915e-04 -1.021174186102239e-03 -8.889969562351779e-03
-4.870083760686159e-02 -4.447143274552900e-02 1.611487715207067e-01 2.786276004073331e-03 -2.885603348728795e-03 2.928373894466908e-02
-5.026518156207468e-02 -5.097743979611610e-02 1.366946455489199e-01 -8.758012070459208e-04 2.348668422834390e-02 -8.573209105338589e-03
-4.634162681850717e-02 -4.809914231998533e-02 1.889807961567310e-01 -6.454960861508585e-04 -2.995477705405556e-03 4.371827644856652e-03
-2.758812371169534e-02 -1.717191518448742e-02 1.474438979565229e-01 9.163142319980573e-05 -1.426109580514485e-05 6.202119951379600e-03
-8.676306717440758e-02 -1.823422547376258e-02 1.715407217541453e-01 -3.211823117814822e-04 -2.242812945651746e-05 -1.523247520340471e-02
-7.680746180011858e-02 -7.380381346700599e-02 1.872955733330145e-01 5.965201701637205e-03 3.423973684024070e-03 -1.017104566434232e-02
-2.684420729793737e-02 -8.922373511561509e-02 1.623762070324015e-01 -2.611918089334782e-04 -1.859001728369020e-04 6.640428937854478e-03
-2.578366983560608e-02 -3.587437294166927e-02 1.584059552368896e-01 -2.842940259827369e-04 -1.765152153036066e-02 5.577153779758341e-03
-8.174870980678491e-02 -3.257802103515241e-02 1.826232336353792e-01 5.471912963465771e-03 -1.735839963271499e-02 -1.642488264748315e-02
-1.528400327659353e-02 -1.717140899608453e-02 1.471584060431123e-01 -1.832628463994072e-04 -1.436633839360809e-05 -1.240423990275901e-02
-1.650018053567430e-02 -8.921949770937357e-02 1.620358269281880e-01 5.223836178677155e-04 -1.981919003005332e-04 -1.328085787570938e-02
1.748944099355665e-05 -3.531109408835831e-05 1.008827000799663e-01 -9.455774925331999e-06 -2.306954503187323e-02 -3.926668110831534e-03
-4.584675973158742e-02 -4.809954580679512e-02 1.887324349437028e-01 1.290992172302411e-03 -2.956912749564348e-03 -8.743655289712845e-03
-1.416656883413720e-02 -3.587211509894781e-02 1.581936405969820e-01 5.685880519650702e-04 -1.767575675644148e-02 -1.115430755951710e-02
-5.828617332061140e-02 -6.283988083554057e-02 1.728806352462541e-01 2.373968436363322e-03 5.030444552110154e-03 1.274021659339874e-02
-1.533332446805048e-02 -6.816023302361505e-02 1.601838308371066e-01 -2.667678768286806e-04 5.997971198111283e-03 -1.221408459928415e-02
-1.528400327659353e-02 -1.717140899608453e-02 1.471584060431123e-01 -1.832628463994072e-04 -1.436633839360809e-05 -1.240423990275901e-02
-6.332765566059648e-02 -1.770332342333652e-02 1.596350558120367e-01 2.523626434811182e-04 -1.829199133832017e-05 1.380405358521425e-02
-5.161963781353034e-02 -4.967017926879795e-02 1.594795363024901e-01 3.108141495196096e-04 -1.638366750986215e-03 -2.381887551311244e-03
-5.108939388948218e-02 -5.223458103566739e-02 1.701859337115481e-01 -4.362350901919522e-04 -2.802951286661206e-03 4.087725272867220e-03
-5.164215111333286e-02 -5.145465952837523e-02 1.804963678480946e-01 -5.324537814900431e-05 2.870305307566232e-04 4.108431147113425e-03
-5.288141108729757e-02 -5.149701678222993e-02 1.697087016545111e-01 3.068973889240186e-04 3.410680762532267e-04 -3.755111868245136e-03
-2.631375175920456e-02 -6.816280954343309e-02 1.604607053599031e-01 1.333839384141797e-04 5.983653446171400e-03 6.107042299642327e-03
-1.450175601289726e-02 -3.587632988753954e-02 1.549694373295867e-01 -2.870820599299763e-04 1.178731600220379e-02 -1.152496964326900e-02
-2.758812371169534e-02 -1.717191518448742e-02 1.474438979565229e-01 9.163142319980573e-05 -1.426109580514485e-05 6.202119951379600e-03
-6.070066015877544e-02 -3.423839654727568e-02 1.674091068692670e-01 1.885527147755876e-03 1.166793941513132e-02 1.377713369722089e-02
-5.125094909524616e-02 -5.223404653231681e-02 1.701539237487323e-01 2.181175450958161e-04 -2.800170878520512e-03 -2.043862636433468e-03
-5.115381024896989e-02 -5.176267281228950e-02 1.758358045422481e-01 -2.992542585954489e-04 -3.543135605533944e-03 3.406853903860683e-03
-5.198133670182845e-02 -5.145502950087846e-02 1.804696680752424e-01 2.662268907460669e-05 2.853927366513993e-04 -2.054215573556756e-03
-5.137104575819790e-02 -5.087397735749032e-02 1.652814180947365e-01 9.513326104474517e-04 -3.488550624758409e-03 -3.395428557310037e-03
-4.289641996505984e-02 -4.401982483314223e-02 1.507872371319289e-01 4.437890808577634e-03 -9.058679383181839e-03 -1.069652020192475e-02
-4.805562223351820e-02 -4.980727193834537e-02 1.627142440128293e-01 4.393451173961706e-04 -9.712912036614930e-03 -8.661463862062542e-03
-4.850278248416698e-02 -4.723933024353886e-02 1.753541808403007e-01 -4.316714403082915e-04 -1.021174186102239e-03 -8.889969562351779e-03
-4.710944216468150e-02 -4.766573742059780e-02 1.625445831678679e-01 -2.593454656884927e-04 -1.031595229244152e-03 -1.206176987486173e-02
-4.757356869155383e-02 -4.629993590827562e-02 1.713910943556394e-01 1.489010713649932e-03 2.499192885039439e-03 -1.077072125586530e-02
-4.664323872039615e-02 -4.811026027470870e-02 1.847141714005984e-01 -6.447738292150977e-04 2.493671413556006e-03 -8.791466957297168e-03
-4.675832798776659e-02 -4.981246506023611e-02 1.629432655384567e-01 -2.196725586978465e-04 -9.737382974418547e-03 4.330731931031018e-03
-4.814934498545224e-02 -4.723742338478885e-02 1.755921732008403e-01 2.158357201540808e-04 -1.011070855802470e-03 4.444984781175740e-03
-2.632480890274263e-02 -3.587739112930804e-02 1.552042753925660e-01 1.435410299649476e-04 1.177111244505525e-02 5.762484821634433e-03
-5.123476408758756e-02 -5.176284646601877e-02 1.758117794384205e-01 1.496271292976713e-04 -3.545380070860984e-03 -1.703426951930581e-03
-4.688350019275146e-02 -4.811118870262820e-02 1.849590295972030e-01 3.223869146074901e-04 2.514256480956190e-03 4.395733478648614e-03
-2.631375175920456e-02 -6.816280954343309e-02 1.604607053599031e-01 1.333839384141797e-04 5.983653446171400e-03 6.107042299642327e-03
-7.927816759086723e-02 -5.751437560782340e-02 1.850236906098064e-01 -4.484357118995601e-03 4.091553409989115e-03 -1.328946031883770e-02
-8.676306717440758e-02 -1.823422547376258e-02 1.715407217541453e-01 -3.211823117814822e-04 -2.242812945651746e-05 -1.523247520340471e-02
-2.758812371169534e-02 -1.717191518448742e-02 1.474438979565229e-01 9.163142319980573e-05 -1.426109580514485e-05 6.202119951379600e-03
-5.125094909524616e-02 -5.223404653231681e-02 1.701539237487323e-01 2.181175450958161e-04 -2.800170878520512e-03 -2.043862636433468e-03
-5.182677132604884e-02 -4.710684650863865e-02 1.488371588190337e-01 -1.850646446778762e-04 -4.793430315925400e-04 6.871600599568767e-04
-5.344229988426640e-02 -5.153863409107455e-02 1.589744350066353e-01 -5.608148045404360e-04 3.983812099657969e-04 3.411333364486975e-03
-5.198133670182845e-02 -5.145502950087846e-02 1.804696680752424e-01 2.662268907460669e-05 2.853927366513993e-04 -2.054215573556756e-03
-1.533332446805048e-02 -6.816023302361505e-02 1.601838308371066e-01 -2.667678768286806e-04 5.997971198111283e-03 -1.221408459928415e-02
-8.325345852495528e-02 -3.259834072348561e-02 1.793791002829845e-01 -3.486834615820906e-03 1.158096994235319e-02 -1.605694268322768e-02
-1.528400327659353e-02 -1.717140899608453e-02 1.471584060431123e-01 -1.832628463994072e-04 -1.436633839360809e-05 -1.240423990275901e-02
-2.632480890274263e-02 -3.587739112930804e-02 1.552042753925660e-01 1.435410299649476e-04 1.177111244505525e-02 5.762484821634433e-03
-5.108939388948218e-02 -5.223458103566739e-02 1.701859337115481e-01 -4.362350901919522e-04 -2.802951286661206e-03 4.087725272867220e-03
-5.142637359019382e-02 -4.998493459523468e-02 1.547750818548572e-01 -1.603440742778904e-03 -3.429476713326177e-03 3.391063078994351e-03
-5.164215111333286e-02 -5.145465952837523e-02 1.804963678480946e-01 -5.324537814900431e-05 2.870305307566232e-04 4.108431147113425e-03
-5.123476408758756e-02 -5.176284646601877e-02 1.758117794384205e-01 1.496271292976713e-04 -3.545380070860984e-03 -1.703426951930581e-03
-4.675832798776659e-02 -4.981246506023611e-02 1.629432655384567e-01 -2.196725586978465e-04 -9.737382974418547e-03 4.330731931031018e-03
-4.033180618810651e-02 -3.822199148416225e-02 1.384021871997738e-01 -9.317370625124041e-03 -8.355504854146817e-03 3.012610379911153e-02
-4.642297684261779e-02 -4.809595831518154e-02 1.492590007743448e-01 9.516996117154597e-04 -1.062222932992228e-03 3.310123427169085e-02
-4.814934498545224e-02 -4.723742338478885e-02 1.755921732008403e-01 2.158357201540808e-04 -1.011070855802470e-03 4.444984781175740e-03
-4.688350019275146e-02 -4.811118870262820e-02 1.849590295972030e-01 3.223869146074901e-04 2.514256480956190e-03 4.395733478648614e-03
-4.802337571800404e-02 -4.448775468599049e-02 1.575783009174765e-01 -2.333180315093186e-03 2.463544221729121e-03 3.041424983875412e-02
-4.805562223351820e-02 -4.980727193834537e-02 1.627142440128293e-01 4.393451173961706e-04 -9.712912036614930e-03 -8.661463862062542e-03
-4.850278248416698e-02 -4.723933024353886e-02 1.753541808403007e-01 -4.316714403082915e-04 -1.021174186102239e-03 -8.889969562351779e-03
-1.450175601289726e-02 -3.587632988753954e-02 1.549694373295867e-01 -2.870820599299763e-04 1.178731600220379e-02 -1.152496964326900e-02
-5.115381024896989e-02 -5.176267281228950e-02 1.758358045422481e-01 -2.992542585954489e-04 -3.543135605533944e-03 3.406853903860683e-03
-4.664323872039615e-02 -4.811026027470870e-02 1.847141714005984e-01 -6.447738292150977e-04 2.493671413556006e-03 -8.791466957297168e-03
-6.070066015877544e-02 -3.423839654727568e-02 1.674091068692670e-01 1.885527147755876e-03 1.166793941513132e-02 1.377713369722089e-02
-1.450175601289726e-02 -3.587632988753954e-02 1.549694373295867e-01 -2.870820599299763e-04 1.178731600220379e-02 -1.152496964326900e-02
-1.416656883413720e-02 -3.587211509894781e-02 1.581936405969820e-01 5.685880519650702e-04 -1.767575675644148e-02 -1.115430755951710e-02
-5.957474032193390e-02 -3.422732590976322e-02 1.706207517560838e-01 -3.018202888837414e-03 -1.749284296849389e-02 1.377592203320871e-02
-5.137104575819790e-02 -5.087397735749032e-02 1.652814180947365e-01 9.513326104474517e-04 -3.488550624758409e-03 -3.395428557310037e-03
-5.115381024896989e-02 -5.176267281228950e-02 1.758358045422481e-01 -2.992542585954489e-04 -3.543135605533944e-03 3.406853903860683e-03
-5.094453321358582e-02 -5.174879053391507e-02 1.738398767334338e-01 4.887580728267767e-04 5.101076922951628e-03 3.106031576552029e-03
-5.072443097213437e-02 -5.085759000064489e-02 1.633883375725840e-01 -1.657122860335268e-03 4.978952330255028e-03 -3.239423906594617e-03
-2.632480890274263e-02 -3.587739112930804e-02 1.552042753925660e-01 1.435410299649476e-04 1.177111244505525e-02 5.762484821634433e-03
-1.528400327659353e-02 -1.717140899608453e-02 1.471584060431123e-01 -1.832628463994072e-04 -1.436633839360809e-05 -1.240423990275901e-02
-2.578366983560608e-02 -3.587437294166927e-02 1.584059552368896e-01 -2.842940259827369e-04 -1.765152153036066e-02 5.577153779758341e-03
-6.332765566059648e-02 -1.770332342333652e-02 1.596350558120367e-01 2.523626434811182e-04 -1.829199133832017e-05 1.380405358521425e-02
-5.123476408758756e-02 -5.176284646601877e-02 1.758117794384205e-01 1.496271292976713e-04 -3.545380070860984e-03 -1.703426951930581e-03
-5.164215111333286e-02 -5.145465952837523e-02 1.804963678480946e-01 -5.324537814900431e-05 2.870305307566232e-04 4.108431147113425e-03
-5.091485376278766e-02 -5.174943184184102e-02 1.738165363133988e-01 -2.443790364133189e-04 5.105679705377392e-03 -1.553015788276076e-03
-5.288141108729757e-02 -5.149701678222993e-02 1.697087016545111e-01 3.068973889240186e-04 3.410680762532267e-04 -3.755111868245136e-03
-4.757356869155383e-02 -4.629993590827562e-02 1.713910943556394e-01 1.489010713649932e-03 2.499192885039439e-03 -1.077072125586530e-02
-4.664323872039615e-02 -4.811026027470870e-02 1.847141714005984e-01 -6.447738292150977e-04 2.493671413556006e-03 -8.791466957297168e-03
-4.584675973158742e-02 -4.809954580679512e-02 1.887324349437028e-01 1.290992172302411e-03 -2.956912749564348e-03 -8.743655289712845e-03
-4.776866575613948e-02 -4.628508578936552e-02 1.751889644452380e-01 -2.039169789244625e-03 -2.959823004991103e-03 -1.023075125233615e-02
-4.710944216468150e-02 -4.766573742059780e-02 1.625445831678679e-01 -2.593454656884927e-04 -1.031595229244152e-03 -1.206176987486173e-02
-4.850278248416698e-02 -4.723933024353886e-02 1.753541808403007e-01 -4.316714403082915e-04 -1.021174186102239e-03 -8.889969562351779e-03
-4.688350019275146e-02 -4.811118870262820e-02 1.849590295972030e-01 3.223869146074901e-04 2.514256480956190e-03 4.395733478648614e-03
-4.634162681850717e-02 -4.809914231998533e-02 1.889807961567310e-01 -6.454960861508585e-04 -2.995477705405556e-03 4.371827644856652e-03
-2.758812371169534e-02 -1.717191518448742e-02 1.474438979565229e-01 9.163142319980573e-05 -1.426109580514485e-05 6.202119951379600e-03
-5.198133670182845e-02 -5.145502950087846e-02 1.804696680752424e-01 2.662268907460669e-05 2.853927366513993e-04 -2.054215573556756e-03
-4.814934498545224e-02 -4.723742338478885e-02 1.755921732008403e-01 2.158357201540808e-04 -1.011070855802470e-03 4.444984781175740e-03
-2.632480890274263e-02 -3.587739112930804e-02 1.552042753925660e-01 1.435410299649476e-04 1.177111244505525e-02 5.762484821634433e-03
-8.325345852495528e-02 -3.259834072348561e-02 1.793791002829845e-01 -3.486834615820906e-03 1.158096994235319e-02 -1.605694268322768e-02
-8.174870980678491e-02 -3.257802103515241e-02 1.826232336353792e-01 5.471912963465771e-03 -1.735839963271499e-02 -1.642488264748315e-02
-2.578366983560608e-02 -3.587437294166927e-02 1.584059552368896e-01 -2.842940259827369e-04 -1.765152153036066e-02 5.577153779758341e-03
-5.123476408758756e-02 -5.176284646601877e-02 1.758117794384205e-01 1.496271292976713e-04 -3.545380070860984e-03 -1.703426951930581e-03
-5.142637359019382e-02 -4.998493459523468e-02 1.547750818548572e-01 -1.603440742778904e-03 -3.429476713326177e-03 3.391063078994351e-03
-5.056368763228306e-02 -4.996510685151833e-02 1.529834792518245e-01 2.825715767811281e-03 4.847622172701946e-03 3.378840662517136e-03
-5.091485376278766e-02 -5.174943184184102e-02 1.738165363133988e-01 -2.443790364133189e-04 5.105679705377392e-03 -1.553015788276076e-03
-1.450175601289726e-02 -3.587632988753954e-02 1.549694373295867e-01 -2.870820599299763e-04 1.178731600220379e-02 -1.152496964326900e-02
-8.676306717440758e-02 -1.823422547376258e-02 1.715407217541453e-01 -3.211823117814822e-04 -2.242812945651746e-05 -1.523247520340471e-02
-1.416656883413720e-02 -3.587211509894781e-02 1.581936405969820e-01 5.685880519650702e-04 -1.767575675644148e-02 -1.115430755951710e-02
-2.758812371169534e-02 -1.717191518448742e-02 1.474438979565229e-01 9.163142319980573e-05 -1.426109580514485e-05 6.202119951379600e-03
-5.115381024896989e-02 -5.176267281228950e-02 1.758358045422481e-01 -2.992542585954489e-04 -3.543135605533944e-03 3.406853903860683e-03
-5.344229988426640e-02 -5.153863409107455e-02 1.589744350066353e-01 -5.608148045404360e-04 3.983812099657969e-04 3.411333364486975e-03
-5.094453321358582e-02 -5.174879053391507e-02 1.738398767334338e-01 4.887580728267767e-04 5.101076922951628e-03 3.106031576552029e-03
-5.198133670182845e-02 -5.145502950087846e-02 1.804696680752424e-01 2.662268907460669e-05 2.853927366513993e-04 -2.054215573556756e-03
-4.688350019275146e-02 -4.811118870262820e-02 1.849590295972030e-01 3.223869146074901e-04 2.514256480956190e-03 4.395733478648614e-03
-4.802337571800404e-02 -4.448775468599049e-02 1.575783009174765e-01 -2.333180315093186e-03 2.463544221729121e-03 3.041424983875412e-02
-4.870083760686159e-02 -4.447143274552900e-02 1.611487715207067e-01 2.786276004073331e-03 -2.885603348728795e-03 2.928373894466908e-02
-4.634162681850717e-02 -4.809914231998533e-02 1.889807961567310e-01 -6.454960861508585e-04 -2.995477705405556e-03 4.371827644856652e-03
-4.814934498545224e-02 -4.723742338478885e-02 1.755921732008403e-01 2.158357201540808e-04 -1.011070855802470e-03 4.444984781175740e-03
-4.642297684261779e-02 -4.809595831518154e-02 1.492590007743448e-01 9.516996117154597e-04 -1.062222932992228e-03 3.310123427169085e-02
-4.664323872039615e-02 -4.811026027470870e-02 1.847141714005984e-01 -6.447738292150977e-04 2.493671413556006e-03 -8.791466957297168e-03
-4.584675973158742e-02 -4.809954580679512e-02 1.887324349437028e-01 1.290992172302411e-03 -2.956912749564348e-03 -8.743655289712845e-03
-1.528400327659353e-02 -1.717140899608453e-02 1.471584060431123e-01 -1.832628463994072e-04 -1.436633839360809e-05 -1.240423990275901e-02
-5.164215111333286e-02 -5.145465952837523e-02 1.804963678480946e-01 -5.324537814900431e-05 2.870305307566232e-04 4.108431147113425e-03
-4.850278248416698e-02 -4.723933024353886e-02 1.753541808403007e-01 -4.316714403082915e-04 -1.021174186102239e-03 -8.889969562351779e-03
-6.332765566059648e-02 -1.770332342333652e-02 1.596350558120367e-01 2.523626434811182e-04 -1.829199133832017e-05 1.380405358521425e-02
-1.528400327659353e-02 -1.717140899608453e-02 1.471584060431123e-01 -1.832628463994072e-04 -1.436633839360809e-05 -1.240423990275901e-02
-1.650018053567430e-02 -8.921949770937357e-02 1.620358269281880e-01 5.223836178677155e-04 -1.981919003005332e-04 -1.328085787570938e-02
-5.699784793015891e-02 -8.151589299443519e-02 1.750060802348109e-01 -3.242234059380375e-03 1.625182619314026e-03 1.171645170185086e-02
-5.288141108729757e-02 -5.149701678222993e-02 1.697087016545111e-01 3.068973889240186e-04 3.410680762532267e-04 -3.755111868245136e-03
-5.164215111333286e-02 -5.145465952837523e-02 1.804963678480946e-01 -5.324537814900431e-05 2.870305307566232e-04 4.108431147113425e-03
-5.123425480879273e-02 -5.251612837733399e-02 1.665328758952422e-01 6.529692916507973e-04 1.635513997084583e-03 5.069243174875026e-03
-5.251565944701495e-02 -4.883364989220804e-02 1.555746935428244e-01 -1.305435779256948e-04 -7.195643365333127e-04 -1.522364503638858e-03
-2.758812371169534e-02 -1.717191518448742e-02 1.474438979565229e-01 9.163142319980573e-05 -1.426109580514485e-05 6.202119951379600e-03
-1.416656883413720e-02 -3.587211509894781e-02 1.581936405969820e-01 5.685880519650702e-04 -1.767575675644148e-02 -1.115430755951710e-02
-2.684420729793737e-02 -8.922373511561509e-02 1.623762070324015e-01 -2.611918089334782e-04 -1.859001728369020e-04 6.640428937854478e-03
-5.957474032193390e-02 -3.422732590976322e-02 1.706207517560838e-01 -3.018202888837414e-03 -1.749284296849389e-02 1.377592203320871e-02
-5.198133670182845e-02 -5.145502950087846e-02 1.804696680752424e-01 2.662268907460669e-05 2.853927366513993e-04 -2.054215573556756e-03
-5.094453321358582e-02 -5.174879053391507e-02 1.738398767334338e-01 4.887580728267767e-04 5.101076922951628e-03 3.106031576552029e-03
-5.158712891013711e-02 -5.251519056986206e-02 1.664916998038334e-01 -3.264846458253490e-04 1.630180884348286e-03 -2.534621587437390e-03
-5.072443097213437e-02 -5.085759000064489e-02 1.633883375725840e-01 -1.657122860335268e-03 4.978952330255028e-03 -3.239423906594617e-03
-4.710944216468150e-02 -4.766573742059780e-02 1.625445831678679e-01 -2.593454656884927e-04 -1.031595229244152e-03 -1.206176987486173e-02
-4.850278248416698e-02 -4.723933024353886e-02 1.753541808403007e-01 -4.316714403082915e-04 -1.021174186102239e-03 -8.889969562351779e-03
-5.026518156207468e-02 -5.097743979611610e-02 1.366946455489199e-01 -8.758012070459208e-04 2.348668422834390e-02 -8.573209105338589e-03
-3.801978742537196e-02 -4.255325461784387e-02 1.263839989658614e-01 -6.998078341038774e-03 2.219448429654301e-02 -1.117748201156970e-02
-4.776866575613948e-02 -4.628508578936552e-02 1.751889644452380e-01 -2.039169789244625e-03 -2.959823004991103e-03 -1.023075125233615e-02
-4.584675973158742e-02 -4.809954580679512e-02 1.887324349437028e-01 1.290992172302411e-03 -2.956912749564348e-03 -8.743655289712845e-03
-4.814934498545224e-02 -4.723742338478885e-02 1.755921732008403e-01 2.158357201540808e-04 -1.011070855802470e-03 4.444984781175740e-03
-4.717584074753525e-02 -5.098466367408025e-02 1.369051481138187e-01 4.379006035222253e-04 2.354083646183765e-02 4.286604552669420e-03
-2.578366983560608e-02 -3.587437294166927e-02 1.584059552368896e-01 -2.842940259827369e-04 -1.765152153036066e-02 5.577153779758341e-03
-5.091485376278766e-02 -5.174943184184102e-02 1.738165363133988e-01 -2.443790364133189e-04 5.105679705377392e-03 -1.553015788276076e-03
-4.634162681850717e-02 -4.809914231998533e-02 1.889807961567310e-01 -6.454960861508585e-04 -2.995477705405556e-03 4.371827644856652e-03
-2.758812371169534e-02 -1.717191518448742e-02 1.474438979565229e-01 9.163142319980573e-05 -1.426109580514485e-05 6.202119951379600e-03
-8.676306717440758e-02 -1.823422547376258e-02 1.715407217541453e-01 -3.211823117814822e-04 -2.242812945651746e-05 -1.523247520340471e-02
-7.680746180011858e-02 -7.380381346700599e-02 1.872955733330145e-01 5.965201701637205e-03 3.423973684024070e-03 -1.017104566434232e-02
-2.684420729793737e-02 -8.922373511561509e-02 1.623762070324015e-01 -2.611918089334782e-04 -1.859001728369020e-04 6.640428937854478e-03
-5.198133670182845e-02 -5.145502950087846e-02 1.804696680752424e-01 2.662268907460669e-05 2.853927366513993e-04 -2.054215573556756e-03
-5.344229988426640e-02 -5.153863409107455e-02 1.589744350066353e-01 -5.608148045404360e-04 3.983812099657969e-04 3.411333364486975e-03
-5.309131588252776e-02 -4.515304702205884e-02 1.446988633731934e-01 -3.922021461432934e-04 -3.063976444652884e-03 -2.008304365938897e-03
-5.158712891013711e-02 -5.251519056986206e-02 1.664916998038334e-01 -3.264846458253490e-04 1.630180884348286e-03 -2.534621587437390e-03
-1.528400327659353e-02 -1.717140899608453e-02 1.471584060431123e-01 -1.832628463994072e-04 -1.436633839360809e-05 -1.240423990275901e-02
-8.174870980678491e-02 -3.257802103515241e-02 1.826232336353792e-01 5.471912963465771e-03 -1.735839963271499e-02 -1.642488264748315e-02
-1.650018053567430e-02 -8.921949770937357e-02 1.620358269281880e-01 5.223836178677155e-04 -1.981919003005332e-04 -1.328085787570938e-02
-2.578366983560608e-02 -3.587437294166927e-02 1.584059552368896e-01 -2.842940259827369e-04 -1.765152153036066e-02 5.577153779758341e-03
-5.164215111333286e-02 -5.145465952837523e-02 1.804963678480946e-01 -5.324537814900431e-05 2.870305307566232e-04 4.108431147113425e-03
-5.056368763228306e-02 -4.996510685151833e-02 1.529834792518245e-01 2.825715767811281e-03 4.847622172701946e-03 3.378840662517136e-03
-5.123425480879273e-02 -5.251612837733399e-02 1.665328758952422e-01 6.529692916507973e-04 1.635513997084583e-03 5.069243174875026e-03
-5.091485376278766e-02 -5.174943184184102e-02 1.738165363133988e-01 -2.443790364133189e-04 5.105679705377392e-03 -1.553015788276076e-03
-4.814934498545224e-02 -4.723742338478885e-02 1.755921732008403e-01 2.158357201540808e-04 -1.011070855802470e-03 4.444984781175740e-03
-4.642297684261779e-02 -4.809595831518154e-02 1.492590007743448e-01 9.516996117154597e-04 -1.062222932992228e-03 3.310123427169085e-02
-3.195307491772544e-02 -3.411462168366201e-02 1.156523472529898e-01 1.487457199802860e-02 2.079397989771686e-02 3.099275737808189e-02
-4.717584074753525e-02 -5.098466367408025e-02 1.369051481138187e-01 4.379006035222253e-04 2.354083646183765e-02 4.286604552669420e-03
-4.634162681850717e-02 -4.809914231998533e-02 1.889807961567310e-01 -6.454960861508585e-04 -2.995477705405556e-03 4.371827644856652e-03
-4.870083760686159e-02 -4.447143274552900e-02 1.611487715207067e-01 2.786276004073331e-03 -2.885603348728795e-03 2.928373894466908e-02
-4.850278248416698e-02 -4.723933024353886e-02 1.753541808403007e-01 -4.316714403082915e-04 -1.021174186102239e-03 -8.889969562351779e-03
-5.026518156207468e-02 -5.097743979611610e-02 1.366946455489199e-01 -8.758012070459208e-04 2.348668422834390e-02 -8.573209105338589e-03
-1.416656883413720e-02 -3.587211509894781e-02 1.581936405969820e-01 5.685880519650702e-04 -1.767575675644148e-02 -1.115430755951710e-02
-5.094453321358582e-02 -5.174879053391507e-02 1.738398767334338e-01 4.887580728267767e-04 5.101076922951628e-03 3.106031576552029e-03
-4.584675973158742e-02 -4.809954580679512e-02 1.887324349437028e-01 1.290992172302411e-03 -2.956912749564348e-03 -8.743655289712845e-03
        </DataArray>
        <DataArray type="Float64" Name="nodal_cauchy_stresses_xyz" NumberOfComponents="6" format="ascii">
1.220977044860655e-01 1.228582728753560e-01 3.487459831160753e-01 1.747661495375581e-02 9.399511678284750e-02 9.358331230273180e-02
8.677884166538262e-02 1.015771249650972e-01 2.612953885790253e-01 -1.280224286983006e-03 8.902757159368624e-02 -1.563354304696883e-03
6.267749144160102e-02 6.309490557845625e-02 1.778644775146780e-01 1.610544205518360e-05 -2.559020868782172e-03 -3.927409616852918e-04
1.009007790004427e-01 8.672178186782881e-02 2.613682001878430e-01 -7.476254860548404e-04 -3.073691334787382e-03 9.015619453783152e-02
2.647518626229423e-03 2.600302397898453e-03 1.899488520989304e-01 3.108986993137391e-03 -7.316311994572472e-03 -8.671954080334705e-03
-5.844744030670476e-04 4.431071279229725e-04 2.081461371439356e-01 8.027223695019679e-04 -7.764969756154805e-03 -1.210793032965347e-02
6.827199491445861e-03 8.139281975707192e-03 2.318569119274214e-01 -2.273524484178155e-04 -1.604228372156683e-03 -1.277301222615001e-02
2.789969306837489e-03 1.410360574095740e-03 2.087102353741010e-01 -2.002152700953796e-04 -1.569391982134226e-03 -9.912507160968352e-03
8.251735650558700e-02 1.007811962493265e-01 2.577244582986694e-01 6.401121434915745e-04 8.876246197840895e-02 7.816771523483424e-04
5.660324598908854e-02 5.436350142760699e-02 1.555740109515188e-01 -1.397360253687821e-04 1.654635873828686e-02 -1.431020796974517e-04
5.770919759695281e-02 6.197950637748946e-02 1.736854255550447e-01 -8.052721027712273e-06 -2.537509624922490e-03 1.963704808424807e-04
9.350101646145015e-02 7.863759453433332e-02 2.377826829059651e-01 4.100552736191608e-03 1.867706036588880e-02 8.267209381421756e-02
1.566294150668851e-03 1.037363011696021e-03 2.088996322263881e-01 -4.013611847508275e-04 -7.765823144388471e-03 6.053965164826487e-03
1.340594668594251e-02 1.283467427585810e-02 2.500968781599354e-01 -8.156818101758309e-04 5.555802315876039e-03 -1.325898294438468e-02
7.910145956711545e-03 8.441295178016390e-03 2.323438504928481e-01 1.136762242088530e-04 -1.599606662681784e-03 6.386506113074825e-03
7.313504885387117e-03 7.672328730422203e-03 2.258270010664842e-01 6.008418277702143e-04 5.177582612198871e-03 -8.612151390832736e-03
-1.199096935592879e-02 -1.598575245039608e-02 2.150594189748920e-01 1.455309494135440e-03 1.287279125865751e-02 1.887457396072381e-02
3.023044658658293e-02 -8.049555967889151e-03 2.096156495401758e-01 -1.461743921049491e-03 1.395247593237968e-02 -1.635124621593467e-02
4.782047054440384e-02 4.612378685188816e-02 2.110298476695363e-01 -4.906111696874904e-05 -1.264598776815306e-03 -1.596968174542542e-02
-2.996465342955166e-03 2.914301584098846e-02 2.101218543415377e-01 1.210092672981128e-04 -1.318703891639213e-03 1.992908385172660e-02
-4.085386092036632e-03 1.470063178959555e-02 2.169265432620578e-01 2.327025222001653e-03 1.541253494664944e-02 2.077971127621738e-02
4.374956389927626e-02 2.853474672045018e-02 2.158230950553139e-01 -9.247188498564404e-04 1.510497739616233e-02 -1.517303178704940e-02
1.694892281743563e-02 -1.318572615687239e-02 2.044810041144630e-01 7.308719605246365e-04 1.397129872428473e-02 8.175623107967612e-03
3.320479515110290e-02 4.050205903553188e-02 2.055614522967706e-01 2.453055848445635e-05 -1.263279959824612e-03 7.984840872712819e-03
5.222470285546776e-02 5.338756671124315e-02 1.517862875095847e-01 6.986801268442975e-05 1.644392797782505e-02 7.155103984883191e-05
1.383752279844587e-02 1.293704104590353e-02 2.504590420425253e-01 4.078409050878848e-04 5.588339853894805e-03 6.629491472192349e-03
2.945797990010434e-02 2.301591511930652e-02 2.103301353627456e-01 4.623594249281854e-04 1.508918364890698e-02 7.586515893524610e-03
8.251735650558700e-02 1.007811962493265e-01 2.577244582986694e-01 6.401121434915745e-04 8.876246197840895e-02 7.816771523483424e-04
1.659395376263355e-01 1.457312782171643e-01 4.433384382138433e-01 -3.369526979897512e-02 9.949288120256181e-02 -1.849171396397683e-01
1.490606542485787e-01 1.125794565591197e-01 3.532300267802626e-01 1.477356613608506e-03 -3.631384288518148e-03 -1.791676881154600e-01
5.770919759695281e-02 6.197950637748946e-02 1.736854255550447e-01 -8.052721027712273e-06 -2.537509624922490e-03 1.963704808424807e-04
1.566294150668851e-03 1.037363011696021e-03 2.088996322263881e-01 -4.013611847508275e-04 -7.765823144388471e-03 6.053965164826487e-03
1.577974548047882e-03 3.568985900320991e-03 1.702445768890144e-01 -7.016274410543638e-03 -6.865947456527221e-03 2.956946401601742e-02
-3.413153808309535e-03 -5.922587232165325e-03 1.845896816899014e-01 6.289509835597936e-04 -1.543799011068742e-03 3.274454130940600e-02
7.910145956711545e-03 8.441295178016390e-03 2.323438504928481e-01 1.136762242088530e-04 -1.599606662681784e-03 6.386506113074825e-03
8.677884166538262e-02 1.015771249650972e-01 2.612953885790253e-01 -1.280224286983006e-03 8.902757159368624e-02 -1.563354304696883e-03
1.391558732010562e-01 1.048635570737974e-01 3.275668017442851e-01 -8.051711292222468e-03 2.101262351441972e-02 -1.644940705648444e-01
6.267749144160102e-02 6.309490557845625e-02 1.778644775146780e-01 1.610544205518360e-05 -2.559020868782172e-03 -3.927409616852918e-04
5.222470285546776e-02 5.338756671124315e-02 1.517862875095847e-01 6.986801268442975e-05 1.644392797782505e-02 7.155103984883191e-05
-5.844744030670476e-04 4.431071279229725e-04 2.081461371439356e-01 8.027223695019679e-04 -7.764969756154805e-03 -1.210793032965347e-02
3.579108598300597e-04 2.305249644912386e-03 2.008327962078690e-01 -3.850344345498846e-04 4.734287832491565e-03 3.061406420993435e-02
6.827199491445861e-03 8.139281975707192e-03 2.318569119274214e-01 -2.273524484178155e-04 -1.604228372156683e-03 -1.277301222615001e-02
1.383752279844587e-02 1.293704104590353e-02 2.504590420425253e-01 4.078409050878848e-04 5.588339853894805e-03 6.629491472192349e-03
1.694892281743563e-02 -1.318572615687239e-02 2.044810041144630e-01 7.308719605246365e-04 1.397129872428473e-02 8.175623107967612e-03
-2.764933776014670e-02 -1.364960855493193e-02 2.307724792610307e-01 -1.455087715172215e-03 1.175546100112431e-02 -2.144588165949947e-02
-2.458205044371447e-02 2.340570046282218e-02 2.201506517590843e-01 -1.922694750934335e-04 -1.375446640440589e-03 -2.395287672835206e-02
3.320479515110290e-02 4.050205903553188e-02 2.055614522967706e-01 2.453055848445635e-05 -1.263279959824612e-03 7.984840872712819e-03
2.945797990010434e-02 2.301591511930652e-02 2.103301353627456e-01 4.623594249281854e-04 1.508918364890698e-02 7.586515893524610e-03
-2.333716808500441e-02 1.190418006101661e-02 2.290159108539286e-01 -3.732987915670513e-03 1.575167999164401e-02 -2.644042994979189e-02
3.023044658658293e-02 -8.049555967889151e-03 2.096156495401758e-01 -1.461743921049491e-03 1.395247593237968e-02 -1.635124621593467e-02
4.782047054440384e-02 4.612378685188816e-02 2.110298476695363e-01 -4.906111696874904e-05 -1.264598776815306e-03 -1.596968174542542e-02
5.660324598908854e-02 5.436350142760699e-02 1.555740109515188e-01 -1.397360253687821e-04 1.654635873828686e-02 -1.431020796974517e-04
1.340594668594251e-02 1.283467427585810e-02 2.500968781599354e-01 -8.156818101758309e-04 5.555802315876039e-03 -1.325898294438468e-02
4.374956389927626e-02 2.853474672045018e-02 2.158230950553139e-01 -9.247188498564404e-04 1.510497739616233e-02 -1.517303178704940e-02
9.350101646145015e-02 7.863759453433332e-02 2.377826829059651e-01 4.100552736191608e-03 1.867706036588880e-02 8.267209381421756e-02
5.660324598908854e-02 5.436350142760699e-02 1.555740109515188e-01 -1.397360253687821e-04 1.654635873828686e-02 -1.431020796974517e-04
5.442528016759345e-02 5.269990059919473e-02 1.482398047486033e-01 1.937192530733132e-04 -2.272331623372223e-02 -7.975712374262353e-05
9.056867887602912e-02 7.694142294856027e-02 2.295836246779606e-01 -5.583445556942193e-03 -2.554635572615489e-02 7.955966648808266e-02
7.313504885387117e-03 7.672328730422203e-03 2.258270010664842e-01 6.008418277702143e-04 5.177582612198871e-03 -8.612151390832736e-03
1.340594668594251e-02 1.283467427585810e-02 2.500968781599354e-01 -8.156818101758309e-04 5.555802315876039e-03 -1.325898294438468e-02
1.627976537038761e-02 1.518950489784372e-02 2.579063611665298e-01 1.394263869635863e-03 -7.083561616616001e-03 -1.347263855736412e-02
8.971211806687323e-03 9.621751136310719e-03 2.328730754902311e-01 -7.458729242245440e-04 -6.546728114409953e-03 -8.094251679369715e-03
5.222470285546776e-02 5.338756671124315e-02 1.517862875095847e-01 6.986801268442975e-05 1.644392797782505e-02 7.155103984883191e-05
6.267749144160102e-02 6.309490557845625e-02 1.778644775146780e-01 1.610544205518360e-05 -2.559020868782172e-03 -3.927409616852918e-04
5.028726328513322e-02 5.176416679016353e-02 1.446090690982400e-01 -9.685962653646694e-05 -2.258501181123010e-02 3.987856187119120e-05
1.009007790004427e-01 8.672178186782881e-02 2.613682001878430e-01 -7.476254860548404e-04 -3.073691334787382e-03 9.015619453783152e-02
1.383752279844587e-02 1.293704104590353e-02 2.504590420425253e-01 4.078409050878848e-04 5.588339853894805e-03 6.629491472192349e-03
6.827199491445861e-03 8.139281975707192e-03 2.318569119274214e-01 -2.273524484178155e-04 -1.604228372156683e-03 -1.277301222615001e-02
1.643411777724611e-02 1.520945343969931e-02 2.582120800491297e-01 -6.971319348176831e-04 -7.135676150928602e-03 6.736319278682336e-03
2.789969306837489e-03 1.410360574095740e-03 2.087102353741010e-01 -2.002152700953796e-04 -1.569391982134226e-03 -9.912507160968352e-03
-4.085386092036632e-03 1.470063178959555e-02 2.169265432620578e-01 2.327025222001653e-03 1.541253494664944e-02 2.077971127621738e-02
4.374956389927626e-02 2.853474672045018e-02 2.158230950553139e-01 -9.247188498564404e-04 1.510497739616233e-02 -1.517303178704940e-02
4.573111684686706e-02 3.064360706440152e-02 2.215881936681564e-01 1.424843135357024e-03 -2.173000690288501e-02 -1.486514944131534e-02
-1.180709157142772e-03 1.721324814469338e-02 2.232818394508113e-01 -3.584551488173522e-03 -2.214797807553801e-02 2.120025499901792e-02
-2.996465342955166e-03 2.914301584098846e-02 2.101218543415377e-01 1.210092672981128e-04 -1.318703891639213e-03 1.992908385172660e-02
4.782047054440384e-02 4.612378685188816e-02 2.110298476695363e-01 -4.906111696874904e-05 -1.264598776815306e-03 -1.596968174542542e-02
2.945797990010434e-02 2.301591511930652e-02 2.103301353627456e-01 4.623594249281854e-04 1.508918364890698e-02 7.586515893524610e-03
3.163613714924941e-02 2.522872215064249e-02 2.161866842294772e-01 -7.124215676786693e-04 -2.170718930341592e-02 7.432574720657466e-03
5.770919759695281e-02 6.197950637748946e-02 1.736854255550447e-01 -8.052721027712273e-06 -2.537509624922490e-03 1.963704808424807e-04
7.910145956711545e-03 8.441295178016390e-03 2.323438504928481e-01 1.136762242088530e-04 -1.599606662681784e-03 6.386506113074825e-03
3.320479515110290e-02 4.050205903553188e-02 2.055614522967706e-01 2.453055848445635e-05 -1.263279959824612e-03 7.984840872712819e-03
5.222470285546776e-02 5.338756671124315e-02 1.517862875095847e-01 6.986801268442975e-05 1.644392797782505e-02 7.155103984883191e-05
1.391558732010562e-01 1.048635570737974e-01 3.275668017442851e-01 -8.051711292222468e-03 2.101262351441972e-02 -1.644940705648444e-01
1.349881113493863e-01 1.030544129159980e-01 3.181889159080460e-01 1.095991873116135e-02 -2.864600406356606e-02 -1.583552272248193e-01
5.028726328513322e-02 5.176416679016353e-02 1.446090690982400e-01 -9.685962653646694e-05 -2.258501181123010e-02 3.987856187119120e-05
1.383752279844587e-02 1.293704104590353e-02 2.504590420425253e-01 4.078409050878848e-04 5.588339853894805e-03 6.629491472192349e-03
3.579108598300597e-04 2.305249644912386e-03 2.008327962078690e-01 -3.850344345498846e-04 4.734287832491565e-03 3.061406420993435e-02
1.353953429266502e-03 4.014100291088564e-03 2.072283520487214e-01 9.518366797216780e-05 -5.905665543570700e-03 2.978416999750893e-02
1.643411777724611e-02 1.520945343969931e-02 2.582120800491297e-01 -6.971319348176831e-04 -7.135676150928602e-03 6.736319278682336e-03
5.660324598908854e-02 5.436350142760699e-02 1.555740109515188e-01 -1.397360253687821e-04 1.654635873828686e-02 -1.431020796974517e-04
1.490606542485787e-01 1.125794565591197e-01 3.532300267802626e-01 1.477356613608506e-03 -3.631384288518148e-03 -1.791676881154600e-01
5.442528016759345e-02 5.269990059919473e-02 1.482398047486033e-01 1.937192530733132e-04 -2.272331623372223e-02 -7.975712374262353e-05
5.770919759695281e-02 6.197950637748946e-02 1.736854255550447e-01 -8.052721027712273e-06 -2.537509624922490e-03 1.963704808424807e-04
1.340594668594251e-02 1.283467427585810e-02 2.500968781599354e-01 -8.156818101758309e-04 5.555802315876039e-03 -1.325898294438468e-02
-3.413153808309535e-03 -5.922587232165325e-03 1.845896816899014e-01 6.289509835597936e-04 -1.543799011068742e-03 3.274454130940600e-02
1.627976537038761e-02 1.518950489784372e-02 2.579063611665298e-01 1.394263869635863e-03 -7.083561616616001e-03 -1.347263855736412e-02
7.910145956711545e-03 8.441295178016390e-03 2.323438504928481e-01 1.136762242088530e-04 -1.599606662681784e-03 6.386506113074825e-03
2.945797990010434e-02 2.301591511930652e-02 2.103301353627456e-01 4.623594249281854e-04 1.508918364890698e-02 7.586515893524610e-03
-2.333716808500441e-02 1.190418006101661e-02 2.290159108539286e-01 -3.732987915670513e-03 1.575167999164401e-02 -2.644042994979189e-02
-1.990257576591232e-02 1.461265905249129e-02 2.357785041108344e-01 5.749280255332460e-03 -2.261158444713750e-02 -2.758521804890478e-02
3.163613714924941e-02 2.522872215064249e-02 2.161866842294772e-01 -7.124215676786693e-04 -2.170718930341592e-02 7.432574720657466e-03
3.320479515110290e-02 4.050205903553188e-02 2.055614522967706e-01 2.453055848445635e-05 -1.263279959824612e-03 7.984840872712819e-03
-2.458205044371447e-02 2.340570046282218e-02 2.201506517590843e-01 -1.922694750934335e-04 -1.375446640440589e-03 -2.395287672835206e-02
4.374956389927626e-02 2.853474672045018e-02 2.158230950553139e-01 -9.247188498564404e-04 1.510497739616233e-02 -1.517303178704940e-02
4.573111684686706e-02 3.064360706440152e-02 2.215881936681564e-01 1.424843135357024e-03 -2.173000690288501e-02 -1.486514944131534e-02
6.267749144160102e-02 6.309490557845625e-02 1.778644775146780e-01 1.610544205518360e-05 -2.559020868782172e-03 -3.927409616852918e-04
6.827199491445861e-03 8.139281975707192e-03 2.318569119274214e-01 -2.273524484178155e-04 -1.604228372156683e-03 -1.277301222615001e-02
4.782047054440384e-02 4.612378685188816e-02 2.110298476695363e-01 -4.906111696874904e-05 -1.264598776815306e-03 -1.596968174542542e-02
1.009007790004427e-01 8.672178186782881e-02 2.613682001878430e-01 -7.476254860548404e-04 -3.073691334787382e-03 9.015619453783152e-02
6.267749144160102e-02 6.309490557845625e-02 1.778644775146780e-01 1.610544205518360e-05 -2.559020868782172e-03 -3.927409616852918e-04
1.196166702508475e-01 1.528158120334743e-01 3.768046632538030e-01 2.388942978638365e-03 -1.573163407016719e-01 -3.096584808231127e-03
1.538669978904866e-01 1.707636753431081e-01 4.699716545967842e-01 -2.971791007662510e-02 -1.643747035544452e-01 1.076930002904967e-01
2.789969306837489e-03 1.410360574095740e-03 2.087102353741010e-01 -2.002152700953796e-04 -1.569391982134226e-03 -9.912507160968352e-03
6.827199491445861e-03 8.139281975707192e-03 2.318569119274214e-01 -2.273524484178155e-04 -1.604228372156683e-03 -1.277301222615001e-02
-1.732934117844091e-02 -1.386271008419110e-02 1.583721766699048e-01 -2.079644240434324e-03 2.358602554260193e-02 -1.075304019243810e-02
-4.042797682063778e-03 -5.497590732279995e-03 1.465974148497904e-01 -5.306352523638455e-03 2.224949820912474e-02 -9.312190091084915e-03
5.770919759695281e-02 6.197950637748946e-02 1.736854255550447e-01 -8.052721027712273e-06 -2.537509624922490e-03 1.963704808424807e-04
5.442528016759345e-02 5.269990059919473e-02 1.482398047486033e-01 1.937192530733132e-04 -2.272331623372223e-02 -7.975712374262353e-05
1.152159284983349e-01 1.521324666015753e-01 3.732764003165991e-01 -1.194471489319708e-03 -1.569192356679778e-01 1.548292404116613e-03
9.056867887602912e-02 7.694142294856027e-02 2.295836246779606e-01 -5.583445556942193e-03 -2.554635572615489e-02 7.955966648808266e-02
7.910145956711545e-03 8.441295178016390e-03 2.323438504928481e-01 1.136762242088530e-04 -1.599606662681784e-03 6.386506113074825e-03
1.627976537038761e-02 1.518950489784372e-02 2.579063611665298e-01 1.394263869635863e-03 -7.083561616616001e-03 -1.347263855736412e-02
-1.318025958855319e-02 -1.269157012989243e-02 1.595668161043784e-01 1.039822120216533e-03 2.361365340248443e-02 5.376520096219145e-03
8.971211806687323e-03 9.621751136310719e-03 2.328730754902311e-01 -7.458729242245440e-04 -6.546728114409953e-03 -8.094251679369715e-03
-2.996465342955166e-03 2.914301584098846e-02 2.101218543415377e-01 1.210092672981128e-04 -1.318703891639213e-03 1.992908385172660e-02
4.782047054440384e-02 4.612378685188816e-02 2.110298476695363e-01 -4.906111696874904e-05 -1.264598776815306e-03 -1.596968174542542e-02
1.994434843624093e-02 -3.315692486472906e-02 2.028902117086421e-01 2.074298713387580e-03 -1.094505608589077e-02 -1.788189586273299e-02
-1.808211447565831e-02 -3.692458052167966e-02 2.116995101460727e-01 -7.716210766134254e-04 -8.391398881796568e-03 1.663645922002366e-02
-1.180709157142772e-03 1.721324814469338e-02 2.232818394508113e-01 -3.584551488173522e-03 -2.214797807553801e-02 2.120025499901792e-02
4.573111684686706e-02 3.064360706440152e-02 2.215881936681564e-01 1.424843135357024e-03 -2.173000690288501e-02 -1.486514944131534e-02
3.320479515110290e-02 4.050205903553188e-02 2.055614522967706e-01 2.453055848445635e-05 -1.263279959824612e-03 7.984840872712819e-03
7.556868240353376e-03 -3.793055511228648e-02 1.981643182785922e-01 -1.037149356693403e-03 -1.100024145976641e-02 8.940947931366194e-03
5.028726328513322e-02 5.176416679016353e-02 1.446090690982400e-01 -9.685962653646694e-05 -2.258501181123010e-02 3.987856187119120e-05
1.643411777724611e-02 1.520945343969931e-02 2.582120800491297e-01 -6.971319348176831e-04 -7.135676150928602e-03 6.736319278682336e-03
3.163613714924941e-02 2.522872215064249e-02 2.161866842294772e-01 -7.124215676786693e-04 -2.170718930341592e-02 7.432574720657466e-03
5.770919759695281e-02 6.197950637748946e-02 1.736854255550447e-01 -8.052721027712273e-06 -2.537509624922490e-03 1.963704808424807e-04
1.490606542485787e-01 1.125794565591197e-01 3.532300267802626e-01 1.477356613608506e-03 -3.631384288518148e-03 -1.791676881154600e-01
1.969188090351583e-01 1.900782295165322e-01 5.701951718141065e-01 5.710353189138427e-02 -1.722272764746050e-01 -2.116057946767231e-01
1.152159284983349e-01 1.521324666015753e-01 3.732764003165991e-01 -1.194471489319708e-03 -1.569192356679778e-01 1.548292404116613e-03
7.910145956711545e-03 8.441295178016390e-03 2.323438504928481e-01 1.136762242088530e-04 -1.599606662681784e-03 6.386506113074825e-03
-3.413153808309535e-03 -5.922587232165325e-03 1.845896816899014e-01 6.289509835597936e-04 -1.543799011068742e-03 3.274454130940600e-02
9.455826345472342e-04 5.252487110177896e-04 1.324333741607032e-01 1.268277841883964e-02 2.085771515584057e-02 2.948830795399062e-02
-1.318025958855319e-02 -1.269157012989243e-02 1.595668161043784e-01 1.039822120216533e-03 2.361365340248443e-02 5.376520096219145e-03
6.267749144160102e-02 6.309490557845625e-02 1.778644775146780e-01 1.610544205518360e-05 -2.559020868782172e-03 -3.927409616852918e-04
1.349881113493863e-01 1.030544129159980e-01 3.181889159080460e-01 1.095991873116135e-02 -2.864600406356606e-02 -1.583552272248193e-01
1.196166702508475e-01 1.528158120334743e-01 3.768046632538030e-01 2.388942978638365e-03 -1.573163407016719e-01 -3.096584808231127e-03
5.028726328513322e-02 5.176416679016353e-02 1.446090690982400e-01 -9.685962653646694e-05 -2.258501181123010e-02 3.987856187119120e-05
6.827199491445861e-03 8.139281975707192e-03 2.318569119274214e-01 -2.273524484178155e-04 -1.604228372156683e-03 -1.277301222615001e-02
1.353953429266502e-03 4.014100291088564e-03 2.072283520487214e-01 9.518366797216780e-05 -5.905665543570700e-03 2.978416999750893e-02
-1.732934117844091e-02 -1.386271008419110e-02 1.583721766699048e-01 -2.079644240434324e-03 2.358602554260193e-02 -1.075304019243810e-02
1.643411777724611e-02 1.520945343969931e-02 2.582120800491297e-01 -6.971319348176831e-04 -7.135676150928602e-03 6.736319278682336e-03
3.320479515110290e-02 4.050205903553188e-02 2.055614522967706e-01 2.453055848445635e-05 -1.263279959824612e-03 7.984840872712819e-03
-2.458205044371447e-02 2.340570046282218e-02 2.201506517590843e-01 -1.922694750934335e-04 -1.375446640440589e-03 -2.395287672835206e-02
-3.133361699577878e-02 -3.114497568350695e-02 2.299605954436190e-01 -5.232157216770125e-04 -5.727370929925309e-03 -1.543747967572848e-02
7.556868240353376e-03 -3.793055511228648e-02 1.981643182785922e-01 -1.037149356693403e-03 -1.100024145976641e-02 8.940947931366194e-03
3.163613714924941e-02 2.522872215064249e-02 2.161866842294772e-01 -7.124215676786693e-04 -2.170718930341592e-02 7.432574720657466e-03
-1.990257576591232e-02 1.461265905249129e-02 2.357785041108344e-01 5.749280255332460e-03 -2.261158444713750e-02 -2.758521804890478e-02
4.782047054440384e-02 4.612378685188816e-02 2.110298476695363e-01 -4.906111696874904e-05 -1.264598776815306e-03 -1.596968174542542e-02
1.994434843624093e-02 -3.315692486472906e-02 2.028902117086421e-01 2.074298713387580e-03 -1.094505608589077e-02 -1.788189586273299e-02
5.442528016759345e-02 5.269990059919473e-02 1.482398047486033e-01 1.937192530733132e-04 -2.272331623372223e-02 -7.975712374262353e-05
1.627976537038761e-02 1.518950489784372e-02 2.579063611665298e-01 1.394263869635863e-03 -7.083561616616001e-03 -1.347263855736412e-02
4.573111684686706e-02 3.064360706440152e-02 2.215881936681564e-01 1.424843135357024e-03 -2.173000690288501e-02 -1.486514944131534e-02
-1.199096935592879e-02 -1.598575245039608e-02 2.150594189748920e-01 1.455309494135440e-03 1.287279125865751e-02 1.887457396072381e-02
3.023044658658293e-02 -8.049555967889151e-03 2.096156495401758e-01 -1.461743921049491e-03 1.395247593237968e-02 -1.635124621593467e-02
4.782047054440384e-02 4.612378685188816e-02 2.110298476695363e-01 -4.906111696874904e-05 -1.264598776815306e-03 -1.596968174542542e-02
-2.996465342955166e-03 2.914301584098846e-02 2.101218543415377e-01 1.210092672981128e-04 -1.318703891639213e-03 1.992908385172660e-02
-5.350332047395394e-03 -4.035317332941239e-03 1.997582669718619e-01 1.701167333925551e-04 -3.027211874800937e-04 -7.598171778288856e-04
-5.080595163178360e-04 -1.385434570300016e-03 2.189010765455989e-01 -2.623502109527287e-04 -1.828817698862342e-03 3.780980561838091e-03
4.273074451385496e-03 4.393023149725363e-03 2.386362074896131e-01 -4.251365403841982e-05 2.913523333391248e-04 3.959640757814414e-03
-2.583117326762740e-03 -1.548980251393361e-03 2.174335909264848e-01 2.136324089917149e-04 3.175496207726834e-04 -2.473377701348263e-03
1.694892281743563e-02 -1.318572615687239e-02 2.044810041144630e-01 7.308719605246365e-04 1.397129872428473e-02 8.175623107967612e-03
4.374956389927626e-02 2.853474672045018e-02 2.158230950553139e-01 -9.247188498564404e-04 1.510497739616233e-02 -1.517303178704940e-02
3.320479515110290e-02 4.050205903553188e-02 2.055614522967706e-01 2.453055848445635e-05 -1.263279959824612e-03 7.984840872712819e-03
-4.085386092036632e-03 1.470063178959555e-02 2.169265432620578e-01 2.327025222001653e-03 1.541253494664944e-02 2.077971127621738e-02
-8.037818177560982e-04 -1.467874524909908e-03 2.187361925345336e-01 1.311751054762577e-04 -1.822174754040951e-03 -1.890490280918961e-03
2.417593466549507e-03 1.882433786272347e-03 2.298231224494760e-01 -1.971759440837734e-04 -3.092240985294233e-03 3.097509948383765e-03
3.806494804394429e-03 4.248470148106027e-03 2.384319902281993e-01 2.125682701928037e-05 2.904849540186056e-04 -1.979820378907270e-03
-2.709999248227226e-03 -2.387487554008473e-03 2.102296519375183e-01 6.152107000101891e-04 -2.946750017442631e-03 -2.080258478357294e-03
2.647518626229423e-03 2.600302397898453e-03 1.899488520989304e-01 3.108986993137391e-03 -7.316311994572472e-03 -8.671954080334705e-03
-5.844744030670476e-04 4.431071279229725e-04 2.081461371439356e-01 8.027223695019679e-04 -7.764969756154805e-03 -1.210793032965347e-02
6.827199491445861e-03 8.139281975707192e-03 2.318569119274214e-01 -2.273524484178155e-04 -1.604228372156683e-03 -1.277301222615001e-02
2.789969306837489e-03 1.410360574095740e-03 2.087102353741010e-01 -2.002152700953796e-04 -1.569391982134226e-03 -9.912507160968352e-03
7.313504885387117e-03 7.672328730422203e-03 2.258270010664842e-01 6.008418277702143e-04 5.177582612198871e-03 -8.612151390832736e-03
1.340594668594251e-02 1.283467427585810e-02 2.500968781599354e-01 -8.156818101758309e-04 5.555802315876039e-03 -1.325898294438468e-02
1.566294150668851e-03 1.037363011696021e-03 2.088996322263881e-01 -4.013611847508275e-04 -7.765823144388471e-03 6.053965164826487e-03
7.910145956711545e-03 8.441295178016390e-03 2.323438504928481e-01 1.136762242088530e-04 -1.599606662681784e-03 6.386506113074825e-03
2.945797990010434e-02 2.301591511930652e-02 2.103301353627456e-01 4.623594249281854e-04 1.508918364890698e-02 7.586515893524610e-03
2.253366855616036e-03 1.866270890402946e-03 2.297475601868907e-01 9.858797204185072e-05 -3.092405914548257e-03 -1.548754974192115e-03
1.383752279844587e-02 1.293704104590353e-02 2.504590420425253e-01 4.078409050878848e-04 5.588339853894805e-03 6.629491472192349e-03
1.694892281743563e-02 -1.318572615687239e-02 2.044810041144630e-01 7.308719605246365e-04 1.397129872428473e-02 8.175623107967612e-03
-2.764933776014670e-02 -1.364960855493193e-02 2.307724792610307e-01 -1.455087715172215e-03 1.175546100112431e-02 -2.144588165949947e-02
-2.458205044371447e-02 2.340570046282218e-02 2.201506517590843e-01 -1.922694750934335e-04 -1.375446640440589e-03 -2.395287672835206e-02
3.320479515110290e-02 4.050205903553188e-02 2.055614522967706e-01 2.453055848445635e-05 -1.263279959824612e-03 7.984840872712819e-03
-8.037818177560982e-04 -1.467874524909908e-03 2.187361925345336e-01 1.311751054762577e-04 -1.822174754040951e-03 -1.890490280918961e-03
-9.601159975615080e-03 -6.520320186387115e-03 1.809452254201983e-01 -7.792456309997837e-05 1.210089434257570e-03 -2.255249103026335e-03
-8.506149810920327e-03 -7.201877649264961e-03 1.966394088861955e-01 -3.851636872495466e-04 3.454816668538854e-04 9.939349101893914e-04
3.806494804394429e-03 4.248470148106027e-03 2.384319902281993e-01 2.125682701928037e-05 2.904849540186056e-04 -1.979820378907270e-03
3.023044658658293e-02 -8.049555967889151e-03 2.096156495401758e-01 -1.461743921049491e-03 1.395247593237968e-02 -1.635124621593467e-02
-2.333716808500441e-02 1.190418006101661e-02 2.290159108539286e-01 -3.732987915670513e-03 1.575167999164401e-02 -2.644042994979189e-02
4.782047054440384e-02 4.612378685188816e-02 2.110298476695363e-01 -4.906111696874904e-05 -1.264598776815306e-03 -1.596968174542542e-02
2.945797990010434e-02 2.301591511930652e-02 2.103301353627456e-01 4.623594249281854e-04 1.508918364890698e-02 7.586515893524610e-03
-5.080595163178360e-04 -1.385434570300016e-03 2.189010765455989e-01 -2.623502109527287e-04 -1.828817698862342e-03 3.780980561838091e-03
-7.509138741153827e-03 -6.625083102567047e-03 1.907873059506790e-01 -1.033462619772134e-03 -2.800929191082767e-03 1.067573422865364e-03
4.273074451385496e-03 4.393023149725363e-03 2.386362074896131e-01 -4.251365403841982e-05 2.913523333391248e-04 3.959640757814414e-03
2.253366855616036e-03 1.866270890402946e-03 2.297475601868907e-01 9.858797204185072e-05 -3.092405914548257e-03 -1.548754974192115e-03
1.566294150668851e-03 1.037363011696021e-03 2.088996322263881e-01 -4.013611847508275e-04 -7.765823144388471e-03 6.053965164826487e-03
1.577974548047882e-03 3.568985900320991e-03 1.702445768890144e-01 -7.016274410543638e-03 -6.865947456527221e-03 2.956946401601742e-02
-3.413153808309535e-03 -5.922587232165325e-03 1.845896816899014e-01 6.289509835597936e-04 -1.543799011068742e-03 3.274454130940600e-02
7.910145956711545e-03 8.441295178016390e-03 2.323438504928481e-01 1.136762242088530e-04 -1.599606662681784e-03 6.386506113074825e-03
1.383752279844587e-02 1.293704104590353e-02 2.504590420425253e-01 4.078409050878848e-04 5.588339853894805e-03 6.629491472192349e-03
3.579108598300597e-04 2.305249644912386e-03 2.008327962078690e-01 -3.850344345498846e-04 4.734287832491565e-03 3.061406420993435e-02
-5.844744030670476e-04 4.431071279229725e-04 2.081461371439356e-01 8.027223695019679e-04 -7.764969756154805e-03 -1.210793032965347e-02
6.827199491445861e-03 8.139281975707192e-03 2.318569119274214e-01 -2.273524484178155e-04 -1.604228372156683e-03 -1.277301222615001e-02
4.374956389927626e-02 2.853474672045018e-02 2.158230950553139e-01 -9.247188498564404e-04 1.510497739616233e-02 -1.517303178704940e-02
2.417593466549507e-03 1.882433786272347e-03 2.298231224494760e-01 -1.971759440837734e-04 -3.092240985294233e-03 3.097509948383765e-03
1.340594668594251e-02 1.283467427585810e-02 2.500968781599354e-01 -8.156818101758309e-04 5.555802315876039e-03 -1.325898294438468e-02
-4.085386092036632e-03 1.470063178959555e-02 2.169265432620578e-01 2.327025222001653e-03 1.541253494664944e-02 2.077971127621738e-02
4.374956389927626e-02 2.853474672045018e-02 2.158230950553139e-01 -9.247188498564404e-04 1.510497739616233e-02 -1.517303178704940e-02
4.573111684686706e-02 3.064360706440152e-02 2.215881936681564e-01 1.424843135357024e-03 -2.173000690288501e-02 -1.486514944131534e-02
-1.180709157142772e-03 1.721324814469338e-02 2.232818394508113e-01 -3.584551488173522e-03 -2.214797807553801e-02 2.120025499901792e-02
-2.709999248227226e-03 -2.387487554008473e-03 2.102296519375183e-01 6.152107000101891e-04 -2.946750017442631e-03 -2.080258478357294e-03
2.417593466549507e-03 1.882433786272347e-03 2.298231224494760e-01 -1.971759440837734e-04 -3.092240985294233e-03 3.097509948383765e-03
1.669605315004352e-03 1.015146393839681e-03 2.261230118065851e-01 3.281870400021354e-04 4.421970416648021e-03 2.728247410517273e-03
-2.902731354516731e-03 -2.975464243634556e-03 2.070431191185812e-01 -1.082481054424610e-03 4.184279913057252e-03 -1.919789451919770e-03
2.945797990010434e-02 2.301591511930652e-02 2.103301353627456e-01 4.623594249281854e-04 1.508918364890698e-02 7.586515893524610e-03
4.782047054440384e-02 4.612378685188816e-02 2.110298476695363e-01 -4.906111696874904e-05 -1.264598776815306e-03 -1.596968174542542e-02
3.163613714924941e-02 2.522872215064249e-02 2.161866842294772e-01 -7.124215676786693e-04 -2.170718930341592e-02 7.432574720657466e-03
-2.996465342955166e-03 2.914301584098846e-02 2.101218543415377e-01 1.210092672981128e-04 -1.318703891639213e-03 1.992908385172660e-02
2.253366855616036e-03 1.866270890402946e-03 2.297475601868907e-01 9.858797204185072e-05 -3.092405914548257e-03 -1.548754974192115e-03
4.273074451385496e-03 4.393023149725363e-03 2.386362074896131e-01 -4.251365403841982e-05 2.913523333391248e-04 3.959640757814414e-03
1.638305889309258e-03 1.058086047971905e-03 2.261102116122208e-01 -1.640935200010275e-04 4.422890237455921e-03 -1.364123705258756e-03
-2.583117326762740e-03 -1.548980251393361e-03 2.174335909264848e-01 2.136324089917149e-04 3.175496207726834e-04 -2.473377701348263e-03
7.313504885387117e-03 7.672328730422203e-03 2.258270010664842e-01 6.008418277702143e-04 5.177582612198871e-03 -8.612151390832736e-03
1.340594668594251e-02 1.283467427585810e-02 2.500968781599354e-01 -8.156818101758309e-04 5.555802315876039e-03 -1.325898294438468e-02
1.627976537038761e-02 1.518950489784372e-02 2.579063611665298e-01 1.394263869635863e-03 -7.083561616616001e-03 -1.347263855736412e-02
8.971211806687323e-03 9.621751136310719e-03 2.328730754902311e-01 -7.458729242245440e-04 -6.546728114409953e-03 -8.094251679369715e-03
2.789969306837489e-03 1.410360574095740e-03 2.087102353741010e-01 -2.002152700953796e-04 -1.569391982134226e-03 -9.912507160968352e-03
6.827199491445861e-03 8.139281975707192e-03 2.318569119274214e-01 -2.273524484178155e-04 -1.604228372156683e-03 -1.277301222615001e-02
1.383752279844587e-02 1.293704104590353e-02 2.504590420425253e-01 4.078409050878848e-04 5.588339853894805e-03 6.629491472192349e-03
1.643411777724611e-02 1.520945343969931e-02 2.582120800491297e-01 -6.971319348176831e-04 -7.135676150928602e-03 6.736319278682336e-03
3.320479515110290e-02 4.050205903553188e-02 2.055614522967706e-01 2.453055848445635e-05 -1.263279959824612e-03 7.984840872712819e-03
3.806494804394429e-03 4.248470148106027e-03 2.384319902281993e-01 2.125682701928037e-05 2.904849540186056e-04 -1.979820378907270e-03
7.910145956711545e-03 8.441295178016390e-03 2.323438504928481e-01 1.136762242088530e-04 -1.599606662681784e-03 6.386506113074825e-03
2.945797990010434e-02 2.301591511930652e-02 2.103301353627456e-01 4.623594249281854e-04 1.508918364890698e-02 7.586515893524610e-03
-2.333716808500441e-02 1.190418006101661e-02 2.290159108539286e-01 -3.732987915670513e-03 1.575167999164401e-02 -2.644042994979189e-02
-1.990257576591232e-02 1.461265905249129e-02 2.357785041108344e-01 5.749280255332460e-03 -2.261158444713750e-02 -2.758521804890478e-02
3.163613714924941e-02 2.522872215064249e-02 2.161866842294772e-01 -7.124215676786693e-04 -2.170718930341592e-02 7.432574720657466e-03
2.253366855616036e-03 1.866270890402946e-03 2.297475601868907e-01 9.858797204185072e-05 -3.092405914548257e-03 -1.548754974192115e-03
-7.509138741153827e-03 -6.625083102567047e-03 1.907873059506790e-01 -1.033462619772134e-03 -2.800929191082767e-03 1.067573422865364e-03
-7.412469172639427e-03 -7.051954189359266e-03 1.879888268193390e-01 1.837395613578893e-03 3.944749767846204e-03 1.114877917399033e-03
1.638305889309258e-03 1.058086047971905e-03 2.261102116122208e-01 -1.640935200010275e-04 4.422890237455921e-03 -1.364123705258756e-03
4.374956389927626e-02 2.853474672045018e-02 2.158230950553139e-01 -9.247188498564404e-04 1.510497739616233e-02 -1.517303178704940e-02
-2.458205044371447e-02 2.340570046282218e-02 2.201506517590843e-01 -1.922694750934335e-04 -1.375446640440589e-03 -2.395287672835206e-02
4.573111684686706e-02 3.064360706440152e-02 2.215881936681564e-01 1.424843135357024e-03 -2.173000690288501e-02 -1.486514944131534e-02
3.320479515110290e-02 4.050205903553188e-02 2.055614522967706e-01 2.453055848445635e-05 -1.263279959824612e-03 7.984840872712819e-03
2.417593466549507e-03 1.882433786272347e-03 2.298231224494760e-01 -1.971759440837734e-04 -3.092240985294233e-03 3.097509948383765e-03
-8.506149810920327e-03 -7.201877649264961e-03 1.966394088861955e-01 -3.851636872495466e-04 3.454816668538854e-04 9.939349101893914e-04
1.669605315004352e-03 1.015146393839681e-03 2.261230118065851e-01 3.281870400021354e-04 4.421970416648021e-03 2.728247410517273e-03
3.806494804394429e-03 4.248470148106027e-03 2.384319902281993e-01 2.125682701928037e-05 2.904849540186056e-04 -1.979820378907270e-03
1.383752279844587e-02 1.293704104590353e-02 2.504590420425253e-01 4.078409050878848e-04 5.588339853894805e-03 6.629491472192349e-03
3.579108598300597e-04 2.305249644912386e-03 2.008327962078690e-01 -3.850344345498846e-04 4.734287832491565e-03 3.061406420993435e-02
1.353953429266502e-03 4.014100291088564e-03 2.072283520487214e-01 9.518366797216780e-05 -5.905665543570700e-03 2.978416999750893e-02
1.643411777724611e-02 1.520945343969931e-02 2.582120800491297e-01 -6.971319348176831e-04 -7.135676150928602e-03 6.736319278682336e-03
7.910145956711545e-03 8.441295178016390e-03 2.323438504928481e-01 1.136762242088530e-04 -1.599606662681784e-03 6.386506113074825e-03
-3.413153808309535e-03 -5.922587232165325e-03 1.845896816899014e-01 6.289509835597936e-04 -1.543799011068742e-03 3.274454130940600e-02
1.340594668594251e-02 1.283467427585810e-02 2.500968781599354e-01 -8.156818101758309e-04 5.555802315876039e-03 -1.325898294438468e-02
1.627976537038761e-02 1.518950489784372e-02 2.579063611665298e-01 1.394263869635863e-03 -7.083561616616001e-03 -1.347263855736412e-02
4.782047054440384e-02 4.612378685188816e-02 2.110298476695363e-01 -4.906111696874904e-05 -1.264598776815306e-03 -1.596968174542542e-02
4.273074451385496e-03 4.393023149725363e-03 2.386362074896131e-01 -4.251365403841982e-05 2.913523333391248e-04 3.959640757814414e-03
6.827199491445861e-03 8.139281975707192e-03 2.318569119274214e-01 -2.273524484178155e-04 -1.604228372156683e-03 -1.277301222615001e-02
-2.996465342955166e-03 2.914301584098846e-02 2.101218543415377e-01 1.210092672981128e-04 -1.318703891639213e-03 1.992908385172660e-02
4.782047054440384e-02 4.612378685188816e-02 2.110298476695363e-01 -4.906111696874904e-05 -1.264598776815306e-03 -1.596968174542542e-02
1.994434843624093e-02 -3.315692486472906e-02 2.028902117086421e-01 2.074298713387580e-03 -1.094505608589077e-02 -1.788189586273299e-02
-1.808211447565831e-02 -3.692458052167966e-02 2.116995101460727e-01 -7.716210766134254e-04 -8.391398881796568e-03 1.663645922002366e-02
-2.583117326762740e-03 -1.548980251393361e-03 2.174335909264848e-01 2.136324089917149e-04 3.175496207726834e-04 -2.473377701348263e-03
4.273074451385496e-03 4.393023149725363e-03 2.386362074896131e-01 -4.251365403841982e-05 2.913523333391248e-04 3.959640757814414e-03
-2.618338263066725e-03 -3.496404865742013e-03 2.117855462217179e-01 3.923707255715691e-04 1.326122898378066e-04 4.833988065660978e-03
-7.989566354117933e-03 -5.418289396349157e-03 1.923337295199498e-01 -4.435277559725131e-05 -2.812997868679210e-03 3.889786476594425e-04
3.320479515110290e-02 4.050205903553188e-02 2.055614522967706e-01 2.453055848445635e-05 -1.263279959824612e-03 7.984840872712819e-03
4.573111684686706e-02 3.064360706440152e-02 2.215881936681564e-01 1.424843135357024e-03 -2.173000690288501e-02 -1.486514944131534e-02
7.556868240353376e-03 -3.793055511228648e-02 1.981643182785922e-01 -1.037149356693403e-03 -1.100024145976641e-02 8.940947931366194e-03
-1.180709157142772e-03 1.721324814469338e-02 2.232818394508113e-01 -3.584551488173522e-03 -2.214797807553801e-02 2.120025499901792e-02
3.806494804394429e-03 4.248470148106027e-03 2.384319902281993e-01 2.125682701928037e-05 2.904849540186056e-04 -1.979820378907270e-03
1.669605315004352e-03 1.015146393839681e-03 2.261230118065851e-01 3.281870400021354e-04 4.421970416648021e-03 2.728247410517273e-03
-3.173483808027074e-03 -3.698102365343372e-03 2.114800101473464e-01 -1.961853627857395e-04 1.205063247989587e-04 -2.416994032830416e-03
-2.902731354516731e-03 -2.975464243634556e-03 2.070431191185812e-01 -1.082481054424610e-03 4.184279913057252e-03 -1.919789451919770e-03
2.789969306837489e-03 1.410360574095740e-03 2.087102353741010e-01 -2.002152700953796e-04 -1.569391982134226e-03 -9.912507160968352e-03
6.827199491445861e-03 8.139281975707192e-03 2.318569119274214e-01 -2.273524484178155e-04 -1.604228372156683e-03 -1.277301222615001e-02
-1.732934117844091e-02 -1.386271008419110e-02 1.583721766699048e-01 -2.079644240434324e-03 2.358602554260193e-02 -1.075304019243810e-02
-4.042797682063778e-03 -5.497590732279995e-03 1.465974148497904e-01 -5.306352523638455e-03 2.224949820912474e-02 -9.312190091084915e-03
8.971211806687323e-03 9.621751136310719e-03 2.328730754902311e-01 -7.458729242245440e-04 -6.546728114409953e-03 -8.094251679369715e-03
1.627976537038761e-02 1.518950489784372e-02 2.579063611665298e-01 1.394263869635863e-03 -7.083561616616001e-03 -1.347263855736412e-02
7.910145956711545e-03 8.441295178016390e-03 2.323438504928481e-01 1.136762242088530e-04 -1.599606662681784e-03 6.386506113074825e-03
-1.318025958855319e-02 -1.269157012989243e-02 1.595668161043784e-01 1.039822120216533e-03 2.361365340248443e-02 5.376520096219145e-03
3.163613714924941e-02 2.522872215064249e-02 2.161866842294772e-01 -7.124215676786693e-04 -2.170718930341592e-02 7.432574720657466e-03
1.638305889309258e-03 1.058086047971905e-03 2.261102116122208e-01 -1.640935200010275e-04 4.422890237455921e-03 -1.364123705258756e-03
1.643411777724611e-02 1.520945343969931e-02 2.582120800491297e-01 -6.971319348176831e-04 -7.135676150928602e-03 6.736319278682336e-03
3.320479515110290e-02 4.050205903553188e-02 2.055614522967706e-01 2.453055848445635e-05 -1.263279959824612e-03 7.984840872712819e-03
-2.458205044371447e-02 2.340570046282218e-02 2.201506517590843e-01 -1.922694750934335e-04 -1.375446640440589e-03 -2.395287672835206e-02
-3.133361699577878e-02 -3.114497568350695e-02 2.299605954436190e-01 -5.232157216770125e-04 -5.727370929925309e-03 -1.543747967572848e-02
7.556868240353376e-03 -3.793055511228648e-02 1.981643182785922e-01 -1.037149356693403e-03 -1.100024145976641e-02 8.940947931366194e-03
3.806494804394429e-03 4.248470148106027e-03 2.384319902281993e-01 2.125682701928037e-05 2.904849540186056e-04 -1.979820378907270e-03
-8.506149810920327e-03 -7.201877649264961e-03 1.966394088861955e-01 -3.851636872495466e-04 3.454816668538854e-04 9.939349101893914e-04
-1.225050335525677e-02 -6.936778927799471e-03 1.734929849668507e-01 -3.032101257348526e-04 -5.734396097094154e-03 -5.603420372409486e-03
-3.173483808027074e-03 -3.698102365343372e-03 2.114800101473464e-01 -1.961853627857395e-04 1.205063247989587e-04 -2.416994032830416e-03
4.782047054440384e-02 4.612378685188816e-02 2.110298476695363e-01 -4.906111696874904e-05 -1.264598776815306e-03 -1.596968174542542e-02
-1.990257576591232e-02 1.461265905249129e-02 2.357785041108344e-01 5.749280255332460e-03 -2.261158444713750e-02 -2.758521804890478e-02
1.994434843624093e-02 -3.315692486472906e-02 2.028902117086421e-01 2.074298713387580e-03 -1.094505608589077e-02 -1.788189586273299e-02
3.163613714924941e-02 2.522872215064249e-02 2.161866842294772e-01 -7.124215676786693e-04 -2.170718930341592e-02 7.432574720657466e-03
4.273074451385496e-03 4.393023149725363e-03 2.386362074896131e-01 -4.251365403841982e-05 2.913523333391248e-04 3.959640757814414e-03
-7.412469172639427e-03 -7.051954189359266e-03 1.879888268193390e-01 1.837395613578893e-03 3.944749767846204e-03 1.114877917399033e-03
-2.618338263066725e-03 -3.496404865742013e-03 2.117855462217179e-01 3.923707255715691e-04 1.326122898378066e-04 4.833988065660978e-03
1.638305889309258e-03 1.058086047971905e-03 2.261102116122208e-01 -1.640935200010275e-04 4.422890237455921e-03 -1.364123705258756e-03
7.910145956711545e-03 8.441295178016390e-03 2.323438504928481e-01 1.136762242088530e-04 -1.599606662681784e-03 6.386506113074825e-03
-3.413153808309535e-03 -5.922587232165325e-03 1.845896816899014e-01 6.289509835597936e-04 -1.543799011068742e-03 3.274454130940600e-02
9.455826345472342e-04 5.252487110177896e-04 1.324333741607032e-01 1.268277841883964e-02 2.085771515584057e-02 2.948830795399062e-02
-1.318025958855319e-02 -1.269157012989243e-02 1.595668161043784e-01 1.039822120216533e-03 2.361365340248443e-02 5.376520096219145e-03
1.643411777724611e-02 1.520945343969931e-02 2.582120800491297e-01 -6.971319348176831e-04 -7.135676150928602e-03 6.736319278682336e-03
1.353953429266502e-03 4.014100291088564e-03 2.072283520487214e-01 9.518366797216780e-05 -5.905665543570700e-03 2.978416999750893e-02
6.827199491445861e-03 8.139281975707192e-03 2.318569119274214e-01 -2.273524484178155e-04 -1.604228372156683e-03 -1.277301222615001e-02
-1.732934117844091e-02 -1.386271008419110e-02 1.583721766699048e-01 -2.079644240434324e-03 2.358602554260193e-02 -1.075304019243810e-02
4.573111684686706e-02 3.064360706440152e-02 2.215881936681564e-01 1.424843135357024e-03 -2.173000690288501e-02 -1.486514944131534e-02
1.669605315004352e-03 1.015146393839681e-03 2.261230118065851e-01 3.281870400021354e-04 4.421970416648021e-03 2.728247410517273e-03
1.627976537038761e-02 1.518950489784372e-02 2.579063611665298e-01 1.394263869635863e-03 -7.083561616616001e-03 -1.347263855736412e-02
        </DataArray>
  </PointData>
  <CellData>
        <DataArray type="Float64" Name="element_GL_strains_xyz" NumberOfComponents="6" format="ascii">
-2.453428089481242e-02 -2.969496481382012e-02 1.556753375911108e-01 5.315729922910458e-04 1.876486019129087e-02 1.426280896568143e-02
-2.453428089481254e-02 -2.969496481382018e-02 1.556753375911108e-01 -5.315729922910655e-04 1.876486019129086e-02 -1.426280896568147e-02
-2.545608613088917e-02 -1.631412722469783e-02 1.461928449027481e-01 4.386220866679666e-18 -1.466524265708198e-17 1.479119553621683e-02
-2.545608613088925e-02 -1.631412722469782e-02 1.461928449027480e-01 7.309639550828314e-18 -8.017427786923877e-18 -1.479119553621689e-02
-2.453428089481251e-02 -2.969496481382011e-02 1.556753375911108e-01 -5.315729922910524e-04 -1.876486019129088e-02 1.426280896568146e-02
-2.453428089481258e-02 -2.969496481382015e-02 1.556753375911107e-01 5.315729922910596e-04 -1.876486019129087e-02 -1.426280896568150e-02
-4.477049188277563e-02 -4.743374295702994e-02 1.679989356454127e-01 8.925752909489616e-04 1.330831578871810e-03 1.340319289163909e-03
-4.477049188277567e-02 -4.743374295702998e-02 1.679989356454126e-01 -8.925752909489833e-04 1.330831578871898e-03 -1.340319289163944e-03
-4.587709679753114e-02 -4.230555229807759e-02 1.680895874482504e-01 -3.748798118925068e-18 -2.883091601573312e-17 1.227163546313486e-03
-4.587709679753112e-02 -4.230555229807761e-02 1.680895874482504e-01 -7.974763113908616e-18 -2.474970882277056e-18 -1.227163546313488e-03
-4.477049188277567e-02 -4.743374295702998e-02 1.679989356454127e-01 -8.925752909489823e-04 -1.330831578871815e-03 1.340319289163908e-03
-4.477049188277571e-02 -4.743374295703003e-02 1.679989356454127e-01 8.925752909489530e-04 -1.330831578871829e-03 -1.340319289163928e-03
        </DataArray>
        <DataArray type="Float64" Name="element_cauchy_stresses_xyz" NumberOfComponents="6" format="ascii">
3.674354979507581e-02 3.361320274017787e-02 2.151106818254004e-01 1.802143264456123e-03 2.426811233343386e-02 1.827862948760467e-02
3.674354979507561e-02 3.361320274017772e-02 2.151106818254002e-01 -1.802143264456136e-03 2.426811233343384e-02 -1.827862948760469e-02
3.757613312528097e-02 4.260794644063613e-02 2.048155566101218e-01 4.131628101052963e-18 -1.521392935838139e-17 1.841297563278860e-02
3.757613312528087e-02 4.260794644063608e-02 2.048155566101217e-01 6.236796219710514e-18 -6.826791064140429e-18 -1.841297563278865e-02
3.674354979507570e-02 3.361320274017784e-02 2.151106818254004e-01 -1.802143264456129e-03 -2.426811233343387e-02 1.827862948760470e-02
3.674354979507560e-02 3.361320274017773e-02 2.151106818254002e-01 1.802143264456134e-03 -2.426811233343385e-02 -1.827862948760474e-02
8.154496409338626e-03 6.361484201618563e-03 2.200941216732679e-01 6.929717739058210e-04 4.252823897712299e-03 3.553025445439108e-03
8.154496409338517e-03 6.361484201618457e-03 2.200941216732677e-01 -6.929717739058370e-04 4.252823897712388e-03 -3.553025445439130e-03
9.412462826068531e-03 1.183427243685078e-02 2.223147541065377e-01 -3.072589184444838e-18 -2.393725750792444e-17 3.405545943840961e-03
9.412462826068531e-03 1.183427243685076e-02 2.223147541065377e-01 -5.317369490908745e-18 -8.390348544142671e-18 -3.405545943840938e-03
8.154496409338553e-03 6.361484201618481e-03 2.200941216732679e-01 -6.929717739058345e-04 -4.252823897712310e-03 3.553025445439113e-03
8.154496409338506e-03 6.361484201618434e-03 2.200941216732678e-01 6.929717739058144e-04 -4.252823897712319e-03 -3.553025445439122e-03
        </DataArray>
        <DataArray type="Float64" Name="element_owner" format="ascii">
0.000000000000000e+00
0.000000000000000e+00
0.000000000000000e+00
0.000000000000000e+00
0.000000000000000e+00
0.000000000000000e+00
0.000000000000000e+00
0.000000000000000e+00
0.000000000000000e+00
0.000000000000000e+00
0.000000000000000e+00
0.000000000000000e+00
        </DataArray>
      </CellData>

    </Piece>
  </UnstructuredGrid>
</VTKFile>
