<?xml version="1.0" ?> 
<!-- 
# vtk DataFile Version 3.0
-->
<VTKFile type="UnstructuredGrid" version="0.1" compressor="vtkZLibDataCompressor" byte_order="LittleEndian">
  <UnstructuredGrid>
    <FieldData>
      <DataArray type="Float64" Name="TIME" NumberOfTuples="1" format="ascii">
1e-08
      </DataArray>
    </FieldData>

    <Piece NumberOfPoints="160" NumberOfCells="20" >
      <Points>
        <DataArray type="Float64" NumberOfComponents="3" format="ascii">
-2.500000000000000e+00 1.000000000000000e+00 1.000000000000000e-01
-2.500000000000000e+00 1.000000000000000e+00 5.000000000000000e-02
-2.500000000000000e+00 2.000000000000000e+00 5.000000000000000e-02
-2.500000000000000e+00 2.000000000000000e+00 1.000000000000000e-01
-2.000000000000000e+00 1.000000000000000e+00 1.000000000000000e-01
-2.000000000000000e+00 1.000000000000000e+00 5.000000000000000e-02
-2.000000000000000e+00 2.000000000000000e+00 5.000000000000001e-02
-2.000000000000000e+00 2.000000000000000e+00 1.000000000000000e-01
-2.500000000000000e+00 1.000000000000000e+00 5.000000000000000e-02
-2.500000000000000e+00 1.000000000000000e+00 0.000000000000000e+00
-2.500000000000000e+00 2.000000000000000e+00 0.000000000000000e+00
-2.500000000000000e+00 2.000000000000000e+00 5.000000000000000e-02
-2.000000000000000e+00 1.000000000000000e+00 5.000000000000000e-02
-2.000000000000000e+00 1.000000000000000e+00 3.469446951953614e-18
-2.000000000000000e+00 2.000000000000000e+00 0.000000000000000e+00
-2.000000000000000e+00 2.000000000000000e+00 5.000000000000001e-02
-2.500000000000000e+00 1.000000000000000e+00 0.000000000000000e+00
-2.500000000000000e+00 1.000000000000000e+00 -5.000000000000002e-02
-2.500000000000000e+00 2.000000000000000e+00 -5.000000000000002e-02
-2.500000000000000e+00 2.000000000000000e+00 0.000000000000000e+00
-2.000000000000000e+00 1.000000000000000e+00 3.469446951953614e-18
-2.000000000000000e+00 1.000000000000000e+00 -5.000000000000001e-02
-2.000000000000000e+00 2.000000000000000e+00 -5.000000000000000e-02
-2.000000000000000e+00 2.000000000000000e+00 0.000000000000000e+00
-2.500000000000000e+00 1.000000000000000e+00 -5.000000000000002e-02
-2.500000000000000e+00 1.000000000000000e+00 -1.000000000000000e-01
-2.500000000000000e+00 2.000000000000000e+00 -1.000000000000000e-01
-2.500000000000000e+00 2.000000000000000e+00 -5.000000000000002e-02
-2.000000000000000e+00 1.000000000000000e+00 -5.000000000000001e-02
-2.000000000000000e+00 1.000000000000000e+00 -1.000000000000000e-01
-2.000000000000000e+00 2.000000000000000e+00 -1.000000000000000e-01
-2.000000000000000e+00 2.000000000000000e+00 -5.000000000000000e-02
-2.000000000000000e+00 1.000000000000000e+00 1.000000000000000e-01
-2.000000000000000e+00 1.000000000000000e+00 5.000000000000000e-02
-2.000000000000000e+00 2.000000000000000e+00 5.000000000000001e-02
-2.000000000000000e+00 2.000000000000000e+00 1.000000000000000e-01
-1.500000000000000e+00 1.000000000000000e+00 1.000000000000000e-01
-1.500000000000000e+00 1.000000000000000e+00 5.000000000000003e-02
-1.500000000000000e+00 2.000000000000000e+00 5.000000000000000e-02
-1.500000000000000e+00 2.000000000000000e+00 1.000000000000000e-01
-2.000000000000000e+00 1.000000000000000e+00 5.000000000000000e-02
-2.000000000000000e+00 1.000000000000000e+00 3.469446951953614e-18
-2.000000000000000e+00 2.000000000000000e+00 0.000000000000000e+00
-2.000000000000000e+00 2.000000000000000e+00 5.000000000000001e-02
-1.500000000000000e+00 1.000000000000000e+00 5.000000000000003e-02
-1.500000000000000e+00 1.000000000000000e+00 0.000000000000000e+00
-1.500000000000000e+00 2.000000000000000e+00 0.000000000000000e+00
-1.500000000000000e+00 2.000000000000000e+00 5.000000000000000e-02
-2.000000000000000e+00 1.000000000000000e+00 3.469446951953614e-18
-2.000000000000000e+00 1.000000000000000e+00 -5.000000000000001e-02
-2.000000000000000e+00 2.000000000000000e+00 -5.000000000000000e-02
-2.000000000000000e+00 2.000000000000000e+00 0.000000000000000e+00
-1.500000000000000e+00 1.000000000000000e+00 0.000000000000000e+00
-1.500000000000000e+00 1.000000000000000e+00 -5.000000000000002e-02
-1.500000000000000e+00 2.000000000000000e+00 -5.000000000000002e-02
-1.500000000000000e+00 2.000000000000000e+00 0.000000000000000e+00
-2.000000000000000e+00 1.000000000000000e+00 -5.000000000000001e-02
-2.000000000000000e+00 1.000000000000000e+00 -1.000000000000000e-01
-2.000000000000000e+00 2.000000000000000e+00 -1.000000000000000e-01
-2.000000000000000e+00 2.000000000000000e+00 -5.000000000000000e-02
-1.500000000000000e+00 1.000000000000000e+00 -5.000000000000002e-02
-1.500000000000000e+00 1.000000000000000e+00 -1.000000000000000e-01
-1.500000000000000e+00 2.000000000000000e+00 -1.000000000000000e-01
-1.500000000000000e+00 2.000000000000000e+00 -5.000000000000002e-02
-1.500000000000000e+00 1.000000000000000e+00 1.000000000000000e-01
-1.500000000000000e+00 1.000000000000000e+00 5.000000000000003e-02
-1.500000000000000e+00 2.000000000000000e+00 5.000000000000000e-02
-1.500000000000000e+00 2.000000000000000e+00 1.000000000000000e-01
-1.000000000000000e+00 1.000000000000000e+00 1.000000000000000e-01
-1.000000000000000e+00 1.000000000000000e+00 5.000000000000001e-02
-1.000000000000000e+00 2.000000000000000e+00 5.000000000000000e-02
-1.000000000000000e+00 2.000000000000000e+00 1.000000000000000e-01
-1.500000000000000e+00 1.000000000000000e+00 5.000000000000003e-02
-1.500000000000000e+00 1.000000000000000e+00 0.000000000000000e+00
-1.500000000000000e+00 2.000000000000000e+00 0.000000000000000e+00
-1.500000000000000e+00 2.000000000000000e+00 5.000000000000000e-02
-1.000000000000000e+00 1.000000000000000e+00 5.000000000000001e-02
-1.000000000000000e+00 1.000000000000000e+00 0.000000000000000e+00
-1.000000000000000e+00 2.000000000000000e+00 -6.938893903907228e-18
-1.000000000000000e+00 2.000000000000000e+00 5.000000000000000e-02
-1.500000000000000e+00 1.000000000000000e+00 0.000000000000000e+00
-1.500000000000000e+00 1.000000000000000e+00 -5.000000000000002e-02
-1.500000000000000e+00 2.000000000000000e+00 -5.000000000000002e-02
-1.500000000000000e+00 2.000000000000000e+00 0.000000000000000e+00
-1.000000000000000e+00 1.000000000000000e+00 0.000000000000000e+00
-1.000000000000000e+00 1.000000000000000e+00 -5.000000000000002e-02
-1.000000000000000e+00 2.000000000000000e+00 -5.000000000000002e-02
-1.000000000000000e+00 2.000000000000000e+00 -6.938893903907228e-18
-1.500000000000000e+00 1.000000000000000e+00 -5.000000000000002e-02
-1.500000000000000e+00 1.000000000000000e+00 -1.000000000000000e-01
-1.500000000000000e+00 2.000000000000000e+00 -1.000000000000000e-01
-1.500000000000000e+00 2.000000000000000e+00 -5.000000000000002e-02
-1.000000000000000e+00 1.000000000000000e+00 -5.000000000000002e-02
-1.000000000000000e+00 1.000000000000000e+00 -1.000000000000000e-01
-1.000000000000000e+00 2.000000000000000e+00 -1.000000000000000e-01
-1.000000000000000e+00 2.000000000000000e+00 -5.000000000000002e-02
-1.000000000000000e+00 1.000000000000000e+00 1.000000000000000e-01
-1.000000000000000e+00 1.000000000000000e+00 5.000000000000001e-02
-1.000000000000000e+00 2.000000000000000e+00 5.000000000000000e-02
-1.000000000000000e+00 2.000000000000000e+00 1.000000000000000e-01
-5.000000000000000e-01 1.000000000000000e+00 1.000000000000000e-01
-5.000000000000001e-01 1.000000000000000e+00 5.000000000000000e-02
-5.000000000000000e-01 2.000000000000000e+00 5.000000000000001e-02
-5.000000000000000e-01 2.000000000000000e+00 1.000000000000000e-01
-1.000000000000000e+00 1.000000000000000e+00 5.000000000000001e-02
-1.000000000000000e+00 1.000000000000000e+00 0.000000000000000e+00
-1.000000000000000e+00 2.000000000000000e+00 -6.938893903907228e-18
-1.000000000000000e+00 2.000000000000000e+00 5.000000000000000e-02
-5.000000000000001e-01 1.000000000000000e+00 5.000000000000000e-02
-5.000000000000000e-01 1.000000000000000e+00 0.000000000000000e+00
-5.000000000000000e-01 2.000000000000000e+00 0.000000000000000e+00
-5.000000000000000e-01 2.000000000000000e+00 5.000000000000001e-02
-1.000000000000000e+00 1.000000000000000e+00 0.000000000000000e+00
-1.000000000000000e+00 1.000000000000000e+00 -5.000000000000002e-02
-1.000000000000000e+00 2.000000000000000e+00 -5.000000000000002e-02
-1.000000000000000e+00 2.000000000000000e+00 -6.938893903907228e-18
-5.000000000000000e-01 1.000000000000000e+00 0.000000000000000e+00
-5.000000000000000e-01 1.000000000000000e+00 -5.000000000000001e-02
-5.000000000000002e-01 2.000000000000000e+00 -5.000000000000002e-02
-5.000000000000000e-01 2.000000000000000e+00 0.000000000000000e+00
-1.000000000000000e+00 1.000000000000000e+00 -5.000000000000002e-02
-1.000000000000000e+00 1.000000000000000e+00 -1.000000000000000e-01
-1.000000000000000e+00 2.000000000000000e+00 -1.000000000000000e-01
-1.000000000000000e+00 2.000000000000000e+00 -5.000000000000002e-02
-5.000000000000000e-01 1.000000000000000e+00 -5.000000000000001e-02
-5.000000000000000e-01 1.000000000000000e+00 -1.000000000000000e-01
-5.000000000000000e-01 2.000000000000000e+00 -1.000000000000000e-01
-5.000000000000002e-01 2.000000000000000e+00 -5.000000000000002e-02
-5.000000000000000e-01 1.000000000000000e+00 1.000000000000000e-01
-5.000000000000001e-01 1.000000000000000e+00 5.000000000000000e-02
-5.000000000000000e-01 2.000000000000000e+00 5.000000000000001e-02
-5.000000000000000e-01 2.000000000000000e+00 1.000000000000000e-01
0.000000000000000e+00 1.000000000000000e+00 1.000000000000000e-01
0.000000000000000e+00 1.000000000000000e+00 4.999999999999999e-02
0.000000000000000e+00 2.000000000000000e+00 4.999999999999999e-02
0.000000000000000e+00 2.000000000000000e+00 1.000000000000000e-01
-5.000000000000001e-01 1.000000000000000e+00 5.000000000000000e-02
-5.000000000000000e-01 1.000000000000000e+00 0.000000000000000e+00
-5.000000000000000e-01 2.000000000000000e+00 0.000000000000000e+00
-5.000000000000000e-01 2.000000000000000e+00 5.000000000000001e-02
0.000000000000000e+00 1.000000000000000e+00 4.999999999999999e-02
0.000000000000000e+00 1.000000000000000e+00 0.000000000000000e+00
0.000000000000000e+00 2.000000000000000e+00 0.000000000000000e+00
0.000000000000000e+00 2.000000000000000e+00 4.999999999999999e-02
-5.000000000000000e-01 1.000000000000000e+00 0.000000000000000e+00
-5.000000000000000e-01 1.000000000000000e+00 -5.000000000000001e-02
-5.000000000000002e-01 2.000000000000000e+00 -5.000000000000002e-02
-5.000000000000000e-01 2.000000000000000e+00 0.000000000000000e+00
0.000000000000000e+00 1.000000000000000e+00 0.000000000000000e+00
0.000000000000000e+00 1.000000000000000e+00 -5.000000000000002e-02
0.000000000000000e+00 2.000000000000000e+00 -5.000000000000002e-02
0.000000000000000e+00 2.000000000000000e+00 0.000000000000000e+00
-5.000000000000000e-01 1.000000000000000e+00 -5.000000000000001e-02
-5.000000000000000e-01 1.000000000000000e+00 -1.000000000000000e-01
-5.000000000000000e-01 2.000000000000000e+00 -1.000000000000000e-01
-5.000000000000002e-01 2.000000000000000e+00 -5.000000000000002e-02
0.000000000000000e+00 1.000000000000000e+00 -5.000000000000002e-02
0.000000000000000e+00 1.000000000000000e+00 -1.000000000000000e-01
0.000000000000000e+00 2.000000000000000e+00 -1.000000000000000e-01
0.000000000000000e+00 2.000000000000000e+00 -5.000000000000002e-02
        </DataArray>
      </Points>

      <Cells>
        <DataArray type="Int32" Name="connectivity" format="ascii">
0 1 2 3 4 5 6 7 8 9 10 11 12 13 14 15 16 17 18 19 20 21 22 23 24 25 26 27 28 29 30 31 32 33 34 35 36 37 38 39 40 41 42 43 44 45 46 47 48 49 50 51 52 53 54 55 56 57 58 59 60 61 62 63 64 65 66 67 68 69 70 71 72 73 74 75 76 77 78 79 80 81 82 83 84 85 86 87 88 89 90 91 92 93 94 95 96 97 98 99 100 101 102 103 104 105 106 107 108 109 110 111 112 113 114 115 116 117 118 119 120 121 122 123 124 125 126 127 128 129 130 131 132 133 134 135 136 137 138 139 140 141 142 143 144 145 146 147 148 149 150 151 152 153 154 155 156 157 158 159 
        </DataArray>
        <DataArray type="Int32" Name="offsets" format="ascii">
8 16 24 32 40 48 56 64 72 80 88 96 104 112 120 128 136 144 152 160 
        </DataArray>
        <DataArray type="UInt8" Name="types" format="ascii">
12 12 12 12 12 12 12 12 12 12 12 12 12 12 12 12 12 12 12 12 
        </DataArray>
      </Cells>

  <PointData>
        <DataArray type="Float64" Name="displacement" NumberOfComponents="3" format="ascii">
0.000000000000000e+00 0.000000000000000e+00 0.000000000000000e+00
0.000000000000000e+00 0.000000000000000e+00 0.000000000000000e+00
0.000000000000000e+00 0.000000000000000e+00 0.000000000000000e+00
0.000000000000000e+00 0.000000000000000e+00 0.000000000000000e+00
-9.381805085448702e-03 -1.265662350244156e-14 2.184146192573260e-02
-4.962092836961424e-03 -5.044618574138811e-15 2.200220716386404e-02
-4.962092836999015e-03 -5.329949222864443e-15 2.200220716400721e-02
-9.381805085508583e-03 -1.246322678009924e-14 2.184146192587402e-02
0.000000000000000e+00 0.000000000000000e+00 0.000000000000000e+00
0.000000000000000e+00 0.000000000000000e+00 0.000000000000000e+00
0.000000000000000e+00 0.000000000000000e+00 0.000000000000000e+00
0.000000000000000e+00 0.000000000000000e+00 0.000000000000000e+00
-4.962092836961424e-03 -5.044618574138811e-15 2.200220716386404e-02
-5.628144859205021e-04 2.120176013471410e-15 2.216622704339350e-02
-5.628144859376198e-04 2.549980906923777e-15 2.216622704353833e-02
-4.962092836999015e-03 -5.329949222864443e-15 2.200220716400721e-02
0.000000000000000e+00 0.000000000000000e+00 0.000000000000000e+00
0.000000000000000e+00 0.000000000000000e+00 0.000000000000000e+00
0.000000000000000e+00 0.000000000000000e+00 0.000000000000000e+00
0.000000000000000e+00 0.000000000000000e+00 0.000000000000000e+00
-5.628144859205021e-04 2.120176013471410e-15 2.216622704339350e-02
3.833365423276681e-03 9.925331817448420e-15 2.232996799828018e-02
3.833365423280210e-03 1.001327955312247e-14 2.232996799842659e-02
-5.628144859376198e-04 2.549980906923777e-15 2.216622704353833e-02
0.000000000000000e+00 0.000000000000000e+00 0.000000000000000e+00
0.000000000000000e+00 0.000000000000000e+00 0.000000000000000e+00
0.000000000000000e+00 0.000000000000000e+00 0.000000000000000e+00
0.000000000000000e+00 0.000000000000000e+00 0.000000000000000e+00
3.833365423276681e-03 9.925331817448420e-15 2.232996799828018e-02
8.241329102344087e-03 1.763059025485981e-14 2.248972079245215e-02
8.241329102370186e-03 1.721000693805489e-14 2.248972079260027e-02
3.833365423280210e-03 1.001327955312247e-14 2.232996799842659e-02
-9.381805085448702e-03 -1.265662350244156e-14 2.184146192573260e-02
-4.962092836961424e-03 -5.044618574138811e-15 2.200220716386404e-02
-4.962092836999015e-03 -5.329949222864443e-15 2.200220716400721e-02
-9.381805085508583e-03 -1.246322678009924e-14 2.184146192587402e-02
-2.122909035992158e-02 -3.761378913358062e-14 8.450076749333250e-02
-1.293269389895169e-02 -1.684057117990221e-14 8.516351848280272e-02
-1.293269389903436e-02 -1.697108002102106e-14 8.516351848320518e-02
-2.122909036003014e-02 -3.768607540627665e-14 8.450076749373074e-02
-4.962092836961424e-03 -5.044618574138811e-15 2.200220716386404e-02
-5.628144859205021e-04 2.120176013471410e-15 2.216622704339350e-02
-5.628144859376198e-04 2.549980906923777e-15 2.216622704353833e-02
-4.962092836999015e-03 -5.329949222864443e-15 2.200220716400721e-02
-1.293269389895169e-02 -1.684057117990221e-14 8.516351848280272e-02
-4.638396775999476e-03 3.497508345180987e-15 8.582804104065125e-02
-4.638396776057738e-03 3.376113367655854e-15 8.582804104105766e-02
-1.293269389903436e-02 -1.697108002102106e-14 8.516351848320518e-02
-5.628144859205021e-04 2.120176013471410e-15 2.216622704339350e-02
3.833365423276681e-03 9.925331817448420e-15 2.232996799828018e-02
3.833365423280210e-03 1.001327955312247e-14 2.232996799842659e-02
-5.628144859376198e-04 2.549980906923777e-15 2.216622704353833e-02
-4.638396775999476e-03 3.497508345180987e-15 8.582804104065125e-02
3.658442846302059e-03 2.374799624676037e-14 8.649303636635566e-02
3.658442846268555e-03 2.406830260465976e-14 8.649303636676603e-02
-4.638396776057738e-03 3.376113367655854e-15 8.582804104105766e-02
3.833365423276681e-03 9.925331817448420e-15 2.232996799828018e-02
8.241329102344087e-03 1.763059025485981e-14 2.248972079245215e-02
8.241329102370186e-03 1.721000693805489e-14 2.248972079260027e-02
3.833365423280210e-03 1.001327955312247e-14 2.232996799842659e-02
3.658442846302059e-03 2.374799624676037e-14 8.649303636635566e-02
1.196614637327906e-02 4.452703011420505e-14 8.715768677571811e-02
1.196614637327156e-02 4.445495326276803e-14 8.715768677613275e-02
3.658442846268555e-03 2.406830260465976e-14 8.649303636676603e-02
-2.122909035992158e-02 -3.761378913358062e-14 8.450076749333250e-02
-1.293269389895169e-02 -1.684057117990221e-14 8.516351848280272e-02
-1.293269389903436e-02 -1.697108002102106e-14 8.516351848320518e-02
-2.122909036003014e-02 -3.768607540627665e-14 8.450076749373074e-02
-3.768811839408345e-02 -7.352346347956003e-14 1.830233290821470e-01
-2.604222105035720e-02 -4.004813926131771e-14 1.843289185734921e-01
-2.604222105049224e-02 -3.954833594500808e-14 1.843289185741535e-01
-3.768811839424101e-02 -7.365478394471100e-14 1.830233290828035e-01
-1.293269389895169e-02 -1.684057117990221e-14 8.516351848280272e-02
-4.638396775999476e-03 3.497508345180987e-15 8.582804104065125e-02
-4.638396776057738e-03 3.376113367655854e-15 8.582804104105766e-02
-1.293269389903436e-02 -1.697108002102106e-14 8.516351848320518e-02
-2.604222105035720e-02 -4.004813926131771e-14 1.843289185734921e-01
-1.441593625630743e-02 -6.008538008878960e-15 1.856325415742184e-01
-1.441593625642137e-02 -5.943726790234333e-15 1.856325415748844e-01
-2.604222105049224e-02 -3.954833594500808e-14 1.843289185741535e-01
-4.638396775999476e-03 3.497508345180987e-15 8.582804104065125e-02
3.658442846302059e-03 2.374799624676037e-14 8.649303636635566e-02
3.658442846268555e-03 2.406830260465976e-14 8.649303636676603e-02
-4.638396776057738e-03 3.376113367655854e-15 8.582804104105766e-02
-1.441593625630743e-02 -6.008538008878960e-15 1.856325415742184e-01
-2.792733001012274e-03 2.751362355586699e-14 1.869354897962804e-01
-2.792733001105120e-03 2.739773817965062e-14 1.869354897969510e-01
-1.441593625642137e-02 -5.943726790234333e-15 1.856325415748844e-01
3.658442846302059e-03 2.374799624676037e-14 8.649303636635566e-02
1.196614637327906e-02 4.452703011420505e-14 8.715768677571811e-02
1.196614637327156e-02 4.445495326276803e-14 8.715768677613275e-02
3.658442846268555e-03 2.406830260465976e-14 8.649303636676603e-02
-2.792733001012274e-03 2.751362355586699e-14 1.869354897962804e-01
8.840508364286603e-03 6.140849106650594e-14 1.882383192891911e-01
8.840508364216352e-03 6.125764422818860e-14 1.882383192898667e-01
-2.792733001105120e-03 2.739773817965062e-14 1.869354897969510e-01
-3.768811839408345e-02 -7.352346347956003e-14 1.830233290821470e-01
-2.604222105035720e-02 -4.004813926131771e-14 1.843289185734921e-01
-2.604222105049224e-02 -3.954833594500808e-14 1.843289185741535e-01
-3.768811839424101e-02 -7.365478394471100e-14 1.830233290828035e-01
-5.961327435611064e-02 -1.204616583475450e-13 3.120091515220061e-01
-4.520326768737334e-02 -7.660513733361491e-14 3.139862077284237e-01
-4.520326768755763e-02 -7.611060222905383e-14 3.139862077292899e-01
-5.961327435631152e-02 -1.205170387445286e-13 3.120091515228678e-01
-2.604222105035720e-02 -4.004813926131771e-14 1.843289185734921e-01
-1.441593625630743e-02 -6.008538008878960e-15 1.856325415742184e-01
-1.441593625642137e-02 -5.943726790234333e-15 1.856325415748844e-01
-2.604222105049224e-02 -3.954833594500808e-14 1.843289185741535e-01
-4.520326768737334e-02 -7.660513733361491e-14 3.139862077284237e-01
-3.080017880487872e-02 -3.214667857762624e-14 3.159625281079688e-01
-3.080017880504732e-02 -3.231918227798652e-14 3.159625281088393e-01
-4.520326768755763e-02 -7.611060222905383e-14 3.139862077292899e-01
-1.441593625630743e-02 -6.008538008878960e-15 1.856325415742184e-01
-2.792733001012274e-03 2.751362355586699e-14 1.869354897962804e-01
-2.792733001105120e-03 2.739773817965062e-14 1.869354897969510e-01
-1.441593625642137e-02 -5.943726790234333e-15 1.856325415748844e-01
-3.080017880487872e-02 -3.214667857762624e-14 3.159625281079688e-01
-1.639859702269229e-02 1.194839975731917e-14 3.179384408489010e-01
-1.639859702284521e-02 1.209865148056017e-14 3.179384408497757e-01
-3.080017880504732e-02 -3.231918227798652e-14 3.159625281088393e-01
-2.792733001012274e-03 2.751362355586699e-14 1.869354897962804e-01
8.840508364286603e-03 6.140849106650594e-14 1.882383192891911e-01
8.840508364216352e-03 6.125764422818860e-14 1.882383192898667e-01
-2.792733001105120e-03 2.739773817965062e-14 1.869354897969510e-01
-1.639859702269229e-02 1.194839975731917e-14 3.179384408489010e-01
-1.990202038701726e-03 5.630037720879926e-14 3.199149747668696e-01
-1.990202038838158e-03 5.613891834220731e-14 3.199149747677488e-01
-1.639859702284521e-02 1.209865148056017e-14 3.179384408497757e-01
-5.961327435611064e-02 -1.204616583475450e-13 3.120091515220061e-01
-4.520326768737334e-02 -7.660513733361491e-14 3.139862077284237e-01
-4.520326768755763e-02 -7.611060222905383e-14 3.139862077292899e-01
-5.961327435631152e-02 -1.205170387445286e-13 3.120091515228678e-01
-8.704107044991392e-02 -1.802323663203283e-13 4.662420669317502e-01
-7.036334674943703e-02 -1.283910797215127e-13 4.688500943681671e-01
-7.036334674966366e-02 -1.281704419133698e-13 4.688500943691886e-01
-8.704107045015372e-02 -1.806943762018150e-13 4.662420669327678e-01
-4.520326768737334e-02 -7.660513733361491e-14 3.139862077284237e-01
-3.080017880487872e-02 -3.214667857762624e-14 3.159625281079688e-01
-3.080017880504732e-02 -3.231918227798652e-14 3.159625281088393e-01
-4.520326768755763e-02 -7.611060222905383e-14 3.139862077292899e-01
-7.036334674943703e-02 -1.283910797215127e-13 4.688500943681671e-01
-5.370185315397535e-02 -7.626039453867445e-14 4.714541251997070e-01
-5.370185315418960e-02 -7.621067167821237e-14 4.714541252007320e-01
-7.036334674966366e-02 -1.281704419133698e-13 4.688500943691886e-01
-3.080017880487872e-02 -3.214667857762624e-14 3.159625281079688e-01
-1.639859702269229e-02 1.194839975731917e-14 3.179384408489010e-01
-1.639859702284521e-02 1.209865148056017e-14 3.179384408497757e-01
-3.080017880504732e-02 -3.231918227798652e-14 3.159625281088393e-01
-5.370185315397535e-02 -7.626039453867445e-14 4.714541251997070e-01
-3.704355168131487e-02 -2.442168601291599e-14 4.740570389745072e-01
-3.704355168151678e-02 -2.416986818644841e-14 4.740570389755360e-01
-5.370185315418960e-02 -7.621067167821237e-14 4.714541252007320e-01
-1.639859702269229e-02 1.194839975731917e-14 3.179384408489010e-01
-1.990202038701726e-03 5.630037720879926e-14 3.199149747668696e-01
-1.990202038838158e-03 5.613891834220731e-14 3.199149747677488e-01
-1.639859702284521e-02 1.209865148056017e-14 3.179384408497757e-01
-3.704355168131487e-02 -2.442168601291599e-14 4.740570389745072e-01
-2.037750278107522e-02 2.797140215391274e-14 4.766610469186616e-01
-2.037750278126399e-02 2.776182336000447e-14 4.766610469196943e-01
-3.704355168151678e-02 -2.416986818644841e-14 4.740570389755360e-01
        </DataArray>
        <DataArray type="Float64" Name="nodal_2PK_stresses_xyz" NumberOfComponents="6" format="ascii">
-1.763999461792908e-01 -8.693187302146960e-15 -6.519898463678941e-03 -2.304081579757418e-13 2.973778466280829e-15 6.798100711016283e-05
-8.913236744435912e-02 6.739617836802608e-16 -6.490041320302266e-03 -1.296034741854934e-13 -2.805519581894669e-15 1.391118194927378e-03
-8.913236744495592e-02 -3.687219887978520e-15 -6.490041320370981e-03 -1.307510073765079e-13 -1.399389882300722e-15 1.391118196362090e-03
-1.763999461804002e-01 3.033185711008723e-15 -6.519898463734689e-03 -2.317274471321477e-13 -1.475097792291206e-14 6.798100852612170e-05
-1.660328262255762e-01 5.021890331285036e-15 1.163612214291486e-03 -3.880105410304679e-13 -3.300318318695547e-14 9.819616084571138e-04
-8.376896235758925e-02 -4.429593398614107e-15 6.601851270678828e-04 -1.832198485558516e-13 -2.297294031032428e-14 1.312960850649440e-03
-8.376896235801334e-02 -3.931594913370332e-15 6.601851270683132e-04 -1.763953069686189e-13 -2.687061626469214e-14 1.312960850559921e-03
-1.660328262262977e-01 -2.747001048028492e-15 1.163612214299838e-03 -3.917902669053736e-13 1.972980754560368e-14 9.819616082636195e-04
-8.913236744435912e-02 6.739617836802608e-16 -6.490041320302266e-03 -1.296034741854934e-13 -2.805519581894669e-15 1.391118194927378e-03
-1.487678357746786e-03 -2.153369218826279e-15 -6.455626904192017e-03 -5.628364810571018e-15 -2.390356840695591e-16 1.659625812095057e-03
-1.487678357975238e-03 2.173296825536738e-15 -6.455626904252881e-03 -2.262648989173951e-15 8.410598983446519e-15 1.659625813539121e-03
-8.913236744495592e-02 -3.687219887978520e-15 -6.490041320370981e-03 -1.307510073765079e-13 -1.399389882300722e-15 1.391118196362090e-03
-8.376896235758925e-02 -4.429593398614107e-15 6.601851270678828e-04 -1.832198485558516e-13 -2.297294031032428e-14 1.312960850649440e-03
-8.310328190165762e-04 3.860871077799975e-15 1.558581725937079e-04 -4.582521347928174e-15 -2.708001384360434e-14 1.750454802004927e-03
-8.310328191789974e-04 3.603242928354144e-15 1.558581725997273e-04 -9.240463482063823e-16 -5.341228422619079e-14 1.750454801981964e-03
-8.376896235801334e-02 -3.931594913370332e-15 6.601851270683132e-04 -1.763953069686189e-13 -2.687061626469214e-14 1.312960850559921e-03
-1.487678357746786e-03 -2.153369218826279e-15 -6.455626904192017e-03 -5.628364810571018e-15 -2.390356840695591e-16 1.659625812095057e-03
8.686907023492668e-02 -3.828667559119244e-15 -6.468145607590229e-03 1.309019974536961e-13 3.159632905804146e-15 1.134399215110664e-03
8.686907023511550e-02 -3.605555036969185e-15 -6.468145607660798e-03 1.292604142776064e-13 -1.715041634743187e-16 1.134399216625847e-03
-1.487678357975238e-03 2.173296825536738e-15 -6.455626904252881e-03 -2.262648989173951e-15 8.410598983446519e-15 1.659625813539121e-03
-8.310328190165762e-04 3.860871077799975e-15 1.558581725937079e-04 -4.582521347928174e-15 -2.708001384360434e-14 1.750454802004927e-03
8.282883433866096e-02 4.827334322669371e-15 6.479847171621207e-04 1.803784507591519e-13 -2.918546148418175e-14 1.243492251165499e-03
8.282883433871996e-02 2.728408337849317e-15 6.479847171705181e-04 1.839770845537888e-13 -1.396446329692411e-14 1.243492251038608e-03
-8.310328191789974e-04 3.603242928354144e-15 1.558581725997273e-04 -9.240463482063823e-16 -5.341228422619079e-14 1.750454801981964e-03
8.686907023492668e-02 -3.828667559119244e-15 -6.468145607590229e-03 1.309019974536961e-13 3.159632905804146e-15 1.134399215110664e-03
1.762358707649339e-01 2.964154456417185e-15 -6.485221583738806e-03 2.258627059793814e-13 -1.569035495262565e-15 1.656067514708695e-03
1.762358707656544e-01 3.479410755308849e-15 -6.485221583791069e-03 2.227547006318168e-13 -5.765797504209529e-15 1.656067516104478e-03
8.686907023511550e-02 -3.605555036969185e-15 -6.468145607660798e-03 1.292604142776064e-13 -1.715041634743187e-16 1.134399216625847e-03
8.282883433866096e-02 4.827334322669371e-15 6.479847171621207e-04 1.803784507591519e-13 -2.918546148418175e-14 1.243492251165499e-03
1.672985374855219e-01 -4.794057750646053e-16 1.141011128976099e-03 3.941679312467194e-13 -2.028788783021886e-14 6.407682136477821e-04
1.672985374858529e-01 1.718442874412678e-15 1.141011128985511e-03 3.883254435034870e-13 7.207503635693999e-15 6.407682135082117e-04
8.282883433871996e-02 2.728408337849317e-15 6.479847171705181e-04 1.839770845537888e-13 -1.396446329692411e-14 1.243492251038608e-03
-1.660328262255762e-01 5.021890331285036e-15 1.163612214291486e-03 -3.880105410304679e-13 -3.300318318695547e-14 9.819616084571138e-04
-8.376896235758925e-02 -4.429593398614107e-15 6.601851270678828e-04 -1.832198485558516e-13 -2.297294031032428e-14 1.312960850649440e-03
-8.376896235801334e-02 -3.931594913370332e-15 6.601851270683132e-04 -1.763953069686189e-13 -2.687061626469214e-14 1.312960850559921e-03
-1.660328262262977e-01 -2.747001048028492e-15 1.163612214299838e-03 -3.917902669053736e-13 1.972980754560368e-14 9.819616082636195e-04
-1.426665733482285e-01 -4.217779576350556e-15 1.503153702443330e-03 -4.983278945233029e-13 -4.117193723320324e-14 1.171781446826620e-03
-7.026097320059427e-02 2.849260954013945e-15 1.291920611646317e-03 -2.401533847237616e-13 -1.309383697579036e-14 1.494876055663264e-03
-7.026097320072006e-02 3.274223495072297e-15 1.291920611678265e-03 -2.368910981121673e-13 -4.649880694099049e-15 1.494876055745785e-03
-1.426665733483313e-01 -1.239037099348082e-15 1.503153702458450e-03 -4.963343280659647e-13 -3.651840277338860e-14 1.171781446896658e-03
-8.376896235758925e-02 -4.429593398614107e-15 6.601851270678828e-04 -1.832198485558516e-13 -2.297294031032428e-14 1.312960850649440e-03
-8.310328190165762e-04 3.860871077799975e-15 1.558581725937079e-04 -4.582521347928174e-15 -2.708001384360434e-14 1.750454802004927e-03
-8.310328191789974e-04 3.603242928354144e-15 1.558581725997273e-04 -9.240463482063823e-16 -5.341228422619079e-14 1.750454801981964e-03
-8.376896235801334e-02 -3.931594913370332e-15 6.601851270683132e-04 -1.763953069686189e-13 -2.687061626469214e-14 1.312960850559921e-03
-7.026097320059427e-02 2.849260954013945e-15 1.291920611646317e-03 -2.401533847237616e-13 -1.309383697579036e-14 1.494876055663264e-03
2.683645715457371e-03 -1.673343916125322e-16 1.075737603180181e-03 6.293026047089307e-15 1.550940712457633e-14 1.880285464966712e-03
2.683645715340453e-03 -3.292148756985853e-15 1.075737603211245e-03 1.041679558448198e-14 1.651432552236877e-14 1.880285465136122e-03
-7.026097320072006e-02 3.274223495072297e-15 1.291920611678265e-03 -2.368910981121673e-13 -4.649880694099049e-15 1.494876055745785e-03
-8.310328190165762e-04 3.860871077799975e-15 1.558581725937079e-04 -4.582521347928174e-15 -2.708001384360434e-14 1.750454802004927e-03
8.282883433866096e-02 4.827334322669371e-15 6.479847171621207e-04 1.803784507591519e-13 -2.918546148418175e-14 1.243492251165499e-03
8.282883433871996e-02 2.728408337849317e-15 6.479847171705181e-04 1.839770845537888e-13 -1.396446329692411e-14 1.243492251038608e-03
-8.310328191789974e-04 3.603242928354144e-15 1.558581725997273e-04 -9.240463482063823e-16 -5.341228422619079e-14 1.750454801981964e-03
2.683645715457371e-03 -1.673343916125322e-16 1.075737603180181e-03 6.293026047089307e-15 1.550940712457633e-14 1.880285464966712e-03
7.616646682860298e-02 -6.739617836802630e-16 1.285937053639430e-03 2.558405308017876e-13 -4.191316446872178e-15 1.202752124235847e-03
7.616646682851647e-02 4.966112200747518e-15 1.285937053684565e-03 2.523431567357408e-13 2.816935822704293e-15 1.202752124282661e-03
2.683645715340453e-03 -3.292148756985853e-15 1.075737603211245e-03 1.041679558448198e-14 1.651432552236877e-14 1.880285465136122e-03
8.282883433866096e-02 4.827334322669371e-15 6.479847171621207e-04 1.803784507591519e-13 -2.918546148418175e-14 1.243492251165499e-03
1.672985374855219e-01 -4.794057750646053e-16 1.141011128976099e-03 3.941679312467194e-13 -2.028788783021886e-14 6.407682136477821e-04
1.672985374858529e-01 1.718442874412678e-15 1.141011128985511e-03 3.883254435034870e-13 7.207503635693999e-15 6.407682135082117e-04
8.282883433871996e-02 2.728408337849317e-15 6.479847171705181e-04 1.839770845537888e-13 -1.396446329692411e-14 1.243492251038608e-03
7.616646682860298e-02 -6.739617836802630e-16 1.285937053639430e-03 2.558405308017876e-13 -4.191316446872178e-15 1.202752124235847e-03
1.501757500452266e-01 -4.033187371090151e-15 1.501086421792815e-03 5.166964462569642e-13 -2.532305216144547e-14 4.496751487230669e-04
1.501757500451082e-01 -7.767556482782209e-15 1.501086421815300e-03 5.164393979037769e-13 -6.217387305683713e-15 4.496751487098397e-04
7.616646682851647e-02 4.966112200747518e-15 1.285937053684565e-03 2.523431567357408e-13 2.816935822704293e-15 1.202752124282661e-03
-1.426665733482285e-01 -4.217779576350556e-15 1.503153702443330e-03 -4.983278945233029e-13 -4.117193723320324e-14 1.171781446826620e-03
-7.026097320059427e-02 2.849260954013945e-15 1.291920611646317e-03 -2.401533847237616e-13 -1.309383697579036e-14 1.494876055663264e-03
-7.026097320072006e-02 3.274223495072297e-15 1.291920611678265e-03 -2.368910981121673e-13 -4.649880694099049e-15 1.494876055745785e-03
-1.426665733483313e-01 -1.239037099348082e-15 1.503153702458450e-03 -4.963343280659647e-13 -3.651840277338860e-14 1.171781446896658e-03
-1.129182165679460e-01 -3.911667306659851e-15 1.025781854982713e-02 -4.162438270690820e-13 1.312056391163319e-14 1.662570072418938e-03
-5.090062281855313e-02 1.080999062825128e-15 9.997060748859286e-03 -1.890042648196735e-13 -1.187694452490586e-14 1.795334792350314e-03
-5.090062281848577e-02 5.334629163002714e-15 9.997060748975078e-03 -1.889420769747497e-13 6.397802525665934e-15 1.795334792489794e-03
-1.129182165677964e-01 -4.280851717180756e-15 1.025781854992100e-02 -4.182958384766838e-13 -1.903903222928466e-14 1.662570072497442e-03
-7.026097320059427e-02 2.849260954013945e-15 1.291920611646317e-03 -2.401533847237616e-13 -1.309383697579036e-14 1.494876055663264e-03
2.683645715457371e-03 -1.673343916125322e-16 1.075737603180181e-03 6.293026047089307e-15 1.550940712457633e-14 1.880285464966712e-03
2.683645715340453e-03 -3.292148756985853e-15 1.075737603211245e-03 1.041679558448198e-14 1.651432552236877e-14 1.880285465136122e-03
-7.026097320072006e-02 3.274223495072297e-15 1.291920611678265e-03 -2.368910981121673e-13 -4.649880694099049e-15 1.494876055745785e-03
-5.090062281855313e-02 1.080999062825128e-15 9.997060748859286e-03 -1.890042648196735e-13 -1.187694452490586e-14 1.795334792350314e-03
1.145828894832174e-02 -1.126813390007378e-15 9.732861634419608e-03 3.829627682060448e-14 -4.731807948080878e-15 1.908693408764823e-03
1.145828894829366e-02 -5.902945878740101e-16 9.732861634515748e-03 3.445298553619993e-14 3.305209741526670e-14 1.908693408977861e-03
-5.090062281848577e-02 5.334629163002714e-15 9.997060748975078e-03 -1.889420769747497e-13 6.397802525665934e-15 1.795334792489794e-03
2.683645715457371e-03 -1.673343916125322e-16 1.075737603180181e-03 6.293026047089307e-15 1.550940712457633e-14 1.880285464966712e-03
7.616646682860298e-02 -6.739617836802630e-16 1.285937053639430e-03 2.558405308017876e-13 -4.191316446872178e-15 1.202752124235847e-03
7.616646682851647e-02 4.966112200747518e-15 1.285937053684565e-03 2.523431567357408e-13 2.816935822704293e-15 1.202752124282661e-03
2.683645715340453e-03 -3.292148756985853e-15 1.075737603211245e-03 1.041679558448198e-14 1.651432552236877e-14 1.880285465136122e-03
1.145828894832174e-02 -1.126813390007378e-15 9.732861634419608e-03 3.829627682060448e-14 -4.731807948080878e-15 1.908693408764823e-03
7.416884824019943e-02 3.351573892669679e-15 9.976277743940904e-03 2.591177584382332e-13 2.597019831657428e-15 9.628805863979967e-04
7.416884824008366e-02 -1.004983561759034e-15 9.976277744022306e-03 2.628289739596009e-13 -3.821171683445035e-15 9.628805865525622e-04
1.145828894829366e-02 -5.902945878740101e-16 9.732861634515748e-03 3.445298553619993e-14 3.305209741526670e-14 1.908693408977861e-03
7.616646682860298e-02 -6.739617836802630e-16 1.285937053639430e-03 2.558405308017876e-13 -4.191316446872178e-15 1.202752124235847e-03
1.501757500452266e-01 -4.033187371090151e-15 1.501086421792815e-03 5.166964462569642e-13 -2.532305216144547e-14 4.496751487230669e-04
1.501757500451082e-01 -7.767556482782209e-15 1.501086421815300e-03 5.164393979037769e-13 -6.217387305683713e-15 4.496751487098397e-04
7.616646682851647e-02 4.966112200747518e-15 1.285937053684565e-03 2.523431567357408e-13 2.816935822704293e-15 1.202752124282661e-03
7.416884824019943e-02 3.351573892669679e-15 9.976277743940904e-03 2.591177584382332e-13 2.597019831657428e-15 9.628805863979967e-04
1.372349105097455e-01 4.448901477688064e-16 1.022313516693998e-02 4.995827915081781e-13 -1.434350557484160e-14 4.557005186499332e-05
1.372349105095311e-01 -4.568371276692232e-15 1.022313516701988e-02 4.962682228612671e-13 -2.409184980208212e-14 4.557005195057577e-05
7.416884824008366e-02 -1.004983561759034e-15 9.976277744022306e-03 2.628289739596009e-13 -3.821171683445035e-15 9.628805865525622e-04
-1.129182165679460e-01 -3.911667306659851e-15 1.025781854982713e-02 -4.162438270690820e-13 1.312056391163319e-14 1.662570072418938e-03
-5.090062281855313e-02 1.080999062825128e-15 9.997060748859286e-03 -1.890042648196735e-13 -1.187694452490586e-14 1.795334792350314e-03
-5.090062281848577e-02 5.334629163002714e-15 9.997060748975078e-03 -1.889420769747497e-13 6.397802525665934e-15 1.795334792489794e-03
-1.129182165677964e-01 -4.280851717180756e-15 1.025781854992100e-02 -4.182958384766838e-13 -1.903903222928466e-14 1.662570072497442e-03
-7.697092979220981e-02 -1.636778023403317e-15 2.543087339939079e-02 -2.702229816411490e-13 -2.610466778313279e-15 1.999104001864570e-03
-2.529388513614687e-02 4.780852547221435e-15 2.530007909748478e-02 -8.685709960491281e-14 4.994648537136004e-15 1.978661472752457e-03
-2.529388513599358e-02 8.296113826357347e-15 2.530007909757535e-02 -8.950693887509887e-14 2.236442549374515e-14 1.978661472947597e-03
-7.697092979199445e-02 -3.319370373988967e-15 2.543087339948691e-02 -2.680827813164669e-13 3.084374879172463e-14 1.999104002020592e-03
-5.090062281855313e-02 1.080999062825128e-15 9.997060748859286e-03 -1.890042648196735e-13 -1.187694452490586e-14 1.795334792350314e-03
1.145828894832174e-02 -1.126813390007378e-15 9.732861634419608e-03 3.829627682060448e-14 -4.731807948080878e-15 1.908693408764823e-03
1.145828894829366e-02 -5.902945878740101e-16 9.732861634515748e-03 3.445298553619993e-14 3.305209741526670e-14 1.908693408977861e-03
-5.090062281848577e-02 5.334629163002714e-15 9.997060748975078e-03 -1.889420769747497e-13 6.397802525665934e-15 1.795334792489794e-03
-2.529388513614687e-02 4.780852547221435e-15 2.530007909748478e-02 -8.685709960491281e-14 4.994648537136004e-15 1.978661472752457e-03
2.668279037115727e-02 -6.704482681870673e-15 2.516497541499202e-02 8.717747225033224e-14 2.829752008282603e-15 1.850110861209862e-03
2.668279037120789e-02 -7.296779614541547e-15 2.516497541507948e-02 9.140579293564269e-14 6.305112264737869e-15 1.850110861461930e-03
-2.529388513599358e-02 8.296113826357347e-15 2.530007909757535e-02 -8.950693887509887e-14 2.236442549374515e-14 1.978661472947597e-03
1.145828894832174e-02 -1.126813390007378e-15 9.732861634419608e-03 3.829627682060448e-14 -4.731807948080878e-15 1.908693408764823e-03
7.416884824019943e-02 3.351573892669679e-15 9.976277743940904e-03 2.591177584382332e-13 2.597019831657428e-15 9.628805863979967e-04
7.416884824008366e-02 -1.004983561759034e-15 9.976277744022306e-03 2.628289739596009e-13 -3.821171683445035e-15 9.628805865525622e-04
1.145828894829366e-02 -5.902945878740101e-16 9.732861634515748e-03 3.445298553619993e-14 3.305209741526670e-14 1.908693408977861e-03
2.668279037115727e-02 -6.704482681870673e-15 2.516497541499202e-02 8.717747225033224e-14 2.829752008282603e-15 1.850110861209862e-03
7.893029518308675e-02 3.157685332319652e-15 2.529830022068106e-02 2.645838669499056e-13 -1.744035979305422e-15 7.167753751545861e-04
7.893029518304684e-02 4.578335080047621e-16 2.529830022079838e-02 2.668387002147528e-13 -1.273629192019598e-14 7.167753753566915e-04
2.668279037120789e-02 -7.296779614541547e-15 2.516497541507948e-02 9.140579293564269e-14 6.305112264737869e-15 1.850110861461930e-03
7.416884824019943e-02 3.351573892669679e-15 9.976277743940904e-03 2.591177584382332e-13 2.597019831657428e-15 9.628805863979967e-04
1.372349105097455e-01 4.448901477688064e-16 1.022313516693998e-02 4.995827915081781e-13 -1.434350557484160e-14 4.557005186499332e-05
1.372349105095311e-01 -4.568371276692232e-15 1.022313516701988e-02 4.962682228612671e-13 -2.409184980208212e-14 4.557005195057577e-05
7.416884824008366e-02 -1.004983561759034e-15 9.976277744022306e-03 2.628289739596009e-13 -3.821171683445035e-15 9.628805865525622e-04
7.893029518308675e-02 3.157685332319652e-15 2.529830022068106e-02 2.645838669499056e-13 -1.744035979305422e-15 7.167753751545861e-04
1.314318435717718e-01 -4.642742117408941e-15 2.543593440694369e-02 4.460212975816089e-13 3.594347507897744e-15 -3.132604902092377e-04
1.314318435716472e-01 1.859271017917484e-17 2.543593440707458e-02 4.403649869765455e-13 -5.697357838434748e-15 -3.132604900744503e-04
7.893029518304684e-02 4.578335080047621e-16 2.529830022079838e-02 2.668387002147528e-13 -1.273629192019598e-14 7.167753753566915e-04
-7.697092979220981e-02 -1.636778023403317e-15 2.543087339939079e-02 -2.702229816411490e-13 -2.610466778313279e-15 1.999104001864570e-03
-2.529388513614687e-02 4.780852547221435e-15 2.530007909748478e-02 -8.685709960491281e-14 4.994648537136004e-15 1.978661472752457e-03
-2.529388513599358e-02 8.296113826357347e-15 2.530007909757535e-02 -8.950693887509887e-14 2.236442549374515e-14 1.978661472947597e-03
-7.697092979199445e-02 -3.319370373988967e-15 2.543087339948691e-02 -2.680827813164669e-13 3.084374879172463e-14 1.999104002020592e-03
-3.670508443167296e-02 -3.243664636741008e-15 4.679023579141632e-02 -1.333663486904881e-13 1.963797080477388e-14 2.301035427113770e-03
5.310012745604086e-03 -5.614283105215347e-16 4.662927985181797e-02 1.683762489552247e-14 1.985560066576405e-14 2.116155794139985e-03
5.310012745795924e-03 -1.235390094201692e-15 4.662927985195497e-02 1.570528210168383e-14 -2.187233211954481e-15 2.116155794283723e-03
-3.670508443142446e-02 -3.466777158891008e-15 4.679023579155890e-02 -1.183929075830880e-13 -1.238120644177485e-14 2.301035427209896e-03
-2.529388513614687e-02 4.780852547221435e-15 2.530007909748478e-02 -8.685709960491281e-14 4.994648537136004e-15 1.978661472752457e-03
2.668279037115727e-02 -6.704482681870673e-15 2.516497541499202e-02 8.717747225033224e-14 2.829752008282603e-15 1.850110861209862e-03
2.668279037120789e-02 -7.296779614541547e-15 2.516497541507948e-02 9.140579293564269e-14 6.305112264737869e-15 1.850110861461930e-03
-2.529388513599358e-02 8.296113826357347e-15 2.530007909757535e-02 -8.950693887509887e-14 2.236442549374515e-14 1.978661472947597e-03
5.310012745604086e-03 -5.614283105215347e-16 4.662927985181797e-02 1.683762489552247e-14 1.985560066576405e-14 2.116155794139985e-03
4.748778179042443e-02 5.230724596667896e-15 4.646841171148787e-02 1.536561339476899e-13 2.034906347066162e-14 1.745996070869837e-03
4.748778179056556e-02 4.084651048215674e-15 4.646841171163476e-02 1.565397328227284e-13 6.755392360925299e-15 1.745996071050154e-03
5.310012745795924e-03 -1.235390094201692e-15 4.662927985195497e-02 1.570528210168383e-14 -2.187233211954481e-15 2.116155794283723e-03
2.668279037115727e-02 -6.704482681870673e-15 2.516497541499202e-02 8.717747225033224e-14 2.829752008282603e-15 1.850110861209862e-03
7.893029518308675e-02 3.157685332319652e-15 2.529830022068106e-02 2.645838669499056e-13 -1.744035979305422e-15 7.167753751545861e-04
7.893029518304684e-02 4.578335080047621e-16 2.529830022079838e-02 2.668387002147528e-13 -1.273629192019598e-14 7.167753753566915e-04
2.668279037120789e-02 -7.296779614541547e-15 2.516497541507948e-02 9.140579293564269e-14 6.305112264737869e-15 1.850110861461930e-03
4.748778179042443e-02 5.230724596667896e-15 4.646841171148787e-02 1.536561339476899e-13 2.034906347066162e-14 1.745996070869837e-03
8.983173028999424e-02 -3.061742224543056e-15 4.662362080183333e-02 2.971053715174422e-13 3.666929816785374e-15 4.335797701709910e-04
8.983173029008476e-02 4.659999931056758e-15 4.662362080195285e-02 2.929972035274578e-13 -7.441735575344999e-15 4.335797703112193e-04
4.748778179056556e-02 4.084651048215674e-15 4.646841171163476e-02 1.565397328227284e-13 6.755392360925299e-15 1.745996071050154e-03
7.893029518308675e-02 3.157685332319652e-15 2.529830022068106e-02 2.645838669499056e-13 -1.744035979305422e-15 7.167753751545861e-04
1.314318435717718e-01 -4.642742117408941e-15 2.543593440694369e-02 4.460212975816089e-13 3.594347507897744e-15 -3.132604902092377e-04
1.314318435716472e-01 1.859271017917484e-17 2.543593440707458e-02 4.403649869765455e-13 -5.697357838434748e-15 -3.132604900744503e-04
7.893029518304684e-02 4.578335080047621e-16 2.529830022079838e-02 2.668387002147528e-13 -1.273629192019598e-14 7.167753753566915e-04
8.983173028999424e-02 -3.061742224543056e-15 4.662362080183333e-02 2.971053715174422e-13 3.666929816785374e-15 4.335797701709910e-04
1.323317014757996e-01 3.950711309927344e-16 4.677874209287316e-02 4.405764942905335e-13 -1.286526378011397e-14 -6.905994853726428e-04
1.323317014758298e-01 -3.468112055422373e-15 4.677874209302137e-02 4.394505130375289e-13 -2.554312086813685e-14 -6.905994852649108e-04
8.983173029008476e-02 4.659999931056758e-15 4.662362080195285e-02 2.929972035274578e-13 -7.441735575344999e-15 4.335797703112193e-04
        </DataArray>
        <DataArray type="Float64" Name="nodal_GL_strains_xyz" NumberOfComponents="6" format="ascii">
-1.763999461792908e-02 -8.693187302146959e-16 -6.519898463678941e-04 -2.304081579757418e-14 2.973778466280830e-16 6.798100711016283e-06
-8.913236744435912e-03 6.739617836802602e-17 -6.490041320302265e-04 -1.296034741854935e-14 -2.805519581894669e-16 1.391118194927378e-04
-8.913236744495592e-03 -3.687219887978520e-16 -6.490041320370982e-04 -1.307510073765078e-14 -1.399389882300726e-16 1.391118196362091e-04
-1.763999461804002e-02 3.033185711008722e-16 -6.519898463734688e-04 -2.317274471321476e-14 -1.475097792291206e-15 6.798100852612148e-06
-1.660328262255763e-02 5.021890331285036e-16 1.163612214291485e-04 -3.880105410304679e-14 -3.300318318695547e-15 9.819616084571139e-05
-8.376896235758925e-03 -4.429593398614106e-16 6.601851270678826e-05 -1.832198485558517e-14 -2.297294031032428e-15 1.312960850649440e-04
-8.376896235801335e-03 -3.931594913370333e-16 6.601851270683131e-05 -1.763953069686189e-14 -2.687061626469213e-15 1.312960850559921e-04
-1.660328262262976e-02 -2.747001048028492e-16 1.163612214299838e-04 -3.917902669053737e-14 1.972980754560368e-15 9.819616082636199e-05
-8.913236744435912e-03 6.739617836802602e-17 -6.490041320302265e-04 -1.296034741854935e-14 -2.805519581894669e-16 1.391118194927378e-04
-1.487678357746786e-04 -2.153369218826279e-16 -6.455626904192019e-04 -5.628364810571010e-16 -2.390356840695585e-17 1.659625812095058e-04
-1.487678357975245e-04 2.173296825536739e-16 -6.455626904252881e-04 -2.262648989173947e-16 8.410598983446521e-16 1.659625813539121e-04
-8.913236744495592e-03 -3.687219887978520e-16 -6.490041320370982e-04 -1.307510073765078e-14 -1.399389882300726e-16 1.391118196362091e-04
-8.376896235758925e-03 -4.429593398614106e-16 6.601851270678826e-05 -1.832198485558517e-14 -2.297294031032428e-15 1.312960850649440e-04
-8.310328190165743e-05 3.860871077799975e-16 1.558581725937078e-05 -4.582521347928183e-16 -2.708001384360434e-15 1.750454802004928e-04
-8.310328191789995e-05 3.603242928354145e-16 1.558581725997274e-05 -9.240463482063752e-17 -5.341228422619079e-15 1.750454801981964e-04
-8.376896235801335e-03 -3.931594913370333e-16 6.601851270683131e-05 -1.763953069686189e-14 -2.687061626469213e-15 1.312960850559921e-04
-1.487678357746786e-04 -2.153369218826279e-16 -6.455626904192019e-04 -5.628364810571010e-16 -2.390356840695585e-17 1.659625812095058e-04
8.686907023492667e-03 -3.828667559119244e-16 -6.468145607590230e-04 1.309019974536961e-14 3.159632905804149e-16 1.134399215110665e-04
8.686907023511553e-03 -3.605555036969185e-16 -6.468145607660800e-04 1.292604142776064e-14 -1.715041634743178e-17 1.134399216625847e-04
-1.487678357975245e-04 2.173296825536739e-16 -6.455626904252881e-04 -2.262648989173947e-16 8.410598983446521e-16 1.659625813539121e-04
-8.310328190165743e-05 3.860871077799975e-16 1.558581725937078e-05 -4.582521347928183e-16 -2.708001384360434e-15 1.750454802004928e-04
8.282883433866097e-03 4.827334322669370e-16 6.479847171621206e-05 1.803784507591519e-14 -2.918546148418175e-15 1.243492251165499e-04
8.282883433871997e-03 2.728408337849317e-16 6.479847171705178e-05 1.839770845537888e-14 -1.396446329692411e-15 1.243492251038608e-04
-8.310328191789995e-05 3.603242928354145e-16 1.558581725997274e-05 -9.240463482063752e-17 -5.341228422619079e-15 1.750454801981964e-04
8.686907023492667e-03 -3.828667559119244e-16 -6.468145607590230e-04 1.309019974536961e-14 3.159632905804149e-16 1.134399215110665e-04
1.762358707649339e-02 2.964154456417186e-16 -6.485221583738808e-04 2.258627059793815e-14 -1.569035495262566e-16 1.656067514708695e-04
1.762358707656543e-02 3.479410755308848e-16 -6.485221583791069e-04 2.227547006318168e-14 -5.765797504209528e-16 1.656067516104478e-04
8.686907023511553e-03 -3.605555036969185e-16 -6.468145607660800e-04 1.292604142776064e-14 -1.715041634743178e-17 1.134399216625847e-04
8.282883433866097e-03 4.827334322669370e-16 6.479847171621206e-05 1.803784507591519e-14 -2.918546148418175e-15 1.243492251165499e-04
1.672985374855219e-02 -4.794057750646055e-17 1.141011128976099e-04 3.941679312467193e-14 -2.028788783021885e-15 6.407682136477821e-05
1.672985374858529e-02 1.718442874412678e-16 1.141011128985512e-04 3.883254435034870e-14 7.207503635693998e-16 6.407682135082114e-05
8.282883433871997e-03 2.728408337849317e-16 6.479847171705178e-05 1.839770845537888e-14 -1.396446329692411e-15 1.243492251038608e-04
-1.660328262255763e-02 5.021890331285036e-16 1.163612214291485e-04 -3.880105410304679e-14 -3.300318318695547e-15 9.819616084571139e-05
-8.376896235758925e-03 -4.429593398614106e-16 6.601851270678826e-05 -1.832198485558517e-14 -2.297294031032428e-15 1.312960850649440e-04
-8.376896235801335e-03 -3.931594913370333e-16 6.601851270683131e-05 -1.763953069686189e-14 -2.687061626469213e-15 1.312960850559921e-04
-1.660328262262976e-02 -2.747001048028492e-16 1.163612214299838e-04 -3.917902669053737e-14 1.972980754560368e-15 9.819616082636199e-05
-1.426665733482285e-02 -4.217779576350556e-16 1.503153702443330e-04 -4.983278945233028e-14 -4.117193723320321e-15 1.171781446826620e-04
-7.026097320059429e-03 2.849260954013946e-16 1.291920611646317e-04 -2.401533847237616e-14 -1.309383697579036e-15 1.494876055663264e-04
-7.026097320072006e-03 3.274223495072296e-16 1.291920611678266e-04 -2.368910981121673e-14 -4.649880694099057e-16 1.494876055745784e-04
-1.426665733483313e-02 -1.239037099348082e-16 1.503153702458450e-04 -4.963343280659647e-14 -3.651840277338860e-15 1.171781446896658e-04
-8.376896235758925e-03 -4.429593398614106e-16 6.601851270678826e-05 -1.832198485558517e-14 -2.297294031032428e-15 1.312960850649440e-04
-8.310328190165743e-05 3.860871077799975e-16 1.558581725937078e-05 -4.582521347928183e-16 -2.708001384360434e-15 1.750454802004928e-04
-8.310328191789995e-05 3.603242928354145e-16 1.558581725997274e-05 -9.240463482063752e-17 -5.341228422619079e-15 1.750454801981964e-04
-8.376896235801335e-03 -3.931594913370333e-16 6.601851270683131e-05 -1.763953069686189e-14 -2.687061626469213e-15 1.312960850559921e-04
-7.026097320059429e-03 2.849260954013946e-16 1.291920611646317e-04 -2.401533847237616e-14 -1.309383697579036e-15 1.494876055663264e-04
2.683645715457368e-04 -1.673343916125323e-17 1.075737603180180e-04 6.293026047089306e-16 1.550940712457632e-15 1.880285464966712e-04
2.683645715340450e-04 -3.292148756985852e-16 1.075737603211244e-04 1.041679558448197e-15 1.651432552236877e-15 1.880285465136122e-04
-7.026097320072006e-03 3.274223495072296e-16 1.291920611678266e-04 -2.368910981121673e-14 -4.649880694099057e-16 1.494876055745784e-04
-8.310328190165743e-05 3.860871077799975e-16 1.558581725937078e-05 -4.582521347928183e-16 -2.708001384360434e-15 1.750454802004928e-04
8.282883433866097e-03 4.827334322669370e-16 6.479847171621206e-05 1.803784507591519e-14 -2.918546148418175e-15 1.243492251165499e-04
8.282883433871997e-03 2.728408337849317e-16 6.479847171705178e-05 1.839770845537888e-14 -1.396446329692411e-15 1.243492251038608e-04
-8.310328191789995e-05 3.603242928354145e-16 1.558581725997274e-05 -9.240463482063752e-17 -5.341228422619079e-15 1.750454801981964e-04
2.683645715457368e-04 -1.673343916125323e-17 1.075737603180180e-04 6.293026047089306e-16 1.550940712457632e-15 1.880285464966712e-04
7.616646682860296e-03 -6.739617836802630e-17 1.285937053639430e-04 2.558405308017875e-14 -4.191316446872173e-16 1.202752124235846e-04
7.616646682851645e-03 4.966112200747518e-16 1.285937053684564e-04 2.523431567357409e-14 2.816935822704291e-16 1.202752124282661e-04
2.683645715340450e-04 -3.292148756985852e-16 1.075737603211244e-04 1.041679558448197e-15 1.651432552236877e-15 1.880285465136122e-04
8.282883433866097e-03 4.827334322669370e-16 6.479847171621206e-05 1.803784507591519e-14 -2.918546148418175e-15 1.243492251165499e-04
1.672985374855219e-02 -4.794057750646055e-17 1.141011128976099e-04 3.941679312467193e-14 -2.028788783021885e-15 6.407682136477821e-05
1.672985374858529e-02 1.718442874412678e-16 1.141011128985512e-04 3.883254435034870e-14 7.207503635693998e-16 6.407682135082114e-05
8.282883433871997e-03 2.728408337849317e-16 6.479847171705178e-05 1.839770845537888e-14 -1.396446329692411e-15 1.243492251038608e-04
7.616646682860296e-03 -6.739617836802630e-17 1.285937053639430e-04 2.558405308017875e-14 -4.191316446872173e-16 1.202752124235846e-04
1.501757500452266e-02 -4.033187371090150e-16 1.501086421792815e-04 5.166964462569643e-14 -2.532305216144548e-15 4.496751487230669e-05
1.501757500451082e-02 -7.767556482782211e-16 1.501086421815300e-04 5.164393979037769e-14 -6.217387305683713e-16 4.496751487098397e-05
7.616646682851645e-03 4.966112200747518e-16 1.285937053684564e-04 2.523431567357409e-14 2.816935822704291e-16 1.202752124282661e-04
-1.426665733482285e-02 -4.217779576350556e-16 1.503153702443330e-04 -4.983278945233028e-14 -4.117193723320321e-15 1.171781446826620e-04
-7.026097320059429e-03 2.849260954013946e-16 1.291920611646317e-04 -2.401533847237616e-14 -1.309383697579036e-15 1.494876055663264e-04
-7.026097320072006e-03 3.274223495072296e-16 1.291920611678266e-04 -2.368910981121673e-14 -4.649880694099057e-16 1.494876055745784e-04
-1.426665733483313e-02 -1.239037099348082e-16 1.503153702458450e-04 -4.963343280659647e-14 -3.651840277338860e-15 1.171781446896658e-04
-1.129182165679461e-02 -3.911667306659852e-16 1.025781854982713e-03 -4.162438270690821e-14 1.312056391163319e-15 1.662570072418937e-04
-5.090062281855313e-03 1.080999062825128e-16 9.997060748859288e-04 -1.890042648196736e-14 -1.187694452490586e-15 1.795334792350314e-04
-5.090062281848577e-03 5.334629163002714e-16 9.997060748975078e-04 -1.889420769747497e-14 6.397802525665933e-16 1.795334792489794e-04
-1.129182165677964e-02 -4.280851717180756e-16 1.025781854992100e-03 -4.182958384766840e-14 -1.903903222928466e-15 1.662570072497442e-04
-7.026097320059429e-03 2.849260954013946e-16 1.291920611646317e-04 -2.401533847237616e-14 -1.309383697579036e-15 1.494876055663264e-04
2.683645715457368e-04 -1.673343916125323e-17 1.075737603180180e-04 6.293026047089306e-16 1.550940712457632e-15 1.880285464966712e-04
2.683645715340450e-04 -3.292148756985852e-16 1.075737603211244e-04 1.041679558448197e-15 1.651432552236877e-15 1.880285465136122e-04
-7.026097320072006e-03 3.274223495072296e-16 1.291920611678266e-04 -2.368910981121673e-14 -4.649880694099057e-16 1.494876055745784e-04
-5.090062281855313e-03 1.080999062825128e-16 9.997060748859288e-04 -1.890042648196736e-14 -1.187694452490586e-15 1.795334792350314e-04
1.145828894832174e-03 -1.126813390007378e-16 9.732861634419609e-04 3.829627682060447e-15 -4.731807948080877e-16 1.908693408764823e-04
1.145828894829366e-03 -5.902945878740108e-17 9.732861634515746e-04 3.445298553619995e-15 3.305209741526670e-15 1.908693408977861e-04
-5.090062281848577e-03 5.334629163002714e-16 9.997060748975078e-04 -1.889420769747497e-14 6.397802525665933e-16 1.795334792489794e-04
2.683645715457368e-04 -1.673343916125323e-17 1.075737603180180e-04 6.293026047089306e-16 1.550940712457632e-15 1.880285464966712e-04
7.616646682860296e-03 -6.739617836802630e-17 1.285937053639430e-04 2.558405308017875e-14 -4.191316446872173e-16 1.202752124235846e-04
7.616646682851645e-03 4.966112200747518e-16 1.285937053684564e-04 2.523431567357409e-14 2.816935822704291e-16 1.202752124282661e-04
2.683645715340450e-04 -3.292148756985852e-16 1.075737603211244e-04 1.041679558448197e-15 1.651432552236877e-15 1.880285465136122e-04
1.145828894832174e-03 -1.126813390007378e-16 9.732861634419609e-04 3.829627682060447e-15 -4.731807948080877e-16 1.908693408764823e-04
7.416884824019943e-03 3.351573892669679e-16 9.976277743940901e-04 2.591177584382332e-14 2.597019831657428e-16 9.628805863979971e-05
7.416884824008366e-03 -1.004983561759034e-16 9.976277744022306e-04 2.628289739596010e-14 -3.821171683445039e-16 9.628805865525625e-05
1.145828894829366e-03 -5.902945878740108e-17 9.732861634515746e-04 3.445298553619995e-15 3.305209741526670e-15 1.908693408977861e-04
7.616646682860296e-03 -6.739617836802630e-17 1.285937053639430e-04 2.558405308017875e-14 -4.191316446872173e-16 1.202752124235846e-04
1.501757500452266e-02 -4.033187371090150e-16 1.501086421792815e-04 5.166964462569643e-14 -2.532305216144548e-15 4.496751487230669e-05
1.501757500451082e-02 -7.767556482782211e-16 1.501086421815300e-04 5.164393979037769e-14 -6.217387305683713e-16 4.496751487098397e-05
7.616646682851645e-03 4.966112200747518e-16 1.285937053684564e-04 2.523431567357409e-14 2.816935822704291e-16 1.202752124282661e-04
7.416884824019943e-03 3.351573892669679e-16 9.976277743940901e-04 2.591177584382332e-14 2.597019831657428e-16 9.628805863979971e-05
1.372349105097455e-02 4.448901477688056e-17 1.022313516693998e-03 4.995827915081779e-14 -1.434350557484160e-15 4.557005186499339e-06
1.372349105095311e-02 -4.568371276692231e-16 1.022313516701988e-03 4.962682228612672e-14 -2.409184980208212e-15 4.557005195057570e-06
7.416884824008366e-03 -1.004983561759034e-16 9.976277744022306e-04 2.628289739596010e-14 -3.821171683445039e-16 9.628805865525625e-05
-1.129182165679461e-02 -3.911667306659852e-16 1.025781854982713e-03 -4.162438270690821e-14 1.312056391163319e-15 1.662570072418937e-04
-5.090062281855313e-03 1.080999062825128e-16 9.997060748859288e-04 -1.890042648196736e-14 -1.187694452490586e-15 1.795334792350314e-04
-5.090062281848577e-03 5.334629163002714e-16 9.997060748975078e-04 -1.889420769747497e-14 6.397802525665933e-16 1.795334792489794e-04
-1.129182165677964e-02 -4.280851717180756e-16 1.025781854992100e-03 -4.182958384766840e-14 -1.903903222928466e-15 1.662570072497442e-04
-7.697092979220980e-03 -1.636778023403318e-16 2.543087339939079e-03 -2.702229816411491e-14 -2.610466778313278e-16 1.999104001864570e-04
-2.529388513614687e-03 4.780852547221436e-16 2.530007909748479e-03 -8.685709960491282e-15 4.994648537136003e-16 1.978661472752458e-04
-2.529388513599358e-03 8.296113826357346e-16 2.530007909757536e-03 -8.950693887509887e-15 2.236442549374515e-15 1.978661472947598e-04
-7.697092979199445e-03 -3.319370373988968e-16 2.543087339948692e-03 -2.680827813164668e-14 3.084374879172463e-15 1.999104002020592e-04
-5.090062281855313e-03 1.080999062825128e-16 9.997060748859288e-04 -1.890042648196736e-14 -1.187694452490586e-15 1.795334792350314e-04
1.145828894832174e-03 -1.126813390007378e-16 9.732861634419609e-04 3.829627682060447e-15 -4.731807948080877e-16 1.908693408764823e-04
1.145828894829366e-03 -5.902945878740108e-17 9.732861634515746e-04 3.445298553619995e-15 3.305209741526670e-15 1.908693408977861e-04
-5.090062281848577e-03 5.334629163002714e-16 9.997060748975078e-04 -1.889420769747497e-14 6.397802525665933e-16 1.795334792489794e-04
-2.529388513614687e-03 4.780852547221436e-16 2.530007909748479e-03 -8.685709960491282e-15 4.994648537136003e-16 1.978661472752458e-04
2.668279037115727e-03 -6.704482681870673e-16 2.516497541499202e-03 8.717747225033224e-15 2.829752008282603e-16 1.850110861209863e-04
2.668279037120790e-03 -7.296779614541547e-16 2.516497541507948e-03 9.140579293564270e-15 6.305112264737867e-16 1.850110861461930e-04
-2.529388513599358e-03 8.296113826357346e-16 2.530007909757536e-03 -8.950693887509887e-15 2.236442549374515e-15 1.978661472947598e-04
1.145828894832174e-03 -1.126813390007378e-16 9.732861634419609e-04 3.829627682060447e-15 -4.731807948080877e-16 1.908693408764823e-04
7.416884824019943e-03 3.351573892669679e-16 9.976277743940901e-04 2.591177584382332e-14 2.597019831657428e-16 9.628805863979971e-05
7.416884824008366e-03 -1.004983561759034e-16 9.976277744022306e-04 2.628289739596010e-14 -3.821171683445039e-16 9.628805865525625e-05
1.145828894829366e-03 -5.902945878740108e-17 9.732861634515746e-04 3.445298553619995e-15 3.305209741526670e-15 1.908693408977861e-04
2.668279037115727e-03 -6.704482681870673e-16 2.516497541499202e-03 8.717747225033224e-15 2.829752008282603e-16 1.850110861209863e-04
7.893029518308675e-03 3.157685332319652e-16 2.529830022068106e-03 2.645838669499056e-14 -1.744035979305421e-16 7.167753751545861e-05
7.893029518304683e-03 4.578335080047614e-17 2.529830022079837e-03 2.668387002147529e-14 -1.273629192019597e-15 7.167753753566913e-05
2.668279037120790e-03 -7.296779614541547e-16 2.516497541507948e-03 9.140579293564270e-15 6.305112264737867e-16 1.850110861461930e-04
7.416884824019943e-03 3.351573892669679e-16 9.976277743940901e-04 2.591177584382332e-14 2.597019831657428e-16 9.628805863979971e-05
1.372349105097455e-02 4.448901477688056e-17 1.022313516693998e-03 4.995827915081779e-14 -1.434350557484160e-15 4.557005186499339e-06
1.372349105095311e-02 -4.568371276692231e-16 1.022313516701988e-03 4.962682228612672e-14 -2.409184980208212e-15 4.557005195057570e-06
7.416884824008366e-03 -1.004983561759034e-16 9.976277744022306e-04 2.628289739596010e-14 -3.821171683445039e-16 9.628805865525625e-05
7.893029518308675e-03 3.157685332319652e-16 2.529830022068106e-03 2.645838669499056e-14 -1.744035979305421e-16 7.167753751545861e-05
1.314318435717718e-02 -4.642742117408942e-16 2.543593440694370e-03 4.460212975816091e-14 3.594347507897741e-16 -3.132604902092377e-05
1.314318435716471e-02 1.859271017917482e-18 2.543593440707459e-03 4.403649869765455e-14 -5.697357838434749e-16 -3.132604900744503e-05
7.893029518304683e-03 4.578335080047614e-17 2.529830022079837e-03 2.668387002147529e-14 -1.273629192019597e-15 7.167753753566913e-05
-7.697092979220980e-03 -1.636778023403318e-16 2.543087339939079e-03 -2.702229816411491e-14 -2.610466778313278e-16 1.999104001864570e-04
-2.529388513614687e-03 4.780852547221436e-16 2.530007909748479e-03 -8.685709960491282e-15 4.994648537136003e-16 1.978661472752458e-04
-2.529388513599358e-03 8.296113826357346e-16 2.530007909757536e-03 -8.950693887509887e-15 2.236442549374515e-15 1.978661472947598e-04
-7.697092979199445e-03 -3.319370373988968e-16 2.543087339948692e-03 -2.680827813164668e-14 3.084374879172463e-15 1.999104002020592e-04
-3.670508443167296e-03 -3.243664636741008e-16 4.679023579141633e-03 -1.333663486904882e-14 1.963797080477387e-15 2.301035427113770e-04
5.310012745604086e-04 -5.614283105215351e-17 4.662927985181797e-03 1.683762489552247e-15 1.985560066576404e-15 2.116155794139985e-04
5.310012745795920e-04 -1.235390094201692e-16 4.662927985195497e-03 1.570528210168382e-15 -2.187233211954481e-16 2.116155794283722e-04
-3.670508443142447e-03 -3.466777158891008e-16 4.679023579155892e-03 -1.183929075830880e-14 -1.238120644177485e-15 2.301035427209896e-04
-2.529388513614687e-03 4.780852547221436e-16 2.530007909748479e-03 -8.685709960491282e-15 4.994648537136003e-16 1.978661472752458e-04
2.668279037115727e-03 -6.704482681870673e-16 2.516497541499202e-03 8.717747225033224e-15 2.829752008282603e-16 1.850110861209863e-04
2.668279037120790e-03 -7.296779614541547e-16 2.516497541507948e-03 9.140579293564270e-15 6.305112264737867e-16 1.850110861461930e-04
-2.529388513599358e-03 8.296113826357346e-16 2.530007909757536e-03 -8.950693887509887e-15 2.236442549374515e-15 1.978661472947598e-04
5.310012745604086e-04 -5.614283105215351e-17 4.662927985181797e-03 1.683762489552247e-15 1.985560066576404e-15 2.116155794139985e-04
4.748778179042443e-03 5.230724596667896e-16 4.646841171148787e-03 1.536561339476899e-14 2.034906347066162e-15 1.745996070869837e-04
4.748778179056555e-03 4.084651048215675e-16 4.646841171163476e-03 1.565397328227284e-14 6.755392360925298e-16 1.745996071050153e-04
5.310012745795920e-04 -1.235390094201692e-16 4.662927985195497e-03 1.570528210168382e-15 -2.187233211954481e-16 2.116155794283722e-04
2.668279037115727e-03 -6.704482681870673e-16 2.516497541499202e-03 8.717747225033224e-15 2.829752008282603e-16 1.850110861209863e-04
7.893029518308675e-03 3.157685332319652e-16 2.529830022068106e-03 2.645838669499056e-14 -1.744035979305421e-16 7.167753751545861e-05
7.893029518304683e-03 4.578335080047614e-17 2.529830022079837e-03 2.668387002147529e-14 -1.273629192019597e-15 7.167753753566913e-05
2.668279037120790e-03 -7.296779614541547e-16 2.516497541507948e-03 9.140579293564270e-15 6.305112264737867e-16 1.850110861461930e-04
4.748778179042443e-03 5.230724596667896e-16 4.646841171148787e-03 1.536561339476899e-14 2.034906347066162e-15 1.745996070869837e-04
8.983173028999423e-03 -3.061742224543056e-16 4.662362080183333e-03 2.971053715174422e-14 3.666929816785373e-16 4.335797701709913e-05
8.983173029008478e-03 4.659999931056758e-16 4.662362080195286e-03 2.929972035274578e-14 -7.441735575345003e-16 4.335797703112193e-05
4.748778179056555e-03 4.084651048215675e-16 4.646841171163476e-03 1.565397328227284e-14 6.755392360925298e-16 1.745996071050153e-04
7.893029518308675e-03 3.157685332319652e-16 2.529830022068106e-03 2.645838669499056e-14 -1.744035979305421e-16 7.167753751545861e-05
1.314318435717718e-02 -4.642742117408942e-16 2.543593440694370e-03 4.460212975816091e-14 3.594347507897741e-16 -3.132604902092377e-05
1.314318435716471e-02 1.859271017917482e-18 2.543593440707459e-03 4.403649869765455e-14 -5.697357838434749e-16 -3.132604900744503e-05
7.893029518304683e-03 4.578335080047614e-17 2.529830022079837e-03 2.668387002147529e-14 -1.273629192019597e-15 7.167753753566913e-05
8.983173028999423e-03 -3.061742224543056e-16 4.662362080183333e-03 2.971053715174422e-14 3.666929816785373e-16 4.335797701709913e-05
1.323317014757996e-02 3.950711309927347e-17 4.677874209287317e-03 4.405764942905335e-14 -1.286526378011398e-15 -6.905994853726429e-05
1.323317014758298e-02 -3.468112055422373e-16 4.677874209302137e-03 4.394505130375289e-14 -2.554312086813687e-15 -6.905994852649109e-05
8.983173029008478e-03 4.659999931056758e-16 4.662362080195286e-03 2.929972035274578e-14 -7.441735575345003e-16 4.335797703112193e-05
        </DataArray>
  </PointData>
  <CellData>
        <DataArray type="Float64" Name="element_2PK_stresses_xyz" NumberOfComponents="6" format="ascii">
-1.327663060979686e-01 -5.551115123125781e-16 -3.034726885823291e-03 -1.927277894799159e-13 -8.933894514464242e-15 1.050145039300002e-03
-4.530989640190149e-02 1.387778780781446e-16 -3.481619599089991e-03 -6.642401428995594e-14 -1.872839357330168e-14 1.731308680426968e-03
4.269080410481962e-02 2.220446049250313e-15 -3.471956225792258e-03 6.248047548883479e-14 -1.738952472047934e-14 1.588790759320625e-03
1.315523851202738e-01 1.110223024625157e-15 -3.004836249734591e-03 1.922295982692306e-13 -2.898933036556542e-15 6.810157293108896e-04
-1.170355142848973e-01 -1.110223024625157e-15 1.385942323269412e-03 -3.661055336883987e-13 -1.855293176186526e-14 7.173286442132025e-04
-3.929005248891490e-02 6.938893903907228e-16 6.227057318773653e-04 -1.203194863490518e-13 -1.560309596447114e-14 1.828392690907895e-03
3.930706538299147e-02 6.938893903907228e-16 6.038799560875718e-04 1.203464422861870e-13 -9.885943862540196e-15 1.874366437790071e-03
1.185749042489378e-01 4.163336342344338e-16 1.320744962200887e-03 3.687374271238429e-13 -1.362434060592632e-14 8.044116056515893e-04
-9.589201628269026e-02 -1.110223024625156e-15 5.889408056296980e-03 -3.588291649696611e-13 -2.388214198526612e-14 1.352498030189025e-03
-2.828728613130022e-02 1.665334536937735e-15 5.455466437812168e-03 -1.081548859682768e-13 1.243077992965643e-14 2.036505245012513e-03
3.954303505280143e-02 -5.551115123125783e-16 5.458046735775518e-03 1.421412315811153e-13 2.036937147888346e-14 1.692726145900614e-03
1.077673198865554e-01 2.775557561562891e-16 5.919219030168925e-03 3.975026009567783e-13 -1.949939193168274e-14 2.920898990072126e-04
-6.792686461327066e-02 8.326672684688673e-16 1.792690655066903e-02 -2.447873067619492e-13 5.463549748813319e-15 1.495580032073425e-03
-1.115503106811223e-02 4.163336342344336e-16 1.750935037656775e-02 -4.268311633231762e-14 9.326245644701053e-15 2.091598156427443e-03
4.608410854301886e-02 -2.775557561562891e-16 1.749613117855542e-02 1.573314349394082e-13 -2.727060343774983e-15 1.606021525161240e-03
1.036364572946276e-01 -1.804112415015879e-15 1.788340885337677e-02 3.618036081916143e-13 -7.178120435159518e-15 6.353990456978110e-05
-3.433792886337904e-02 -2.775557561562890e-16 3.615006568184642e-02 -1.126380845209259e-13 1.247332427630574e-14 1.977641407064461e-03
1.254391535801071e-02 8.326672684688674e-16 3.587456514139289e-02 4.329486983651634e-14 1.385161227236206e-14 2.122354114662146e-03
5.952896641957056e-02 6.938893903907227e-16 3.587266746939474e-02 1.957396481874674e-13 6.299031065895834e-15 1.344022778860120e-03
1.067256915455005e-01 -8.326672684688674e-16 3.616214783003586e-02 3.510282828665375e-13 -1.013958207148822e-14 -4.080472870722420e-04
        </DataArray>
        <DataArray type="Float64" Name="element_GL_strains_xyz" NumberOfComponents="6" format="ascii">
-1.327663060979686e-02 -5.551115123125783e-17 -3.034726885823291e-04 -1.927277894799159e-14 -8.933894514464240e-16 1.050145039300002e-04
-4.530989640190150e-03 1.387778780781446e-17 -3.481619599089991e-04 -6.642401428995594e-15 -1.872839357330168e-15 1.731308680426968e-04
4.269080410481962e-03 2.220446049250313e-16 -3.471956225792259e-04 6.248047548883480e-15 -1.738952472047934e-15 1.588790759320625e-04
1.315523851202738e-02 1.110223024625157e-16 -3.004836249734592e-04 1.922295982692307e-14 -2.898933036556542e-16 6.810157293108896e-05
-1.170355142848974e-02 -1.110223024625157e-16 1.385942323269412e-04 -3.661055336883987e-14 -1.855293176186526e-15 7.173286442132025e-05
-3.929005248891490e-03 6.938893903907228e-17 6.227057318773654e-05 -1.203194863490518e-14 -1.560309596447114e-15 1.828392690907895e-04
3.930706538299147e-03 6.938893903907228e-17 6.038799560875718e-05 1.203464422861870e-14 -9.885943862540194e-16 1.874366437790071e-04
1.185749042489379e-02 4.163336342344338e-17 1.320744962200887e-04 3.687374271238429e-14 -1.362434060592632e-15 8.044116056515893e-05
-9.589201628269024e-03 -1.110223024625157e-16 5.889408056296980e-04 -3.588291649696611e-14 -2.388214198526612e-15 1.352498030189025e-04
-2.828728613130022e-03 1.665334536937735e-16 5.455466437812168e-04 -1.081548859682768e-14 1.243077992965643e-15 2.036505245012513e-04
3.954303505280143e-03 -5.551115123125784e-17 5.458046735775518e-04 1.421412315811153e-14 2.036937147888346e-15 1.692726145900614e-04
1.077673198865554e-02 2.775557561562893e-17 5.919219030168926e-04 3.975026009567783e-14 -1.949939193168274e-15 2.920898990072126e-05
-6.792686461327068e-03 8.326672684688673e-17 1.792690655066903e-03 -2.447873067619493e-14 5.463549748813320e-16 1.495580032073425e-04
-1.115503106811223e-03 4.163336342344337e-17 1.750935037656775e-03 -4.268311633231763e-15 9.326245644701051e-16 2.091598156427443e-04
4.608410854301887e-03 -2.775557561562891e-17 1.749613117855542e-03 1.573314349394082e-14 -2.727060343774983e-16 1.606021525161240e-04
1.036364572946276e-02 -1.804112415015880e-16 1.788340885337678e-03 3.618036081916143e-14 -7.178120435159518e-16 6.353990456978110e-06
-3.433792886337905e-03 -2.775557561562890e-17 3.615006568184643e-03 -1.126380845209259e-14 1.247332427630574e-15 1.977641407064461e-04
1.254391535801071e-03 8.326672684688674e-17 3.587456514139289e-03 4.329486983651635e-15 1.385161227236206e-15 2.122354114662146e-04
5.952896641957056e-03 6.938893903907228e-17 3.587266746939474e-03 1.957396481874674e-14 6.299031065895835e-16 1.344022778860120e-04
1.067256915455004e-02 -8.326672684688677e-17 3.616214783003586e-03 3.510282828665376e-14 -1.013958207148822e-15 -4.080472870722420e-05
        </DataArray>
        <DataArray type="Float64" Name="element_owner" format="ascii">
0.000000000000000e+00
0.000000000000000e+00
0.000000000000000e+00
0.000000000000000e+00
0.000000000000000e+00
0.000000000000000e+00
0.000000000000000e+00
0.000000000000000e+00
0.000000000000000e+00
0.000000000000000e+00
0.000000000000000e+00
0.000000000000000e+00
0.000000000000000e+00
0.000000000000000e+00
0.000000000000000e+00
0.000000000000000e+00
0.000000000000000e+00
0.000000000000000e+00
0.000000000000000e+00
0.000000000000000e+00
        </DataArray>
      </CellData>

    </Piece>
  </UnstructuredGrid>
</VTKFile>
