<?xml version="1.0" ?> 
<!-- 
# vtk DataFile Version 3.0
-->
<VTKFile type="UnstructuredGrid" version="0.1" compressor="vtkZLibDataCompressor" byte_order="LittleEndian">
  <UnstructuredGrid>
    <FieldData>
      <DataArray type="Float64" Name="TIME" NumberOfTuples="1" format="ascii">
1
      </DataArray>
    </FieldData>

    <Piece NumberOfPoints="160" NumberOfCells="20" >
      <Points>
        <DataArray type="Float64" NumberOfComponents="3" format="ascii">
0.000000000000000e+00 1.000000000000000e+00 1.000000000000000e-01
0.000000000000000e+00 1.000000000000000e+00 4.999999999999999e-02
0.000000000000000e+00 2.000000000000000e+00 4.999999999999999e-02
0.000000000000000e+00 2.000000000000000e+00 1.000000000000000e-01
5.000000000000000e-01 1.000000000000000e+00 1.000000000000000e-01
5.000000000000000e-01 1.000000000000000e+00 5.000000000000001e-02
5.000000000000001e-01 2.000000000000000e+00 5.000000000000000e-02
5.000000000000000e-01 2.000000000000000e+00 1.000000000000000e-01
0.000000000000000e+00 1.000000000000000e+00 4.999999999999999e-02
0.000000000000000e+00 1.000000000000000e+00 0.000000000000000e+00
0.000000000000000e+00 2.000000000000000e+00 0.000000000000000e+00
0.000000000000000e+00 2.000000000000000e+00 4.999999999999999e-02
5.000000000000000e-01 1.000000000000000e+00 5.000000000000001e-02
5.000000000000000e-01 1.000000000000000e+00 0.000000000000000e+00
5.000000000000000e-01 2.000000000000000e+00 0.000000000000000e+00
5.000000000000001e-01 2.000000000000000e+00 5.000000000000000e-02
0.000000000000000e+00 1.000000000000000e+00 0.000000000000000e+00
0.000000000000000e+00 1.000000000000000e+00 -5.000000000000002e-02
0.000000000000000e+00 2.000000000000000e+00 -5.000000000000002e-02
0.000000000000000e+00 2.000000000000000e+00 0.000000000000000e+00
5.000000000000000e-01 1.000000000000000e+00 0.000000000000000e+00
5.000000000000002e-01 1.000000000000000e+00 -5.000000000000002e-02
5.000000000000000e-01 2.000000000000000e+00 -5.000000000000001e-02
5.000000000000000e-01 2.000000000000000e+00 0.000000000000000e+00
0.000000000000000e+00 1.000000000000000e+00 -5.000000000000002e-02
0.000000000000000e+00 1.000000000000000e+00 -1.000000000000000e-01
0.000000000000000e+00 2.000000000000000e+00 -1.000000000000000e-01
0.000000000000000e+00 2.000000000000000e+00 -5.000000000000002e-02
5.000000000000002e-01 1.000000000000000e+00 -5.000000000000002e-02
5.000000000000000e-01 1.000000000000000e+00 -1.000000000000000e-01
5.000000000000000e-01 2.000000000000000e+00 -1.000000000000000e-01
5.000000000000000e-01 2.000000000000000e+00 -5.000000000000001e-02
5.000000000000000e-01 1.000000000000000e+00 1.000000000000000e-01
5.000000000000000e-01 1.000000000000000e+00 5.000000000000001e-02
5.000000000000001e-01 2.000000000000000e+00 5.000000000000000e-02
5.000000000000000e-01 2.000000000000000e+00 1.000000000000000e-01
1.000000000000000e+00 1.000000000000000e+00 1.000000000000000e-01
1.000000000000000e+00 1.000000000000000e+00 5.000000000000000e-02
1.000000000000000e+00 2.000000000000000e+00 5.000000000000001e-02
1.000000000000000e+00 2.000000000000000e+00 1.000000000000000e-01
5.000000000000000e-01 1.000000000000000e+00 5.000000000000001e-02
5.000000000000000e-01 1.000000000000000e+00 0.000000000000000e+00
5.000000000000000e-01 2.000000000000000e+00 0.000000000000000e+00
5.000000000000001e-01 2.000000000000000e+00 5.000000000000000e-02
1.000000000000000e+00 1.000000000000000e+00 5.000000000000000e-02
1.000000000000000e+00 1.000000000000000e+00 -6.938893903907228e-18
1.000000000000000e+00 2.000000000000000e+00 0.000000000000000e+00
1.000000000000000e+00 2.000000000000000e+00 5.000000000000001e-02
5.000000000000000e-01 1.000000000000000e+00 0.000000000000000e+00
5.000000000000002e-01 1.000000000000000e+00 -5.000000000000002e-02
5.000000000000000e-01 2.000000000000000e+00 -5.000000000000001e-02
5.000000000000000e-01 2.000000000000000e+00 0.000000000000000e+00
1.000000000000000e+00 1.000000000000000e+00 -6.938893903907228e-18
1.000000000000000e+00 1.000000000000000e+00 -5.000000000000002e-02
1.000000000000000e+00 2.000000000000000e+00 -5.000000000000002e-02
1.000000000000000e+00 2.000000000000000e+00 0.000000000000000e+00
5.000000000000002e-01 1.000000000000000e+00 -5.000000000000002e-02
5.000000000000000e-01 1.000000000000000e+00 -1.000000000000000e-01
5.000000000000000e-01 2.000000000000000e+00 -1.000000000000000e-01
5.000000000000000e-01 2.000000000000000e+00 -5.000000000000001e-02
1.000000000000000e+00 1.000000000000000e+00 -5.000000000000002e-02
1.000000000000000e+00 1.000000000000000e+00 -1.000000000000000e-01
1.000000000000000e+00 2.000000000000000e+00 -1.000000000000000e-01
1.000000000000000e+00 2.000000000000000e+00 -5.000000000000002e-02
1.000000000000000e+00 1.000000000000000e+00 1.000000000000000e-01
1.000000000000000e+00 1.000000000000000e+00 5.000000000000000e-02
1.000000000000000e+00 2.000000000000000e+00 5.000000000000001e-02
1.000000000000000e+00 2.000000000000000e+00 1.000000000000000e-01
1.500000000000000e+00 1.000000000000000e+00 1.000000000000000e-01
1.500000000000000e+00 1.000000000000000e+00 5.000000000000000e-02
1.500000000000000e+00 2.000000000000000e+00 5.000000000000003e-02
1.500000000000000e+00 2.000000000000000e+00 1.000000000000000e-01
1.000000000000000e+00 1.000000000000000e+00 5.000000000000000e-02
1.000000000000000e+00 1.000000000000000e+00 -6.938893903907228e-18
1.000000000000000e+00 2.000000000000000e+00 0.000000000000000e+00
1.000000000000000e+00 2.000000000000000e+00 5.000000000000001e-02
1.500000000000000e+00 1.000000000000000e+00 5.000000000000000e-02
1.500000000000000e+00 1.000000000000000e+00 0.000000000000000e+00
1.500000000000000e+00 2.000000000000000e+00 0.000000000000000e+00
1.500000000000000e+00 2.000000000000000e+00 5.000000000000003e-02
1.000000000000000e+00 1.000000000000000e+00 -6.938893903907228e-18
1.000000000000000e+00 1.000000000000000e+00 -5.000000000000002e-02
1.000000000000000e+00 2.000000000000000e+00 -5.000000000000002e-02
1.000000000000000e+00 2.000000000000000e+00 0.000000000000000e+00
1.500000000000000e+00 1.000000000000000e+00 0.000000000000000e+00
1.500000000000000e+00 1.000000000000000e+00 -5.000000000000002e-02
1.500000000000000e+00 2.000000000000000e+00 -5.000000000000002e-02
1.500000000000000e+00 2.000000000000000e+00 0.000000000000000e+00
1.000000000000000e+00 1.000000000000000e+00 -5.000000000000002e-02
1.000000000000000e+00 1.000000000000000e+00 -1.000000000000000e-01
1.000000000000000e+00 2.000000000000000e+00 -1.000000000000000e-01
1.000000000000000e+00 2.000000000000000e+00 -5.000000000000002e-02
1.500000000000000e+00 1.000000000000000e+00 -5.000000000000002e-02
1.500000000000000e+00 1.000000000000000e+00 -1.000000000000000e-01
1.500000000000000e+00 2.000000000000000e+00 -1.000000000000000e-01
1.500000000000000e+00 2.000000000000000e+00 -5.000000000000002e-02
1.500000000000000e+00 1.000000000000000e+00 1.000000000000000e-01
1.500000000000000e+00 1.000000000000000e+00 5.000000000000000e-02
1.500000000000000e+00 2.000000000000000e+00 5.000000000000003e-02
1.500000000000000e+00 2.000000000000000e+00 1.000000000000000e-01
2.000000000000000e+00 1.000000000000000e+00 1.000000000000000e-01
2.000000000000000e+00 1.000000000000000e+00 5.000000000000001e-02
2.000000000000000e+00 2.000000000000000e+00 5.000000000000000e-02
2.000000000000000e+00 2.000000000000000e+00 1.000000000000000e-01
1.500000000000000e+00 1.000000000000000e+00 5.000000000000000e-02
1.500000000000000e+00 1.000000000000000e+00 0.000000000000000e+00
1.500000000000000e+00 2.000000000000000e+00 0.000000000000000e+00
1.500000000000000e+00 2.000000000000000e+00 5.000000000000003e-02
2.000000000000000e+00 1.000000000000000e+00 5.000000000000001e-02
2.000000000000000e+00 1.000000000000000e+00 0.000000000000000e+00
2.000000000000000e+00 2.000000000000000e+00 3.469446951953614e-18
2.000000000000000e+00 2.000000000000000e+00 5.000000000000000e-02
1.500000000000000e+00 1.000000000000000e+00 0.000000000000000e+00
1.500000000000000e+00 1.000000000000000e+00 -5.000000000000002e-02
1.500000000000000e+00 2.000000000000000e+00 -5.000000000000002e-02
1.500000000000000e+00 2.000000000000000e+00 0.000000000000000e+00
2.000000000000000e+00 1.000000000000000e+00 0.000000000000000e+00
2.000000000000000e+00 1.000000000000000e+00 -5.000000000000000e-02
2.000000000000000e+00 2.000000000000000e+00 -5.000000000000001e-02
2.000000000000000e+00 2.000000000000000e+00 3.469446951953614e-18
1.500000000000000e+00 1.000000000000000e+00 -5.000000000000002e-02
1.500000000000000e+00 1.000000000000000e+00 -1.000000000000000e-01
1.500000000000000e+00 2.000000000000000e+00 -1.000000000000000e-01
1.500000000000000e+00 2.000000000000000e+00 -5.000000000000002e-02
2.000000000000000e+00 1.000000000000000e+00 -5.000000000000000e-02
2.000000000000000e+00 1.000000000000000e+00 -1.000000000000000e-01
2.000000000000000e+00 2.000000000000000e+00 -1.000000000000000e-01
2.000000000000000e+00 2.000000000000000e+00 -5.000000000000001e-02
2.000000000000000e+00 1.000000000000000e+00 1.000000000000000e-01
2.000000000000000e+00 1.000000000000000e+00 5.000000000000001e-02
2.000000000000000e+00 2.000000000000000e+00 5.000000000000000e-02
2.000000000000000e+00 2.000000000000000e+00 1.000000000000000e-01
2.500000000000000e+00 1.000000000000000e+00 1.000000000000000e-01
2.500000000000000e+00 1.000000000000000e+00 5.000000000000000e-02
2.500000000000000e+00 2.000000000000000e+00 5.000000000000000e-02
2.500000000000000e+00 2.000000000000000e+00 1.000000000000000e-01
2.000000000000000e+00 1.000000000000000e+00 5.000000000000001e-02
2.000000000000000e+00 1.000000000000000e+00 0.000000000000000e+00
2.000000000000000e+00 2.000000000000000e+00 3.469446951953614e-18
2.000000000000000e+00 2.000000000000000e+00 5.000000000000000e-02
2.500000000000000e+00 1.000000000000000e+00 5.000000000000000e-02
2.500000000000000e+00 1.000000000000000e+00 0.000000000000000e+00
2.500000000000000e+00 2.000000000000000e+00 0.000000000000000e+00
2.500000000000000e+00 2.000000000000000e+00 5.000000000000000e-02
2.000000000000000e+00 1.000000000000000e+00 0.000000000000000e+00
2.000000000000000e+00 1.000000000000000e+00 -5.000000000000000e-02
2.000000000000000e+00 2.000000000000000e+00 -5.000000000000001e-02
2.000000000000000e+00 2.000000000000000e+00 3.469446951953614e-18
2.500000000000000e+00 1.000000000000000e+00 0.000000000000000e+00
2.500000000000000e+00 1.000000000000000e+00 -5.000000000000002e-02
2.500000000000000e+00 2.000000000000000e+00 -5.000000000000002e-02
2.500000000000000e+00 2.000000000000000e+00 0.000000000000000e+00
2.000000000000000e+00 1.000000000000000e+00 -5.000000000000000e-02
2.000000000000000e+00 1.000000000000000e+00 -1.000000000000000e-01
2.000000000000000e+00 2.000000000000000e+00 -1.000000000000000e-01
2.000000000000000e+00 2.000000000000000e+00 -5.000000000000001e-02
2.500000000000000e+00 1.000000000000000e+00 -5.000000000000002e-02
2.500000000000000e+00 1.000000000000000e+00 -1.000000000000000e-01
2.500000000000000e+00 2.000000000000000e+00 -1.000000000000000e-01
2.500000000000000e+00 2.000000000000000e+00 -5.000000000000002e-02
        </DataArray>
      </Points>

      <Cells>
        <DataArray type="Int32" Name="connectivity" format="ascii">
0 1 2 3 4 5 6 7 8 9 10 11 12 13 14 15 16 17 18 19 20 21 22 23 24 25 26 27 28 29 30 31 32 33 34 35 36 37 38 39 40 41 42 43 44 45 46 47 48 49 50 51 52 53 54 55 56 57 58 59 60 61 62 63 64 65 66 67 68 69 70 71 72 73 74 75 76 77 78 79 80 81 82 83 84 85 86 87 88 89 90 91 92 93 94 95 96 97 98 99 100 101 102 103 104 105 106 107 108 109 110 111 112 113 114 115 116 117 118 119 120 121 122 123 124 125 126 127 128 129 130 131 132 133 134 135 136 137 138 139 140 141 142 143 144 145 146 147 148 149 150 151 152 153 154 155 156 157 158 159 
        </DataArray>
        <DataArray type="Int32" Name="offsets" format="ascii">
8 16 24 32 40 48 56 64 72 80 88 96 104 112 120 128 136 144 152 160 
        </DataArray>
        <DataArray type="UInt8" Name="types" format="ascii">
12 12 12 12 12 12 12 12 12 12 12 12 12 12 12 12 12 12 12 12 
        </DataArray>
      </Cells>

  <PointData>
        <DataArray type="Float64" Name="displacement" NumberOfComponents="3" format="ascii">
-4.400379059348504e-01 -1.260499968237752e-18 1.115069033761965e+00
-4.021168808370886e-01 -3.177006197500903e-17 1.132423602745781e+00
-4.021168808370878e-01 8.065967031237874e-17 1.132423602745780e+00
-4.400379059348495e-01 -3.624767636256825e-17 1.115069033761965e+00
-6.358533352658929e-01 7.879729667660307e-17 1.501070409402176e+00
-5.952787798006977e-01 -6.645205066843946e-17 1.521816089442392e+00
-5.952787798006968e-01 1.496748018108316e-16 1.521816089442391e+00
-6.358533352658921e-01 2.626135815899419e-18 1.501070409402175e+00
-4.021168808370886e-01 -3.177006197500903e-17 1.132423602745781e+00
-3.642319892234557e-01 1.603747362006418e-17 1.149745384829074e+00
-3.642319892234548e-01 8.127745734678199e-18 1.149745384829073e+00
-4.021168808370878e-01 8.065967031237874e-17 1.132423602745780e+00
-5.952787798006977e-01 -6.645205066843946e-17 1.521816089442392e+00
-5.547047719106053e-01 -1.695180933108431e-16 1.542564262727842e+00
-5.547047719106044e-01 1.443457022178829e-16 1.542564262727841e+00
-5.952787798006968e-01 1.496748018108316e-16 1.521816089442391e+00
-3.642319892234557e-01 1.603747362006418e-17 1.149745384829074e+00
-3.263434835869357e-01 -1.997813870851420e-16 1.167072227456760e+00
-3.263434835869349e-01 -4.397653412714100e-18 1.167072227456759e+00
-3.642319892234548e-01 8.127745734678199e-18 1.149745384829073e+00
-5.547047719106053e-01 -1.695180933108431e-16 1.542564262727842e+00
-5.141350340754033e-01 -1.744012268381082e-17 1.563306399181311e+00
-5.141350340754022e-01 -2.822183957496961e-16 1.563306399181310e+00
-5.547047719106044e-01 1.443457022178829e-16 1.542564262727841e+00
-3.263434835869357e-01 -1.997813870851420e-16 1.167072227456760e+00
-2.884558774564612e-01 -1.731405521291555e-16 1.184391064886461e+00
-2.884558774564605e-01 -3.494971691268035e-16 1.184391064886460e+00
-3.263434835869349e-01 -4.397653412714100e-18 1.167072227456759e+00
-5.141350340754033e-01 -1.744012268381082e-17 1.563306399181311e+00
-4.735327874117172e-01 -1.569067156365765e-16 1.584088754253914e+00
-4.735327874117162e-01 -9.425245728197724e-17 1.584088754253913e+00
-5.141350340754022e-01 -2.822183957496961e-16 1.563306399181310e+00
-6.358533352658929e-01 7.879729667660307e-17 1.501070409402176e+00
-5.952787798006977e-01 -6.645205066843946e-17 1.521816089442392e+00
-5.952787798006968e-01 1.496748018108316e-16 1.521816089442391e+00
-6.358533352658921e-01 2.626135815899419e-18 1.501070409402175e+00
-8.606070329938602e-01 7.562818547733632e-17 1.910851623331796e+00
-8.182080811217919e-01 1.233235228983029e-16 1.934328809599127e+00
-8.182080811217917e-01 4.148732390064332e-16 1.934328809599126e+00
-8.606070329938599e-01 3.189725516170567e-16 1.910851623331796e+00
-5.952787798006977e-01 -6.645205066843946e-17 1.521816089442392e+00
-5.547047719106053e-01 -1.695180933108431e-16 1.542564262727842e+00
-5.547047719106044e-01 1.443457022178829e-16 1.542564262727841e+00
-5.952787798006968e-01 1.496748018108316e-16 1.521816089442391e+00
-8.182080811217919e-01 1.233235228983029e-16 1.934328809599127e+00
-7.758320845137892e-01 1.418563545057319e-16 1.957773060788098e+00
-7.758320845137889e-01 5.526814205290810e-17 1.957773060788098e+00
-8.182080811217917e-01 4.148732390064332e-16 1.934328809599126e+00
-5.547047719106053e-01 -1.695180933108431e-16 1.542564262727842e+00
-5.141350340754033e-01 -1.744012268381082e-17 1.563306399181311e+00
-5.141350340754022e-01 -2.822183957496961e-16 1.563306399181310e+00
-5.547047719106044e-01 1.443457022178829e-16 1.542564262727841e+00
-7.758320845137892e-01 1.418563545057319e-16 1.957773060788098e+00
-7.334503309287040e-01 4.946531346474144e-17 1.981226610647761e+00
-7.334503309287037e-01 3.393567307643122e-17 1.981226610647760e+00
-7.758320845137889e-01 5.526814205290810e-17 1.957773060788098e+00
-5.141350340754033e-01 -1.744012268381082e-17 1.563306399181311e+00
-4.735327874117172e-01 -1.569067156365765e-16 1.584088754253914e+00
-4.735327874117162e-01 -9.425245728197724e-17 1.584088754253913e+00
-5.141350340754022e-01 -2.822183957496961e-16 1.563306399181310e+00
-7.334503309287040e-01 4.946531346474144e-17 1.981226610647761e+00
-6.910703618636278e-01 -1.231613760055006e-17 2.004674922866625e+00
-6.910703618636276e-01 -1.699503730565046e-16 2.004674922866625e+00
-7.334503309287037e-01 3.393567307643122e-17 1.981226610647760e+00
-8.606070329938602e-01 7.562818547733632e-17 1.910851623331796e+00
-8.182080811217919e-01 1.233235228983029e-16 1.934328809599127e+00
-8.182080811217917e-01 4.148732390064332e-16 1.934328809599126e+00
-8.606070329938599e-01 3.189725516170567e-16 1.910851623331796e+00
-1.107215738270135e+00 2.612699947511459e-16 2.336914601245485e+00
-1.063688649380887e+00 3.522400328312476e-16 2.362300474518468e+00
-1.063688649380886e+00 1.004405685651583e-16 2.362300474518468e+00
-1.107215738270135e+00 8.637515027465565e-17 2.336914601245484e+00
-8.182080811217919e-01 1.233235228983029e-16 1.934328809599127e+00
-7.758320845137892e-01 1.418563545057319e-16 1.957773060788098e+00
-7.758320845137889e-01 5.526814205290810e-17 1.957773060788098e+00
-8.182080811217917e-01 4.148732390064332e-16 1.934328809599126e+00
-1.063688649380887e+00 3.522400328312476e-16 2.362300474518468e+00
-1.020160978293152e+00 1.648688018399495e-16 2.387687727223675e+00
-1.020160978293152e+00 1.607000538189151e-16 2.387687727223675e+00
-1.063688649380886e+00 1.004405685651583e-16 2.362300474518468e+00
-7.758320845137892e-01 1.418563545057319e-16 1.957773060788098e+00
-7.334503309287040e-01 4.946531346474144e-17 1.981226610647761e+00
-7.334503309287037e-01 3.393567307643122e-17 1.981226610647760e+00
-7.758320845137889e-01 5.526814205290810e-17 1.957773060788098e+00
-1.020160978293152e+00 1.648688018399495e-16 2.387687727223675e+00
-9.766389869656396e-01 -2.494966686752190e-17 2.413065314053849e+00
-9.766389869656392e-01 2.104017419222715e-17 2.413065314053848e+00
-1.020160978293152e+00 1.607000538189151e-16 2.387687727223675e+00
-7.334503309287040e-01 4.946531346474144e-17 1.981226610647761e+00
-6.910703618636278e-01 -1.231613760055006e-17 2.004674922866625e+00
-6.910703618636276e-01 -1.699503730565046e-16 2.004674922866625e+00
-7.334503309287037e-01 3.393567307643122e-17 1.981226610647760e+00
-9.766389869656396e-01 -2.494966686752190e-17 2.413065314053849e+00
-9.330952966372387e-01 2.262572346544714e-17 2.438479887626635e+00
-9.330952966372382e-01 4.406914205876700e-16 2.438479887626634e+00
-9.766389869656392e-01 2.104017419222715e-17 2.413065314053848e+00
-1.107215738270135e+00 2.612699947511459e-16 2.336914601245485e+00
-1.063688649380887e+00 3.522400328312476e-16 2.362300474518468e+00
-1.063688649380886e+00 1.004405685651583e-16 2.362300474518468e+00
-1.107215738270135e+00 8.637515027465565e-17 2.336914601245484e+00
-1.368295702761728e+00 4.763114954225709e-16 2.773350195161964e+00
-1.324124183463898e+00 4.914861730300821e-16 2.799919998467093e+00
-1.324124183463896e+00 4.956125279461361e-16 2.799919998467092e+00
-1.368295702761727e+00 4.650491323815767e-16 2.773350195161962e+00
-1.063688649380887e+00 3.522400328312476e-16 2.362300474518468e+00
-1.020160978293152e+00 1.648688018399495e-16 2.387687727223675e+00
-1.020160978293152e+00 1.607000538189151e-16 2.387687727223675e+00
-1.063688649380886e+00 1.004405685651583e-16 2.362300474518468e+00
-1.324124183463898e+00 4.914861730300821e-16 2.799919998467093e+00
-1.279969953232088e+00 1.175366944399951e-16 2.826458036646042e+00
-1.279969953232087e+00 4.839655693543429e-16 2.826458036646041e+00
-1.324124183463896e+00 4.956125279461361e-16 2.799919998467092e+00
-1.020160978293152e+00 1.648688018399495e-16 2.387687727223675e+00
-9.766389869656396e-01 -2.494966686752190e-17 2.413065314053849e+00
-9.766389869656392e-01 2.104017419222715e-17 2.413065314053848e+00
-1.020160978293152e+00 1.607000538189151e-16 2.387687727223675e+00
-1.279969953232088e+00 1.175366944399951e-16 2.826458036646042e+00
-1.235809525750715e+00 1.301798527478083e-16 2.853006742412723e+00
-1.235809525750714e+00 8.636757881797901e-17 2.853006742412722e+00
-1.279969953232087e+00 4.839655693543429e-16 2.826458036646041e+00
-9.766389869656396e-01 -2.494966686752190e-17 2.413065314053849e+00
-9.330952966372387e-01 2.262572346544714e-17 2.438479887626635e+00
-9.330952966372382e-01 4.406914205876700e-16 2.438479887626634e+00
-9.766389869656392e-01 2.104017419222715e-17 2.413065314053848e+00
-1.235809525750715e+00 1.301798527478083e-16 2.853006742412723e+00
-1.191651613048107e+00 5.294116385750736e-17 2.879550817720946e+00
-1.191651613048106e+00 5.892185623027063e-17 2.879550817720945e+00
-1.235809525750714e+00 8.636757881797901e-17 2.853006742412722e+00
-1.368295702761728e+00 4.763114954225709e-16 2.773350195161964e+00
-1.324124183463898e+00 4.914861730300821e-16 2.799919998467093e+00
-1.324124183463896e+00 4.956125279461361e-16 2.799919998467092e+00
-1.368295702761727e+00 4.650491323815767e-16 2.773350195161962e+00
-1.636228629422703e+00 7.879276544799466e-16 3.215517822181121e+00
-1.591867212092231e+00 7.300797348099599e-16 3.242449999099192e+00
-1.591867212092229e+00 5.775742287778179e-16 3.242449999099191e+00
-1.636228629422701e+00 8.042060234487333e-16 3.215517822181119e+00
-1.324124183463898e+00 4.914861730300821e-16 2.799919998467093e+00
-1.279969953232088e+00 1.175366944399951e-16 2.826458036646042e+00
-1.279969953232087e+00 4.839655693543429e-16 2.826458036646041e+00
-1.324124183463896e+00 4.956125279461361e-16 2.799919998467092e+00
-1.591867212092231e+00 7.300797348099599e-16 3.242449999099192e+00
-1.547505048679387e+00 5.323065543291927e-16 3.269382996504366e+00
-1.547505048679385e+00 7.618398621342472e-16 3.269382996504365e+00
-1.591867212092229e+00 5.775742287778179e-16 3.242449999099191e+00
-1.279969953232088e+00 1.175366944399951e-16 2.826458036646042e+00
-1.235809525750715e+00 1.301798527478083e-16 2.853006742412723e+00
-1.235809525750714e+00 8.636757881797901e-17 2.853006742412722e+00
-1.279969953232087e+00 4.839655693543429e-16 2.826458036646041e+00
-1.547505048679387e+00 5.323065543291927e-16 3.269382996504366e+00
-1.503149986780739e+00 4.706197869352409e-16 3.296305792921195e+00
-1.503149986780737e+00 6.542070213154888e-16 3.296305792921193e+00
-1.547505048679385e+00 7.618398621342472e-16 3.269382996504365e+00
-1.235809525750715e+00 1.301798527478083e-16 2.853006742412723e+00
-1.191651613048107e+00 5.294116385750736e-17 2.879550817720946e+00
-1.191651613048106e+00 5.892185623027063e-17 2.879550817720945e+00
-1.235809525750714e+00 8.636757881797901e-17 2.853006742412722e+00
-1.503149986780739e+00 4.706197869352409e-16 3.296305792921195e+00
-1.458776334727887e+00 3.659389899321784e-16 3.323264118466076e+00
-1.458776334727885e+00 3.330667206156025e-16 3.323264118466073e+00
-1.503149986780737e+00 6.542070213154888e-16 3.296305792921193e+00
        </DataArray>
        <DataArray type="Float64" Name="nodal_2PK_stresses_xyz" NumberOfComponents="6" format="ascii">
-1.950175267821858e-01 -2.968778673647263e-15 -9.201354853554504e-04 -2.355569099745610e-15 -1.621800819941325e-14 2.409050473827589e-03
-9.712721250840628e-02 6.059077411724789e-16 -1.504775900653616e-03 3.034175172767189e-15 -3.747667647222017e-15 3.287890682324966e-03
-9.712721250840750e-02 1.151055450129827e-15 -1.504775900670551e-03 9.453013683942779e-16 -5.255338343826332e-15 3.287890682325885e-03
-1.950175267821897e-01 6.195185496740353e-16 -9.201354853982130e-04 3.996557929018224e-15 9.912081774715766e-15 2.409050473801441e-03
-1.479840316776794e-01 -1.921627789852276e-15 -6.688260056515844e-04 -2.294349171057280e-15 -2.205536147637285e-15 1.984472713111046e-03
-7.293856191464441e-02 7.961492963761679e-16 -8.722224678498308e-04 -1.826862195633143e-15 6.962548550428264e-15 2.912458885728833e-03
-7.293856191464269e-02 -1.822037676929407e-15 -8.722224678762491e-04 1.680499040663705e-15 -8.792156903288472e-15 2.912458885717274e-03
-1.479840316776873e-01 -3.333338866938044e-16 -6.688260057457079e-04 -3.899999852732763e-15 9.603260210583741e-15 1.984472713049576e-03
-9.712721250840628e-02 6.059077411724789e-16 -1.504775900653616e-03 3.034175172767189e-15 -3.747667647222017e-15 3.287890682324966e-03
1.745424206834766e-03 8.462780769704246e-16 -2.140119037701295e-03 1.138916231557421e-15 1.668919426239966e-14 4.514093055833441e-03
1.745424206831309e-03 8.635358906183074e-16 -2.140119037681601e-03 -7.190390782470938e-16 -2.064932169870527e-14 4.514093055848446e-03
-9.712721250840750e-02 1.151055450129827e-15 -1.504775900670551e-03 9.453013683942779e-16 -5.255338343826332e-15 3.287890682325885e-03
-7.293856191464441e-02 7.961492963761679e-16 -8.722224678498308e-04 -1.826862195633143e-15 6.962548550428264e-15 2.912458885728833e-03
2.771761949673645e-03 3.054448214250478e-16 -1.068968953582142e-03 -5.388244181180267e-16 -7.620436995971960e-15 4.038407444144593e-03
2.771761949666482e-03 4.782187443752727e-15 -1.068968953568209e-03 -1.165976611523717e-15 -5.485707839349454e-15 4.038407444155723e-03
-7.293856191464269e-02 -1.822037676929407e-15 -8.722224678762491e-04 1.680499040663705e-15 -8.792156903288472e-15 2.912458885717274e-03
1.745424206834766e-03 8.462780769704246e-16 -2.140119037701295e-03 1.138916231557421e-15 1.668919426239966e-14 4.514093055833441e-03
1.015232494902076e-01 2.058761007581026e-15 -1.710770988611161e-03 2.754838484708796e-15 9.339337094185575e-15 3.242323814906827e-03
1.015232494902095e-01 1.271694143735197e-16 -1.710770988640660e-03 -3.025072798363801e-15 2.104556276271073e-14 3.242323814895255e-03
1.745424206831309e-03 8.635358906183074e-16 -2.140119037681601e-03 -7.190390782470938e-16 -2.064932169870527e-14 4.514093055848446e-03
2.771761949673645e-03 3.054448214250478e-16 -1.068968953582142e-03 -5.388244181180267e-16 -7.620436995971960e-15 4.038407444144593e-03
7.911913750191688e-02 -2.196871437393526e-15 -7.873545904681205e-04 -1.320221149891921e-15 -1.884340259979746e-14 2.988002925981486e-03
7.911913750191331e-02 -7.819687608173420e-15 -7.873545904444513e-04 -5.571588451262873e-16 1.821236129986898e-15 2.988002925996562e-03
2.771761949666482e-03 4.782187443752727e-15 -1.068968953568209e-03 -1.165976611523717e-15 -5.485707839349454e-15 4.038407444155723e-03
1.015232494902076e-01 2.058761007581026e-15 -1.710770988611161e-03 2.754838484708796e-15 9.339337094185575e-15 3.242323814906827e-03
2.021486695210218e-01 1.034517287377181e-15 -1.230720217776936e-03 1.527001789698437e-15 -7.629130075916735e-15 1.740117355743244e-03
2.021486695210247e-01 -6.480750632084375e-16 -1.230720217832876e-03 -3.067505980025466e-15 5.996781180828461e-14 1.740117355721750e-03
1.015232494902095e-01 1.271694143735197e-16 -1.710770988640660e-03 -3.025072798363801e-15 2.104556276271073e-14 3.242323814895255e-03
7.911913750191688e-02 -2.196871437393526e-15 -7.873545904681205e-04 -1.320221149891921e-15 -1.884340259979746e-14 2.988002925981486e-03
1.560760379515116e-01 2.689268493323472e-16 -5.123902038082953e-04 4.448786746767756e-16 8.588034386112440e-15 1.660449847517872e-03
1.560760379515228e-01 5.539816423239264e-15 -5.123902037635474e-04 -1.801463502012772e-15 -3.776651823076016e-14 1.660449847541756e-03
7.911913750191331e-02 -7.819687608173420e-15 -7.873545904444513e-04 -5.571588451262873e-16 1.821236129986898e-15 2.988002925996562e-03
-1.479840316776794e-01 -1.921627789852276e-15 -6.688260056515844e-04 -2.294349171057280e-15 -2.205536147637285e-15 1.984472713111046e-03
-7.293856191464441e-02 7.961492963761679e-16 -8.722224678498308e-04 -1.826862195633143e-15 6.962548550428264e-15 2.912458885728833e-03
-7.293856191464269e-02 -1.822037676929407e-15 -8.722224678762491e-04 1.680499040663705e-15 -8.792156903288472e-15 2.912458885717274e-03
-1.479840316776873e-01 -3.333338866938044e-16 -6.688260057457079e-04 -3.899999852732763e-15 9.603260210583741e-15 1.984472713049576e-03
-1.058463796011695e-01 4.577000183516194e-15 -3.560183265806225e-04 -3.092149346599771e-16 -4.260025690649118e-14 1.833865754574468e-03
-5.127806779605640e-02 1.141091646774597e-15 -5.465930941276402e-04 -3.001976036343231e-15 -1.876367786596082e-14 2.677015237083529e-03
-5.127806779605608e-02 3.175610594233193e-15 -5.465930940851994e-04 -2.551722643631703e-15 2.813702398232273e-14 2.677015237110224e-03
-1.058463796011432e-01 9.701817869052315e-15 -3.560183265152156e-04 -8.019931395467565e-16 1.522158180137743e-14 1.833865754639784e-03
-7.293856191464441e-02 7.961492963761679e-16 -8.722224678498308e-04 -1.826862195633143e-15 6.962548550428264e-15 2.912458885728833e-03
2.771761949673645e-03 3.054448214250478e-16 -1.068968953582142e-03 -5.388244181180267e-16 -7.620436995971960e-15 4.038407444144593e-03
2.771761949666482e-03 4.782187443752727e-15 -1.068968953568209e-03 -1.165976611523717e-15 -5.485707839349454e-15 4.038407444155723e-03
-7.293856191464269e-02 -1.822037676929407e-15 -8.722224678762491e-04 1.680499040663705e-15 -8.792156903288472e-15 2.912458885717274e-03
-5.127806779605640e-02 1.141091646774597e-15 -5.465930941276402e-04 -3.001976036343231e-15 -1.876367786596082e-14 2.677015237083529e-03
3.600521656866822e-03 -1.721112667475250e-15 -7.446339396681127e-04 -1.698769815183452e-15 7.377081210041067e-15 3.677620926481035e-03
3.600521656861145e-03 -5.192609884855223e-16 -7.446339396783468e-04 -1.515551313825711e-15 2.374539912906594e-14 3.677620926465151e-03
-5.127806779605608e-02 3.175610594233193e-15 -5.465930940851994e-04 -2.551722643631703e-15 2.813702398232273e-14 2.677015237110224e-03
2.771761949673645e-03 3.054448214250478e-16 -1.068968953582142e-03 -5.388244181180267e-16 -7.620436995971960e-15 4.038407444144593e-03
7.911913750191688e-02 -2.196871437393526e-15 -7.873545904681205e-04 -1.320221149891921e-15 -1.884340259979746e-14 2.988002925981486e-03
7.911913750191331e-02 -7.819687608173420e-15 -7.873545904444513e-04 -5.571588451262873e-16 1.821236129986898e-15 2.988002925996562e-03
2.771761949666482e-03 4.782187443752727e-15 -1.068968953568209e-03 -1.165976611523717e-15 -5.485707839349454e-15 4.038407444155723e-03
3.600521656866822e-03 -1.721112667475250e-15 -7.446339396681127e-04 -1.698769815183452e-15 7.377081210041067e-15 3.677620926481035e-03
5.875344106993415e-02 2.489992426218885e-16 -6.128193028541581e-04 1.506061837854958e-15 9.155749811838474e-15 2.652464024926470e-03
5.875344106993106e-02 3.605555036969173e-16 -6.128193029038996e-04 2.320851780254795e-15 1.344346833458094e-14 2.652464024886631e-03
3.600521656861145e-03 -5.192609884855223e-16 -7.446339396783468e-04 -1.515551313825711e-15 2.374539912906594e-14 3.677620926465151e-03
7.911913750191688e-02 -2.196871437393526e-15 -7.873545904681205e-04 -1.320221149891921e-15 -1.884340259979746e-14 2.988002925981486e-03
1.560760379515116e-01 2.689268493323472e-16 -5.123902038082953e-04 4.448786746767756e-16 8.588034386112440e-15 1.660449847517872e-03
1.560760379515228e-01 5.539816423239264e-15 -5.123902037635474e-04 -1.801463502012772e-15 -3.776651823076016e-14 1.660449847541756e-03
7.911913750191331e-02 -7.819687608173420e-15 -7.873545904444513e-04 -5.571588451262873e-16 1.821236129986898e-15 2.988002925996562e-03
5.875344106993415e-02 2.489992426218885e-16 -6.128193028541581e-04 1.506061837854958e-15 9.155749811838474e-15 2.652464024926470e-03
1.141304746126759e-01 9.070381091855547e-16 -4.735385880564613e-04 3.359915796056735e-15 -4.730807497222652e-15 1.522115352153698e-03
1.141304746126633e-01 -6.269556337457043e-15 -4.735385881129378e-04 -3.481017137971902e-15 2.896059844323375e-14 1.522115352117351e-03
5.875344106993106e-02 3.605555036969173e-16 -6.128193029038996e-04 2.320851780254795e-15 1.344346833458094e-14 2.652464024886631e-03
-1.058463796011695e-01 4.577000183516194e-15 -3.560183265806225e-04 -3.092149346599771e-16 -4.260025690649118e-14 1.833865754574468e-03
-5.127806779605640e-02 1.141091646774597e-15 -5.465930941276402e-04 -3.001976036343231e-15 -1.876367786596082e-14 2.677015237083529e-03
-5.127806779605608e-02 3.175610594233193e-15 -5.465930940851994e-04 -2.551722643631703e-15 2.813702398232273e-14 2.677015237110224e-03
-1.058463796011432e-01 9.701817869052315e-15 -3.560183265152156e-04 -8.019931395467565e-16 1.522158180137743e-14 1.833865754639784e-03
-6.705501731667020e-02 3.047773731594033e-16 -1.967232689712431e-04 -2.234949914317353e-15 -7.256973711589898e-15 1.600541281618786e-03
-3.159261092395205e-02 -6.492001411341461e-15 -2.210896290371601e-04 1.402966340538766e-15 -1.135180993600687e-14 2.462955557148753e-03
-3.159261092394193e-02 -1.276889967972059e-15 -2.210896290526002e-04 -1.404676899406356e-15 8.054885156668574e-15 2.462955557138830e-03
-6.705501731667812e-02 -8.314039088270867e-15 -1.967232689431636e-04 -2.144339823267901e-15 -1.296158364779617e-14 1.600541281616407e-03
-5.127806779605640e-02 1.141091646774597e-15 -5.465930941276402e-04 -3.001976036343231e-15 -1.876367786596082e-14 2.677015237083529e-03
3.600521656866822e-03 -1.721112667475250e-15 -7.446339396681127e-04 -1.698769815183452e-15 7.377081210041067e-15 3.677620926481035e-03
3.600521656861145e-03 -5.192609884855223e-16 -7.446339396783468e-04 -1.515551313825711e-15 2.374539912906594e-14 3.677620926465151e-03
-5.127806779605608e-02 3.175610594233193e-15 -5.465930940851994e-04 -2.551722643631703e-15 2.813702398232273e-14 2.677015237110224e-03
-3.159261092395205e-02 -6.492001411341461e-15 -2.210896290371601e-04 1.402966340538766e-15 -1.135180993600687e-14 2.462955557148753e-03
4.043146168794653e-03 -9.063706609199117e-16 -2.608669651332913e-04 -1.049405732367923e-15 2.055943539021562e-15 3.404197943129815e-03
4.043146168793924e-03 -3.430259186798337e-15 -2.608669650895555e-04 -1.468879089470310e-15 7.247137642057704e-15 3.404197943177484e-03
-3.159261092394193e-02 -1.276889967972059e-15 -2.210896290526002e-04 -1.404676899406356e-15 8.054885156668574e-15 2.462955557138830e-03
3.600521656866822e-03 -1.721112667475250e-15 -7.446339396681127e-04 -1.698769815183452e-15 7.377081210041067e-15 3.677620926481035e-03
5.875344106993415e-02 2.489992426218885e-16 -6.128193028541581e-04 1.506061837854958e-15 9.155749811838474e-15 2.652464024926470e-03
5.875344106993106e-02 3.605555036969173e-16 -6.128193029038996e-04 2.320851780254795e-15 1.344346833458094e-14 2.652464024886631e-03
3.600521656861145e-03 -5.192609884855223e-16 -7.446339396783468e-04 -1.515551313825711e-15 2.374539912906594e-14 3.677620926465151e-03
4.043146168794653e-03 -9.063706609199117e-16 -2.608669651332913e-04 -1.049405732367923e-15 2.055943539021562e-15 3.404197943129815e-03
3.982884035180442e-02 4.807406715958908e-16 -2.147684623920445e-04 3.905742908585879e-15 1.341751991813843e-14 2.501219967530134e-03
3.982884035181463e-02 2.978742477002494e-15 -2.147684624075382e-04 -1.319156398096663e-15 -4.352860951514433e-14 2.501219967515657e-03
4.043146168793924e-03 -3.430259186798337e-15 -2.608669650895555e-04 -1.468879089470310e-15 7.247137642057704e-15 3.404197943177484e-03
5.875344106993415e-02 2.489992426218885e-16 -6.128193028541581e-04 1.506061837854958e-15 9.155749811838474e-15 2.652464024926470e-03
1.141304746126759e-01 9.070381091855547e-16 -4.735385880564613e-04 3.359915796056735e-15 -4.730807497222652e-15 1.522115352153698e-03
1.141304746126633e-01 -6.269556337457043e-15 -4.735385881129378e-04 -3.481017137971902e-15 2.896059844323375e-14 1.522115352117351e-03
5.875344106993106e-02 3.605555036969173e-16 -6.128193029038996e-04 2.320851780254795e-15 1.344346833458094e-14 2.652464024886631e-03
3.982884035180442e-02 4.807406715958908e-16 -2.147684623920445e-04 3.905742908585879e-15 1.341751991813843e-14 2.501219967530134e-03
7.575353869310560e-02 -3.247049798698643e-16 -1.532589837262641e-04 -1.787839737409711e-15 -1.389495916280284e-15 1.487895151558024e-03
7.575353869310858e-02 -8.054456514657520e-16 -1.532589836429350e-04 -3.245051655568247e-15 -4.596043711274703e-14 1.487895151571127e-03
3.982884035181463e-02 2.978742477002494e-15 -2.147684624075382e-04 -1.319156398096663e-15 -4.352860951514433e-14 2.501219967515657e-03
-6.705501731667020e-02 3.047773731594033e-16 -1.967232689712431e-04 -2.234949914317353e-15 -7.256973711589898e-15 1.600541281618786e-03
-3.159261092395205e-02 -6.492001411341461e-15 -2.210896290371601e-04 1.402966340538766e-15 -1.135180993600687e-14 2.462955557148753e-03
-3.159261092394193e-02 -1.276889967972059e-15 -2.210896290526002e-04 -1.404676899406356e-15 8.054885156668574e-15 2.462955557138830e-03
-6.705501731667812e-02 -8.314039088270867e-15 -1.967232689431636e-04 -2.144339823267901e-15 -1.296158364779617e-14 1.600541281616407e-03
-3.074182809667644e-02 -2.894407832930575e-15 -1.362576505205405e-04 1.617964382115580e-15 1.070670495618720e-14 1.533203094833759e-03
-1.322241757813628e-02 3.472426508834297e-15 -1.681050162957669e-04 2.094860726594057e-15 -8.670028013029910e-15 2.370713828472593e-03
-1.322241757814374e-02 -3.249313986684235e-15 -1.681050163368017e-04 -2.660604377469120e-15 -8.040540552135000e-15 2.370713828435725e-03
-3.074182809665484e-02 -2.379151534038919e-15 -1.362576505733091e-04 9.905916962708923e-16 -2.101706273975252e-14 1.533203094767738e-03
-3.159261092395205e-02 -6.492001411341461e-15 -2.210896290371601e-04 1.402966340538766e-15 -1.135180993600687e-14 2.462955557148753e-03
4.043146168794653e-03 -9.063706609199117e-16 -2.608669651332913e-04 -1.049405732367923e-15 2.055943539021562e-15 3.404197943129815e-03
4.043146168793924e-03 -3.430259186798337e-15 -2.608669650895555e-04 -1.468879089470310e-15 7.247137642057704e-15 3.404197943177484e-03
-3.159261092394193e-02 -1.276889967972059e-15 -2.210896290526002e-04 -1.404676899406356e-15 8.054885156668574e-15 2.462955557138830e-03
-1.322241757813628e-02 3.472426508834297e-15 -1.681050162957669e-04 2.094860726594057e-15 -8.670028013029910e-15 2.370713828472593e-03
4.332421097427364e-03 -1.479407435146016e-15 -1.564985238379977e-04 2.367821826673326e-15 -1.194787014277262e-14 3.250495099524082e-03
4.332421097442808e-03 2.014591340748134e-15 -1.564985238980596e-04 -3.319791714862042e-15 2.979517805626316e-14 3.250495099473915e-03
-1.322241757814374e-02 -3.249313986684235e-15 -1.681050163368017e-04 -2.660604377469120e-15 -8.040540552135000e-15 2.370713828435725e-03
4.043146168794653e-03 -9.063706609199117e-16 -2.608669651332913e-04 -1.049405732367923e-15 2.055943539021562e-15 3.404197943129815e-03
3.982884035180442e-02 4.807406715958908e-16 -2.147684623920445e-04 3.905742908585879e-15 1.341751991813843e-14 2.501219967530134e-03
3.982884035181463e-02 2.978742477002494e-15 -2.147684624075382e-04 -1.319156398096663e-15 -4.352860951514433e-14 2.501219967515657e-03
4.043146168793924e-03 -3.430259186798337e-15 -2.608669650895555e-04 -1.468879089470310e-15 7.247137642057704e-15 3.404197943177484e-03
4.332421097427364e-03 -1.479407435146016e-15 -1.564985238379977e-04 2.367821826673326e-15 -1.194787014277262e-14 3.250495099524082e-03
2.191480019563269e-02 -3.676278872539543e-15 -1.107974370969511e-04 -2.640506235659106e-15 5.404204220909602e-15 2.349926399945090e-03
2.191480019560297e-02 -4.221426581496891e-15 -1.107974370394398e-04 -6.417137428035791e-17 2.406777505942632e-14 2.349926399963155e-03
4.332421097442808e-03 2.014591340748134e-15 -1.564985238980596e-04 -3.319791714862042e-15 2.979517805626316e-14 3.250495099473915e-03
3.982884035180442e-02 4.807406715958908e-16 -2.147684623920445e-04 3.905742908585879e-15 1.341751991813843e-14 2.501219967530134e-03
7.575353869310560e-02 -3.247049798698643e-16 -1.532589837262641e-04 -1.787839737409711e-15 -1.389495916280284e-15 1.487895151558024e-03
7.575353869310858e-02 -8.054456514657520e-16 -1.532589836429350e-04 -3.245051655568247e-15 -4.596043711274703e-14 1.487895151571127e-03
3.982884035181463e-02 2.978742477002494e-15 -2.147684624075382e-04 -1.319156398096663e-15 -4.352860951514433e-14 2.501219967515657e-03
2.191480019563269e-02 -3.676278872539543e-15 -1.107974370969511e-04 -2.640506235659106e-15 5.404204220909602e-15 2.349926399945090e-03
3.950694365202546e-02 3.393741214705638e-15 -1.085502085306914e-04 4.017000754034426e-16 1.432262511619210e-14 1.422004550434659e-03
3.950694365205626e-02 1.711148864120022e-15 -1.085502085789482e-04 1.651383488833591e-15 -1.032907038893328e-15 1.422004550464345e-03
2.191480019560297e-02 -4.221426581496891e-15 -1.107974370394398e-04 -6.417137428035791e-17 2.406777505942632e-14 2.349926399963155e-03
-3.074182809667644e-02 -2.894407832930575e-15 -1.362576505205405e-04 1.617964382115580e-15 1.070670495618720e-14 1.533203094833759e-03
-1.322241757813628e-02 3.472426508834297e-15 -1.681050162957669e-04 2.094860726594057e-15 -8.670028013029910e-15 2.370713828472593e-03
-1.322241757814374e-02 -3.249313986684235e-15 -1.681050163368017e-04 -2.660604377469120e-15 -8.040540552135000e-15 2.370713828435725e-03
-3.074182809665484e-02 -2.379151534038919e-15 -1.362576505733091e-04 9.905916962708923e-16 -2.101706273975252e-14 1.533203094767738e-03
-1.265381968179488e-02 -5.711302706880281e-17 6.382664889409051e-05 -3.766941778046853e-15 9.442094225277972e-15 1.444196877243249e-03
-4.478566804481825e-03 -6.021891991366445e-15 8.685986895138027e-05 1.169107586778187e-15 -4.264646393789497e-15 2.313656466581508e-03
-4.478566804450829e-03 1.506629052149131e-15 8.685986902618473e-05 -1.147290730846250e-15 -8.768185187481568e-15 2.313656466617243e-03
-1.265381968181840e-02 -1.756963191302307e-15 6.382664892652326e-05 -1.728255217650022e-15 4.230372520717869e-15 1.444196877216824e-03
-1.322241757813628e-02 3.472426508834297e-15 -1.681050162957669e-04 2.094860726594057e-15 -8.670028013029910e-15 2.370713828472593e-03
4.332421097427364e-03 -1.479407435146016e-15 -1.564985238379977e-04 2.367821826673326e-15 -1.194787014277262e-14 3.250495099524082e-03
4.332421097442808e-03 2.014591340748134e-15 -1.564985238980596e-04 -3.319791714862042e-15 2.979517805626316e-14 3.250495099473915e-03
-1.322241757814374e-02 -3.249313986684235e-15 -1.681050163368017e-04 -2.660604377469120e-15 -8.040540552135000e-15 2.370713828435725e-03
-4.478566804481825e-03 -6.021891991366445e-15 8.685986895138027e-05 1.169107586778187e-15 -4.264646393789497e-15 2.313656466581508e-03
4.448409858266701e-03 9.181221984035504e-15 -4.584993195773126e-05 8.955455068599109e-16 -1.608515724807847e-14 3.193265788547105e-03
4.448409858258478e-03 5.206482536545459e-15 -4.584993186737637e-05 1.120930628251278e-14 -1.397940134718754e-15 3.193265788587653e-03
-4.478566804450829e-03 1.506629052149131e-15 8.685986902618473e-05 -1.147290730846250e-15 -8.768185187481568e-15 2.313656466617243e-03
4.332421097427364e-03 -1.479407435146016e-15 -1.564985238379977e-04 2.367821826673326e-15 -1.194787014277262e-14 3.250495099524082e-03
2.191480019563269e-02 -3.676278872539543e-15 -1.107974370969511e-04 -2.640506235659106e-15 5.404204220909602e-15 2.349926399945090e-03
2.191480019560297e-02 -4.221426581496891e-15 -1.107974370394398e-04 -6.417137428035791e-17 2.406777505942632e-14 2.349926399963155e-03
4.332421097442808e-03 2.014591340748134e-15 -1.564985238980596e-04 -3.319791714862042e-15 2.979517805626316e-14 3.250495099473915e-03
4.448409858266701e-03 9.181221984035504e-15 -4.584993195773126e-05 8.955455068599109e-16 -1.608515724807847e-14 3.193265788547105e-03
1.288952515354277e-02 2.488038002051374e-15 -1.973960608668517e-04 -8.665831389191030e-16 -1.184054529809504e-14 2.335335867364360e-03
1.288952515351232e-02 -1.452185818142904e-15 -1.973960607884016e-04 -1.808474409834341e-15 -3.607789137698401e-15 2.335335867426519e-03
4.448409858258478e-03 5.206482536545459e-15 -4.584993186737637e-05 1.120930628251278e-14 -1.397940134718754e-15 3.193265788587653e-03
2.191480019563269e-02 -3.676278872539543e-15 -1.107974370969511e-04 -2.640506235659106e-15 5.404204220909602e-15 2.349926399945090e-03
3.950694365202546e-02 3.393741214705638e-15 -1.085502085306914e-04 4.017000754034426e-16 1.432262511619210e-14 1.422004550434659e-03
3.950694365205626e-02 1.711148864120022e-15 -1.085502085789482e-04 1.651383488833591e-15 -1.032907038893328e-15 1.422004550464345e-03
2.191480019560297e-02 -4.221426581496891e-15 -1.107974370394398e-04 -6.417137428035791e-17 2.406777505942632e-14 2.349926399963155e-03
1.288952515354277e-02 2.488038002051374e-15 -1.973960608668517e-04 -8.665831389191030e-16 -1.184054529809504e-14 2.335335867364360e-03
2.224704306137027e-02 -2.108889788175282e-15 -1.931991687031485e-04 -5.080613904997556e-16 -7.217921248666562e-15 1.460038868172851e-03
2.224704306140248e-02 3.179257599379520e-15 -1.931991687206506e-04 2.296485190363268e-15 -2.331846903697806e-14 1.460038868127461e-03
1.288952515351232e-02 -1.452185818142904e-15 -1.973960607884016e-04 -1.808474409834341e-15 -3.607789137698401e-15 2.335335867426519e-03
        </DataArray>
        <DataArray type="Float64" Name="nodal_GL_strains_xyz" NumberOfComponents="6" format="ascii">
-1.950175267821858e-02 -2.968778673647263e-16 -9.201354853554498e-05 -2.355569099745611e-16 -1.621800819941325e-15 2.409050473827589e-04
-9.712721250840630e-03 6.059077411724789e-17 -1.504775900653615e-04 3.034175172767190e-16 -3.747667647222019e-16 3.287890682324967e-04
-9.712721250840750e-03 1.151055450129827e-16 -1.504775900670551e-04 9.453013683942768e-17 -5.255338343826333e-16 3.287890682325884e-04
-1.950175267821897e-02 6.195185496740352e-17 -9.201354853982130e-05 3.996557929018223e-16 9.912081774715767e-16 2.409050473801442e-04
-1.479840316776794e-02 -1.921627789852276e-16 -6.688260056515842e-05 -2.294349171057280e-16 -2.205536147637287e-16 1.984472713111045e-04
-7.293856191464439e-03 7.961492963761680e-17 -8.722224678498309e-05 -1.826862195633143e-16 6.962548550428262e-16 2.912458885728832e-04
-7.293856191464269e-03 -1.822037676929408e-16 -8.722224678762492e-05 1.680499040663705e-16 -8.792156903288472e-16 2.912458885717274e-04
-1.479840316776873e-02 -3.333338866938045e-17 -6.688260057457082e-05 -3.899999852732762e-16 9.603260210583743e-16 1.984472713049575e-04
-9.712721250840630e-03 6.059077411724789e-17 -1.504775900653615e-04 3.034175172767190e-16 -3.747667647222019e-16 3.287890682324967e-04
1.745424206834768e-04 8.462780769704247e-17 -2.140119037701296e-04 1.138916231557421e-16 1.668919426239966e-15 4.514093055833439e-04
1.745424206831310e-04 8.635358906183076e-17 -2.140119037681600e-04 -7.190390782470943e-17 -2.064932169870526e-15 4.514093055848445e-04
-9.712721250840750e-03 1.151055450129827e-16 -1.504775900670551e-04 9.453013683942768e-17 -5.255338343826333e-16 3.287890682325884e-04
-7.293856191464439e-03 7.961492963761680e-17 -8.722224678498309e-05 -1.826862195633143e-16 6.962548550428262e-16 2.912458885728832e-04
2.771761949673644e-04 3.054448214250471e-17 -1.068968953582142e-04 -5.388244181180261e-17 -7.620436995971961e-16 4.038407444144594e-04
2.771761949666487e-04 4.782187443752728e-16 -1.068968953568209e-04 -1.165976611523717e-16 -5.485707839349454e-16 4.038407444155724e-04
-7.293856191464269e-03 -1.822037676929408e-16 -8.722224678762492e-05 1.680499040663705e-16 -8.792156903288472e-16 2.912458885717274e-04
1.745424206834768e-04 8.462780769704247e-17 -2.140119037701296e-04 1.138916231557421e-16 1.668919426239966e-15 4.514093055833439e-04
1.015232494902076e-02 2.058761007581026e-16 -1.710770988611161e-04 2.754838484708796e-16 9.339337094185573e-16 3.242323814906826e-04
1.015232494902095e-02 1.271694143735195e-17 -1.710770988640661e-04 -3.025072798363800e-16 2.104556276271073e-15 3.242323814895255e-04
1.745424206831310e-04 8.635358906183076e-17 -2.140119037681600e-04 -7.190390782470943e-17 -2.064932169870526e-15 4.514093055848445e-04
2.771761949673644e-04 3.054448214250471e-17 -1.068968953582142e-04 -5.388244181180261e-17 -7.620436995971961e-16 4.038407444144594e-04
7.911913750191690e-03 -2.196871437393526e-16 -7.873545904681203e-05 -1.320221149891921e-16 -1.884340259979745e-15 2.988002925981485e-04
7.911913750191331e-03 -7.819687608173420e-16 -7.873545904444514e-05 -5.571588451262879e-17 1.821236129986898e-16 2.988002925996561e-04
2.771761949666487e-04 4.782187443752728e-16 -1.068968953568209e-04 -1.165976611523717e-16 -5.485707839349454e-16 4.038407444155724e-04
1.015232494902076e-02 2.058761007581026e-16 -1.710770988611161e-04 2.754838484708796e-16 9.339337094185573e-16 3.242323814906826e-04
2.021486695210219e-02 1.034517287377181e-16 -1.230720217776936e-04 1.527001789698438e-16 -7.629130075916736e-16 1.740117355743244e-04
2.021486695210247e-02 -6.480750632084377e-17 -1.230720217832877e-04 -3.067505980025467e-16 5.996781180828462e-15 1.740117355721750e-04
1.015232494902095e-02 1.271694143735195e-17 -1.710770988640661e-04 -3.025072798363800e-16 2.104556276271073e-15 3.242323814895255e-04
7.911913750191690e-03 -2.196871437393526e-16 -7.873545904681203e-05 -1.320221149891921e-16 -1.884340259979745e-15 2.988002925981485e-04
1.560760379515116e-02 2.689268493323475e-17 -5.123902038082952e-05 4.448786746767758e-17 8.588034386112440e-16 1.660449847517872e-04
1.560760379515228e-02 5.539816423239264e-16 -5.123902037635472e-05 -1.801463502012773e-16 -3.776651823076016e-15 1.660449847541755e-04
7.911913750191331e-03 -7.819687608173420e-16 -7.873545904444514e-05 -5.571588451262879e-17 1.821236129986898e-16 2.988002925996561e-04
-1.479840316776794e-02 -1.921627789852276e-16 -6.688260056515842e-05 -2.294349171057280e-16 -2.205536147637287e-16 1.984472713111045e-04
-7.293856191464439e-03 7.961492963761680e-17 -8.722224678498309e-05 -1.826862195633143e-16 6.962548550428262e-16 2.912458885728832e-04
-7.293856191464269e-03 -1.822037676929408e-16 -8.722224678762492e-05 1.680499040663705e-16 -8.792156903288472e-16 2.912458885717274e-04
-1.479840316776873e-02 -3.333338866938045e-17 -6.688260057457082e-05 -3.899999852732762e-16 9.603260210583743e-16 1.984472713049575e-04
-1.058463796011695e-02 4.577000183516193e-16 -3.560183265806225e-05 -3.092149346599771e-17 -4.260025690649118e-15 1.833865754574468e-04
-5.127806779605641e-03 1.141091646774597e-16 -5.465930941276403e-05 -3.001976036343232e-16 -1.876367786596083e-15 2.677015237083529e-04
-5.127806779605606e-03 3.175610594233193e-16 -5.465930940851994e-05 -2.551722643631704e-16 2.813702398232273e-15 2.677015237110225e-04
-1.058463796011432e-02 9.701817869052312e-16 -3.560183265152156e-05 -8.019931395467572e-17 1.522158180137743e-15 1.833865754639785e-04
-7.293856191464439e-03 7.961492963761680e-17 -8.722224678498309e-05 -1.826862195633143e-16 6.962548550428262e-16 2.912458885728832e-04
2.771761949673644e-04 3.054448214250471e-17 -1.068968953582142e-04 -5.388244181180261e-17 -7.620436995971961e-16 4.038407444144594e-04
2.771761949666487e-04 4.782187443752728e-16 -1.068968953568209e-04 -1.165976611523717e-16 -5.485707839349454e-16 4.038407444155724e-04
-7.293856191464269e-03 -1.822037676929408e-16 -8.722224678762492e-05 1.680499040663705e-16 -8.792156903288472e-16 2.912458885717274e-04
-5.127806779605641e-03 1.141091646774597e-16 -5.465930941276403e-05 -3.001976036343232e-16 -1.876367786596083e-15 2.677015237083529e-04
3.600521656866819e-04 -1.721112667475251e-16 -7.446339396681128e-05 -1.698769815183452e-16 7.377081210041068e-16 3.677620926481034e-04
3.600521656861143e-04 -5.192609884855225e-17 -7.446339396783468e-05 -1.515551313825710e-16 2.374539912906594e-15 3.677620926465150e-04
-5.127806779605606e-03 3.175610594233193e-16 -5.465930940851994e-05 -2.551722643631704e-16 2.813702398232273e-15 2.677015237110225e-04
2.771761949673644e-04 3.054448214250471e-17 -1.068968953582142e-04 -5.388244181180261e-17 -7.620436995971961e-16 4.038407444144594e-04
7.911913750191690e-03 -2.196871437393526e-16 -7.873545904681203e-05 -1.320221149891921e-16 -1.884340259979745e-15 2.988002925981485e-04
7.911913750191331e-03 -7.819687608173420e-16 -7.873545904444514e-05 -5.571588451262879e-17 1.821236129986898e-16 2.988002925996561e-04
2.771761949666487e-04 4.782187443752728e-16 -1.068968953568209e-04 -1.165976611523717e-16 -5.485707839349454e-16 4.038407444155724e-04
3.600521656866819e-04 -1.721112667475251e-16 -7.446339396681128e-05 -1.698769815183452e-16 7.377081210041068e-16 3.677620926481034e-04
5.875344106993415e-03 2.489992426218885e-17 -6.128193028541582e-05 1.506061837854958e-16 9.155749811838472e-16 2.652464024926471e-04
5.875344106993106e-03 3.605555036969173e-17 -6.128193029038998e-05 2.320851780254795e-16 1.344346833458094e-15 2.652464024886632e-04
3.600521656861143e-04 -5.192609884855225e-17 -7.446339396783468e-05 -1.515551313825710e-16 2.374539912906594e-15 3.677620926465150e-04
7.911913750191690e-03 -2.196871437393526e-16 -7.873545904681203e-05 -1.320221149891921e-16 -1.884340259979745e-15 2.988002925981485e-04
1.560760379515116e-02 2.689268493323475e-17 -5.123902038082952e-05 4.448786746767758e-17 8.588034386112440e-16 1.660449847517872e-04
1.560760379515228e-02 5.539816423239264e-16 -5.123902037635472e-05 -1.801463502012773e-16 -3.776651823076016e-15 1.660449847541755e-04
7.911913750191331e-03 -7.819687608173420e-16 -7.873545904444514e-05 -5.571588451262879e-17 1.821236129986898e-16 2.988002925996561e-04
5.875344106993415e-03 2.489992426218885e-17 -6.128193028541582e-05 1.506061837854958e-16 9.155749811838472e-16 2.652464024926471e-04
1.141304746126759e-02 9.070381091855551e-17 -4.735385880564611e-05 3.359915796056735e-16 -4.730807497222649e-16 1.522115352153699e-04
1.141304746126633e-02 -6.269556337457044e-16 -4.735385881129377e-05 -3.481017137971901e-16 2.896059844323375e-15 1.522115352117351e-04
5.875344106993106e-03 3.605555036969173e-17 -6.128193029038998e-05 2.320851780254795e-16 1.344346833458094e-15 2.652464024886632e-04
-1.058463796011695e-02 4.577000183516193e-16 -3.560183265806225e-05 -3.092149346599771e-17 -4.260025690649118e-15 1.833865754574468e-04
-5.127806779605641e-03 1.141091646774597e-16 -5.465930941276403e-05 -3.001976036343232e-16 -1.876367786596083e-15 2.677015237083529e-04
-5.127806779605606e-03 3.175610594233193e-16 -5.465930940851994e-05 -2.551722643631704e-16 2.813702398232273e-15 2.677015237110225e-04
-1.058463796011432e-02 9.701817869052312e-16 -3.560183265152156e-05 -8.019931395467572e-17 1.522158180137743e-15 1.833865754639785e-04
-6.705501731667020e-03 3.047773731594033e-17 -1.967232689712431e-05 -2.234949914317354e-16 -7.256973711589898e-16 1.600541281618787e-04
-3.159261092395205e-03 -6.492001411341461e-16 -2.210896290371602e-05 1.402966340538766e-16 -1.135180993600687e-15 2.462955557148753e-04
-3.159261092394192e-03 -1.276889967972059e-16 -2.210896290526003e-05 -1.404676899406357e-16 8.054885156668575e-16 2.462955557138830e-04
-6.705501731667811e-03 -8.314039088270868e-16 -1.967232689431635e-05 -2.144339823267901e-16 -1.296158364779616e-15 1.600541281616407e-04
-5.127806779605641e-03 1.141091646774597e-16 -5.465930941276403e-05 -3.001976036343232e-16 -1.876367786596083e-15 2.677015237083529e-04
3.600521656866819e-04 -1.721112667475251e-16 -7.446339396681128e-05 -1.698769815183452e-16 7.377081210041068e-16 3.677620926481034e-04
3.600521656861143e-04 -5.192609884855225e-17 -7.446339396783468e-05 -1.515551313825710e-16 2.374539912906594e-15 3.677620926465150e-04
-5.127806779605606e-03 3.175610594233193e-16 -5.465930940851994e-05 -2.551722643631704e-16 2.813702398232273e-15 2.677015237110225e-04
-3.159261092395205e-03 -6.492001411341461e-16 -2.210896290371602e-05 1.402966340538766e-16 -1.135180993600687e-15 2.462955557148753e-04
4.043146168794650e-04 -9.063706609199110e-17 -2.608669651332914e-05 -1.049405732367923e-16 2.055943539021561e-16 3.404197943129816e-04
4.043146168793923e-04 -3.430259186798338e-16 -2.608669650895555e-05 -1.468879089470311e-16 7.247137642057707e-16 3.404197943177484e-04
-3.159261092394192e-03 -1.276889967972059e-16 -2.210896290526003e-05 -1.404676899406357e-16 8.054885156668575e-16 2.462955557138830e-04
3.600521656866819e-04 -1.721112667475251e-16 -7.446339396681128e-05 -1.698769815183452e-16 7.377081210041068e-16 3.677620926481034e-04
5.875344106993415e-03 2.489992426218885e-17 -6.128193028541582e-05 1.506061837854958e-16 9.155749811838472e-16 2.652464024926471e-04
5.875344106993106e-03 3.605555036969173e-17 -6.128193029038998e-05 2.320851780254795e-16 1.344346833458094e-15 2.652464024886632e-04
3.600521656861143e-04 -5.192609884855225e-17 -7.446339396783468e-05 -1.515551313825710e-16 2.374539912906594e-15 3.677620926465150e-04
4.043146168794650e-04 -9.063706609199110e-17 -2.608669651332914e-05 -1.049405732367923e-16 2.055943539021561e-16 3.404197943129816e-04
3.982884035180441e-03 4.807406715958906e-17 -2.147684623920445e-05 3.905742908585879e-16 1.341751991813844e-15 2.501219967530134e-04
3.982884035181464e-03 2.978742477002494e-16 -2.147684624075380e-05 -1.319156398096663e-16 -4.352860951514434e-15 2.501219967515658e-04
4.043146168793923e-04 -3.430259186798338e-16 -2.608669650895555e-05 -1.468879089470311e-16 7.247137642057707e-16 3.404197943177484e-04
5.875344106993415e-03 2.489992426218885e-17 -6.128193028541582e-05 1.506061837854958e-16 9.155749811838472e-16 2.652464024926471e-04
1.141304746126759e-02 9.070381091855551e-17 -4.735385880564611e-05 3.359915796056735e-16 -4.730807497222649e-16 1.522115352153699e-04
1.141304746126633e-02 -6.269556337457044e-16 -4.735385881129377e-05 -3.481017137971901e-16 2.896059844323375e-15 1.522115352117351e-04
5.875344106993106e-03 3.605555036969173e-17 -6.128193029038998e-05 2.320851780254795e-16 1.344346833458094e-15 2.652464024886632e-04
3.982884035180441e-03 4.807406715958906e-17 -2.147684623920445e-05 3.905742908585879e-16 1.341751991813844e-15 2.501219967530134e-04
7.575353869310559e-03 -3.247049798698642e-17 -1.532589837262641e-05 -1.787839737409711e-16 -1.389495916280284e-16 1.487895151558025e-04
7.575353869310860e-03 -8.054456514657520e-17 -1.532589836429352e-05 -3.245051655568247e-16 -4.596043711274703e-15 1.487895151571127e-04
3.982884035181464e-03 2.978742477002494e-16 -2.147684624075380e-05 -1.319156398096663e-16 -4.352860951514434e-15 2.501219967515658e-04
-6.705501731667020e-03 3.047773731594033e-17 -1.967232689712431e-05 -2.234949914317354e-16 -7.256973711589898e-16 1.600541281618787e-04
-3.159261092395205e-03 -6.492001411341461e-16 -2.210896290371602e-05 1.402966340538766e-16 -1.135180993600687e-15 2.462955557148753e-04
-3.159261092394192e-03 -1.276889967972059e-16 -2.210896290526003e-05 -1.404676899406357e-16 8.054885156668575e-16 2.462955557138830e-04
-6.705501731667811e-03 -8.314039088270868e-16 -1.967232689431635e-05 -2.144339823267901e-16 -1.296158364779616e-15 1.600541281616407e-04
-3.074182809667645e-03 -2.894407832930574e-16 -1.362576505205404e-05 1.617964382115580e-16 1.070670495618720e-15 1.533203094833760e-04
-1.322241757813628e-03 3.472426508834297e-16 -1.681050162957669e-05 2.094860726594058e-16 -8.670028013029911e-16 2.370713828472593e-04
-1.322241757814375e-03 -3.249313986684235e-16 -1.681050163368017e-05 -2.660604377469120e-16 -8.040540552135003e-16 2.370713828435725e-04
-3.074182809665484e-03 -2.379151534038918e-16 -1.362576505733091e-05 9.905916962708921e-17 -2.101706273975252e-15 1.533203094767738e-04
-3.159261092395205e-03 -6.492001411341461e-16 -2.210896290371602e-05 1.402966340538766e-16 -1.135180993600687e-15 2.462955557148753e-04
4.043146168794650e-04 -9.063706609199110e-17 -2.608669651332914e-05 -1.049405732367923e-16 2.055943539021561e-16 3.404197943129816e-04
4.043146168793923e-04 -3.430259186798338e-16 -2.608669650895555e-05 -1.468879089470311e-16 7.247137642057707e-16 3.404197943177484e-04
-3.159261092394192e-03 -1.276889967972059e-16 -2.210896290526003e-05 -1.404676899406357e-16 8.054885156668575e-16 2.462955557138830e-04
-1.322241757813628e-03 3.472426508834297e-16 -1.681050162957669e-05 2.094860726594058e-16 -8.670028013029911e-16 2.370713828472593e-04
4.332421097427364e-04 -1.479407435146016e-16 -1.564985238379977e-05 2.367821826673325e-16 -1.194787014277262e-15 3.250495099524082e-04
4.332421097442807e-04 2.014591340748135e-16 -1.564985238980596e-05 -3.319791714862043e-16 2.979517805626315e-15 3.250495099473915e-04
-1.322241757814375e-03 -3.249313986684235e-16 -1.681050163368017e-05 -2.660604377469120e-16 -8.040540552135003e-16 2.370713828435725e-04
4.043146168794650e-04 -9.063706609199110e-17 -2.608669651332914e-05 -1.049405732367923e-16 2.055943539021561e-16 3.404197943129816e-04
3.982884035180441e-03 4.807406715958906e-17 -2.147684623920445e-05 3.905742908585879e-16 1.341751991813844e-15 2.501219967530134e-04
3.982884035181464e-03 2.978742477002494e-16 -2.147684624075380e-05 -1.319156398096663e-16 -4.352860951514434e-15 2.501219967515658e-04
4.043146168793923e-04 -3.430259186798338e-16 -2.608669650895555e-05 -1.468879089470311e-16 7.247137642057707e-16 3.404197943177484e-04
4.332421097427364e-04 -1.479407435146016e-16 -1.564985238379977e-05 2.367821826673325e-16 -1.194787014277262e-15 3.250495099524082e-04
2.191480019563269e-03 -3.676278872539544e-16 -1.107974370969511e-05 -2.640506235659105e-16 5.404204220909604e-16 2.349926399945090e-04
2.191480019560297e-03 -4.221426581496891e-16 -1.107974370394398e-05 -6.417137428035802e-18 2.406777505942632e-15 2.349926399963155e-04
4.332421097442807e-04 2.014591340748135e-16 -1.564985238980596e-05 -3.319791714862043e-16 2.979517805626315e-15 3.250495099473915e-04
3.982884035180441e-03 4.807406715958906e-17 -2.147684623920445e-05 3.905742908585879e-16 1.341751991813844e-15 2.501219967530134e-04
7.575353869310559e-03 -3.247049798698642e-17 -1.532589837262641e-05 -1.787839737409711e-16 -1.389495916280284e-16 1.487895151558025e-04
7.575353869310860e-03 -8.054456514657520e-17 -1.532589836429352e-05 -3.245051655568247e-16 -4.596043711274703e-15 1.487895151571127e-04
3.982884035181464e-03 2.978742477002494e-16 -2.147684624075380e-05 -1.319156398096663e-16 -4.352860951514434e-15 2.501219967515658e-04
2.191480019563269e-03 -3.676278872539544e-16 -1.107974370969511e-05 -2.640506235659105e-16 5.404204220909604e-16 2.349926399945090e-04
3.950694365202545e-03 3.393741214705637e-16 -1.085502085306915e-05 4.017000754034424e-17 1.432262511619210e-15 1.422004550434659e-04
3.950694365205627e-03 1.711148864120022e-16 -1.085502085789482e-05 1.651383488833591e-16 -1.032907038893330e-16 1.422004550464344e-04
2.191480019560297e-03 -4.221426581496891e-16 -1.107974370394398e-05 -6.417137428035802e-18 2.406777505942632e-15 2.349926399963155e-04
-3.074182809667645e-03 -2.894407832930574e-16 -1.362576505205404e-05 1.617964382115580e-16 1.070670495618720e-15 1.533203094833760e-04
-1.322241757813628e-03 3.472426508834297e-16 -1.681050162957669e-05 2.094860726594058e-16 -8.670028013029911e-16 2.370713828472593e-04
-1.322241757814375e-03 -3.249313986684235e-16 -1.681050163368017e-05 -2.660604377469120e-16 -8.040540552135003e-16 2.370713828435725e-04
-3.074182809665484e-03 -2.379151534038918e-16 -1.362576505733091e-05 9.905916962708921e-17 -2.101706273975252e-15 1.533203094767738e-04
-1.265381968179487e-03 -5.711302706880323e-18 6.382664889409051e-06 -3.766941778046853e-16 9.442094225277974e-16 1.444196877243248e-04
-4.478566804481826e-04 -6.021891991366445e-16 8.685986895138028e-06 1.169107586778185e-16 -4.264646393789499e-16 2.313656466581507e-04
-4.478566804450829e-04 1.506629052149130e-16 8.685986902618478e-06 -1.147290730846249e-16 -8.768185187481571e-16 2.313656466617243e-04
-1.265381968181840e-03 -1.756963191302307e-16 6.382664892652326e-06 -1.728255217650022e-16 4.230372520717869e-16 1.444196877216824e-04
-1.322241757813628e-03 3.472426508834297e-16 -1.681050162957669e-05 2.094860726594058e-16 -8.670028013029911e-16 2.370713828472593e-04
4.332421097427364e-04 -1.479407435146016e-16 -1.564985238379977e-05 2.367821826673325e-16 -1.194787014277262e-15 3.250495099524082e-04
4.332421097442807e-04 2.014591340748135e-16 -1.564985238980596e-05 -3.319791714862043e-16 2.979517805626315e-15 3.250495099473915e-04
-1.322241757814375e-03 -3.249313986684235e-16 -1.681050163368017e-05 -2.660604377469120e-16 -8.040540552135003e-16 2.370713828435725e-04
-4.478566804481826e-04 -6.021891991366445e-16 8.685986895138028e-06 1.169107586778185e-16 -4.264646393789499e-16 2.313656466581507e-04
4.448409858266702e-04 9.181221984035505e-16 -4.584993195773125e-06 8.955455068599119e-17 -1.608515724807847e-15 3.193265788547106e-04
4.448409858258478e-04 5.206482536545460e-16 -4.584993186737638e-06 1.120930628251278e-15 -1.397940134718750e-16 3.193265788587653e-04
-4.478566804450829e-04 1.506629052149130e-16 8.685986902618478e-06 -1.147290730846249e-16 -8.768185187481571e-16 2.313656466617243e-04
4.332421097427364e-04 -1.479407435146016e-16 -1.564985238379977e-05 2.367821826673325e-16 -1.194787014277262e-15 3.250495099524082e-04
2.191480019563269e-03 -3.676278872539544e-16 -1.107974370969511e-05 -2.640506235659105e-16 5.404204220909604e-16 2.349926399945090e-04
2.191480019560297e-03 -4.221426581496891e-16 -1.107974370394398e-05 -6.417137428035802e-18 2.406777505942632e-15 2.349926399963155e-04
4.332421097442807e-04 2.014591340748135e-16 -1.564985238980596e-05 -3.319791714862043e-16 2.979517805626315e-15 3.250495099473915e-04
4.448409858266702e-04 9.181221984035505e-16 -4.584993195773125e-06 8.955455068599119e-17 -1.608515724807847e-15 3.193265788547106e-04
1.288952515354278e-03 2.488038002051374e-16 -1.973960608668517e-05 -8.665831389191016e-17 -1.184054529809504e-15 2.335335867364360e-04
1.288952515351232e-03 -1.452185818142905e-16 -1.973960607884016e-05 -1.808474409834341e-16 -3.607789137698401e-16 2.335335867426519e-04
4.448409858258478e-04 5.206482536545460e-16 -4.584993186737638e-06 1.120930628251278e-15 -1.397940134718750e-16 3.193265788587653e-04
2.191480019563269e-03 -3.676278872539544e-16 -1.107974370969511e-05 -2.640506235659105e-16 5.404204220909604e-16 2.349926399945090e-04
3.950694365202545e-03 3.393741214705637e-16 -1.085502085306915e-05 4.017000754034424e-17 1.432262511619210e-15 1.422004550434659e-04
3.950694365205627e-03 1.711148864120022e-16 -1.085502085789482e-05 1.651383488833591e-16 -1.032907038893330e-16 1.422004550464344e-04
2.191480019560297e-03 -4.221426581496891e-16 -1.107974370394398e-05 -6.417137428035802e-18 2.406777505942632e-15 2.349926399963155e-04
1.288952515354278e-03 2.488038002051374e-16 -1.973960608668517e-05 -8.665831389191016e-17 -1.184054529809504e-15 2.335335867364360e-04
2.224704306137028e-03 -2.108889788175282e-16 -1.931991687031486e-05 -5.080613904997556e-17 -7.217921248666561e-16 1.460038868172851e-04
2.224704306140248e-03 3.179257599379520e-16 -1.931991687206506e-05 2.296485190363267e-16 -2.331846903697807e-15 1.460038868127461e-04
1.288952515351232e-03 -1.452185818142905e-16 -1.973960607884016e-05 -1.808474409834341e-16 -3.607789137698401e-16 2.335335867426519e-04
        </DataArray>
  </PointData>
  <CellData>
        <DataArray type="Float64" Name="element_2PK_stresses_xyz" NumberOfComponents="6" format="ascii">
-1.270473631328796e-01 -2.775557561562892e-16 -3.421876640713473e-04 -1.266564209621125e-15 -1.723706646933984e-15 1.705381715163454e-03
-4.116425799867353e-02 5.551115123125783e-16 -1.273413147688876e-03 -1.717842725433778e-15 -3.855874257662348e-15 4.152007526159246e-03
4.583119467046010e-02 1.387778780781445e-16 -1.284133304132809e-03 -1.921043437897037e-15 3.362480257808542e-16 4.328629976982673e-03
1.340397524175081e-01 2.775557561562891e-16 -7.127814092465490e-04 -1.283270890939609e-15 4.899301181398744e-15 2.188541433456839e-03
-9.387509954586690e-02 1.804112415015879e-15 -3.559605172479690e-04 1.430102068246384e-15 -1.905629274228163e-15 1.875998256497828e-03
-2.900267213043033e-02 4.930380657631324e-32 -6.529672945810445e-04 6.577728962539474e-16 6.966546069148146e-15 3.881238318681271e-03
3.605982440698749e-02 -8.326672684688674e-16 -6.917952541887762e-04 7.792198084754615e-16 -3.759927055428992e-15 3.803625421524228e-03
1.011553026606191e-01 -5.551115123125783e-16 -1.554302547948638e-04 -2.515883611137120e-16 1.457332091349476e-15 1.587238423880180e-03
-6.324942095079293e-02 -2.775557561562890e-16 -4.512321770212824e-05 -2.463156419646458e-15 -1.073107954597101e-14 1.498044787580165e-03
-1.867478456289644e-02 -2.220446049250313e-15 -3.221731778808162e-04 -3.560825327535897e-15 1.068702109984711e-14 3.475748530695245e-03
2.629399766607102e-02 -1.110223024625157e-15 -3.133420396700393e-04 -2.201162703247889e-16 9.919810656941458e-15 3.538935786881190e-03
7.172873732929559e-02 0.000000000000000e+00 -1.900816228631030e-04 2.405680350862040e-16 -8.633287650286356e-15 1.709351957950132e-03
-3.539813584609530e-02 -1.804112415015879e-15 -4.572434573510420e-05 9.391973239740624e-16 -9.513762778644951e-15 1.548097858536314e-03
-8.874782729249367e-03 -1.110223024625157e-15 -6.711494706365673e-05 6.053163156584262e-16 -4.025597056311722e-16 3.315634697322984e-03
1.757809685906581e-02 4.163336342344337e-16 -5.952412236068239e-05 -5.195343756088759e-16 1.399596680615000e-14 3.294562024970459e-03
4.385356480435047e-02 -1.387778780781446e-16 4.680298936937664e-05 -1.029071510192831e-15 -1.266828019417134e-14 1.444807724965797e-03
-8.566166698881494e-03 -1.387778780781446e-15 1.012515803806846e-04 8.487926494458484e-16 -1.424395981787037e-15 1.435828082333447e-03
-1.512285287323667e-05 1.387778780781447e-16 8.144156760231391e-05 8.420774983543903e-16 -1.098242997131448e-14 3.189892195863270e-03
8.669018941711570e-03 2.775557561562891e-16 -2.387764968664329e-05 -6.939050947439957e-17 1.351404268140679e-14 3.197709512612264e-03
1.756825050716573e-02 -9.714451465470120e-16 -3.129997450598832e-05 -1.263750559269999e-15 -4.679058640544159e-15 1.470946204443979e-03
        </DataArray>
        <DataArray type="Float64" Name="element_GL_strains_xyz" NumberOfComponents="6" format="ascii">
-1.270473631328796e-02 -2.775557561562893e-17 -3.421876640713473e-05 -1.266564209621125e-16 -1.723706646933985e-16 1.705381715163454e-04
-4.116425799867353e-03 5.551115123125783e-17 -1.273413147688876e-04 -1.717842725433778e-16 -3.855874257662348e-16 4.152007526159246e-04
4.583119467046010e-03 1.387778780781446e-17 -1.284133304132809e-04 -1.921043437897037e-16 3.362480257808539e-17 4.328629976982673e-04
1.340397524175081e-02 2.775557561562890e-17 -7.127814092465490e-05 -1.283270890939609e-16 4.899301181398745e-16 2.188541433456839e-04
-9.387509954586690e-03 1.804112415015879e-16 -3.559605172479691e-05 1.430102068246384e-16 -1.905629274228163e-16 1.875998256497828e-04
-2.900267213043033e-03 1.232595164407831e-32 -6.529672945810444e-05 6.577728962539473e-17 6.966546069148146e-16 3.881238318681271e-04
3.605982440698749e-03 -8.326672684688674e-17 -6.917952541887762e-05 7.792198084754615e-17 -3.759927055428992e-16 3.803625421524228e-04
1.011553026606191e-02 -5.551115123125781e-17 -1.554302547948638e-05 -2.515883611137119e-17 1.457332091349476e-16 1.587238423880180e-04
-6.324942095079293e-03 -2.775557561562891e-17 -4.512321770212824e-06 -2.463156419646458e-16 -1.073107954597101e-15 1.498044787580165e-04
-1.867478456289644e-03 -2.220446049250313e-16 -3.221731778808162e-05 -3.560825327535897e-16 1.068702109984711e-15 3.475748530695245e-04
2.629399766607102e-03 -1.110223024625157e-16 -3.133420396700393e-05 -2.201162703247888e-17 9.919810656941459e-16 3.538935786881191e-04
7.172873732929561e-03 0.000000000000000e+00 -1.900816228631030e-05 2.405680350862039e-17 -8.633287650286356e-16 1.709351957950132e-04
-3.539813584609530e-03 -1.804112415015879e-16 -4.572434573510420e-06 9.391973239740623e-17 -9.513762778644951e-16 1.548097858536314e-04
-8.874782729249367e-04 -1.110223024625157e-16 -6.711494706365674e-06 6.053163156584262e-17 -4.025597056311719e-17 3.315634697322984e-04
1.757809685906581e-03 4.163336342344337e-17 -5.952412236068239e-06 -5.195343756088758e-17 1.399596680614999e-15 3.294562024970459e-04
4.385356480435046e-03 -1.387778780781446e-17 4.680298936937664e-06 -1.029071510192831e-16 -1.266828019417133e-15 1.444807724965797e-04
-8.566166698881494e-04 -1.387778780781446e-16 1.012515803806846e-05 8.487926494458486e-17 -1.424395981787038e-16 1.435828082333447e-04
-1.512285287323667e-06 1.387778780781446e-17 8.144156760231391e-06 8.420774983543901e-17 -1.098242997131448e-15 3.189892195863270e-04
8.669018941711570e-04 2.775557561562893e-17 -2.387764968664330e-06 -6.939050947439949e-18 1.351404268140678e-15 3.197709512612264e-04
1.756825050716573e-03 -9.714451465470120e-17 -3.129997450598832e-06 -1.263750559269999e-16 -4.679058640544159e-16 1.470946204443979e-04
        </DataArray>
        <DataArray type="Float64" Name="element_owner" format="ascii">
1.000000000000000e+00
1.000000000000000e+00
1.000000000000000e+00
1.000000000000000e+00
1.000000000000000e+00
1.000000000000000e+00
1.000000000000000e+00
1.000000000000000e+00
1.000000000000000e+00
1.000000000000000e+00
1.000000000000000e+00
1.000000000000000e+00
1.000000000000000e+00
1.000000000000000e+00
1.000000000000000e+00
1.000000000000000e+00
1.000000000000000e+00
1.000000000000000e+00
1.000000000000000e+00
1.000000000000000e+00
        </DataArray>
      </CellData>

    </Piece>
  </UnstructuredGrid>
</VTKFile>
