<?xml version="1.0" ?> 
<!-- 
# vtk DataFile Version 3.0
-->
<VTKFile type="UnstructuredGrid" version="0.1" compressor="vtkZLibDataCompressor" byte_order="LittleEndian">
  <UnstructuredGrid>
    <FieldData>
      <DataArray type="Float64" Name="TIME" NumberOfTuples="1" format="ascii">
1
      </DataArray>
    </FieldData>

    <Piece NumberOfPoints="160" NumberOfCells="20" >
      <Points>
        <DataArray type="Float64" NumberOfComponents="3" format="ascii">
-2.500000000000000e+00 1.000000000000000e+00 1.000000000000000e-01
-2.500000000000000e+00 1.000000000000000e+00 5.000000000000000e-02
-2.500000000000000e+00 2.000000000000000e+00 5.000000000000000e-02
-2.500000000000000e+00 2.000000000000000e+00 1.000000000000000e-01
-2.000000000000000e+00 1.000000000000000e+00 1.000000000000000e-01
-2.000000000000000e+00 1.000000000000000e+00 5.000000000000000e-02
-2.000000000000000e+00 2.000000000000000e+00 5.000000000000001e-02
-2.000000000000000e+00 2.000000000000000e+00 1.000000000000000e-01
-2.500000000000000e+00 1.000000000000000e+00 5.000000000000000e-02
-2.500000000000000e+00 1.000000000000000e+00 0.000000000000000e+00
-2.500000000000000e+00 2.000000000000000e+00 0.000000000000000e+00
-2.500000000000000e+00 2.000000000000000e+00 5.000000000000000e-02
-2.000000000000000e+00 1.000000000000000e+00 5.000000000000000e-02
-2.000000000000000e+00 1.000000000000000e+00 3.469446951953614e-18
-2.000000000000000e+00 2.000000000000000e+00 0.000000000000000e+00
-2.000000000000000e+00 2.000000000000000e+00 5.000000000000001e-02
-2.500000000000000e+00 1.000000000000000e+00 0.000000000000000e+00
-2.500000000000000e+00 1.000000000000000e+00 -5.000000000000002e-02
-2.500000000000000e+00 2.000000000000000e+00 -5.000000000000002e-02
-2.500000000000000e+00 2.000000000000000e+00 0.000000000000000e+00
-2.000000000000000e+00 1.000000000000000e+00 3.469446951953614e-18
-2.000000000000000e+00 1.000000000000000e+00 -5.000000000000001e-02
-2.000000000000000e+00 2.000000000000000e+00 -5.000000000000000e-02
-2.000000000000000e+00 2.000000000000000e+00 0.000000000000000e+00
-2.500000000000000e+00 1.000000000000000e+00 -5.000000000000002e-02
-2.500000000000000e+00 1.000000000000000e+00 -1.000000000000000e-01
-2.500000000000000e+00 2.000000000000000e+00 -1.000000000000000e-01
-2.500000000000000e+00 2.000000000000000e+00 -5.000000000000002e-02
-2.000000000000000e+00 1.000000000000000e+00 -5.000000000000001e-02
-2.000000000000000e+00 1.000000000000000e+00 -1.000000000000000e-01
-2.000000000000000e+00 2.000000000000000e+00 -1.000000000000000e-01
-2.000000000000000e+00 2.000000000000000e+00 -5.000000000000000e-02
-2.000000000000000e+00 1.000000000000000e+00 1.000000000000000e-01
-2.000000000000000e+00 1.000000000000000e+00 5.000000000000000e-02
-2.000000000000000e+00 2.000000000000000e+00 5.000000000000001e-02
-2.000000000000000e+00 2.000000000000000e+00 1.000000000000000e-01
-1.500000000000000e+00 1.000000000000000e+00 1.000000000000000e-01
-1.500000000000000e+00 1.000000000000000e+00 5.000000000000003e-02
-1.500000000000000e+00 2.000000000000000e+00 5.000000000000000e-02
-1.500000000000000e+00 2.000000000000000e+00 1.000000000000000e-01
-2.000000000000000e+00 1.000000000000000e+00 5.000000000000000e-02
-2.000000000000000e+00 1.000000000000000e+00 3.469446951953614e-18
-2.000000000000000e+00 2.000000000000000e+00 0.000000000000000e+00
-2.000000000000000e+00 2.000000000000000e+00 5.000000000000001e-02
-1.500000000000000e+00 1.000000000000000e+00 5.000000000000003e-02
-1.500000000000000e+00 1.000000000000000e+00 0.000000000000000e+00
-1.500000000000000e+00 2.000000000000000e+00 0.000000000000000e+00
-1.500000000000000e+00 2.000000000000000e+00 5.000000000000000e-02
-2.000000000000000e+00 1.000000000000000e+00 3.469446951953614e-18
-2.000000000000000e+00 1.000000000000000e+00 -5.000000000000001e-02
-2.000000000000000e+00 2.000000000000000e+00 -5.000000000000000e-02
-2.000000000000000e+00 2.000000000000000e+00 0.000000000000000e+00
-1.500000000000000e+00 1.000000000000000e+00 0.000000000000000e+00
-1.500000000000000e+00 1.000000000000000e+00 -5.000000000000002e-02
-1.500000000000000e+00 2.000000000000000e+00 -5.000000000000002e-02
-1.500000000000000e+00 2.000000000000000e+00 0.000000000000000e+00
-2.000000000000000e+00 1.000000000000000e+00 -5.000000000000001e-02
-2.000000000000000e+00 1.000000000000000e+00 -1.000000000000000e-01
-2.000000000000000e+00 2.000000000000000e+00 -1.000000000000000e-01
-2.000000000000000e+00 2.000000000000000e+00 -5.000000000000000e-02
-1.500000000000000e+00 1.000000000000000e+00 -5.000000000000002e-02
-1.500000000000000e+00 1.000000000000000e+00 -1.000000000000000e-01
-1.500000000000000e+00 2.000000000000000e+00 -1.000000000000000e-01
-1.500000000000000e+00 2.000000000000000e+00 -5.000000000000002e-02
-1.500000000000000e+00 1.000000000000000e+00 1.000000000000000e-01
-1.500000000000000e+00 1.000000000000000e+00 5.000000000000003e-02
-1.500000000000000e+00 2.000000000000000e+00 5.000000000000000e-02
-1.500000000000000e+00 2.000000000000000e+00 1.000000000000000e-01
-1.000000000000000e+00 1.000000000000000e+00 1.000000000000000e-01
-1.000000000000000e+00 1.000000000000000e+00 5.000000000000001e-02
-1.000000000000000e+00 2.000000000000000e+00 5.000000000000000e-02
-1.000000000000000e+00 2.000000000000000e+00 1.000000000000000e-01
-1.500000000000000e+00 1.000000000000000e+00 5.000000000000003e-02
-1.500000000000000e+00 1.000000000000000e+00 0.000000000000000e+00
-1.500000000000000e+00 2.000000000000000e+00 0.000000000000000e+00
-1.500000000000000e+00 2.000000000000000e+00 5.000000000000000e-02
-1.000000000000000e+00 1.000000000000000e+00 5.000000000000001e-02
-1.000000000000000e+00 1.000000000000000e+00 0.000000000000000e+00
-1.000000000000000e+00 2.000000000000000e+00 -6.938893903907228e-18
-1.000000000000000e+00 2.000000000000000e+00 5.000000000000000e-02
-1.500000000000000e+00 1.000000000000000e+00 0.000000000000000e+00
-1.500000000000000e+00 1.000000000000000e+00 -5.000000000000002e-02
-1.500000000000000e+00 2.000000000000000e+00 -5.000000000000002e-02
-1.500000000000000e+00 2.000000000000000e+00 0.000000000000000e+00
-1.000000000000000e+00 1.000000000000000e+00 0.000000000000000e+00
-1.000000000000000e+00 1.000000000000000e+00 -5.000000000000002e-02
-1.000000000000000e+00 2.000000000000000e+00 -5.000000000000002e-02
-1.000000000000000e+00 2.000000000000000e+00 -6.938893903907228e-18
-1.500000000000000e+00 1.000000000000000e+00 -5.000000000000002e-02
-1.500000000000000e+00 1.000000000000000e+00 -1.000000000000000e-01
-1.500000000000000e+00 2.000000000000000e+00 -1.000000000000000e-01
-1.500000000000000e+00 2.000000000000000e+00 -5.000000000000002e-02
-1.000000000000000e+00 1.000000000000000e+00 -5.000000000000002e-02
-1.000000000000000e+00 1.000000000000000e+00 -1.000000000000000e-01
-1.000000000000000e+00 2.000000000000000e+00 -1.000000000000000e-01
-1.000000000000000e+00 2.000000000000000e+00 -5.000000000000002e-02
-1.000000000000000e+00 1.000000000000000e+00 1.000000000000000e-01
-1.000000000000000e+00 1.000000000000000e+00 5.000000000000001e-02
-1.000000000000000e+00 2.000000000000000e+00 5.000000000000000e-02
-1.000000000000000e+00 2.000000000000000e+00 1.000000000000000e-01
-5.000000000000000e-01 1.000000000000000e+00 1.000000000000000e-01
-5.000000000000001e-01 1.000000000000000e+00 5.000000000000000e-02
-5.000000000000000e-01 2.000000000000000e+00 5.000000000000001e-02
-5.000000000000000e-01 2.000000000000000e+00 1.000000000000000e-01
-1.000000000000000e+00 1.000000000000000e+00 5.000000000000001e-02
-1.000000000000000e+00 1.000000000000000e+00 0.000000000000000e+00
-1.000000000000000e+00 2.000000000000000e+00 -6.938893903907228e-18
-1.000000000000000e+00 2.000000000000000e+00 5.000000000000000e-02
-5.000000000000001e-01 1.000000000000000e+00 5.000000000000000e-02
-5.000000000000000e-01 1.000000000000000e+00 0.000000000000000e+00
-5.000000000000000e-01 2.000000000000000e+00 0.000000000000000e+00
-5.000000000000000e-01 2.000000000000000e+00 5.000000000000001e-02
-1.000000000000000e+00 1.000000000000000e+00 0.000000000000000e+00
-1.000000000000000e+00 1.000000000000000e+00 -5.000000000000002e-02
-1.000000000000000e+00 2.000000000000000e+00 -5.000000000000002e-02
-1.000000000000000e+00 2.000000000000000e+00 -6.938893903907228e-18
-5.000000000000000e-01 1.000000000000000e+00 0.000000000000000e+00
-5.000000000000000e-01 1.000000000000000e+00 -5.000000000000001e-02
-5.000000000000002e-01 2.000000000000000e+00 -5.000000000000002e-02
-5.000000000000000e-01 2.000000000000000e+00 0.000000000000000e+00
-1.000000000000000e+00 1.000000000000000e+00 -5.000000000000002e-02
-1.000000000000000e+00 1.000000000000000e+00 -1.000000000000000e-01
-1.000000000000000e+00 2.000000000000000e+00 -1.000000000000000e-01
-1.000000000000000e+00 2.000000000000000e+00 -5.000000000000002e-02
-5.000000000000000e-01 1.000000000000000e+00 -5.000000000000001e-02
-5.000000000000000e-01 1.000000000000000e+00 -1.000000000000000e-01
-5.000000000000000e-01 2.000000000000000e+00 -1.000000000000000e-01
-5.000000000000002e-01 2.000000000000000e+00 -5.000000000000002e-02
-5.000000000000000e-01 1.000000000000000e+00 1.000000000000000e-01
-5.000000000000001e-01 1.000000000000000e+00 5.000000000000000e-02
-5.000000000000000e-01 2.000000000000000e+00 5.000000000000001e-02
-5.000000000000000e-01 2.000000000000000e+00 1.000000000000000e-01
0.000000000000000e+00 1.000000000000000e+00 1.000000000000000e-01
0.000000000000000e+00 1.000000000000000e+00 4.999999999999999e-02
0.000000000000000e+00 2.000000000000000e+00 4.999999999999999e-02
0.000000000000000e+00 2.000000000000000e+00 1.000000000000000e-01
-5.000000000000001e-01 1.000000000000000e+00 5.000000000000000e-02
-5.000000000000000e-01 1.000000000000000e+00 0.000000000000000e+00
-5.000000000000000e-01 2.000000000000000e+00 0.000000000000000e+00
-5.000000000000000e-01 2.000000000000000e+00 5.000000000000001e-02
0.000000000000000e+00 1.000000000000000e+00 4.999999999999999e-02
0.000000000000000e+00 1.000000000000000e+00 0.000000000000000e+00
0.000000000000000e+00 2.000000000000000e+00 0.000000000000000e+00
0.000000000000000e+00 2.000000000000000e+00 4.999999999999999e-02
-5.000000000000000e-01 1.000000000000000e+00 0.000000000000000e+00
-5.000000000000000e-01 1.000000000000000e+00 -5.000000000000001e-02
-5.000000000000002e-01 2.000000000000000e+00 -5.000000000000002e-02
-5.000000000000000e-01 2.000000000000000e+00 0.000000000000000e+00
0.000000000000000e+00 1.000000000000000e+00 0.000000000000000e+00
0.000000000000000e+00 1.000000000000000e+00 -5.000000000000002e-02
0.000000000000000e+00 2.000000000000000e+00 -5.000000000000002e-02
0.000000000000000e+00 2.000000000000000e+00 0.000000000000000e+00
-5.000000000000000e-01 1.000000000000000e+00 -5.000000000000001e-02
-5.000000000000000e-01 1.000000000000000e+00 -1.000000000000000e-01
-5.000000000000000e-01 2.000000000000000e+00 -1.000000000000000e-01
-5.000000000000002e-01 2.000000000000000e+00 -5.000000000000002e-02
0.000000000000000e+00 1.000000000000000e+00 -5.000000000000002e-02
0.000000000000000e+00 1.000000000000000e+00 -1.000000000000000e-01
0.000000000000000e+00 2.000000000000000e+00 -1.000000000000000e-01
0.000000000000000e+00 2.000000000000000e+00 -5.000000000000002e-02
        </DataArray>
      </Points>

      <Cells>
        <DataArray type="Int32" Name="connectivity" format="ascii">
0 1 2 3 4 5 6 7 8 9 10 11 12 13 14 15 16 17 18 19 20 21 22 23 24 25 26 27 28 29 30 31 32 33 34 35 36 37 38 39 40 41 42 43 44 45 46 47 48 49 50 51 52 53 54 55 56 57 58 59 60 61 62 63 64 65 66 67 68 69 70 71 72 73 74 75 76 77 78 79 80 81 82 83 84 85 86 87 88 89 90 91 92 93 94 95 96 97 98 99 100 101 102 103 104 105 106 107 108 109 110 111 112 113 114 115 116 117 118 119 120 121 122 123 124 125 126 127 128 129 130 131 132 133 134 135 136 137 138 139 140 141 142 143 144 145 146 147 148 149 150 151 152 153 154 155 156 157 158 159 
        </DataArray>
        <DataArray type="Int32" Name="offsets" format="ascii">
8 16 24 32 40 48 56 64 72 80 88 96 104 112 120 128 136 144 152 160 
        </DataArray>
        <DataArray type="UInt8" Name="types" format="ascii">
12 12 12 12 12 12 12 12 12 12 12 12 12 12 12 12 12 12 12 12 
        </DataArray>
      </Cells>

  <PointData>
        <DataArray type="Float64" Name="displacement" NumberOfComponents="3" format="ascii">
0.000000000000000e+00 0.000000000000000e+00 0.000000000000000e+00
0.000000000000000e+00 0.000000000000000e+00 0.000000000000000e+00
0.000000000000000e+00 0.000000000000000e+00 0.000000000000000e+00
0.000000000000000e+00 0.000000000000000e+00 0.000000000000000e+00
-2.751006244315979e-02 -4.526693026961986e-17 5.695037813768466e-02
-1.573252537324583e-02 1.121787463304859e-16 5.810567949692852e-02
-1.573252537324573e-02 1.591195393860409e-16 5.810567949692817e-02
-2.751006244315962e-02 1.416389093825404e-16 5.695037813768431e-02
0.000000000000000e+00 0.000000000000000e+00 0.000000000000000e+00
0.000000000000000e+00 0.000000000000000e+00 0.000000000000000e+00
0.000000000000000e+00 0.000000000000000e+00 0.000000000000000e+00
0.000000000000000e+00 0.000000000000000e+00 0.000000000000000e+00
-1.573252537324583e-02 1.121787463304859e-16 5.810567949692852e-02
-4.035113008439385e-03 -3.621509561586235e-17 5.927855311634407e-02
-4.035113008439243e-03 -8.261573653025584e-17 5.927855311634371e-02
-1.573252537324573e-02 1.591195393860409e-16 5.810567949692817e-02
0.000000000000000e+00 0.000000000000000e+00 0.000000000000000e+00
0.000000000000000e+00 0.000000000000000e+00 0.000000000000000e+00
0.000000000000000e+00 0.000000000000000e+00 0.000000000000000e+00
0.000000000000000e+00 0.000000000000000e+00 0.000000000000000e+00
-4.035113008439385e-03 -3.621509561586235e-17 5.927855311634407e-02
7.642278078221121e-03 -5.432326110627851e-17 6.044813907896700e-02
7.642278078221510e-03 1.740217948379704e-16 6.044813907896662e-02
-4.035113008439243e-03 -8.261573653025584e-17 5.927855311634371e-02
0.000000000000000e+00 0.000000000000000e+00 0.000000000000000e+00
0.000000000000000e+00 0.000000000000000e+00 0.000000000000000e+00
0.000000000000000e+00 0.000000000000000e+00 0.000000000000000e+00
0.000000000000000e+00 0.000000000000000e+00 0.000000000000000e+00
7.642278078221121e-03 -5.432326110627851e-17 6.044813907896700e-02
1.933283689454300e-02 -5.621876430928479e-18 6.158359758776476e-02
1.933283689454324e-02 2.839475687954013e-17 6.158359758776438e-02
7.642278078221510e-03 1.740217948379704e-16 6.044813907896662e-02
-2.751006244315979e-02 -4.526693026961986e-17 5.695037813768466e-02
-1.573252537324583e-02 1.121787463304859e-16 5.810567949692852e-02
-1.573252537324573e-02 1.591195393860409e-16 5.810567949692817e-02
-2.751006244315962e-02 1.416389093825404e-16 5.695037813768431e-02
-7.527315415769945e-02 1.598783901928283e-16 2.157583711627859e-01
-5.399088786705787e-02 1.516954000121508e-16 2.203880804165811e-01
-5.399088786705741e-02 -2.511563881413318e-17 2.203880804165806e-01
-7.527315415769897e-02 2.398674175043506e-16 2.157583711627854e-01
-1.573252537324583e-02 1.121787463304859e-16 5.810567949692852e-02
-4.035113008439385e-03 -3.621509561586235e-17 5.927855311634407e-02
-4.035113008439243e-03 -8.261573653025584e-17 5.927855311634371e-02
-1.573252537324573e-02 1.591195393860409e-16 5.810567949692817e-02
-5.399088786705787e-02 1.516954000121508e-16 2.203880804165811e-01
-3.270713886097389e-02 8.204593097340319e-18 2.250316236445357e-01
-3.270713886097341e-02 7.181996798787044e-17 2.250316236445352e-01
-5.399088786705741e-02 -2.511563881413318e-17 2.203880804165806e-01
-4.035113008439385e-03 -3.621509561586235e-17 5.927855311634407e-02
7.642278078221121e-03 -5.432326110627851e-17 6.044813907896700e-02
7.642278078221510e-03 1.740217948379704e-16 6.044813907896662e-02
-4.035113008439243e-03 -8.261573653025584e-17 5.927855311634371e-02
-3.270713886097389e-02 8.204593097340319e-18 2.250316236445357e-01
-1.140344351723871e-02 -1.356434708184854e-16 2.296837176083727e-01
-1.140344351723869e-02 1.738700911864032e-16 2.296837176083722e-01
-3.270713886097341e-02 7.181996798787044e-17 2.250316236445352e-01
7.642278078221121e-03 -5.432326110627851e-17 6.044813907896700e-02
1.933283689454300e-02 -5.621876430928479e-18 6.158359758776476e-02
1.933283689454324e-02 2.839475687954013e-17 6.158359758776438e-02
7.642278078221510e-03 1.740217948379704e-16 6.044813907896662e-02
-1.140344351723871e-02 -1.356434708184854e-16 2.296837176083727e-01
9.983814292336140e-03 1.094262849341582e-16 2.343603712117961e-01
9.983814292336385e-03 -1.239764834813870e-16 2.343603712117956e-01
-1.140344351723869e-02 1.738700911864032e-16 2.296837176083722e-01
-7.527315415769945e-02 1.598783901928283e-16 2.157583711627859e-01
-5.399088786705787e-02 1.516954000121508e-16 2.203880804165811e-01
-5.399088786705741e-02 -2.511563881413318e-17 2.203880804165806e-01
-7.527315415769897e-02 2.398674175043506e-16 2.157583711627854e-01
-1.574565560063609e-01 -8.887147009568349e-17 4.576913666940566e-01
-1.287670683369519e-01 5.627680592242963e-17 4.666268775580406e-01
-1.287670683369513e-01 -1.046486168465399e-16 4.666268775580401e-01
-1.574565560063602e-01 1.433782154352223e-16 4.576913666940560e-01
-5.399088786705787e-02 1.516954000121508e-16 2.203880804165811e-01
-3.270713886097389e-02 8.204593097340319e-18 2.250316236445357e-01
-3.270713886097341e-02 7.181996798787044e-17 2.250316236445352e-01
-5.399088786705741e-02 -2.511563881413318e-17 2.203880804165806e-01
-1.287670683369519e-01 5.627680592242963e-17 4.666268775580406e-01
-1.001362110367043e-01 -8.277425015835252e-17 4.755392730860036e-01
-1.001362110367036e-01 5.959809785510896e-17 4.755392730860030e-01
-1.287670683369513e-01 -1.046486168465399e-16 4.666268775580401e-01
-3.270713886097389e-02 8.204593097340319e-18 2.250316236445357e-01
-1.140344351723871e-02 -1.356434708184854e-16 2.296837176083727e-01
-1.140344351723869e-02 1.738700911864032e-16 2.296837176083722e-01
-3.270713886097341e-02 7.181996798787044e-17 2.250316236445352e-01
-1.001362110367043e-01 -8.277425015835252e-17 4.755392730860036e-01
-7.151100485028211e-02 -6.262279070834982e-17 4.844497372097343e-01
-7.151100485028154e-02 -5.788330594822265e-17 4.844497372097337e-01
-1.001362110367036e-01 5.959809785510896e-17 4.755392730860030e-01
-1.140344351723871e-02 -1.356434708184854e-16 2.296837176083727e-01
9.983814292336140e-03 1.094262849341582e-16 2.343603712117961e-01
9.983814292336385e-03 -1.239764834813870e-16 2.343603712117956e-01
-1.140344351723869e-02 1.738700911864032e-16 2.296837176083722e-01
-7.151100485028211e-02 -6.262279070834982e-17 4.844497372097343e-01
-4.288698903982575e-02 -1.223302047966374e-16 4.933444293215393e-01
-4.288698903982505e-02 5.700260188746027e-17 4.933444293215387e-01
-7.151100485028154e-02 -5.788330594822265e-17 4.844497372097337e-01
-1.574565560063609e-01 -8.887147009568349e-17 4.576913666940566e-01
-1.287670683369519e-01 5.627680592242963e-17 4.666268775580406e-01
-1.287670683369513e-01 -1.046486168465399e-16 4.666268775580401e-01
-1.574565560063602e-01 1.433782154352223e-16 4.576913666940560e-01
-2.791539635192191e-01 1.199570602272283e-16 7.629588116185239e-01
-2.451277482421975e-01 -6.097999298777701e-17 7.762451942576295e-01
-2.451277482421969e-01 1.402651554097378e-16 7.762451942576289e-01
-2.791539635192185e-01 7.676125215599498e-17 7.629588116185232e-01
-1.287670683369519e-01 5.627680592242963e-17 4.666268775580406e-01
-1.001362110367043e-01 -8.277425015835252e-17 4.755392730860036e-01
-1.001362110367036e-01 5.959809785510896e-17 4.755392730860030e-01
-1.287670683369513e-01 -1.046486168465399e-16 4.666268775580401e-01
-2.451277482421975e-01 -6.097999298777701e-17 7.762451942576295e-01
-2.111032020792880e-01 -9.521773003233808e-17 7.895378333377233e-01
-2.111032020792876e-01 -2.577297861530642e-17 7.895378333377228e-01
-2.451277482421969e-01 1.402651554097378e-16 7.762451942576289e-01
-1.001362110367043e-01 -8.277425015835252e-17 4.755392730860036e-01
-7.151100485028211e-02 -6.262279070834982e-17 4.844497372097343e-01
-7.151100485028154e-02 -5.788330594822265e-17 4.844497372097337e-01
-1.001362110367036e-01 5.959809785510896e-17 4.755392730860030e-01
-2.111032020792880e-01 -9.521773003233808e-17 7.895378333377233e-01
-1.770766547691265e-01 -6.278025645625731e-17 8.028315834847471e-01
-1.770766547691257e-01 -3.984742369086759e-16 8.028315834847465e-01
-2.111032020792876e-01 -2.577297861530642e-17 7.895378333377228e-01
-7.151100485028211e-02 -6.262279070834982e-17 4.844497372097343e-01
-4.288698903982575e-02 -1.223302047966374e-16 4.933444293215393e-01
-4.288698903982505e-02 5.700260188746027e-17 4.933444293215387e-01
-7.151100485028154e-02 -5.788330594822265e-17 4.844497372097337e-01
-1.770766547691265e-01 -6.278025645625731e-17 8.028315834847471e-01
-1.429955999225229e-01 -3.361306719641510e-16 8.161656644759436e-01
-1.429955999225223e-01 4.599030779305347e-17 8.161656644759432e-01
-1.770766547691257e-01 -3.984742369086759e-16 8.028315834847465e-01
-2.791539635192191e-01 1.199570602272283e-16 7.629588116185239e-01
-2.451277482421975e-01 -6.097999298777701e-17 7.762451942576295e-01
-2.451277482421969e-01 1.402651554097378e-16 7.762451942576289e-01
-2.791539635192185e-01 7.676125215599498e-17 7.629588116185232e-01
-4.400379059348504e-01 -1.260499968237752e-18 1.115069033761965e+00
-4.021168808370886e-01 -3.177006197500903e-17 1.132423602745781e+00
-4.021168808370878e-01 8.065967031237874e-17 1.132423602745780e+00
-4.400379059348495e-01 -3.624767636256825e-17 1.115069033761965e+00
-2.451277482421975e-01 -6.097999298777701e-17 7.762451942576295e-01
-2.111032020792880e-01 -9.521773003233808e-17 7.895378333377233e-01
-2.111032020792876e-01 -2.577297861530642e-17 7.895378333377228e-01
-2.451277482421969e-01 1.402651554097378e-16 7.762451942576289e-01
-4.021168808370886e-01 -3.177006197500903e-17 1.132423602745781e+00
-3.642319892234557e-01 1.603747362006418e-17 1.149745384829074e+00
-3.642319892234548e-01 8.127745734678199e-18 1.149745384829073e+00
-4.021168808370878e-01 8.065967031237874e-17 1.132423602745780e+00
-2.111032020792880e-01 -9.521773003233808e-17 7.895378333377233e-01
-1.770766547691265e-01 -6.278025645625731e-17 8.028315834847471e-01
-1.770766547691257e-01 -3.984742369086759e-16 8.028315834847465e-01
-2.111032020792876e-01 -2.577297861530642e-17 7.895378333377228e-01
-3.642319892234557e-01 1.603747362006418e-17 1.149745384829074e+00
-3.263434835869357e-01 -1.997813870851420e-16 1.167072227456760e+00
-3.263434835869349e-01 -4.397653412714100e-18 1.167072227456759e+00
-3.642319892234548e-01 8.127745734678199e-18 1.149745384829073e+00
-1.770766547691265e-01 -6.278025645625731e-17 8.028315834847471e-01
-1.429955999225229e-01 -3.361306719641510e-16 8.161656644759436e-01
-1.429955999225223e-01 4.599030779305347e-17 8.161656644759432e-01
-1.770766547691257e-01 -3.984742369086759e-16 8.028315834847465e-01
-3.263434835869357e-01 -1.997813870851420e-16 1.167072227456760e+00
-2.884558774564612e-01 -1.731405521291555e-16 1.184391064886461e+00
-2.884558774564605e-01 -3.494971691268035e-16 1.184391064886460e+00
-3.263434835869349e-01 -4.397653412714100e-18 1.167072227456759e+00
        </DataArray>
        <DataArray type="Float64" Name="nodal_2PK_stresses_xyz" NumberOfComponents="6" format="ascii">
-4.706650837523527e-01 -5.067704658467315e-15 -4.668170022129825e-02 4.681833400832186e-16 8.075543400325968e-16 -1.780482294193887e-03
-2.426386108919013e-01 8.957394092990365e-16 -4.637503153721573e-02 -1.109513971059171e-15 1.927317133600298e-16 6.020992781655488e-03
-2.426386108918921e-01 -2.005962433924193e-15 -4.637503153722249e-02 1.076912312984247e-15 -1.567319643339609e-16 6.020992781650492e-03
-4.706650837523771e-01 2.589630459771173e-15 -4.668170022128080e-02 -6.812660511695902e-16 -1.140573706554988e-16 -1.780482294211279e-03
-4.381212288799336e-01 -3.804831104073785e-16 8.620514738848228e-03 1.779790929318046e-15 -2.863958476966199e-14 4.441155644634469e-03
-2.260820932157755e-01 -3.227074271358736e-15 5.048943463046495e-03 -1.298244645001644e-15 -2.160570316260919e-15 4.913017564023159e-03
-2.260820932157670e-01 -1.535853013949177e-15 5.048943463049948e-03 -6.360096874592037e-16 -1.708250958979043e-15 4.913017564025737e-03
-4.381212288799677e-01 -3.505297475780670e-15 8.620514738800504e-03 7.985006287067148e-15 1.082931794078012e-14 4.441155644705453e-03
-2.426386108919013e-01 8.957394092990365e-16 -4.637503153721573e-02 -1.109513971059171e-15 1.927317133600298e-16 6.020992781655488e-03
-1.055757104175668e-02 -6.440703736145734e-17 -4.598908041237448e-02 -3.199432297928897e-15 3.664164344037321e-15 6.204128403016117e-03
-1.055757104175247e-02 1.932211120843717e-16 -4.598908041237384e-02 6.548730632339272e-16 2.581255882603326e-15 6.204128402995453e-03
-2.426386108918921e-01 -2.005962433924193e-15 -4.637503153722249e-02 1.076912312984247e-15 -1.567319643339609e-16 6.020992781650492e-03
-2.260820932157755e-01 -3.227074271358736e-15 5.048943463046495e-03 -1.298244645001644e-15 -2.160570316260919e-15 4.913017564023159e-03
-9.211336980565298e-03 -7.954818481105240e-16 1.299234617551277e-03 2.147854767307388e-15 9.328470406708008e-15 6.369564415406916e-03
-9.211336980556543e-03 6.938893903907228e-16 1.299234617552811e-03 2.950992624019085e-15 -9.069773223076995e-15 6.369564415401360e-03
-2.260820932157670e-01 -1.535853013949177e-15 5.048943463049948e-03 -6.360096874592037e-16 -1.708250958979043e-15 4.913017564025737e-03
-1.055757104175668e-02 -6.440703736145734e-17 -4.598908041237448e-02 -3.199432297928897e-15 3.664164344037321e-15 6.204128403016117e-03
2.266337205021648e-01 -2.442223674869087e-15 -4.594797089630430e-02 5.841948619328358e-15 1.263560470474432e-15 4.289871699700422e-03
2.266337205021705e-01 -3.644075353858816e-15 -4.594797089632215e-02 -2.597317490925494e-15 -2.154805657845213e-15 4.289871699762596e-03
-1.055757104175247e-02 1.932211120843717e-16 -4.598908041237384e-02 6.548730632339272e-16 2.581255882603326e-15 6.204128402995453e-03
-9.211336980565298e-03 -7.954818481105240e-16 1.299234617551277e-03 2.147854767307388e-15 9.328470406708008e-15 6.369564415406916e-03
2.127177167844801e-01 -9.621487914574261e-16 4.596090313283049e-03 -1.864563333490519e-15 5.873605971364942e-16 4.831075446586534e-03
2.127177167844744e-01 -1.852596535260750e-16 4.596090313298185e-03 1.166152949855283e-15 -6.400802916404544e-15 4.831075446547966e-03
-9.211336980556543e-03 6.938893903907228e-16 1.299234617552811e-03 2.950992624019085e-15 -9.069773223076995e-15 6.369564415401360e-03
2.266337205021648e-01 -2.442223674869087e-15 -4.594797089630430e-02 5.841948619328358e-15 1.263560470474432e-15 4.289871699700422e-03
4.695228379374749e-01 -1.107553231562580e-15 -4.598614382102195e-02 1.999511357589373e-15 -8.293029244770227e-15 9.832856995361867e-03
4.695228379375542e-01 3.476740962246271e-15 -4.598614382100519e-02 -5.650579140291168e-15 4.590476470027488e-15 9.832856995298071e-03
2.266337205021705e-01 -3.644075353858816e-15 -4.594797089632215e-02 -2.597317490925494e-15 -2.154805657845213e-15 4.289871699762596e-03
2.127177167844801e-01 -9.621487914574261e-16 4.596090313283049e-03 -1.864563333490519e-15 5.873605971364942e-16 4.831075446586534e-03
4.404857601653900e-01 6.574193389274567e-17 8.071083578739979e-03 1.845476332554102e-15 5.215992696871877e-15 2.553672693034401e-03
4.404857601653858e-01 -6.208534462053225e-16 8.071083578757994e-03 -1.224510718099813e-15 -1.368925117580914e-14 2.553672693033270e-03
2.127177167844744e-01 -1.852596535260750e-16 4.596090313298185e-03 1.166152949855283e-15 -6.400802916404544e-15 4.831075446547966e-03
-4.381212288799336e-01 -3.804831104073785e-16 8.620514738848228e-03 1.779790929318046e-15 -2.863958476966199e-14 4.441155644634469e-03
-2.260820932157755e-01 -3.227074271358736e-15 5.048943463046495e-03 -1.298244645001644e-15 -2.160570316260919e-15 4.913017564023159e-03
-2.260820932157670e-01 -1.535853013949177e-15 5.048943463049948e-03 -6.360096874592037e-16 -1.708250958979043e-15 4.913017564025737e-03
-4.381212288799677e-01 -3.505297475780670e-15 8.620514738800504e-03 7.985006287067148e-15 1.082931794078012e-14 4.441155644705453e-03
-3.718881915889715e-01 -4.893076256562114e-15 -6.506758917713789e-03 -3.902557456404689e-15 -3.389904293442622e-15 3.284867586538843e-03
-1.903957102656388e-01 -9.106851143318815e-16 -7.726111621865644e-03 1.112002731929978e-15 8.211737410529435e-15 4.390696909640441e-03
-1.903957102656302e-01 -2.464463390194586e-15 -7.726111621862392e-03 5.382617159166946e-16 3.231525601369175e-14 4.390696909634172e-03
-3.718881915889679e-01 6.112185749199725e-15 -6.506758917700261e-03 -1.789021291765949e-15 5.178351975912931e-14 3.284867586502980e-03
-2.260820932157755e-01 -3.227074271358736e-15 5.048943463046495e-03 -1.298244645001644e-15 -2.160570316260919e-15 4.913017564023159e-03
-9.211336980565298e-03 -7.954818481105240e-16 1.299234617551277e-03 2.147854767307388e-15 9.328470406708008e-15 6.369564415406916e-03
-9.211336980556543e-03 6.938893903907228e-16 1.299234617552811e-03 2.950992624019085e-15 -9.069773223076995e-15 6.369564415401360e-03
-2.260820932157670e-01 -1.535853013949177e-15 5.048943463049948e-03 -6.360096874592037e-16 -1.708250958979043e-15 4.913017564025737e-03
-1.903957102656388e-01 -9.106851143318815e-16 -7.726111621865644e-03 1.112002731929978e-15 8.211737410529435e-15 4.390696909640441e-03
-5.335602300033874e-03 -7.260929090714522e-16 -8.903701088545117e-03 -1.421123951463397e-15 6.869676103107206e-15 6.277946424028496e-03
-5.335602300040168e-03 -3.176945490764480e-15 -8.903701088553593e-03 -7.276678545999148e-17 7.344861744911469e-15 6.277946424052517e-03
-1.903957102656302e-01 -2.464463390194586e-15 -7.726111621862392e-03 5.382617159166946e-16 3.231525601369175e-14 4.390696909634172e-03
-9.211336980565298e-03 -7.954818481105240e-16 1.299234617551277e-03 2.147854767307388e-15 9.328470406708008e-15 6.369564415406916e-03
2.127177167844801e-01 -9.621487914574261e-16 4.596090313283049e-03 -1.864563333490519e-15 5.873605971364942e-16 4.831075446586534e-03
2.127177167844744e-01 -1.852596535260750e-16 4.596090313298185e-03 1.166152949855283e-15 -6.400802916404544e-15 4.831075446547966e-03
-9.211336980556543e-03 6.938893903907228e-16 1.299234617552811e-03 2.950992624019085e-15 -9.069773223076995e-15 6.369564415401360e-03
-5.335602300033874e-03 -7.260929090714522e-16 -8.903701088545117e-03 -1.421123951463397e-15 6.869676103107206e-15 6.277946424028496e-03
1.833934293050216e-01 3.465132498541644e-15 -7.537822835345682e-03 -2.274027749132926e-15 -5.252005085520507e-17 4.682821736757214e-03
1.833934293050162e-01 1.937240943150765e-15 -7.537822835385026e-03 -1.645001606318337e-15 9.681503772381895e-15 4.682821736799656e-03
-5.335602300040168e-03 -3.176945490764480e-15 -8.903701088553593e-03 -7.276678545999148e-17 7.344861744911469e-15 6.277946424052517e-03
2.127177167844801e-01 -9.621487914574261e-16 4.596090313283049e-03 -1.864563333490519e-15 5.873605971364942e-16 4.831075446586534e-03
4.404857601653900e-01 6.574193389274567e-17 8.071083578739979e-03 1.845476332554102e-15 5.215992696871877e-15 2.553672693034401e-03
4.404857601653858e-01 -6.208534462053225e-16 8.071083578757994e-03 -1.224510718099813e-15 -1.368925117580914e-14 2.553672693033270e-03
2.127177167844744e-01 -1.852596535260750e-16 4.596090313298185e-03 1.166152949855283e-15 -6.400802916404544e-15 4.831075446547966e-03
1.833934293050216e-01 3.465132498541644e-15 -7.537822835345682e-03 -2.274027749132926e-15 -5.252005085520507e-17 4.682821736757214e-03
3.755800123494228e-01 -2.349260123973229e-15 -6.213707819666552e-03 -4.993119083845409e-15 5.033982367062449e-15 2.002080537136909e-03
3.755800123494259e-01 -8.564373227424041e-15 -6.213707819672735e-03 -1.729725012373429e-15 1.651881172889636e-14 2.002080537137146e-03
1.833934293050162e-01 1.937240943150765e-15 -7.537822835385026e-03 -1.645001606318337e-15 9.681503772381895e-15 4.682821736799656e-03
-3.718881915889715e-01 -4.893076256562114e-15 -6.506758917713789e-03 -3.902557456404689e-15 -3.389904293442622e-15 3.284867586538843e-03
-1.903957102656388e-01 -9.106851143318815e-16 -7.726111621865644e-03 1.112002731929978e-15 8.211737410529435e-15 4.390696909640441e-03
-1.903957102656302e-01 -2.464463390194586e-15 -7.726111621862392e-03 5.382617159166946e-16 3.231525601369175e-14 4.390696909634172e-03
-3.718881915889679e-01 6.112185749199725e-15 -6.506758917700261e-03 -1.789021291765949e-15 5.178351975912931e-14 3.284867586502980e-03
-3.061678783644132e-01 2.838629702393061e-15 -1.378325666697104e-03 -2.433868140970815e-15 -1.805322490803117e-14 3.293420550706168e-03
-1.552863638758447e-01 -3.884445689656764e-16 -2.812057949691915e-03 2.929187049046273e-15 -7.099975907955368e-16 4.126490932409297e-03
-1.552863638758497e-01 1.009250094541570e-16 -2.812057949695010e-03 -3.612651132782917e-15 -1.185871545855155e-14 4.126490932398600e-03
-3.061678783644087e-01 2.469445291872200e-15 -1.378325666687352e-03 -1.483600146145933e-15 -1.516122055289153e-14 3.293420550695541e-03
-1.903957102656388e-01 -9.106851143318815e-16 -7.726111621865644e-03 1.112002731929978e-15 8.211737410529435e-15 4.390696909640441e-03
-5.335602300033874e-03 -7.260929090714522e-16 -8.903701088545117e-03 -1.421123951463397e-15 6.869676103107206e-15 6.277946424028496e-03
-5.335602300040168e-03 -3.176945490764480e-15 -8.903701088553593e-03 -7.276678545999148e-17 7.344861744911469e-15 6.277946424052517e-03
-1.903957102656302e-01 -2.464463390194586e-15 -7.726111621862392e-03 5.382617159166946e-16 3.231525601369175e-14 4.390696909634172e-03
-1.552863638758447e-01 -3.884445689656764e-16 -2.812057949691915e-03 2.929187049046273e-15 -7.099975907955368e-16 4.126490932409297e-03
-2.065826933728200e-03 5.909620361396325e-16 -4.381000685213179e-03 -2.707619091645239e-18 1.279809580258738e-14 5.627856375515061e-03
-2.065826933728507e-03 -8.685177922959216e-16 -4.381000685253014e-03 1.853127760872350e-15 -1.653247880588486e-14 5.627856375547564e-03
-1.552863638758497e-01 1.009250094541570e-16 -2.812057949695010e-03 -3.612651132782917e-15 -1.185871545855155e-14 4.126490932398600e-03
-5.335602300033874e-03 -7.260929090714522e-16 -8.903701088545117e-03 -1.421123951463397e-15 6.869676103107206e-15 6.277946424028496e-03
1.833934293050216e-01 3.465132498541644e-15 -7.537822835345682e-03 -2.274027749132926e-15 -5.252005085520507e-17 4.682821736757214e-03
1.833934293050162e-01 1.937240943150765e-15 -7.537822835385026e-03 -1.645001606318337e-15 9.681503772381895e-15 4.682821736799656e-03
-5.335602300040168e-03 -3.176945490764480e-15 -8.903701088553593e-03 -7.276678545999148e-17 7.344861744911469e-15 6.277946424052517e-03
-2.065826933728200e-03 5.909620361396325e-16 -4.381000685213179e-03 -2.707619091645239e-18 1.279809580258738e-14 5.627856375515061e-03
1.533655757767819e-01 2.168982372124769e-15 -3.248318192146217e-03 5.172943016352077e-16 -3.803830838140140e-15 4.027775559903226e-03
1.533655757767835e-01 3.491019219013469e-15 -3.248318192116978e-03 -4.025164974808088e-15 -7.155524668802530e-15 4.027775559899771e-03
-2.065826933728507e-03 -8.685177922959216e-16 -4.381000685253014e-03 1.853127760872350e-15 -1.653247880588486e-14 5.627856375547564e-03
1.833934293050216e-01 3.465132498541644e-15 -7.537822835345682e-03 -2.274027749132926e-15 -5.252005085520507e-17 4.682821736757214e-03
3.755800123494228e-01 -2.349260123973229e-15 -6.213707819666552e-03 -4.993119083845409e-15 5.033982367062449e-15 2.002080537136909e-03
3.755800123494259e-01 -8.564373227424041e-15 -6.213707819672735e-03 -1.729725012373429e-15 1.651881172889636e-14 2.002080537137146e-03
1.833934293050162e-01 1.937240943150765e-15 -7.537822835385026e-03 -1.645001606318337e-15 9.681503772381895e-15 4.682821736799656e-03
1.533655757767819e-01 2.168982372124769e-15 -3.248318192146217e-03 5.172943016352077e-16 -3.803830838140140e-15 4.027775559903226e-03
3.110399216395046e-01 7.941469515792347e-16 -1.980425246498997e-03 1.136687816634298e-15 -1.830637793265528e-14 1.996745220912922e-03
3.110399216395042e-01 2.665336197019149e-15 -1.980425246477181e-03 -2.512383682152110e-16 1.479406129096247e-14 1.996745220889505e-03
1.533655757767835e-01 3.491019219013469e-15 -3.248318192116978e-03 -4.025164974808088e-15 -7.155524668802530e-15 4.027775559899771e-03
-3.061678783644132e-01 2.838629702393061e-15 -1.378325666697104e-03 -2.433868140970815e-15 -1.805322490803117e-14 3.293420550706168e-03
-1.552863638758447e-01 -3.884445689656764e-16 -2.812057949691915e-03 2.929187049046273e-15 -7.099975907955368e-16 4.126490932409297e-03
-1.552863638758497e-01 1.009250094541570e-16 -2.812057949695010e-03 -3.612651132782917e-15 -1.185871545855155e-14 4.126490932398600e-03
-3.061678783644087e-01 2.469445291872200e-15 -1.378325666687352e-03 -1.483600146145933e-15 -1.516122055289153e-14 3.293420550695541e-03
-2.473081494239829e-01 -9.070381091855547e-16 -1.842353471993009e-03 -7.368054853421639e-16 3.693529847979404e-14 2.592355519420027e-03
-1.245106830218181e-01 5.365188021334069e-16 -2.438978894968878e-03 8.990303538641323e-16 2.074806014736608e-14 3.617913324885416e-03
-1.245106830218074e-01 2.266260376432598e-15 -2.438978894993366e-03 -9.266199434264949e-16 -1.357312629422244e-14 3.617913324892736e-03
-2.473081494240000e-01 -1.516592855504360e-15 -1.842353472022266e-03 9.333377859431833e-16 -9.713125630689592e-15 2.592355519414470e-03
-1.552863638758447e-01 -3.884445689656764e-16 -2.812057949691915e-03 2.929187049046273e-15 -7.099975907955368e-16 4.126490932409297e-03
-2.065826933728200e-03 5.909620361396325e-16 -4.381000685213179e-03 -2.707619091645239e-18 1.279809580258738e-14 5.627856375515061e-03
-2.065826933728507e-03 -8.685177922959216e-16 -4.381000685253014e-03 1.853127760872350e-15 -1.653247880588486e-14 5.627856375547564e-03
-1.552863638758497e-01 1.009250094541570e-16 -2.812057949695010e-03 -3.612651132782917e-15 -1.185871545855155e-14 4.126490932398600e-03
-1.245106830218181e-01 5.365188021334069e-16 -2.438978894968878e-03 8.990303538641323e-16 2.074806014736608e-14 3.617913324885416e-03
-2.352217985418059e-05 1.064408697442871e-15 -2.993788653293790e-03 -1.550472350445976e-15 1.560025847514854e-15 5.056258727666275e-03
-2.352217984948578e-05 -1.626814220048103e-15 -2.993788653286131e-03 -1.518107525145848e-15 1.679527913418633e-14 5.056258727663339e-03
-1.245106830218074e-01 2.266260376432598e-15 -2.438978894993366e-03 -9.266199434264949e-16 -1.357312629422244e-14 3.617913324892736e-03
-2.065826933728200e-03 5.909620361396325e-16 -4.381000685213179e-03 -2.707619091645239e-18 1.279809580258738e-14 5.627856375515061e-03
1.533655757767819e-01 2.168982372124769e-15 -3.248318192146217e-03 5.172943016352077e-16 -3.803830838140140e-15 4.027775559903226e-03
1.533655757767835e-01 3.491019219013469e-15 -3.248318192116978e-03 -4.025164974808088e-15 -7.155524668802530e-15 4.027775559899771e-03
-2.065826933728507e-03 -8.685177922959216e-16 -4.381000685253014e-03 1.853127760872350e-15 -1.653247880588486e-14 5.627856375547564e-03
-2.352217985418059e-05 1.064408697442871e-15 -2.993788653293790e-03 -1.550472350445976e-15 1.560025847514854e-15 5.056258727666275e-03
1.261717533304337e-01 -3.023889355919135e-15 -2.222700711593095e-03 9.372305405259848e-16 -3.700729939303705e-15 3.776307502801775e-03
1.261717533304336e-01 -4.528516063271333e-16 -2.222700711601649e-03 1.433997697446887e-15 8.199465911939663e-15 3.776307502799671e-03
-2.352217984948578e-05 -1.626814220048103e-15 -2.993788653286131e-03 -1.518107525145848e-15 1.679527913418633e-14 5.056258727663339e-03
1.533655757767819e-01 2.168982372124769e-15 -3.248318192146217e-03 5.172943016352077e-16 -3.803830838140140e-15 4.027775559903226e-03
3.110399216395046e-01 7.941469515792347e-16 -1.980425246498997e-03 1.136687816634298e-15 -1.830637793265528e-14 1.996745220912922e-03
3.110399216395042e-01 2.665336197019149e-15 -1.980425246477181e-03 -2.512383682152110e-16 1.479406129096247e-14 1.996745220889505e-03
1.533655757767835e-01 3.491019219013469e-15 -3.248318192116978e-03 -4.025164974808088e-15 -7.155524668802530e-15 4.027775559899771e-03
1.261717533304337e-01 -3.023889355919135e-15 -2.222700711593095e-03 9.372305405259848e-16 -3.700729939303705e-15 3.776307502801775e-03
2.540172400971014e-01 8.637409171609443e-15 -1.493428434560082e-03 3.146079113394543e-15 2.228453705715973e-15 1.915403851286395e-03
2.540172400971000e-01 2.756964851383719e-15 -1.493428434608868e-03 -9.073987912942110e-15 -6.073537533548109e-14 1.915403851296981e-03
1.261717533304336e-01 -4.528516063271333e-16 -2.222700711601649e-03 1.433997697446887e-15 8.199465911939663e-15 3.776307502799671e-03
-2.473081494239829e-01 -9.070381091855547e-16 -1.842353471993009e-03 -7.368054853421639e-16 3.693529847979404e-14 2.592355519420027e-03
-1.245106830218181e-01 5.365188021334069e-16 -2.438978894968878e-03 8.990303538641323e-16 2.074806014736608e-14 3.617913324885416e-03
-1.245106830218074e-01 2.266260376432598e-15 -2.438978894993366e-03 -9.266199434264949e-16 -1.357312629422244e-14 3.617913324892736e-03
-2.473081494240000e-01 -1.516592855504360e-15 -1.842353472022266e-03 9.333377859431833e-16 -9.713125630689592e-15 2.592355519414470e-03
-1.950175267821858e-01 -2.968778673647263e-15 -9.201354853554504e-04 -2.355569099745610e-15 -1.621800819941325e-14 2.409050473827589e-03
-9.712721250840628e-02 6.059077411724789e-16 -1.504775900653616e-03 3.034175172767189e-15 -3.747667647222017e-15 3.287890682324966e-03
-9.712721250840750e-02 1.151055450129827e-15 -1.504775900670551e-03 9.453013683942779e-16 -5.255338343826332e-15 3.287890682325885e-03
-1.950175267821897e-01 6.195185496740353e-16 -9.201354853982130e-04 3.996557929018224e-15 9.912081774715766e-15 2.409050473801441e-03
-1.245106830218181e-01 5.365188021334069e-16 -2.438978894968878e-03 8.990303538641323e-16 2.074806014736608e-14 3.617913324885416e-03
-2.352217985418059e-05 1.064408697442871e-15 -2.993788653293790e-03 -1.550472350445976e-15 1.560025847514854e-15 5.056258727666275e-03
-2.352217984948578e-05 -1.626814220048103e-15 -2.993788653286131e-03 -1.518107525145848e-15 1.679527913418633e-14 5.056258727663339e-03
-1.245106830218074e-01 2.266260376432598e-15 -2.438978894993366e-03 -9.266199434264949e-16 -1.357312629422244e-14 3.617913324892736e-03
-9.712721250840628e-02 6.059077411724789e-16 -1.504775900653616e-03 3.034175172767189e-15 -3.747667647222017e-15 3.287890682324966e-03
1.745424206834766e-03 8.462780769704246e-16 -2.140119037701295e-03 1.138916231557421e-15 1.668919426239966e-14 4.514093055833441e-03
1.745424206831309e-03 8.635358906183074e-16 -2.140119037681601e-03 -7.190390782470938e-16 -2.064932169870527e-14 4.514093055848446e-03
-9.712721250840750e-02 1.151055450129827e-15 -1.504775900670551e-03 9.453013683942779e-16 -5.255338343826332e-15 3.287890682325885e-03
-2.352217985418059e-05 1.064408697442871e-15 -2.993788653293790e-03 -1.550472350445976e-15 1.560025847514854e-15 5.056258727666275e-03
1.261717533304337e-01 -3.023889355919135e-15 -2.222700711593095e-03 9.372305405259848e-16 -3.700729939303705e-15 3.776307502801775e-03
1.261717533304336e-01 -4.528516063271333e-16 -2.222700711601649e-03 1.433997697446887e-15 8.199465911939663e-15 3.776307502799671e-03
-2.352217984948578e-05 -1.626814220048103e-15 -2.993788653286131e-03 -1.518107525145848e-15 1.679527913418633e-14 5.056258727663339e-03
1.745424206834766e-03 8.462780769704246e-16 -2.140119037701295e-03 1.138916231557421e-15 1.668919426239966e-14 4.514093055833441e-03
1.015232494902076e-01 2.058761007581026e-15 -1.710770988611161e-03 2.754838484708796e-15 9.339337094185575e-15 3.242323814906827e-03
1.015232494902095e-01 1.271694143735197e-16 -1.710770988640660e-03 -3.025072798363801e-15 2.104556276271073e-14 3.242323814895255e-03
1.745424206831309e-03 8.635358906183074e-16 -2.140119037681601e-03 -7.190390782470938e-16 -2.064932169870527e-14 4.514093055848446e-03
1.261717533304337e-01 -3.023889355919135e-15 -2.222700711593095e-03 9.372305405259848e-16 -3.700729939303705e-15 3.776307502801775e-03
2.540172400971014e-01 8.637409171609443e-15 -1.493428434560082e-03 3.146079113394543e-15 2.228453705715973e-15 1.915403851286395e-03
2.540172400971000e-01 2.756964851383719e-15 -1.493428434608868e-03 -9.073987912942110e-15 -6.073537533548109e-14 1.915403851296981e-03
1.261717533304336e-01 -4.528516063271333e-16 -2.222700711601649e-03 1.433997697446887e-15 8.199465911939663e-15 3.776307502799671e-03
1.015232494902076e-01 2.058761007581026e-15 -1.710770988611161e-03 2.754838484708796e-15 9.339337094185575e-15 3.242323814906827e-03
2.021486695210218e-01 1.034517287377181e-15 -1.230720217776936e-03 1.527001789698437e-15 -7.629130075916735e-15 1.740117355743244e-03
2.021486695210247e-01 -6.480750632084375e-16 -1.230720217832876e-03 -3.067505980025466e-15 5.996781180828461e-14 1.740117355721750e-03
1.015232494902095e-01 1.271694143735197e-16 -1.710770988640660e-03 -3.025072798363801e-15 2.104556276271073e-14 3.242323814895255e-03
        </DataArray>
        <DataArray type="Float64" Name="nodal_GL_strains_xyz" NumberOfComponents="6" format="ascii">
-4.706650837523527e-02 -5.067704658467316e-16 -4.668170022129827e-03 4.681833400832185e-17 8.075543400325963e-17 -1.780482294193886e-04
-2.426386108919012e-02 8.957394092990366e-17 -4.637503153721573e-03 -1.109513971059171e-16 1.927317133600286e-17 6.020992781655489e-04
-2.426386108918922e-02 -2.005962433924193e-16 -4.637503153722248e-03 1.076912312984247e-16 -1.567319643339611e-17 6.020992781650490e-04
-4.706650837523773e-02 2.589630459771173e-16 -4.668170022128079e-03 -6.812660511695899e-17 -1.140573706554997e-17 -1.780482294211279e-04
-4.381212288799337e-02 -3.804831104073784e-17 8.620514738848229e-04 1.779790929318047e-16 -2.863958476966198e-15 4.441155644634469e-04
-2.260820932157755e-02 -3.227074271358736e-16 5.048943463046493e-04 -1.298244645001644e-16 -2.160570316260917e-16 4.913017564023162e-04
-2.260820932157670e-02 -1.535853013949176e-16 5.048943463049946e-04 -6.360096874592047e-17 -1.708250958979045e-16 4.913017564025736e-04
-4.381212288799675e-02 -3.505297475780670e-16 8.620514738800500e-04 7.985006287067148e-16 1.082931794078013e-15 4.441155644705454e-04
-2.426386108919012e-02 8.957394092990366e-17 -4.637503153721573e-03 -1.109513971059171e-16 1.927317133600286e-17 6.020992781655489e-04
-1.055757104175668e-03 -6.440703736145738e-18 -4.598908041237448e-03 -3.199432297928897e-16 3.664164344037319e-16 6.204128403016117e-04
-1.055757104175247e-03 1.932211120843717e-17 -4.598908041237383e-03 6.548730632339285e-17 2.581255882603325e-16 6.204128402995451e-04
-2.426386108918922e-02 -2.005962433924193e-16 -4.637503153722248e-03 1.076912312984247e-16 -1.567319643339611e-17 6.020992781650490e-04
-2.260820932157755e-02 -3.227074271358736e-16 5.048943463046493e-04 -1.298244645001644e-16 -2.160570316260917e-16 4.913017564023162e-04
-9.211336980565294e-04 -7.954818481105239e-17 1.299234617551277e-04 2.147854767307387e-16 9.328470406708005e-16 6.369564415406916e-04
-9.211336980556551e-04 6.938893903907227e-17 1.299234617552814e-04 2.950992624019084e-16 -9.069773223076997e-16 6.369564415401360e-04
-2.260820932157670e-02 -1.535853013949176e-16 5.048943463049946e-04 -6.360096874592047e-17 -1.708250958979045e-16 4.913017564025736e-04
-1.055757104175668e-03 -6.440703736145738e-18 -4.598908041237448e-03 -3.199432297928897e-16 3.664164344037319e-16 6.204128403016117e-04
2.266337205021648e-02 -2.442223674869087e-16 -4.594797089630429e-03 5.841948619328359e-16 1.263560470474432e-16 4.289871699700422e-04
2.266337205021705e-02 -3.644075353858816e-16 -4.594797089632216e-03 -2.597317490925494e-16 -2.154805657845211e-16 4.289871699762596e-04
-1.055757104175247e-03 1.932211120843717e-17 -4.598908041237383e-03 6.548730632339285e-17 2.581255882603325e-16 6.204128402995451e-04
-9.211336980565294e-04 -7.954818481105239e-17 1.299234617551277e-04 2.147854767307387e-16 9.328470406708005e-16 6.369564415406916e-04
2.127177167844801e-02 -9.621487914574260e-17 4.596090313283047e-04 -1.864563333490519e-16 5.873605971364943e-17 4.831075446586535e-04
2.127177167844745e-02 -1.852596535260748e-17 4.596090313298184e-04 1.166152949855283e-16 -6.400802916404545e-16 4.831075446547967e-04
-9.211336980556551e-04 6.938893903907227e-17 1.299234617552814e-04 2.950992624019084e-16 -9.069773223076997e-16 6.369564415401360e-04
2.266337205021648e-02 -2.442223674869087e-16 -4.594797089630429e-03 5.841948619328359e-16 1.263560470474432e-16 4.289871699700422e-04
4.695228379374749e-02 -1.107553231562580e-16 -4.598614382102195e-03 1.999511357589374e-16 -8.293029244770227e-16 9.832856995361865e-04
4.695228379375542e-02 3.476740962246271e-16 -4.598614382100520e-03 -5.650579140291168e-16 4.590476470027487e-16 9.832856995298071e-04
2.266337205021705e-02 -3.644075353858816e-16 -4.594797089632216e-03 -2.597317490925494e-16 -2.154805657845211e-16 4.289871699762596e-04
2.127177167844801e-02 -9.621487914574260e-17 4.596090313283047e-04 -1.864563333490519e-16 5.873605971364943e-17 4.831075446586535e-04
4.404857601653901e-02 6.574193389274577e-18 8.071083578739979e-04 1.845476332554103e-16 5.215992696871878e-16 2.553672693034403e-04
4.404857601653856e-02 -6.208534462053223e-17 8.071083578757993e-04 -1.224510718099813e-16 -1.368925117580914e-15 2.553672693033269e-04
2.127177167844745e-02 -1.852596535260748e-17 4.596090313298184e-04 1.166152949855283e-16 -6.400802916404545e-16 4.831075446547967e-04
-4.381212288799337e-02 -3.804831104073784e-17 8.620514738848229e-04 1.779790929318047e-16 -2.863958476966198e-15 4.441155644634469e-04
-2.260820932157755e-02 -3.227074271358736e-16 5.048943463046493e-04 -1.298244645001644e-16 -2.160570316260917e-16 4.913017564023162e-04
-2.260820932157670e-02 -1.535853013949176e-16 5.048943463049946e-04 -6.360096874592047e-17 -1.708250958979045e-16 4.913017564025736e-04
-4.381212288799675e-02 -3.505297475780670e-16 8.620514738800500e-04 7.985006287067148e-16 1.082931794078013e-15 4.441155644705454e-04
-3.718881915889716e-02 -4.893076256562114e-16 -6.506758917713789e-04 -3.902557456404689e-16 -3.389904293442622e-16 3.284867586538844e-04
-1.903957102656388e-02 -9.106851143318814e-17 -7.726111621865644e-04 1.112002731929978e-16 8.211737410529435e-16 4.390696909640441e-04
-1.903957102656301e-02 -2.464463390194586e-16 -7.726111621862394e-04 5.382617159166944e-17 3.231525601369175e-15 4.390696909634173e-04
-3.718881915889680e-02 6.112185749199726e-16 -6.506758917700261e-04 -1.789021291765948e-16 5.178351975912930e-15 3.284867586502981e-04
-2.260820932157755e-02 -3.227074271358736e-16 5.048943463046493e-04 -1.298244645001644e-16 -2.160570316260917e-16 4.913017564023162e-04
-9.211336980565294e-04 -7.954818481105239e-17 1.299234617551277e-04 2.147854767307387e-16 9.328470406708005e-16 6.369564415406916e-04
-9.211336980556551e-04 6.938893903907227e-17 1.299234617552814e-04 2.950992624019084e-16 -9.069773223076997e-16 6.369564415401360e-04
-2.260820932157670e-02 -1.535853013949176e-16 5.048943463049946e-04 -6.360096874592047e-17 -1.708250958979045e-16 4.913017564025736e-04
-1.903957102656388e-02 -9.106851143318814e-17 -7.726111621865644e-04 1.112002731929978e-16 8.211737410529435e-16 4.390696909640441e-04
-5.335602300033886e-04 -7.260929090714519e-17 -8.903701088545117e-04 -1.421123951463397e-16 6.869676103107205e-16 6.277946424028497e-04
-5.335602300040175e-04 -3.176945490764480e-16 -8.903701088553594e-04 -7.276678545999138e-18 7.344861744911468e-16 6.277946424052515e-04
-1.903957102656301e-02 -2.464463390194586e-16 -7.726111621862394e-04 5.382617159166944e-17 3.231525601369175e-15 4.390696909634173e-04
-9.211336980565294e-04 -7.954818481105239e-17 1.299234617551277e-04 2.147854767307387e-16 9.328470406708005e-16 6.369564415406916e-04
2.127177167844801e-02 -9.621487914574260e-17 4.596090313283047e-04 -1.864563333490519e-16 5.873605971364943e-17 4.831075446586535e-04
2.127177167844745e-02 -1.852596535260748e-17 4.596090313298184e-04 1.166152949855283e-16 -6.400802916404545e-16 4.831075446547967e-04
-9.211336980556551e-04 6.938893903907227e-17 1.299234617552814e-04 2.950992624019084e-16 -9.069773223076997e-16 6.369564415401360e-04
-5.335602300033886e-04 -7.260929090714519e-17 -8.903701088545117e-04 -1.421123951463397e-16 6.869676103107205e-16 6.277946424028497e-04
1.833934293050216e-02 3.465132498541643e-16 -7.537822835345679e-04 -2.274027749132925e-16 -5.252005085520428e-18 4.682821736757215e-04
1.833934293050162e-02 1.937240943150764e-16 -7.537822835385027e-04 -1.645001606318337e-16 9.681503772381894e-16 4.682821736799657e-04
-5.335602300040175e-04 -3.176945490764480e-16 -8.903701088553594e-04 -7.276678545999138e-18 7.344861744911468e-16 6.277946424052515e-04
2.127177167844801e-02 -9.621487914574260e-17 4.596090313283047e-04 -1.864563333490519e-16 5.873605971364943e-17 4.831075446586535e-04
4.404857601653901e-02 6.574193389274577e-18 8.071083578739979e-04 1.845476332554103e-16 5.215992696871878e-16 2.553672693034403e-04
4.404857601653856e-02 -6.208534462053223e-17 8.071083578757993e-04 -1.224510718099813e-16 -1.368925117580914e-15 2.553672693033269e-04
2.127177167844745e-02 -1.852596535260748e-17 4.596090313298184e-04 1.166152949855283e-16 -6.400802916404545e-16 4.831075446547967e-04
1.833934293050216e-02 3.465132498541643e-16 -7.537822835345679e-04 -2.274027749132925e-16 -5.252005085520428e-18 4.682821736757215e-04
3.755800123494228e-02 -2.349260123973228e-16 -6.213707819666553e-04 -4.993119083845408e-16 5.033982367062451e-16 2.002080537136908e-04
3.755800123494259e-02 -8.564373227424044e-16 -6.213707819672735e-04 -1.729725012373428e-16 1.651881172889636e-15 2.002080537137147e-04
1.833934293050162e-02 1.937240943150764e-16 -7.537822835385027e-04 -1.645001606318337e-16 9.681503772381894e-16 4.682821736799657e-04
-3.718881915889716e-02 -4.893076256562114e-16 -6.506758917713789e-04 -3.902557456404689e-16 -3.389904293442622e-16 3.284867586538844e-04
-1.903957102656388e-02 -9.106851143318814e-17 -7.726111621865644e-04 1.112002731929978e-16 8.211737410529435e-16 4.390696909640441e-04
-1.903957102656301e-02 -2.464463390194586e-16 -7.726111621862394e-04 5.382617159166944e-17 3.231525601369175e-15 4.390696909634173e-04
-3.718881915889680e-02 6.112185749199726e-16 -6.506758917700261e-04 -1.789021291765948e-16 5.178351975912930e-15 3.284867586502981e-04
-3.061678783644130e-02 2.838629702393061e-16 -1.378325666697105e-04 -2.433868140970815e-16 -1.805322490803117e-15 3.293420550706169e-04
-1.552863638758447e-02 -3.884445689656762e-17 -2.812057949691914e-04 2.929187049046273e-16 -7.099975907955390e-17 4.126490932409296e-04
-1.552863638758497e-02 1.009250094541573e-17 -2.812057949695008e-04 -3.612651132782917e-16 -1.185871545855155e-15 4.126490932398600e-04
-3.061678783644087e-02 2.469445291872199e-16 -1.378325666687353e-04 -1.483600146145933e-16 -1.516122055289153e-15 3.293420550695541e-04
-1.903957102656388e-02 -9.106851143318814e-17 -7.726111621865644e-04 1.112002731929978e-16 8.211737410529435e-16 4.390696909640441e-04
-5.335602300033886e-04 -7.260929090714519e-17 -8.903701088545117e-04 -1.421123951463397e-16 6.869676103107205e-16 6.277946424028497e-04
-5.335602300040175e-04 -3.176945490764480e-16 -8.903701088553594e-04 -7.276678545999138e-18 7.344861744911468e-16 6.277946424052515e-04
-1.903957102656301e-02 -2.464463390194586e-16 -7.726111621862394e-04 5.382617159166944e-17 3.231525601369175e-15 4.390696909634173e-04
-1.552863638758447e-02 -3.884445689656762e-17 -2.812057949691914e-04 2.929187049046273e-16 -7.099975907955390e-17 4.126490932409296e-04
-2.065826933728194e-04 5.909620361396329e-17 -4.381000685213179e-04 -2.707619091645929e-19 1.279809580258738e-15 5.627856375515061e-04
-2.065826933728504e-04 -8.685177922959217e-17 -4.381000685253015e-04 1.853127760872350e-16 -1.653247880588486e-15 5.627856375547564e-04
-1.552863638758497e-02 1.009250094541573e-17 -2.812057949695008e-04 -3.612651132782917e-16 -1.185871545855155e-15 4.126490932398600e-04
-5.335602300033886e-04 -7.260929090714519e-17 -8.903701088545117e-04 -1.421123951463397e-16 6.869676103107205e-16 6.277946424028497e-04
1.833934293050216e-02 3.465132498541643e-16 -7.537822835345679e-04 -2.274027749132925e-16 -5.252005085520428e-18 4.682821736757215e-04
1.833934293050162e-02 1.937240943150764e-16 -7.537822835385027e-04 -1.645001606318337e-16 9.681503772381894e-16 4.682821736799657e-04
-5.335602300040175e-04 -3.176945490764480e-16 -8.903701088553594e-04 -7.276678545999138e-18 7.344861744911468e-16 6.277946424052515e-04
-2.065826933728194e-04 5.909620361396329e-17 -4.381000685213179e-04 -2.707619091645929e-19 1.279809580258738e-15 5.627856375515061e-04
1.533655757767819e-02 2.168982372124769e-16 -3.248318192146215e-04 5.172943016352074e-17 -3.803830838140140e-16 4.027775559903226e-04
1.533655757767835e-02 3.491019219013469e-16 -3.248318192116978e-04 -4.025164974808088e-16 -7.155524668802528e-16 4.027775559899770e-04
-2.065826933728504e-04 -8.685177922959217e-17 -4.381000685253015e-04 1.853127760872350e-16 -1.653247880588486e-15 5.627856375547564e-04
1.833934293050216e-02 3.465132498541643e-16 -7.537822835345679e-04 -2.274027749132925e-16 -5.252005085520428e-18 4.682821736757215e-04
3.755800123494228e-02 -2.349260123973228e-16 -6.213707819666553e-04 -4.993119083845408e-16 5.033982367062451e-16 2.002080537136908e-04
3.755800123494259e-02 -8.564373227424044e-16 -6.213707819672735e-04 -1.729725012373428e-16 1.651881172889636e-15 2.002080537137147e-04
1.833934293050162e-02 1.937240943150764e-16 -7.537822835385027e-04 -1.645001606318337e-16 9.681503772381894e-16 4.682821736799657e-04
1.533655757767819e-02 2.168982372124769e-16 -3.248318192146215e-04 5.172943016352074e-17 -3.803830838140140e-16 4.027775559903226e-04
3.110399216395046e-02 7.941469515792350e-17 -1.980425246498997e-04 1.136687816634298e-16 -1.830637793265528e-15 1.996745220912922e-04
3.110399216395043e-02 2.665336197019150e-16 -1.980425246477181e-04 -2.512383682152112e-17 1.479406129096247e-15 1.996745220889505e-04
1.533655757767835e-02 3.491019219013469e-16 -3.248318192116978e-04 -4.025164974808088e-16 -7.155524668802528e-16 4.027775559899770e-04
-3.061678783644130e-02 2.838629702393061e-16 -1.378325666697105e-04 -2.433868140970815e-16 -1.805322490803117e-15 3.293420550706169e-04
-1.552863638758447e-02 -3.884445689656762e-17 -2.812057949691914e-04 2.929187049046273e-16 -7.099975907955390e-17 4.126490932409296e-04
-1.552863638758497e-02 1.009250094541573e-17 -2.812057949695008e-04 -3.612651132782917e-16 -1.185871545855155e-15 4.126490932398600e-04
-3.061678783644087e-02 2.469445291872199e-16 -1.378325666687353e-04 -1.483600146145933e-16 -1.516122055289153e-15 3.293420550695541e-04
-2.473081494239828e-02 -9.070381091855548e-17 -1.842353471993009e-04 -7.368054853421636e-17 3.693529847979404e-15 2.592355519420029e-04
-1.245106830218181e-02 5.365188021334068e-17 -2.438978894968877e-04 8.990303538641330e-17 2.074806014736607e-15 3.617913324885416e-04
-1.245106830218074e-02 2.266260376432599e-16 -2.438978894993367e-04 -9.266199434264948e-17 -1.357312629422244e-15 3.617913324892736e-04
-2.473081494239999e-02 -1.516592855504360e-16 -1.842353472022266e-04 9.333377859431834e-17 -9.713125630689592e-16 2.592355519414471e-04
-1.552863638758447e-02 -3.884445689656762e-17 -2.812057949691914e-04 2.929187049046273e-16 -7.099975907955390e-17 4.126490932409296e-04
-2.065826933728194e-04 5.909620361396329e-17 -4.381000685213179e-04 -2.707619091645929e-19 1.279809580258738e-15 5.627856375515061e-04
-2.065826933728504e-04 -8.685177922959217e-17 -4.381000685253015e-04 1.853127760872350e-16 -1.653247880588486e-15 5.627856375547564e-04
-1.552863638758497e-02 1.009250094541573e-17 -2.812057949695008e-04 -3.612651132782917e-16 -1.185871545855155e-15 4.126490932398600e-04
-1.245106830218181e-02 5.365188021334068e-17 -2.438978894968877e-04 8.990303538641330e-17 2.074806014736607e-15 3.617913324885416e-04
-2.352217985418460e-06 1.064408697442871e-16 -2.993788653293789e-04 -1.550472350445975e-16 1.560025847514852e-16 5.056258727666275e-04
-2.352217984948242e-06 -1.626814220048103e-16 -2.993788653286131e-04 -1.518107525145849e-16 1.679527913418632e-15 5.056258727663339e-04
-1.245106830218074e-02 2.266260376432599e-16 -2.438978894993367e-04 -9.266199434264948e-17 -1.357312629422244e-15 3.617913324892736e-04
-2.065826933728194e-04 5.909620361396329e-17 -4.381000685213179e-04 -2.707619091645929e-19 1.279809580258738e-15 5.627856375515061e-04
1.533655757767819e-02 2.168982372124769e-16 -3.248318192146215e-04 5.172943016352074e-17 -3.803830838140140e-16 4.027775559903226e-04
1.533655757767835e-02 3.491019219013469e-16 -3.248318192116978e-04 -4.025164974808088e-16 -7.155524668802528e-16 4.027775559899770e-04
-2.065826933728504e-04 -8.685177922959217e-17 -4.381000685253015e-04 1.853127760872350e-16 -1.653247880588486e-15 5.627856375547564e-04
-2.352217985418460e-06 1.064408697442871e-16 -2.993788653293789e-04 -1.550472350445975e-16 1.560025847514852e-16 5.056258727666275e-04
1.261717533304337e-02 -3.023889355919135e-16 -2.222700711593096e-04 9.372305405259845e-17 -3.700729939303702e-16 3.776307502801777e-04
1.261717533304337e-02 -4.528516063271333e-17 -2.222700711601648e-04 1.433997697446887e-16 8.199465911939663e-16 3.776307502799671e-04
-2.352217984948242e-06 -1.626814220048103e-16 -2.993788653286131e-04 -1.518107525145849e-16 1.679527913418632e-15 5.056258727663339e-04
1.533655757767819e-02 2.168982372124769e-16 -3.248318192146215e-04 5.172943016352074e-17 -3.803830838140140e-16 4.027775559903226e-04
3.110399216395046e-02 7.941469515792350e-17 -1.980425246498997e-04 1.136687816634298e-16 -1.830637793265528e-15 1.996745220912922e-04
3.110399216395043e-02 2.665336197019150e-16 -1.980425246477181e-04 -2.512383682152112e-17 1.479406129096247e-15 1.996745220889505e-04
1.533655757767835e-02 3.491019219013469e-16 -3.248318192116978e-04 -4.025164974808088e-16 -7.155524668802528e-16 4.027775559899770e-04
1.261717533304337e-02 -3.023889355919135e-16 -2.222700711593096e-04 9.372305405259845e-17 -3.700729939303702e-16 3.776307502801777e-04
2.540172400971014e-02 8.637409171609442e-16 -1.493428434560081e-04 3.146079113394542e-16 2.228453705715972e-16 1.915403851286395e-04
2.540172400971000e-02 2.756964851383719e-16 -1.493428434608868e-04 -9.073987912942111e-16 -6.073537533548109e-15 1.915403851296980e-04
1.261717533304337e-02 -4.528516063271333e-17 -2.222700711601648e-04 1.433997697446887e-16 8.199465911939663e-16 3.776307502799671e-04
-2.473081494239828e-02 -9.070381091855548e-17 -1.842353471993009e-04 -7.368054853421636e-17 3.693529847979404e-15 2.592355519420029e-04
-1.245106830218181e-02 5.365188021334068e-17 -2.438978894968877e-04 8.990303538641330e-17 2.074806014736607e-15 3.617913324885416e-04
-1.245106830218074e-02 2.266260376432599e-16 -2.438978894993367e-04 -9.266199434264948e-17 -1.357312629422244e-15 3.617913324892736e-04
-2.473081494239999e-02 -1.516592855504360e-16 -1.842353472022266e-04 9.333377859431834e-17 -9.713125630689592e-16 2.592355519414471e-04
-1.950175267821858e-02 -2.968778673647263e-16 -9.201354853554498e-05 -2.355569099745611e-16 -1.621800819941325e-15 2.409050473827589e-04
-9.712721250840630e-03 6.059077411724789e-17 -1.504775900653615e-04 3.034175172767190e-16 -3.747667647222019e-16 3.287890682324967e-04
-9.712721250840750e-03 1.151055450129827e-16 -1.504775900670551e-04 9.453013683942768e-17 -5.255338343826333e-16 3.287890682325884e-04
-1.950175267821897e-02 6.195185496740352e-17 -9.201354853982130e-05 3.996557929018223e-16 9.912081774715767e-16 2.409050473801442e-04
-1.245106830218181e-02 5.365188021334068e-17 -2.438978894968877e-04 8.990303538641330e-17 2.074806014736607e-15 3.617913324885416e-04
-2.352217985418460e-06 1.064408697442871e-16 -2.993788653293789e-04 -1.550472350445975e-16 1.560025847514852e-16 5.056258727666275e-04
-2.352217984948242e-06 -1.626814220048103e-16 -2.993788653286131e-04 -1.518107525145849e-16 1.679527913418632e-15 5.056258727663339e-04
-1.245106830218074e-02 2.266260376432599e-16 -2.438978894993367e-04 -9.266199434264948e-17 -1.357312629422244e-15 3.617913324892736e-04
-9.712721250840630e-03 6.059077411724789e-17 -1.504775900653615e-04 3.034175172767190e-16 -3.747667647222019e-16 3.287890682324967e-04
1.745424206834768e-04 8.462780769704247e-17 -2.140119037701296e-04 1.138916231557421e-16 1.668919426239966e-15 4.514093055833439e-04
1.745424206831310e-04 8.635358906183076e-17 -2.140119037681600e-04 -7.190390782470943e-17 -2.064932169870526e-15 4.514093055848445e-04
-9.712721250840750e-03 1.151055450129827e-16 -1.504775900670551e-04 9.453013683942768e-17 -5.255338343826333e-16 3.287890682325884e-04
-2.352217985418460e-06 1.064408697442871e-16 -2.993788653293789e-04 -1.550472350445975e-16 1.560025847514852e-16 5.056258727666275e-04
1.261717533304337e-02 -3.023889355919135e-16 -2.222700711593096e-04 9.372305405259845e-17 -3.700729939303702e-16 3.776307502801777e-04
1.261717533304337e-02 -4.528516063271333e-17 -2.222700711601648e-04 1.433997697446887e-16 8.199465911939663e-16 3.776307502799671e-04
-2.352217984948242e-06 -1.626814220048103e-16 -2.993788653286131e-04 -1.518107525145849e-16 1.679527913418632e-15 5.056258727663339e-04
1.745424206834768e-04 8.462780769704247e-17 -2.140119037701296e-04 1.138916231557421e-16 1.668919426239966e-15 4.514093055833439e-04
1.015232494902076e-02 2.058761007581026e-16 -1.710770988611161e-04 2.754838484708796e-16 9.339337094185573e-16 3.242323814906826e-04
1.015232494902095e-02 1.271694143735195e-17 -1.710770988640661e-04 -3.025072798363800e-16 2.104556276271073e-15 3.242323814895255e-04
1.745424206831310e-04 8.635358906183076e-17 -2.140119037681600e-04 -7.190390782470943e-17 -2.064932169870526e-15 4.514093055848445e-04
1.261717533304337e-02 -3.023889355919135e-16 -2.222700711593096e-04 9.372305405259845e-17 -3.700729939303702e-16 3.776307502801777e-04
2.540172400971014e-02 8.637409171609442e-16 -1.493428434560081e-04 3.146079113394542e-16 2.228453705715972e-16 1.915403851286395e-04
2.540172400971000e-02 2.756964851383719e-16 -1.493428434608868e-04 -9.073987912942111e-16 -6.073537533548109e-15 1.915403851296980e-04
1.261717533304337e-02 -4.528516063271333e-17 -2.222700711601648e-04 1.433997697446887e-16 8.199465911939663e-16 3.776307502799671e-04
1.015232494902076e-02 2.058761007581026e-16 -1.710770988611161e-04 2.754838484708796e-16 9.339337094185573e-16 3.242323814906826e-04
2.021486695210219e-02 1.034517287377181e-16 -1.230720217776936e-04 1.527001789698438e-16 -7.629130075916736e-16 1.740117355743244e-04
2.021486695210247e-02 -6.480750632084377e-17 -1.230720217832877e-04 -3.067505980025467e-16 5.996781180828462e-15 1.740117355721750e-04
1.015232494902095e-02 1.271694143735195e-17 -1.710770988640661e-04 -3.025072798363800e-16 2.104556276271073e-15 3.242323814895255e-04
        </DataArray>
  </PointData>
  <CellData>
        <DataArray type="Float64" Name="element_2PK_stresses_xyz" NumberOfComponents="6" format="ascii">
-3.566533806655509e-01 -6.938893903907228e-16 -2.216673548180489e-02 8.648605186629661e-16 -6.541800019775608e-15 5.221772738972941e-03
-1.265969540356009e-01 -4.163336342344337e-16 -2.515063623525680e-02 -5.636076146448816e-16 4.608817879464368e-15 6.728212219116641e-03
1.080386620070345e-01 -3.421138828918010e-48 -2.513900031909752e-02 1.574938723847907e-15 -2.586791879472074e-16 5.656259854675862e-03
3.480780883552139e-01 -1.249000902703301e-15 -2.157356323772481e-02 7.030875532543097e-16 -1.438376385443119e-15 2.934935422184010e-03
-3.075501980986358e-01 -1.526556658859590e-15 1.775976341403529e-03 3.083480447912231e-15 9.453441471002674e-15 1.778852906081786e-03
-1.086959074062321e-01 -8.326672684688674e-16 -3.523929957559499e-03 -3.212224999776897e-16 4.741768156735634e-15 6.091833494848301e-03
9.546907360749313e-02 -9.714451465470120e-16 -3.880383726909756e-03 -5.785150296764069e-16 -1.307579544186567e-15 7.068246719986689e-03
3.051237206979945e-01 -1.387778780781446e-16 5.110944259312251e-04 -3.221101417339000e-15 2.073384888958846e-15 3.742029833820417e-03
-2.547334302108427e-01 -9.714451465470120e-16 -3.691840424049422e-03 -1.029970047368797e-15 2.583026916359207e-15 3.340655681064574e-03
-8.703535759198348e-02 1.387778780781447e-16 -5.944326415714754e-03 4.540904697522795e-16 1.193581129144762e-14 6.214657268095451e-03
8.258859621509657e-02 1.387778780781447e-16 -5.880340907018917e-03 -1.541789322184400e-15 4.446503896482398e-16 5.671295178066526e-03
2.538495570262694e-01 1.526556658859590e-15 -2.786362175962315e-03 -7.300073550979431e-16 -1.850276741320781e-15 2.082307182577968e-03
-2.067210921039594e-01 4.163336342344337e-16 -7.515857183032494e-04 7.502866931645836e-16 1.407842985671816e-15 1.946379955408647e-03
-7.031684947107882e-02 -2.465190328815662e-32 -3.075486080469994e-03 2.880852269876459e-16 -1.659483823567433e-15 5.107841933889535e-03
6.871105232611001e-02 8.326672684688674e-16 -3.222139570175156e-03 -1.269854717140064e-15 4.707937971234237e-15 5.546337721128829e-03
2.105563370198919e-01 1.387778780781446e-15 -1.607282303580093e-03 -1.600465643090313e-15 -7.164487739426403e-15 2.944936587059208e-03
-1.650975034726541e-01 -6.938893903907228e-16 -1.171891393771315e-03 -2.173674875898089e-16 3.959693628789598e-15 2.453777929087020e-03
-5.421746462818505e-02 1.110223024625157e-15 -2.147727361660051e-03 1.572589200816806e-16 -4.634819611068252e-15 4.891098996239519e-03
5.743729029108857e-02 1.387778780781446e-15 -2.164746859653899e-03 1.558668401809790e-15 1.368691602036892e-14 4.676507637374700e-03
1.696324169694349e-01 9.714451465470120e-16 -6.857040553742005e-04 -1.400117250732808e-16 5.577029521106540e-16 1.841837721203252e-03
        </DataArray>
        <DataArray type="Float64" Name="element_GL_strains_xyz" NumberOfComponents="6" format="ascii">
-3.566533806655508e-02 -6.938893903907228e-17 -2.216673548180489e-03 8.648605186629659e-17 -6.541800019775609e-16 5.221772738972941e-04
-1.265969540356009e-02 -4.163336342344337e-17 -2.515063623525680e-03 -5.636076146448817e-17 4.608817879464367e-16 6.728212219116641e-04
1.080386620070345e-02 -4.276423536147513e-49 -2.513900031909752e-03 1.574938723847907e-16 -2.586791879472074e-17 5.656259854675862e-04
3.480780883552139e-02 -1.249000902703301e-16 -2.157356323772481e-03 7.030875532543098e-17 -1.438376385443119e-16 2.934935422184010e-04
-3.075501980986357e-02 -1.526556658859590e-16 1.775976341403530e-04 3.083480447912231e-16 9.453441471002674e-16 1.778852906081786e-04
-1.086959074062321e-02 -8.326672684688675e-17 -3.523929957559499e-04 -3.212224999776897e-17 4.741768156735634e-16 6.091833494848301e-04
9.546907360749313e-03 -9.714451465470120e-17 -3.880383726909756e-04 -5.785150296764070e-17 -1.307579544186567e-16 7.068246719986689e-04
3.051237206979945e-02 -1.387778780781446e-17 5.110944259312246e-05 -3.221101417339000e-16 2.073384888958846e-16 3.742029833820417e-04
-2.547334302108428e-02 -9.714451465470118e-17 -3.691840424049422e-04 -1.029970047368797e-16 2.583026916359207e-16 3.340655681064574e-04
-8.703535759198348e-03 1.387778780781446e-17 -5.944326415714754e-04 4.540904697522794e-17 1.193581129144763e-15 6.214657268095451e-04
8.258859621509657e-03 1.387778780781446e-17 -5.880340907018915e-04 -1.541789322184401e-16 4.446503896482397e-17 5.671295178066526e-04
2.538495570262694e-02 1.526556658859590e-16 -2.786362175962315e-04 -7.300073550979429e-17 -1.850276741320781e-16 2.082307182577968e-04
-2.067210921039594e-02 4.163336342344337e-17 -7.515857183032493e-05 7.502866931645836e-17 1.407842985671816e-16 1.946379955408647e-04
-7.031684947107882e-03 0.000000000000000e+00 -3.075486080469994e-04 2.880852269876459e-17 -1.659483823567433e-16 5.107841933889535e-04
6.871105232611002e-03 8.326672684688674e-17 -3.222139570175156e-04 -1.269854717140064e-16 4.707937971234237e-16 5.546337721128829e-04
2.105563370198919e-02 1.387778780781446e-16 -1.607282303580093e-04 -1.600465643090313e-16 -7.164487739426403e-16 2.944936587059208e-04
-1.650975034726541e-02 -6.938893903907228e-17 -1.171891393771316e-04 -2.173674875898088e-17 3.959693628789598e-16 2.453777929087020e-04
-5.421746462818504e-03 1.110223024625157e-16 -2.147727361660051e-04 1.572589200816806e-17 -4.634819611068252e-16 4.891098996239519e-04
5.743729029108857e-03 1.387778780781446e-16 -2.164746859653899e-04 1.558668401809790e-16 1.368691602036892e-15 4.676507637374700e-04
1.696324169694349e-02 9.714451465470120e-17 -6.857040553742005e-05 -1.400117250732808e-17 5.577029521106552e-17 1.841837721203252e-04
        </DataArray>
        <DataArray type="Float64" Name="element_owner" format="ascii">
0.000000000000000e+00
0.000000000000000e+00
0.000000000000000e+00
0.000000000000000e+00
0.000000000000000e+00
0.000000000000000e+00
0.000000000000000e+00
0.000000000000000e+00
0.000000000000000e+00
0.000000000000000e+00
0.000000000000000e+00
0.000000000000000e+00
0.000000000000000e+00
0.000000000000000e+00
0.000000000000000e+00
0.000000000000000e+00
0.000000000000000e+00
0.000000000000000e+00
0.000000000000000e+00
0.000000000000000e+00
        </DataArray>
      </CellData>

    </Piece>
  </UnstructuredGrid>
</VTKFile>
