<?xml version="1.0" ?> 
<!-- 
# vtk DataFile Version 3.0
-->
<VTKFile type="UnstructuredGrid" version="0.1" compressor="vtkZLibDataCompressor" byte_order="LittleEndian">
  <UnstructuredGrid>
    <FieldData>
      <DataArray type="Float64" Name="TIME" NumberOfTuples="1" format="ascii">
0
      </DataArray>
    </FieldData>

    <Piece NumberOfPoints="160" NumberOfCells="20" >
      <Points>
        <DataArray type="Float64" NumberOfComponents="3" format="ascii">
-2.500000000000000e+00 1.000000000000000e+00 1.000000000000000e-01
-2.500000000000000e+00 1.000000000000000e+00 5.000000000000000e-02
-2.500000000000000e+00 2.000000000000000e+00 5.000000000000000e-02
-2.500000000000000e+00 2.000000000000000e+00 1.000000000000000e-01
-2.000000000000000e+00 1.000000000000000e+00 1.000000000000000e-01
-2.000000000000000e+00 1.000000000000000e+00 5.000000000000000e-02
-2.000000000000000e+00 2.000000000000000e+00 5.000000000000001e-02
-2.000000000000000e+00 2.000000000000000e+00 1.000000000000000e-01
-2.500000000000000e+00 1.000000000000000e+00 5.000000000000000e-02
-2.500000000000000e+00 1.000000000000000e+00 0.000000000000000e+00
-2.500000000000000e+00 2.000000000000000e+00 0.000000000000000e+00
-2.500000000000000e+00 2.000000000000000e+00 5.000000000000000e-02
-2.000000000000000e+00 1.000000000000000e+00 5.000000000000000e-02
-2.000000000000000e+00 1.000000000000000e+00 3.469446951953614e-18
-2.000000000000000e+00 2.000000000000000e+00 0.000000000000000e+00
-2.000000000000000e+00 2.000000000000000e+00 5.000000000000001e-02
-2.500000000000000e+00 1.000000000000000e+00 0.000000000000000e+00
-2.500000000000000e+00 1.000000000000000e+00 -5.000000000000002e-02
-2.500000000000000e+00 2.000000000000000e+00 -5.000000000000002e-02
-2.500000000000000e+00 2.000000000000000e+00 0.000000000000000e+00
-2.000000000000000e+00 1.000000000000000e+00 3.469446951953614e-18
-2.000000000000000e+00 1.000000000000000e+00 -5.000000000000001e-02
-2.000000000000000e+00 2.000000000000000e+00 -5.000000000000000e-02
-2.000000000000000e+00 2.000000000000000e+00 0.000000000000000e+00
-2.500000000000000e+00 1.000000000000000e+00 -5.000000000000002e-02
-2.500000000000000e+00 1.000000000000000e+00 -1.000000000000000e-01
-2.500000000000000e+00 2.000000000000000e+00 -1.000000000000000e-01
-2.500000000000000e+00 2.000000000000000e+00 -5.000000000000002e-02
-2.000000000000000e+00 1.000000000000000e+00 -5.000000000000001e-02
-2.000000000000000e+00 1.000000000000000e+00 -1.000000000000000e-01
-2.000000000000000e+00 2.000000000000000e+00 -1.000000000000000e-01
-2.000000000000000e+00 2.000000000000000e+00 -5.000000000000000e-02
-2.000000000000000e+00 1.000000000000000e+00 1.000000000000000e-01
-2.000000000000000e+00 1.000000000000000e+00 5.000000000000000e-02
-2.000000000000000e+00 2.000000000000000e+00 5.000000000000001e-02
-2.000000000000000e+00 2.000000000000000e+00 1.000000000000000e-01
-1.500000000000000e+00 1.000000000000000e+00 1.000000000000000e-01
-1.500000000000000e+00 1.000000000000000e+00 5.000000000000003e-02
-1.500000000000000e+00 2.000000000000000e+00 5.000000000000000e-02
-1.500000000000000e+00 2.000000000000000e+00 1.000000000000000e-01
-2.000000000000000e+00 1.000000000000000e+00 5.000000000000000e-02
-2.000000000000000e+00 1.000000000000000e+00 3.469446951953614e-18
-2.000000000000000e+00 2.000000000000000e+00 0.000000000000000e+00
-2.000000000000000e+00 2.000000000000000e+00 5.000000000000001e-02
-1.500000000000000e+00 1.000000000000000e+00 5.000000000000003e-02
-1.500000000000000e+00 1.000000000000000e+00 0.000000000000000e+00
-1.500000000000000e+00 2.000000000000000e+00 0.000000000000000e+00
-1.500000000000000e+00 2.000000000000000e+00 5.000000000000000e-02
-2.000000000000000e+00 1.000000000000000e+00 3.469446951953614e-18
-2.000000000000000e+00 1.000000000000000e+00 -5.000000000000001e-02
-2.000000000000000e+00 2.000000000000000e+00 -5.000000000000000e-02
-2.000000000000000e+00 2.000000000000000e+00 0.000000000000000e+00
-1.500000000000000e+00 1.000000000000000e+00 0.000000000000000e+00
-1.500000000000000e+00 1.000000000000000e+00 -5.000000000000002e-02
-1.500000000000000e+00 2.000000000000000e+00 -5.000000000000002e-02
-1.500000000000000e+00 2.000000000000000e+00 0.000000000000000e+00
-2.000000000000000e+00 1.000000000000000e+00 -5.000000000000001e-02
-2.000000000000000e+00 1.000000000000000e+00 -1.000000000000000e-01
-2.000000000000000e+00 2.000000000000000e+00 -1.000000000000000e-01
-2.000000000000000e+00 2.000000000000000e+00 -5.000000000000000e-02
-1.500000000000000e+00 1.000000000000000e+00 -5.000000000000002e-02
-1.500000000000000e+00 1.000000000000000e+00 -1.000000000000000e-01
-1.500000000000000e+00 2.000000000000000e+00 -1.000000000000000e-01
-1.500000000000000e+00 2.000000000000000e+00 -5.000000000000002e-02
-1.500000000000000e+00 1.000000000000000e+00 1.000000000000000e-01
-1.500000000000000e+00 1.000000000000000e+00 5.000000000000003e-02
-1.500000000000000e+00 2.000000000000000e+00 5.000000000000000e-02
-1.500000000000000e+00 2.000000000000000e+00 1.000000000000000e-01
-1.000000000000000e+00 1.000000000000000e+00 1.000000000000000e-01
-1.000000000000000e+00 1.000000000000000e+00 5.000000000000001e-02
-1.000000000000000e+00 2.000000000000000e+00 5.000000000000000e-02
-1.000000000000000e+00 2.000000000000000e+00 1.000000000000000e-01
-1.500000000000000e+00 1.000000000000000e+00 5.000000000000003e-02
-1.500000000000000e+00 1.000000000000000e+00 0.000000000000000e+00
-1.500000000000000e+00 2.000000000000000e+00 0.000000000000000e+00
-1.500000000000000e+00 2.000000000000000e+00 5.000000000000000e-02
-1.000000000000000e+00 1.000000000000000e+00 5.000000000000001e-02
-1.000000000000000e+00 1.000000000000000e+00 0.000000000000000e+00
-1.000000000000000e+00 2.000000000000000e+00 -6.938893903907228e-18
-1.000000000000000e+00 2.000000000000000e+00 5.000000000000000e-02
-1.500000000000000e+00 1.000000000000000e+00 0.000000000000000e+00
-1.500000000000000e+00 1.000000000000000e+00 -5.000000000000002e-02
-1.500000000000000e+00 2.000000000000000e+00 -5.000000000000002e-02
-1.500000000000000e+00 2.000000000000000e+00 0.000000000000000e+00
-1.000000000000000e+00 1.000000000000000e+00 0.000000000000000e+00
-1.000000000000000e+00 1.000000000000000e+00 -5.000000000000002e-02
-1.000000000000000e+00 2.000000000000000e+00 -5.000000000000002e-02
-1.000000000000000e+00 2.000000000000000e+00 -6.938893903907228e-18
-1.500000000000000e+00 1.000000000000000e+00 -5.000000000000002e-02
-1.500000000000000e+00 1.000000000000000e+00 -1.000000000000000e-01
-1.500000000000000e+00 2.000000000000000e+00 -1.000000000000000e-01
-1.500000000000000e+00 2.000000000000000e+00 -5.000000000000002e-02
-1.000000000000000e+00 1.000000000000000e+00 -5.000000000000002e-02
-1.000000000000000e+00 1.000000000000000e+00 -1.000000000000000e-01
-1.000000000000000e+00 2.000000000000000e+00 -1.000000000000000e-01
-1.000000000000000e+00 2.000000000000000e+00 -5.000000000000002e-02
-1.000000000000000e+00 1.000000000000000e+00 1.000000000000000e-01
-1.000000000000000e+00 1.000000000000000e+00 5.000000000000001e-02
-1.000000000000000e+00 2.000000000000000e+00 5.000000000000000e-02
-1.000000000000000e+00 2.000000000000000e+00 1.000000000000000e-01
-5.000000000000000e-01 1.000000000000000e+00 1.000000000000000e-01
-5.000000000000001e-01 1.000000000000000e+00 5.000000000000000e-02
-5.000000000000000e-01 2.000000000000000e+00 5.000000000000001e-02
-5.000000000000000e-01 2.000000000000000e+00 1.000000000000000e-01
-1.000000000000000e+00 1.000000000000000e+00 5.000000000000001e-02
-1.000000000000000e+00 1.000000000000000e+00 0.000000000000000e+00
-1.000000000000000e+00 2.000000000000000e+00 -6.938893903907228e-18
-1.000000000000000e+00 2.000000000000000e+00 5.000000000000000e-02
-5.000000000000001e-01 1.000000000000000e+00 5.000000000000000e-02
-5.000000000000000e-01 1.000000000000000e+00 0.000000000000000e+00
-5.000000000000000e-01 2.000000000000000e+00 0.000000000000000e+00
-5.000000000000000e-01 2.000000000000000e+00 5.000000000000001e-02
-1.000000000000000e+00 1.000000000000000e+00 0.000000000000000e+00
-1.000000000000000e+00 1.000000000000000e+00 -5.000000000000002e-02
-1.000000000000000e+00 2.000000000000000e+00 -5.000000000000002e-02
-1.000000000000000e+00 2.000000000000000e+00 -6.938893903907228e-18
-5.000000000000000e-01 1.000000000000000e+00 0.000000000000000e+00
-5.000000000000000e-01 1.000000000000000e+00 -5.000000000000001e-02
-5.000000000000002e-01 2.000000000000000e+00 -5.000000000000002e-02
-5.000000000000000e-01 2.000000000000000e+00 0.000000000000000e+00
-1.000000000000000e+00 1.000000000000000e+00 -5.000000000000002e-02
-1.000000000000000e+00 1.000000000000000e+00 -1.000000000000000e-01
-1.000000000000000e+00 2.000000000000000e+00 -1.000000000000000e-01
-1.000000000000000e+00 2.000000000000000e+00 -5.000000000000002e-02
-5.000000000000000e-01 1.000000000000000e+00 -5.000000000000001e-02
-5.000000000000000e-01 1.000000000000000e+00 -1.000000000000000e-01
-5.000000000000000e-01 2.000000000000000e+00 -1.000000000000000e-01
-5.000000000000002e-01 2.000000000000000e+00 -5.000000000000002e-02
-5.000000000000000e-01 1.000000000000000e+00 1.000000000000000e-01
-5.000000000000001e-01 1.000000000000000e+00 5.000000000000000e-02
-5.000000000000000e-01 2.000000000000000e+00 5.000000000000001e-02
-5.000000000000000e-01 2.000000000000000e+00 1.000000000000000e-01
0.000000000000000e+00 1.000000000000000e+00 1.000000000000000e-01
0.000000000000000e+00 1.000000000000000e+00 4.999999999999999e-02
0.000000000000000e+00 2.000000000000000e+00 4.999999999999999e-02
0.000000000000000e+00 2.000000000000000e+00 1.000000000000000e-01
-5.000000000000001e-01 1.000000000000000e+00 5.000000000000000e-02
-5.000000000000000e-01 1.000000000000000e+00 0.000000000000000e+00
-5.000000000000000e-01 2.000000000000000e+00 0.000000000000000e+00
-5.000000000000000e-01 2.000000000000000e+00 5.000000000000001e-02
0.000000000000000e+00 1.000000000000000e+00 4.999999999999999e-02
0.000000000000000e+00 1.000000000000000e+00 0.000000000000000e+00
0.000000000000000e+00 2.000000000000000e+00 0.000000000000000e+00
0.000000000000000e+00 2.000000000000000e+00 4.999999999999999e-02
-5.000000000000000e-01 1.000000000000000e+00 0.000000000000000e+00
-5.000000000000000e-01 1.000000000000000e+00 -5.000000000000001e-02
-5.000000000000002e-01 2.000000000000000e+00 -5.000000000000002e-02
-5.000000000000000e-01 2.000000000000000e+00 0.000000000000000e+00
0.000000000000000e+00 1.000000000000000e+00 0.000000000000000e+00
0.000000000000000e+00 1.000000000000000e+00 -5.000000000000002e-02
0.000000000000000e+00 2.000000000000000e+00 -5.000000000000002e-02
0.000000000000000e+00 2.000000000000000e+00 0.000000000000000e+00
-5.000000000000000e-01 1.000000000000000e+00 -5.000000000000001e-02
-5.000000000000000e-01 1.000000000000000e+00 -1.000000000000000e-01
-5.000000000000000e-01 2.000000000000000e+00 -1.000000000000000e-01
-5.000000000000002e-01 2.000000000000000e+00 -5.000000000000002e-02
0.000000000000000e+00 1.000000000000000e+00 -5.000000000000002e-02
0.000000000000000e+00 1.000000000000000e+00 -1.000000000000000e-01
0.000000000000000e+00 2.000000000000000e+00 -1.000000000000000e-01
0.000000000000000e+00 2.000000000000000e+00 -5.000000000000002e-02
        </DataArray>
      </Points>

      <Cells>
        <DataArray type="Int32" Name="connectivity" format="ascii">
0 1 2 3 4 5 6 7 8 9 10 11 12 13 14 15 16 17 18 19 20 21 22 23 24 25 26 27 28 29 30 31 32 33 34 35 36 37 38 39 40 41 42 43 44 45 46 47 48 49 50 51 52 53 54 55 56 57 58 59 60 61 62 63 64 65 66 67 68 69 70 71 72 73 74 75 76 77 78 79 80 81 82 83 84 85 86 87 88 89 90 91 92 93 94 95 96 97 98 99 100 101 102 103 104 105 106 107 108 109 110 111 112 113 114 115 116 117 118 119 120 121 122 123 124 125 126 127 128 129 130 131 132 133 134 135 136 137 138 139 140 141 142 143 144 145 146 147 148 149 150 151 152 153 154 155 156 157 158 159 
        </DataArray>
        <DataArray type="Int32" Name="offsets" format="ascii">
8 16 24 32 40 48 56 64 72 80 88 96 104 112 120 128 136 144 152 160 
        </DataArray>
        <DataArray type="UInt8" Name="types" format="ascii">
12 12 12 12 12 12 12 12 12 12 12 12 12 12 12 12 12 12 12 12 
        </DataArray>
      </Cells>

  <PointData>
        <DataArray type="Float64" Name="displacement" NumberOfComponents="3" format="ascii">
0.000000000000000e+00 0.000000000000000e+00 0.000000000000000e+00
0.000000000000000e+00 0.000000000000000e+00 0.000000000000000e+00
0.000000000000000e+00 0.000000000000000e+00 0.000000000000000e+00
0.000000000000000e+00 0.000000000000000e+00 0.000000000000000e+00
0.000000000000000e+00 0.000000000000000e+00 0.000000000000000e+00
0.000000000000000e+00 0.000000000000000e+00 0.000000000000000e+00
0.000000000000000e+00 0.000000000000000e+00 0.000000000000000e+00
0.000000000000000e+00 0.000000000000000e+00 0.000000000000000e+00
0.000000000000000e+00 0.000000000000000e+00 0.000000000000000e+00
0.000000000000000e+00 0.000000000000000e+00 0.000000000000000e+00
0.000000000000000e+00 0.000000000000000e+00 0.000000000000000e+00
0.000000000000000e+00 0.000000000000000e+00 0.000000000000000e+00
0.000000000000000e+00 0.000000000000000e+00 0.000000000000000e+00
0.000000000000000e+00 0.000000000000000e+00 0.000000000000000e+00
0.000000000000000e+00 0.000000000000000e+00 0.000000000000000e+00
0.000000000000000e+00 0.000000000000000e+00 0.000000000000000e+00
0.000000000000000e+00 0.000000000000000e+00 0.000000000000000e+00
0.000000000000000e+00 0.000000000000000e+00 0.000000000000000e+00
0.000000000000000e+00 0.000000000000000e+00 0.000000000000000e+00
0.000000000000000e+00 0.000000000000000e+00 0.000000000000000e+00
0.000000000000000e+00 0.000000000000000e+00 0.000000000000000e+00
0.000000000000000e+00 0.000000000000000e+00 0.000000000000000e+00
0.000000000000000e+00 0.000000000000000e+00 0.000000000000000e+00
0.000000000000000e+00 0.000000000000000e+00 0.000000000000000e+00
0.000000000000000e+00 0.000000000000000e+00 0.000000000000000e+00
0.000000000000000e+00 0.000000000000000e+00 0.000000000000000e+00
0.000000000000000e+00 0.000000000000000e+00 0.000000000000000e+00
0.000000000000000e+00 0.000000000000000e+00 0.000000000000000e+00
0.000000000000000e+00 0.000000000000000e+00 0.000000000000000e+00
0.000000000000000e+00 0.000000000000000e+00 0.000000000000000e+00
0.000000000000000e+00 0.000000000000000e+00 0.000000000000000e+00
0.000000000000000e+00 0.000000000000000e+00 0.000000000000000e+00
0.000000000000000e+00 0.000000000000000e+00 0.000000000000000e+00
0.000000000000000e+00 0.000000000000000e+00 0.000000000000000e+00
0.000000000000000e+00 0.000000000000000e+00 0.000000000000000e+00
0.000000000000000e+00 0.000000000000000e+00 0.000000000000000e+00
0.000000000000000e+00 0.000000000000000e+00 0.000000000000000e+00
0.000000000000000e+00 0.000000000000000e+00 0.000000000000000e+00
0.000000000000000e+00 0.000000000000000e+00 0.000000000000000e+00
0.000000000000000e+00 0.000000000000000e+00 0.000000000000000e+00
0.000000000000000e+00 0.000000000000000e+00 0.000000000000000e+00
0.000000000000000e+00 0.000000000000000e+00 0.000000000000000e+00
0.000000000000000e+00 0.000000000000000e+00 0.000000000000000e+00
0.000000000000000e+00 0.000000000000000e+00 0.000000000000000e+00
0.000000000000000e+00 0.000000000000000e+00 0.000000000000000e+00
0.000000000000000e+00 0.000000000000000e+00 0.000000000000000e+00
0.000000000000000e+00 0.000000000000000e+00 0.000000000000000e+00
0.000000000000000e+00 0.000000000000000e+00 0.000000000000000e+00
0.000000000000000e+00 0.000000000000000e+00 0.000000000000000e+00
0.000000000000000e+00 0.000000000000000e+00 0.000000000000000e+00
0.000000000000000e+00 0.000000000000000e+00 0.000000000000000e+00
0.000000000000000e+00 0.000000000000000e+00 0.000000000000000e+00
0.000000000000000e+00 0.000000000000000e+00 0.000000000000000e+00
0.000000000000000e+00 0.000000000000000e+00 0.000000000000000e+00
0.000000000000000e+00 0.000000000000000e+00 0.000000000000000e+00
0.000000000000000e+00 0.000000000000000e+00 0.000000000000000e+00
0.000000000000000e+00 0.000000000000000e+00 0.000000000000000e+00
0.000000000000000e+00 0.000000000000000e+00 0.000000000000000e+00
0.000000000000000e+00 0.000000000000000e+00 0.000000000000000e+00
0.000000000000000e+00 0.000000000000000e+00 0.000000000000000e+00
0.000000000000000e+00 0.000000000000000e+00 0.000000000000000e+00
0.000000000000000e+00 0.000000000000000e+00 0.000000000000000e+00
0.000000000000000e+00 0.000000000000000e+00 0.000000000000000e+00
0.000000000000000e+00 0.000000000000000e+00 0.000000000000000e+00
0.000000000000000e+00 0.000000000000000e+00 0.000000000000000e+00
0.000000000000000e+00 0.000000000000000e+00 0.000000000000000e+00
0.000000000000000e+00 0.000000000000000e+00 0.000000000000000e+00
0.000000000000000e+00 0.000000000000000e+00 0.000000000000000e+00
0.000000000000000e+00 0.000000000000000e+00 0.000000000000000e+00
0.000000000000000e+00 0.000000000000000e+00 0.000000000000000e+00
0.000000000000000e+00 0.000000000000000e+00 0.000000000000000e+00
0.000000000000000e+00 0.000000000000000e+00 0.000000000000000e+00
0.000000000000000e+00 0.000000000000000e+00 0.000000000000000e+00
0.000000000000000e+00 0.000000000000000e+00 0.000000000000000e+00
0.000000000000000e+00 0.000000000000000e+00 0.000000000000000e+00
0.000000000000000e+00 0.000000000000000e+00 0.000000000000000e+00
0.000000000000000e+00 0.000000000000000e+00 0.000000000000000e+00
0.000000000000000e+00 0.000000000000000e+00 0.000000000000000e+00
0.000000000000000e+00 0.000000000000000e+00 0.000000000000000e+00
0.000000000000000e+00 0.000000000000000e+00 0.000000000000000e+00
0.000000000000000e+00 0.000000000000000e+00 0.000000000000000e+00
0.000000000000000e+00 0.000000000000000e+00 0.000000000000000e+00
0.000000000000000e+00 0.000000000000000e+00 0.000000000000000e+00
0.000000000000000e+00 0.000000000000000e+00 0.000000000000000e+00
0.000000000000000e+00 0.000000000000000e+00 0.000000000000000e+00
0.000000000000000e+00 0.000000000000000e+00 0.000000000000000e+00
0.000000000000000e+00 0.000000000000000e+00 0.000000000000000e+00
0.000000000000000e+00 0.000000000000000e+00 0.000000000000000e+00
0.000000000000000e+00 0.000000000000000e+00 0.000000000000000e+00
0.000000000000000e+00 0.000000000000000e+00 0.000000000000000e+00
0.000000000000000e+00 0.000000000000000e+00 0.000000000000000e+00
0.000000000000000e+00 0.000000000000000e+00 0.000000000000000e+00
0.000000000000000e+00 0.000000000000000e+00 0.000000000000000e+00
0.000000000000000e+00 0.000000000000000e+00 0.000000000000000e+00
0.000000000000000e+00 0.000000000000000e+00 0.000000000000000e+00
0.000000000000000e+00 0.000000000000000e+00 0.000000000000000e+00
0.000000000000000e+00 0.000000000000000e+00 0.000000000000000e+00
0.000000000000000e+00 0.000000000000000e+00 0.000000000000000e+00
0.000000000000000e+00 0.000000000000000e+00 0.000000000000000e+00
0.000000000000000e+00 0.000000000000000e+00 0.000000000000000e+00
0.000000000000000e+00 0.000000000000000e+00 0.000000000000000e+00
0.000000000000000e+00 0.000000000000000e+00 0.000000000000000e+00
0.000000000000000e+00 0.000000000000000e+00 0.000000000000000e+00
0.000000000000000e+00 0.000000000000000e+00 0.000000000000000e+00
0.000000000000000e+00 0.000000000000000e+00 0.000000000000000e+00
0.000000000000000e+00 0.000000000000000e+00 0.000000000000000e+00
0.000000000000000e+00 0.000000000000000e+00 0.000000000000000e+00
0.000000000000000e+00 0.000000000000000e+00 0.000000000000000e+00
0.000000000000000e+00 0.000000000000000e+00 0.000000000000000e+00
0.000000000000000e+00 0.000000000000000e+00 0.000000000000000e+00
0.000000000000000e+00 0.000000000000000e+00 0.000000000000000e+00
0.000000000000000e+00 0.000000000000000e+00 0.000000000000000e+00
0.000000000000000e+00 0.000000000000000e+00 0.000000000000000e+00
0.000000000000000e+00 0.000000000000000e+00 0.000000000000000e+00
0.000000000000000e+00 0.000000000000000e+00 0.000000000000000e+00
0.000000000000000e+00 0.000000000000000e+00 0.000000000000000e+00
0.000000000000000e+00 0.000000000000000e+00 0.000000000000000e+00
0.000000000000000e+00 0.000000000000000e+00 0.000000000000000e+00
0.000000000000000e+00 0.000000000000000e+00 0.000000000000000e+00
0.000000000000000e+00 0.000000000000000e+00 0.000000000000000e+00
0.000000000000000e+00 0.000000000000000e+00 0.000000000000000e+00
0.000000000000000e+00 0.000000000000000e+00 0.000000000000000e+00
0.000000000000000e+00 0.000000000000000e+00 0.000000000000000e+00
0.000000000000000e+00 0.000000000000000e+00 0.000000000000000e+00
0.000000000000000e+00 0.000000000000000e+00 0.000000000000000e+00
0.000000000000000e+00 0.000000000000000e+00 0.000000000000000e+00
0.000000000000000e+00 0.000000000000000e+00 0.000000000000000e+00
0.000000000000000e+00 0.000000000000000e+00 0.000000000000000e+00
0.000000000000000e+00 0.000000000000000e+00 0.000000000000000e+00
0.000000000000000e+00 0.000000000000000e+00 0.000000000000000e+00
0.000000000000000e+00 0.000000000000000e+00 0.000000000000000e+00
0.000000000000000e+00 0.000000000000000e+00 0.000000000000000e+00
0.000000000000000e+00 0.000000000000000e+00 0.000000000000000e+00
0.000000000000000e+00 0.000000000000000e+00 0.000000000000000e+00
0.000000000000000e+00 0.000000000000000e+00 0.000000000000000e+00
0.000000000000000e+00 0.000000000000000e+00 0.000000000000000e+00
0.000000000000000e+00 0.000000000000000e+00 0.000000000000000e+00
0.000000000000000e+00 0.000000000000000e+00 0.000000000000000e+00
0.000000000000000e+00 0.000000000000000e+00 0.000000000000000e+00
0.000000000000000e+00 0.000000000000000e+00 0.000000000000000e+00
0.000000000000000e+00 0.000000000000000e+00 0.000000000000000e+00
0.000000000000000e+00 0.000000000000000e+00 0.000000000000000e+00
0.000000000000000e+00 0.000000000000000e+00 0.000000000000000e+00
0.000000000000000e+00 0.000000000000000e+00 0.000000000000000e+00
0.000000000000000e+00 0.000000000000000e+00 0.000000000000000e+00
0.000000000000000e+00 0.000000000000000e+00 0.000000000000000e+00
0.000000000000000e+00 0.000000000000000e+00 0.000000000000000e+00
0.000000000000000e+00 0.000000000000000e+00 0.000000000000000e+00
0.000000000000000e+00 0.000000000000000e+00 0.000000000000000e+00
0.000000000000000e+00 0.000000000000000e+00 0.000000000000000e+00
0.000000000000000e+00 0.000000000000000e+00 0.000000000000000e+00
0.000000000000000e+00 0.000000000000000e+00 0.000000000000000e+00
0.000000000000000e+00 0.000000000000000e+00 0.000000000000000e+00
0.000000000000000e+00 0.000000000000000e+00 0.000000000000000e+00
0.000000000000000e+00 0.000000000000000e+00 0.000000000000000e+00
0.000000000000000e+00 0.000000000000000e+00 0.000000000000000e+00
0.000000000000000e+00 0.000000000000000e+00 0.000000000000000e+00
0.000000000000000e+00 0.000000000000000e+00 0.000000000000000e+00
0.000000000000000e+00 0.000000000000000e+00 0.000000000000000e+00
0.000000000000000e+00 0.000000000000000e+00 0.000000000000000e+00
        </DataArray>
        <DataArray type="Float64" Name="nodal_2PK_stresses_xyz" NumberOfComponents="6" format="ascii">
2.480210033146203e-14 -5.308074994265261e-15 -5.863186506577839e-15 1.387599938557677e-15 9.139962028244190e-17 2.255445897546021e-16
-5.050446844819432e-15 -2.231125221500619e-16 -9.070381091855545e-16 -3.393041036041410e-15 -8.542607945462091e-18 -8.533201891267159e-18
6.494099597397276e-16 -1.442222014787673e-15 3.127484158435868e-15 6.008036879843959e-16 3.307198349551003e-17 -1.010073442268788e-16
-1.169719697198507e-14 2.830000795569119e-15 1.571036089510587e-15 -6.107108006263249e-16 -3.548816059547208e-17 -3.726847163577798e-16
1.001922883862952e-14 4.063698308792036e-16 8.814707366577220e-15 -2.712673033040359e-15 5.079790109961664e-15 -8.601672616693211e-15
4.305761225568809e-15 5.043152834526779e-16 -5.415007038110217e-16 8.568362726787062e-16 -6.076058034554841e-19 8.190616475276106e-16
9.704679344632612e-16 -2.234056857751870e-15 -1.438575009641346e-15 -2.181498202074041e-15 -2.445865639326153e-17 -5.481544346823592e-15
-2.015463815556415e-14 -4.143408735633877e-15 -2.173296825536739e-15 6.361152261423029e-15 6.318451368401116e-15 -7.869249324218752e-15
-5.050446844819432e-15 -2.231125221500619e-16 -9.070381091855545e-16 -3.393041036041410e-15 -8.542607945462091e-18 -8.533201891267159e-18
2.804733602733508e-15 -1.015924577198009e-16 1.090295417914696e-15 -3.095313370153723e-15 3.103475150259862e-15 1.224374606636827e-14
-6.759545443513082e-15 3.791482138760900e-16 -2.051776761106478e-15 1.054811348619046e-15 3.008655459504773e-15 4.709269305389834e-15
6.494099597397276e-16 -1.442222014787673e-15 3.127484158435868e-15 6.008036879843959e-16 3.307198349551003e-17 -1.010073442268788e-16
4.305761225568809e-15 5.043152834526779e-16 -5.415007038110217e-16 8.568362726787062e-16 -6.076058034554841e-19 8.190616475276106e-16
-2.143405415471050e-15 -6.703147785339361e-16 -1.313407940064759e-15 4.731173222123499e-16 -2.224905667734257e-15 -7.415712206277411e-15
1.026155359859497e-14 4.027228257328768e-16 -6.567039700323795e-16 -1.035534824974939e-15 -3.754384030267498e-15 -1.050342336800316e-14
9.704679344632612e-16 -2.234056857751870e-15 -1.438575009641346e-15 -2.181498202074041e-15 -2.445865639326153e-17 -5.481544346823592e-15
2.804733602733508e-15 -1.015924577198009e-16 1.090295417914696e-15 -3.095313370153723e-15 3.103475150259862e-15 1.224374606636827e-14
1.541860048339973e-15 -1.360557163778332e-15 3.764260521757786e-15 6.153074865417701e-15 3.533464416341340e-16 -2.290618747738785e-14
8.083632555828151e-15 -4.725741864949569e-15 -2.673965103843091e-15 -3.784465161887769e-15 -1.503759994445217e-15 2.554813557859739e-14
-6.759545443513082e-15 3.791482138760900e-16 -2.051776761106478e-15 1.054811348619046e-15 3.008655459504773e-15 4.709269305389834e-15
-2.143405415471050e-15 -6.703147785339361e-16 -1.313407940064759e-15 4.731173222123499e-16 -2.224905667734257e-15 -7.415712206277411e-15
-4.272222810356790e-15 -2.450852581693028e-15 5.490355090910652e-15 -1.372071821329139e-15 -5.638993779408668e-17 1.582604388976803e-15
-1.774221004950189e-15 0.000000000000000e+00 -1.716130765797635e-15 -6.842429459690223e-16 1.633366683660612e-16 -3.777747774341721e-15
1.026155359859497e-14 4.027228257328768e-16 -6.567039700323795e-16 -1.035534824974939e-15 -3.754384030267498e-15 -1.050342336800316e-14
1.541860048339973e-15 -1.360557163778332e-15 3.764260521757786e-15 6.153074865417701e-15 3.533464416341340e-16 -2.290618747738785e-14
-2.664535259100375e-14 1.055779790618930e-15 2.478074198696143e-15 7.977284959283933e-16 -9.208601037373849e-15 2.652768621052396e-14
3.396000954682943e-14 1.313407940064758e-15 5.293486973679954e-15 -7.366770541049117e-15 5.200025283493961e-15 -2.341586028839263e-14
8.083632555828151e-15 -4.725741864949569e-15 -2.673965103843091e-15 -3.784465161887769e-15 -1.503759994445217e-15 2.554813557859739e-14
-4.272222810356790e-15 -2.450852581693028e-15 5.490355090910652e-15 -1.372071821329139e-15 -5.638993779408668e-17 1.582604388976803e-15
3.493998775894152e-15 4.063698308792037e-16 -2.247667666253427e-15 1.870676679083322e-15 -1.548826862163921e-16 2.230476912677636e-14
1.332267629550188e-14 4.063698308792040e-16 1.211815482344957e-15 -9.819869770560036e-16 -3.927666030885191e-16 3.763172067781807e-14
-1.774221004950189e-15 0.000000000000000e+00 -1.716130765797635e-15 -6.842429459690223e-16 1.633366683660612e-16 -3.777747774341721e-15
1.001922883862952e-14 4.063698308792036e-16 8.814707366577220e-15 -2.712673033040359e-15 5.079790109961664e-15 -8.601672616693211e-15
4.305761225568809e-15 5.043152834526779e-16 -5.415007038110217e-16 8.568362726787062e-16 -6.076058034554841e-19 8.190616475276106e-16
9.704679344632612e-16 -2.234056857751870e-15 -1.438575009641346e-15 -2.181498202074041e-15 -2.445865639326153e-17 -5.481544346823592e-15
-2.015463815556415e-14 -4.143408735633877e-15 -2.173296825536739e-15 6.361152261423029e-15 6.318451368401116e-15 -7.869249324218752e-15
1.665334536937734e-15 -3.053113317719180e-15 -3.689889681041100e-15 -5.630227947541081e-15 -6.207706112990755e-15 1.442438804344545e-14
-1.487416814333753e-16 -4.671298630943344e-16 2.149722213679953e-15 1.015669899056459e-15 -2.444962471898073e-17 -1.573834102060479e-14
4.976076004102744e-15 1.086648412768370e-15 -1.760610196448633e-15 -1.031454299463294e-15 -2.022436491003489e-17 1.757014026088577e-14
-1.759632984364882e-15 1.942890293094024e-15 9.887029601948953e-16 -2.892356392535767e-15 -3.887890694782922e-16 7.789697498135712e-15
4.305761225568809e-15 5.043152834526779e-16 -5.415007038110217e-16 8.568362726787062e-16 -6.076058034554841e-19 8.190616475276106e-16
-2.143405415471050e-15 -6.703147785339361e-16 -1.313407940064759e-15 4.731173222123499e-16 -2.224905667734257e-15 -7.415712206277411e-15
1.026155359859497e-14 4.027228257328768e-16 -6.567039700323795e-16 -1.035534824974939e-15 -3.754384030267498e-15 -1.050342336800316e-14
9.704679344632612e-16 -2.234056857751870e-15 -1.438575009641346e-15 -2.181498202074041e-15 -2.445865639326153e-17 -5.481544346823592e-15
-1.487416814333753e-16 -4.671298630943344e-16 2.149722213679953e-15 1.015669899056459e-15 -2.444962471898073e-17 -1.573834102060479e-14
2.673965103843091e-15 -6.059077411724787e-16 2.992353285504050e-15 -1.209696976116235e-15 -4.638328680121339e-15 -2.756276579441332e-15
-3.635446447034872e-15 -2.816389987067562e-15 -2.068057362670612e-15 3.836518846324432e-16 4.187351396993778e-15 -2.588964636219252e-15
4.976076004102744e-15 1.086648412768370e-15 -1.760610196448633e-15 -1.031454299463294e-15 -2.022436491003489e-17 1.757014026088577e-14
-2.143405415471050e-15 -6.703147785339361e-16 -1.313407940064759e-15 4.731173222123499e-16 -2.224905667734257e-15 -7.415712206277411e-15
-4.272222810356790e-15 -2.450852581693028e-15 5.490355090910652e-15 -1.372071821329139e-15 -5.638993779408668e-17 1.582604388976803e-15
-1.774221004950189e-15 0.000000000000000e+00 -1.716130765797635e-15 -6.842429459690223e-16 1.633366683660612e-16 -3.777747774341721e-15
1.026155359859497e-14 4.027228257328768e-16 -6.567039700323795e-16 -1.035534824974939e-15 -3.754384030267498e-15 -1.050342336800316e-14
2.673965103843091e-15 -6.059077411724787e-16 2.992353285504050e-15 -1.209696976116235e-15 -4.638328680121339e-15 -2.756276579441332e-15
-2.095017136485056e-16 -4.472022563838743e-16 -6.802785818891660e-16 -4.124728639447864e-16 -1.634087480099251e-17 1.304302632652767e-14
-7.227390675502498e-15 6.603509751787059e-16 2.058093559315382e-15 -6.138893624877803e-16 1.671304534595699e-17 -1.378834246482847e-14
-3.635446447034872e-15 -2.816389987067562e-15 -2.068057362670612e-15 3.836518846324432e-16 4.187351396993778e-15 -2.588964636219252e-15
-4.272222810356790e-15 -2.450852581693028e-15 5.490355090910652e-15 -1.372071821329139e-15 -5.638993779408668e-17 1.582604388976803e-15
3.493998775894152e-15 4.063698308792037e-16 -2.247667666253427e-15 1.870676679083322e-15 -1.548826862163921e-16 2.230476912677636e-14
1.332267629550188e-14 4.063698308792040e-16 1.211815482344957e-15 -9.819869770560036e-16 -3.927666030885191e-16 3.763172067781807e-14
-1.774221004950189e-15 0.000000000000000e+00 -1.716130765797635e-15 -6.842429459690223e-16 1.633366683660612e-16 -3.777747774341721e-15
-2.095017136485056e-16 -4.472022563838743e-16 -6.802785818891660e-16 -4.124728639447864e-16 -1.634087480099251e-17 1.304302632652767e-14
6.545157669445832e-15 -7.310748107490668e-16 -6.343927178173730e-15 -9.251302331654940e-16 1.548200428058887e-14 -3.287456348852256e-15
5.850552910160033e-15 -2.525223422409716e-15 4.515262939217314e-15 -6.172868340460330e-15 -7.968222811432227e-15 -6.888240763024050e-15
-7.227390675502498e-15 6.603509751787059e-16 2.058093559315382e-15 -6.138893624877803e-16 1.671304534595699e-17 -1.378834246482847e-14
1.665334536937734e-15 -3.053113317719180e-15 -3.689889681041100e-15 -5.630227947541081e-15 -6.207706112990755e-15 1.442438804344545e-14
-1.487416814333753e-16 -4.671298630943344e-16 2.149722213679953e-15 1.015669899056459e-15 -2.444962471898073e-17 -1.573834102060479e-14
4.976076004102744e-15 1.086648412768370e-15 -1.760610196448633e-15 -1.031454299463294e-15 -2.022436491003489e-17 1.757014026088577e-14
-1.759632984364882e-15 1.942890293094024e-15 9.887029601948953e-16 -2.892356392535767e-15 -3.887890694782922e-16 7.789697498135712e-15
-1.327995960650066e-15 4.807406715958911e-16 3.154705775438982e-15 -4.056141437758186e-15 6.349964750442142e-16 8.525588874824770e-15
-1.052132785472602e-15 -1.161019253485057e-15 -5.687223208141351e-16 -3.032832626637267e-15 2.882535451578393e-17 7.702621463254319e-15
7.719072362537373e-16 6.975363955370496e-16 -6.802785818891660e-16 2.720233701631920e-16 4.573542542585262e-17 -9.616423423735796e-15
-2.830000795569119e-15 1.090295417914697e-15 4.714922371357369e-17 1.121045686111380e-15 -4.030141844636023e-15 1.568749346954452e-14
-1.487416814333753e-16 -4.671298630943344e-16 2.149722213679953e-15 1.015669899056459e-15 -2.444962471898073e-17 -1.573834102060479e-14
2.673965103843091e-15 -6.059077411724787e-16 2.992353285504050e-15 -1.209696976116235e-15 -4.638328680121339e-15 -2.756276579441332e-15
-3.635446447034872e-15 -2.816389987067562e-15 -2.068057362670612e-15 3.836518846324432e-16 4.187351396993778e-15 -2.588964636219252e-15
4.976076004102744e-15 1.086648412768370e-15 -1.760610196448633e-15 -1.031454299463294e-15 -2.022436491003489e-17 1.757014026088577e-14
-1.052132785472602e-15 -1.161019253485057e-15 -5.687223208141351e-16 -3.032832626637267e-15 2.882535451578393e-17 7.702621463254319e-15
-1.225426290846514e-15 -4.634828579480074e-16 -1.313407940064759e-15 -3.708530311849701e-16 -9.089960738864194e-16 -5.425782248389284e-15
-1.289833328207972e-15 -3.171963589086865e-15 7.855180447552936e-16 -1.112366078652817e-15 -2.190168339881378e-15 -7.576818285808076e-15
7.719072362537373e-16 6.975363955370496e-16 -6.802785818891660e-16 2.720233701631920e-16 4.573542542585262e-17 -9.616423423735796e-15
2.673965103843091e-15 -6.059077411724787e-16 2.992353285504050e-15 -1.209696976116235e-15 -4.638328680121339e-15 -2.756276579441332e-15
-2.095017136485056e-16 -4.472022563838743e-16 -6.802785818891660e-16 -4.124728639447864e-16 -1.634087480099251e-17 1.304302632652767e-14
-7.227390675502498e-15 6.603509751787059e-16 2.058093559315382e-15 -6.138893624877803e-16 1.671304534595699e-17 -1.378834246482847e-14
-3.635446447034872e-15 -2.816389987067562e-15 -2.068057362670612e-15 3.836518846324432e-16 4.187351396993778e-15 -2.588964636219252e-15
-1.225426290846514e-15 -4.634828579480074e-16 -1.313407940064759e-15 -3.708530311849701e-16 -9.089960738864194e-16 -5.425782248389284e-15
2.132464400032069e-15 1.276222519706415e-15 -3.383157883714195e-16 -4.232870884432333e-15 -8.418232447876013e-16 -4.866330276700149e-16
5.338943616414701e-15 2.894407832930576e-15 2.704833725992531e-15 1.160895203195732e-15 2.785127871758636e-15 2.682487876855212e-15
-1.289833328207972e-15 -3.171963589086865e-15 7.855180447552936e-16 -1.112366078652817e-15 -2.190168339881378e-15 -7.576818285808076e-15
-2.095017136485056e-16 -4.472022563838743e-16 -6.802785818891660e-16 -4.124728639447864e-16 -1.634087480099251e-17 1.304302632652767e-14
6.545157669445832e-15 -7.310748107490668e-16 -6.343927178173730e-15 -9.251302331654940e-16 1.548200428058887e-14 -3.287456348852256e-15
5.850552910160033e-15 -2.525223422409716e-15 4.515262939217314e-15 -6.172868340460330e-15 -7.968222811432227e-15 -6.888240763024050e-15
-7.227390675502498e-15 6.603509751787059e-16 2.058093559315382e-15 -6.138893624877803e-16 1.671304534595699e-17 -1.378834246482847e-14
2.132464400032069e-15 1.276222519706415e-15 -3.383157883714195e-16 -4.232870884432333e-15 -8.418232447876013e-16 -4.866330276700149e-16
8.051071352699887e-15 -1.211815482344958e-15 7.298114511072858e-15 3.385323880504049e-15 1.682746557170363e-15 -3.967066307507314e-15
-1.044018669009403e-14 -3.791482138760903e-16 -3.689889681041100e-15 -5.166773434949724e-15 6.863865074737627e-15 6.531051648530374e-15
5.338943616414701e-15 2.894407832930576e-15 2.704833725992531e-15 1.160895203195732e-15 2.785127871758636e-15 2.682487876855212e-15
-1.327995960650066e-15 4.807406715958911e-16 3.154705775438982e-15 -4.056141437758186e-15 6.349964750442142e-16 8.525588874824770e-15
-1.052132785472602e-15 -1.161019253485057e-15 -5.687223208141351e-16 -3.032832626637267e-15 2.882535451578393e-17 7.702621463254319e-15
7.719072362537373e-16 6.975363955370496e-16 -6.802785818891660e-16 2.720233701631920e-16 4.573542542585262e-17 -9.616423423735796e-15
-2.830000795569119e-15 1.090295417914697e-15 4.714922371357369e-17 1.121045686111380e-15 -4.030141844636023e-15 1.568749346954452e-14
6.249628730746583e-15 9.887029601948955e-16 -1.055779790618929e-15 -6.870274401887266e-15 -1.129626593597929e-15 3.760852338329981e-15
-4.745669471660029e-15 -2.751982949706105e-15 -1.442222014787673e-15 1.882282950266979e-15 -3.278668683853601e-17 1.374100632380854e-15
6.817373839476968e-15 6.430931615308223e-16 4.163336342344337e-15 -1.376781074629165e-15 -2.115097403774492e-17 -5.090102979824051e-15
-6.249628730746583e-15 -1.015924577198009e-16 -1.313407940064758e-15 1.950226821421653e-15 1.345396597341683e-15 -3.783268488324130e-15
-1.052132785472602e-15 -1.161019253485057e-15 -5.687223208141351e-16 -3.032832626637267e-15 2.882535451578393e-17 7.702621463254319e-15
-1.225426290846514e-15 -4.634828579480074e-16 -1.313407940064759e-15 -3.708530311849701e-16 -9.089960738864194e-16 -5.425782248389284e-15
-1.289833328207972e-15 -3.171963589086865e-15 7.855180447552936e-16 -1.112366078652817e-15 -2.190168339881378e-15 -7.576818285808076e-15
7.719072362537373e-16 6.975363955370496e-16 -6.802785818891660e-16 2.720233701631920e-16 4.573542542585262e-17 -9.616423423735796e-15
-4.745669471660029e-15 -2.751982949706105e-15 -1.442222014787673e-15 1.882282950266979e-15 -3.278668683853601e-17 1.374100632380854e-15
3.419627935177464e-16 8.190564599673106e-16 -1.526556658859590e-15 -3.862731695813657e-16 1.162105026612740e-15 -5.281902602756543e-15
-1.387778780781445e-16 -3.889427591334374e-15 -2.136111405178395e-15 1.165372427374291e-15 -1.705092768212893e-15 3.042631266075348e-15
6.817373839476968e-15 6.430931615308223e-16 4.163336342344337e-15 -1.376781074629165e-15 -2.115097403774492e-17 -5.090102979824051e-15
-1.225426290846514e-15 -4.634828579480074e-16 -1.313407940064759e-15 -3.708530311849701e-16 -9.089960738864194e-16 -5.425782248389284e-15
2.132464400032069e-15 1.276222519706415e-15 -3.383157883714195e-16 -4.232870884432333e-15 -8.418232447876013e-16 -4.866330276700149e-16
5.338943616414701e-15 2.894407832930576e-15 2.704833725992531e-15 1.160895203195732e-15 2.785127871758636e-15 2.682487876855212e-15
-1.289833328207972e-15 -3.171963589086865e-15 7.855180447552936e-16 -1.112366078652817e-15 -2.190168339881378e-15 -7.576818285808076e-15
3.419627935177464e-16 8.190564599673106e-16 -1.526556658859590e-15 -3.862731695813657e-16 1.162105026612740e-15 -5.281902602756543e-15
-1.387778780781447e-16 2.539811442995023e-16 3.147411765146331e-16 1.291488951162204e-16 6.970069696094626e-16 -3.788095959252057e-18
-1.756963191302306e-15 -9.478705346902254e-16 -1.960148106741907e-15 8.167364624947371e-16 -9.013617645342607e-16 -1.457303094619870e-16
-1.387778780781445e-16 -3.889427591334374e-15 -2.136111405178395e-15 1.165372427374291e-15 -1.705092768212893e-15 3.042631266075348e-15
2.132464400032069e-15 1.276222519706415e-15 -3.383157883714195e-16 -4.232870884432333e-15 -8.418232447876013e-16 -4.866330276700149e-16
8.051071352699887e-15 -1.211815482344958e-15 7.298114511072858e-15 3.385323880504049e-15 1.682746557170363e-15 -3.967066307507314e-15
-1.044018669009403e-14 -3.791482138760903e-16 -3.689889681041100e-15 -5.166773434949724e-15 6.863865074737627e-15 6.531051648530374e-15
5.338943616414701e-15 2.894407832930576e-15 2.704833725992531e-15 1.160895203195732e-15 2.785127871758636e-15 2.682487876855212e-15
-1.387778780781447e-16 2.539811442995023e-16 3.147411765146331e-16 1.291488951162204e-16 6.970069696094626e-16 -3.788095959252057e-18
-5.937557347294526e-15 -3.519265968729763e-16 -3.236370626448322e-15 1.943907830691782e-15 -1.526249001135104e-16 7.262645309456832e-15
2.552445039412829e-15 0.000000000000000e+00 4.901705163386057e-15 -6.493242501718929e-15 2.209041068680913e-15 -4.392826337199354e-15
-1.756963191302306e-15 -9.478705346902254e-16 -1.960148106741907e-15 8.167364624947371e-16 -9.013617645342607e-16 -1.457303094619870e-16
6.249628730746583e-15 9.887029601948955e-16 -1.055779790618929e-15 -6.870274401887266e-15 -1.129626593597929e-15 3.760852338329981e-15
-4.745669471660029e-15 -2.751982949706105e-15 -1.442222014787673e-15 1.882282950266979e-15 -3.278668683853601e-17 1.374100632380854e-15
6.817373839476968e-15 6.430931615308223e-16 4.163336342344337e-15 -1.376781074629165e-15 -2.115097403774492e-17 -5.090102979824051e-15
-6.249628730746583e-15 -1.015924577198009e-16 -1.313407940064758e-15 1.950226821421653e-15 1.345396597341683e-15 -3.783268488324130e-15
1.157372248338730e-15 -2.146075208533626e-15 4.901705163386057e-15 -4.190096093625480e-15 -1.057968651463015e-15 5.308079463666117e-17
1.530203664005917e-15 -7.682602311074102e-16 -2.044482750813825e-15 1.588477932942547e-15 -2.545407606040587e-17 -2.829071074046495e-16
-1.946537298240351e-15 1.115562610750309e-16 -1.211815482344958e-15 4.337084118324800e-16 -3.054183748472525e-18 1.428311015070250e-15
-1.692556153940849e-15 -2.231125221500618e-16 1.313407940064759e-15 4.930222956443195e-15 4.128598258529343e-15 -5.353314074298952e-16
-4.745669471660029e-15 -2.751982949706105e-15 -1.442222014787673e-15 1.882282950266979e-15 -3.278668683853601e-17 1.374100632380854e-15
3.419627935177464e-16 8.190564599673106e-16 -1.526556658859590e-15 -3.862731695813657e-16 1.162105026612740e-15 -5.281902602756543e-15
-1.387778780781445e-16 -3.889427591334374e-15 -2.136111405178395e-15 1.165372427374291e-15 -1.705092768212893e-15 3.042631266075348e-15
6.817373839476968e-15 6.430931615308223e-16 4.163336342344337e-15 -1.376781074629165e-15 -2.115097403774492e-17 -5.090102979824051e-15
1.530203664005917e-15 -7.682602311074102e-16 -2.044482750813825e-15 1.588477932942547e-15 -2.545407606040587e-17 -2.829071074046495e-16
1.086648412768370e-15 -2.031849154396018e-16 -7.437084071668754e-17 -3.724431461172550e-15 -2.120667888679074e-15 1.353233384044887e-15
9.750921516933389e-16 4.063698308792037e-16 7.582964277521803e-16 -9.140632686583325e-16 1.086084083598221e-15 -2.282613652327127e-15
-1.946537298240351e-15 1.115562610750309e-16 -1.211815482344958e-15 4.337084118324800e-16 -3.054183748472525e-18 1.428311015070250e-15
3.419627935177464e-16 8.190564599673106e-16 -1.526556658859590e-15 -3.862731695813657e-16 1.162105026612740e-15 -5.281902602756543e-15
-1.387778780781447e-16 2.539811442995023e-16 3.147411765146331e-16 1.291488951162204e-16 6.970069696094626e-16 -3.788095959252057e-18
-1.756963191302306e-15 -9.478705346902254e-16 -1.960148106741907e-15 8.167364624947371e-16 -9.013617645342607e-16 -1.457303094619870e-16
-1.387778780781445e-16 -3.889427591334374e-15 -2.136111405178395e-15 1.165372427374291e-15 -1.705092768212893e-15 3.042631266075348e-15
1.086648412768370e-15 -2.031849154396018e-16 -7.437084071668754e-17 -3.724431461172550e-15 -2.120667888679074e-15 1.353233384044887e-15
-1.364204168924659e-15 -3.283519850161897e-16 1.915668676090910e-15 6.572749108469764e-16 -6.515767760887251e-16 -3.869578052416644e-16
1.361080850155683e-17 -1.834981037165320e-15 -1.015924577198011e-16 -2.340507166859961e-15 1.979397616000993e-16 9.432122023313993e-16
9.750921516933389e-16 4.063698308792037e-16 7.582964277521803e-16 -9.140632686583325e-16 1.086084083598221e-15 -2.282613652327127e-15
-1.387778780781447e-16 2.539811442995023e-16 3.147411765146331e-16 1.291488951162204e-16 6.970069696094626e-16 -3.788095959252057e-18
-5.937557347294526e-15 -3.519265968729763e-16 -3.236370626448322e-15 1.943907830691782e-15 -1.526249001135104e-16 7.262645309456832e-15
2.552445039412829e-15 0.000000000000000e+00 4.901705163386057e-15 -6.493242501718929e-15 2.209041068680913e-15 -4.392826337199354e-15
-1.756963191302306e-15 -9.478705346902254e-16 -1.960148106741907e-15 8.167364624947371e-16 -9.013617645342607e-16 -1.457303094619870e-16
-1.364204168924659e-15 -3.283519850161897e-16 1.915668676090910e-15 6.572749108469764e-16 -6.515767760887251e-16 -3.869578052416644e-16
-2.294816889967000e-15 1.543814472507474e-15 1.814076218371109e-15 1.195917113027300e-15 4.085774098059492e-15 -2.385521225403410e-15
5.679929197848697e-15 1.415000397784559e-15 1.814076218371109e-15 -4.470301480087343e-15 -5.980692783506708e-15 2.695168723850574e-15
1.361080850155683e-17 -1.834981037165320e-15 -1.015924577198011e-16 -2.340507166859961e-15 1.979397616000993e-16 9.432122023313993e-16
        </DataArray>
        <DataArray type="Float64" Name="nodal_GL_strains_xyz" NumberOfComponents="6" format="ascii">
2.480210033146203e-15 -5.308074994265261e-16 -5.863186506577839e-16 1.387599938557677e-16 9.139962028244190e-18 2.255445897546021e-17
-5.050446844819432e-16 -2.231125221500619e-17 -9.070381091855546e-17 -3.393041036041411e-16 -8.542607945462092e-19 -8.533201891267167e-19
6.494099597397249e-17 -1.442222014787673e-16 3.127484158435867e-16 6.008036879843962e-17 3.307198349551004e-18 -1.010073442268788e-17
-1.169719697198506e-15 2.830000795569118e-16 1.571036089510587e-16 -6.107108006263250e-17 -3.548816059547208e-18 -3.726847163577798e-17
1.001922883862952e-15 4.063698308792036e-17 8.814707366577218e-16 -2.712673033040359e-16 5.079790109961665e-16 -8.601672616693210e-16
4.305761225568809e-16 5.043152834526778e-17 -5.415007038110214e-17 8.568362726787063e-17 -6.076058034540050e-20 8.190616475276102e-17
9.704679344632605e-17 -2.234056857751870e-16 -1.438575009641346e-16 -2.181498202074040e-16 -2.445865639326084e-18 -5.481544346823594e-16
-2.015463815556415e-15 -4.143408735633877e-16 -2.173296825536739e-16 6.361152261423029e-16 6.318451368401115e-16 -7.869249324218748e-16
-5.050446844819432e-16 -2.231125221500619e-17 -9.070381091855546e-17 -3.393041036041411e-16 -8.542607945462092e-19 -8.533201891267167e-19
2.804733602733503e-16 -1.015924577198009e-17 1.090295417914697e-16 -3.095313370153723e-16 3.103475150259861e-16 1.224374606636826e-15
-6.759545443513093e-16 3.791482138760900e-17 -2.051776761106479e-16 1.054811348619046e-16 3.008655459504773e-16 4.709269305389832e-16
6.494099597397249e-17 -1.442222014787673e-16 3.127484158435867e-16 6.008036879843962e-17 3.307198349551004e-18 -1.010073442268788e-17
4.305761225568809e-16 5.043152834526778e-17 -5.415007038110214e-17 8.568362726787063e-17 -6.076058034540050e-20 8.190616475276102e-17
-2.143405415471049e-16 -6.703147785339359e-17 -1.313407940064758e-16 4.731173222123497e-17 -2.224905667734258e-16 -7.415712206277410e-16
1.026155359859497e-15 4.027228257328769e-17 -6.567039700323792e-17 -1.035534824974939e-16 -3.754384030267497e-16 -1.050342336800315e-15
9.704679344632605e-17 -2.234056857751870e-16 -1.438575009641346e-16 -2.181498202074040e-16 -2.445865639326084e-18 -5.481544346823594e-16
2.804733602733503e-16 -1.015924577198009e-17 1.090295417914697e-16 -3.095313370153723e-16 3.103475150259861e-16 1.224374606636826e-15
1.541860048339976e-16 -1.360557163778332e-16 3.764260521757787e-16 6.153074865417699e-16 3.533464416341333e-17 -2.290618747738785e-15
8.083632555828156e-16 -4.725741864949569e-16 -2.673965103843090e-16 -3.784465161887769e-16 -1.503759994445217e-16 2.554813557859739e-15
-6.759545443513093e-16 3.791482138760900e-17 -2.051776761106479e-16 1.054811348619046e-16 3.008655459504773e-16 4.709269305389832e-16
-2.143405415471049e-16 -6.703147785339359e-17 -1.313407940064758e-16 4.731173222123497e-17 -2.224905667734258e-16 -7.415712206277410e-16
-4.272222810356792e-16 -2.450852581693028e-16 5.490355090910652e-16 -1.372071821329139e-16 -5.638993779408698e-18 1.582604388976801e-16
-1.774221004950189e-16 0.000000000000000e+00 -1.716130765797635e-16 -6.842429459690221e-17 1.633366683660614e-17 -3.777747774341727e-16
1.026155359859497e-15 4.027228257328769e-17 -6.567039700323792e-17 -1.035534824974939e-16 -3.754384030267497e-16 -1.050342336800315e-15
1.541860048339976e-16 -1.360557163778332e-16 3.764260521757787e-16 6.153074865417699e-16 3.533464416341333e-17 -2.290618747738785e-15
-2.664535259100376e-15 1.055779790618929e-16 2.478074198696142e-16 7.977284959283933e-17 -9.208601037373849e-16 2.652768621052396e-15
3.396000954682943e-15 1.313407940064758e-16 5.293486973679953e-16 -7.366770541049119e-16 5.200025283493961e-16 -2.341586028839263e-15
8.083632555828156e-16 -4.725741864949569e-16 -2.673965103843090e-16 -3.784465161887769e-16 -1.503759994445217e-16 2.554813557859739e-15
-4.272222810356792e-16 -2.450852581693028e-16 5.490355090910652e-16 -1.372071821329139e-16 -5.638993779408698e-18 1.582604388976801e-16
3.493998775894151e-16 4.063698308792038e-17 -2.247667666253427e-16 1.870676679083323e-16 -1.548826862163921e-17 2.230476912677635e-15
1.332267629550188e-15 4.063698308792034e-17 1.211815482344957e-16 -9.819869770560038e-17 -3.927666030885192e-17 3.763172067781806e-15
-1.774221004950189e-16 0.000000000000000e+00 -1.716130765797635e-16 -6.842429459690221e-17 1.633366683660614e-17 -3.777747774341727e-16
1.001922883862952e-15 4.063698308792036e-17 8.814707366577218e-16 -2.712673033040359e-16 5.079790109961665e-16 -8.601672616693210e-16
4.305761225568809e-16 5.043152834526778e-17 -5.415007038110214e-17 8.568362726787063e-17 -6.076058034540050e-20 8.190616475276102e-17
9.704679344632605e-17 -2.234056857751870e-16 -1.438575009641346e-16 -2.181498202074040e-16 -2.445865639326084e-18 -5.481544346823594e-16
-2.015463815556415e-15 -4.143408735633877e-16 -2.173296825536739e-16 6.361152261423029e-16 6.318451368401115e-16 -7.869249324218748e-16
1.665334536937734e-16 -3.053113317719180e-16 -3.689889681041099e-16 -5.630227947541082e-16 -6.207706112990754e-16 1.442438804344545e-15
-1.487416814333755e-17 -4.671298630943340e-17 2.149722213679953e-16 1.015669899056460e-16 -2.444962471898022e-18 -1.573834102060479e-15
4.976076004102745e-16 1.086648412768370e-16 -1.760610196448633e-16 -1.031454299463294e-16 -2.022436491003458e-18 1.757014026088576e-15
-1.759632984364883e-16 1.942890293094024e-16 9.887029601948953e-17 -2.892356392535767e-16 -3.887890694782923e-17 7.789697498135709e-16
4.305761225568809e-16 5.043152834526778e-17 -5.415007038110214e-17 8.568362726787063e-17 -6.076058034540050e-20 8.190616475276102e-17
-2.143405415471049e-16 -6.703147785339359e-17 -1.313407940064758e-16 4.731173222123497e-17 -2.224905667734258e-16 -7.415712206277410e-16
1.026155359859497e-15 4.027228257328769e-17 -6.567039700323792e-17 -1.035534824974939e-16 -3.754384030267497e-16 -1.050342336800315e-15
9.704679344632605e-17 -2.234056857751870e-16 -1.438575009641346e-16 -2.181498202074040e-16 -2.445865639326084e-18 -5.481544346823594e-16
-1.487416814333755e-17 -4.671298630943340e-17 2.149722213679953e-16 1.015669899056460e-16 -2.444962471898022e-18 -1.573834102060479e-15
2.673965103843090e-16 -6.059077411724788e-17 2.992353285504050e-16 -1.209696976116235e-16 -4.638328680121339e-16 -2.756276579441330e-16
-3.635446447034872e-16 -2.816389987067562e-16 -2.068057362670612e-16 3.836518846324435e-17 4.187351396993778e-16 -2.588964636219252e-16
4.976076004102745e-16 1.086648412768370e-16 -1.760610196448633e-16 -1.031454299463294e-16 -2.022436491003458e-18 1.757014026088576e-15
-2.143405415471049e-16 -6.703147785339359e-17 -1.313407940064758e-16 4.731173222123497e-17 -2.224905667734258e-16 -7.415712206277410e-16
-4.272222810356792e-16 -2.450852581693028e-16 5.490355090910652e-16 -1.372071821329139e-16 -5.638993779408698e-18 1.582604388976801e-16
-1.774221004950189e-16 0.000000000000000e+00 -1.716130765797635e-16 -6.842429459690221e-17 1.633366683660614e-17 -3.777747774341727e-16
1.026155359859497e-15 4.027228257328769e-17 -6.567039700323792e-17 -1.035534824974939e-16 -3.754384030267497e-16 -1.050342336800315e-15
2.673965103843090e-16 -6.059077411724788e-17 2.992353285504050e-16 -1.209696976116235e-16 -4.638328680121339e-16 -2.756276579441330e-16
-2.095017136485054e-17 -4.472022563838742e-17 -6.802785818891663e-17 -4.124728639447861e-17 -1.634087480099004e-18 1.304302632652767e-15
-7.227390675502498e-16 6.603509751787061e-17 2.058093559315382e-16 -6.138893624877800e-17 1.671304534595680e-18 -1.378834246482846e-15
-3.635446447034872e-16 -2.816389987067562e-16 -2.068057362670612e-16 3.836518846324435e-17 4.187351396993778e-16 -2.588964636219252e-16
-4.272222810356792e-16 -2.450852581693028e-16 5.490355090910652e-16 -1.372071821329139e-16 -5.638993779408698e-18 1.582604388976801e-16
3.493998775894151e-16 4.063698308792038e-17 -2.247667666253427e-16 1.870676679083323e-16 -1.548826862163921e-17 2.230476912677635e-15
1.332267629550188e-15 4.063698308792034e-17 1.211815482344957e-16 -9.819869770560038e-17 -3.927666030885192e-17 3.763172067781806e-15
-1.774221004950189e-16 0.000000000000000e+00 -1.716130765797635e-16 -6.842429459690221e-17 1.633366683660614e-17 -3.777747774341727e-16
-2.095017136485054e-17 -4.472022563838742e-17 -6.802785818891663e-17 -4.124728639447861e-17 -1.634087480099004e-18 1.304302632652767e-15
6.545157669445831e-16 -7.310748107490667e-17 -6.343927178173731e-16 -9.251302331654940e-17 1.548200428058888e-15 -3.287456348852259e-16
5.850552910160033e-16 -2.525223422409716e-16 4.515262939217313e-16 -6.172868340460331e-16 -7.968222811432227e-16 -6.888240763024049e-16
-7.227390675502498e-16 6.603509751787061e-17 2.058093559315382e-16 -6.138893624877800e-17 1.671304534595680e-18 -1.378834246482846e-15
1.665334536937734e-16 -3.053113317719180e-16 -3.689889681041099e-16 -5.630227947541082e-16 -6.207706112990754e-16 1.442438804344545e-15
-1.487416814333755e-17 -4.671298630943340e-17 2.149722213679953e-16 1.015669899056460e-16 -2.444962471898022e-18 -1.573834102060479e-15
4.976076004102745e-16 1.086648412768370e-16 -1.760610196448633e-16 -1.031454299463294e-16 -2.022436491003458e-18 1.757014026088576e-15
-1.759632984364883e-16 1.942890293094024e-16 9.887029601948953e-17 -2.892356392535767e-16 -3.887890694782923e-17 7.789697498135709e-16
-1.327995960650066e-16 4.807406715958910e-17 3.154705775438982e-16 -4.056141437758187e-16 6.349964750442148e-17 8.525588874824768e-16
-1.052132785472603e-16 -1.161019253485057e-16 -5.687223208141350e-17 -3.032832626637266e-16 2.882535451578418e-18 7.702621463254319e-16
7.719072362537373e-17 6.975363955370495e-17 -6.802785818891658e-17 2.720233701631920e-17 4.573542542585272e-18 -9.616423423735795e-16
-2.830000795569119e-16 1.090295417914697e-16 4.714922371357378e-18 1.121045686111380e-16 -4.030141844636022e-16 1.568749346954452e-15
-1.487416814333755e-17 -4.671298630943340e-17 2.149722213679953e-16 1.015669899056460e-16 -2.444962471898022e-18 -1.573834102060479e-15
2.673965103843090e-16 -6.059077411724788e-17 2.992353285504050e-16 -1.209696976116235e-16 -4.638328680121339e-16 -2.756276579441330e-16
-3.635446447034872e-16 -2.816389987067562e-16 -2.068057362670612e-16 3.836518846324435e-17 4.187351396993778e-16 -2.588964636219252e-16
4.976076004102745e-16 1.086648412768370e-16 -1.760610196448633e-16 -1.031454299463294e-16 -2.022436491003458e-18 1.757014026088576e-15
-1.052132785472603e-16 -1.161019253485057e-16 -5.687223208141350e-17 -3.032832626637266e-16 2.882535451578418e-18 7.702621463254319e-16
-1.225426290846514e-16 -4.634828579480073e-17 -1.313407940064758e-16 -3.708530311849695e-17 -9.089960738864184e-17 -5.425782248389283e-16
-1.289833328207972e-16 -3.171963589086865e-16 7.855180447552937e-17 -1.112366078652817e-16 -2.190168339881377e-16 -7.576818285808076e-16
7.719072362537373e-17 6.975363955370495e-17 -6.802785818891658e-17 2.720233701631920e-17 4.573542542585272e-18 -9.616423423735795e-16
2.673965103843090e-16 -6.059077411724788e-17 2.992353285504050e-16 -1.209696976116235e-16 -4.638328680121339e-16 -2.756276579441330e-16
-2.095017136485054e-17 -4.472022563838742e-17 -6.802785818891663e-17 -4.124728639447861e-17 -1.634087480099004e-18 1.304302632652767e-15
-7.227390675502498e-16 6.603509751787061e-17 2.058093559315382e-16 -6.138893624877800e-17 1.671304534595680e-18 -1.378834246482846e-15
-3.635446447034872e-16 -2.816389987067562e-16 -2.068057362670612e-16 3.836518846324435e-17 4.187351396993778e-16 -2.588964636219252e-16
-1.225426290846514e-16 -4.634828579480073e-17 -1.313407940064758e-16 -3.708530311849695e-17 -9.089960738864184e-17 -5.425782248389283e-16
2.132464400032069e-16 1.276222519706415e-16 -3.383157883714199e-17 -4.232870884432332e-16 -8.418232447876003e-17 -4.866330276700154e-17
5.338943616414702e-16 2.894407832930576e-16 2.704833725992531e-16 1.160895203195732e-16 2.785127871758636e-16 2.682487876855209e-16
-1.289833328207972e-16 -3.171963589086865e-16 7.855180447552937e-17 -1.112366078652817e-16 -2.190168339881377e-16 -7.576818285808076e-16
-2.095017136485054e-17 -4.472022563838742e-17 -6.802785818891663e-17 -4.124728639447861e-17 -1.634087480099004e-18 1.304302632652767e-15
6.545157669445831e-16 -7.310748107490667e-17 -6.343927178173731e-16 -9.251302331654940e-17 1.548200428058888e-15 -3.287456348852259e-16
5.850552910160033e-16 -2.525223422409716e-16 4.515262939217313e-16 -6.172868340460331e-16 -7.968222811432227e-16 -6.888240763024049e-16
-7.227390675502498e-16 6.603509751787061e-17 2.058093559315382e-16 -6.138893624877800e-17 1.671304534595680e-18 -1.378834246482846e-15
2.132464400032069e-16 1.276222519706415e-16 -3.383157883714199e-17 -4.232870884432332e-16 -8.418232447876003e-17 -4.866330276700154e-17
8.051071352699885e-16 -1.211815482344958e-16 7.298114511072858e-16 3.385323880504049e-16 1.682746557170363e-16 -3.967066307507315e-16
-1.044018669009403e-15 -3.791482138760897e-17 -3.689889681041100e-16 -5.166773434949723e-16 6.863865074737627e-16 6.531051648530372e-16
5.338943616414702e-16 2.894407832930576e-16 2.704833725992531e-16 1.160895203195732e-16 2.785127871758636e-16 2.682487876855209e-16
-1.327995960650066e-16 4.807406715958910e-17 3.154705775438982e-16 -4.056141437758187e-16 6.349964750442148e-17 8.525588874824768e-16
-1.052132785472603e-16 -1.161019253485057e-16 -5.687223208141350e-17 -3.032832626637266e-16 2.882535451578418e-18 7.702621463254319e-16
7.719072362537373e-17 6.975363955370495e-17 -6.802785818891658e-17 2.720233701631920e-17 4.573542542585272e-18 -9.616423423735795e-16
-2.830000795569119e-16 1.090295417914697e-16 4.714922371357378e-18 1.121045686111380e-16 -4.030141844636022e-16 1.568749346954452e-15
6.249628730746583e-16 9.887029601948958e-17 -1.055779790618929e-16 -6.870274401887265e-16 -1.129626593597929e-16 3.760852338329981e-16
-4.745669471660029e-16 -2.751982949706104e-16 -1.442222014787673e-16 1.882282950266979e-16 -3.278668683853592e-18 1.374100632380854e-16
6.817373839476967e-16 6.430931615308227e-17 4.163336342344338e-16 -1.376781074629165e-16 -2.115097403774504e-18 -5.090102979824051e-16
-6.249628730746582e-16 -1.015924577198008e-17 -1.313407940064758e-16 1.950226821421652e-16 1.345396597341683e-16 -3.783268488324129e-16
-1.052132785472603e-16 -1.161019253485057e-16 -5.687223208141350e-17 -3.032832626637266e-16 2.882535451578418e-18 7.702621463254319e-16
-1.225426290846514e-16 -4.634828579480073e-17 -1.313407940064758e-16 -3.708530311849695e-17 -9.089960738864184e-17 -5.425782248389283e-16
-1.289833328207972e-16 -3.171963589086865e-16 7.855180447552937e-17 -1.112366078652817e-16 -2.190168339881377e-16 -7.576818285808076e-16
7.719072362537373e-17 6.975363955370495e-17 -6.802785818891658e-17 2.720233701631920e-17 4.573542542585272e-18 -9.616423423735795e-16
-4.745669471660029e-16 -2.751982949706104e-16 -1.442222014787673e-16 1.882282950266979e-16 -3.278668683853592e-18 1.374100632380854e-16
3.419627935177464e-17 8.190564599673106e-17 -1.526556658859590e-16 -3.862731695813657e-17 1.162105026612740e-16 -5.281902602756543e-16
-1.387778780781445e-17 -3.889427591334375e-16 -2.136111405178396e-16 1.165372427374293e-16 -1.705092768212893e-16 3.042631266075348e-16
6.817373839476967e-16 6.430931615308227e-17 4.163336342344338e-16 -1.376781074629165e-16 -2.115097403774504e-18 -5.090102979824051e-16
-1.225426290846514e-16 -4.634828579480073e-17 -1.313407940064758e-16 -3.708530311849695e-17 -9.089960738864184e-17 -5.425782248389283e-16
2.132464400032069e-16 1.276222519706415e-16 -3.383157883714199e-17 -4.232870884432332e-16 -8.418232447876003e-17 -4.866330276700154e-17
5.338943616414702e-16 2.894407832930576e-16 2.704833725992531e-16 1.160895203195732e-16 2.785127871758636e-16 2.682487876855209e-16
-1.289833328207972e-16 -3.171963589086865e-16 7.855180447552937e-17 -1.112366078652817e-16 -2.190168339881377e-16 -7.576818285808076e-16
3.419627935177464e-17 8.190564599673106e-17 -1.526556658859590e-16 -3.862731695813657e-17 1.162105026612740e-16 -5.281902602756543e-16
-1.387778780781446e-17 2.539811442995022e-17 3.147411765146316e-17 1.291488951162201e-17 6.970069696094627e-17 -3.788095959251909e-19
-1.756963191302306e-16 -9.478705346902253e-17 -1.960148106741908e-16 8.167364624947371e-17 -9.013617645342600e-17 -1.457303094619863e-17
-1.387778780781445e-17 -3.889427591334375e-16 -2.136111405178396e-16 1.165372427374293e-16 -1.705092768212893e-16 3.042631266075348e-16
2.132464400032069e-16 1.276222519706415e-16 -3.383157883714199e-17 -4.232870884432332e-16 -8.418232447876003e-17 -4.866330276700154e-17
8.051071352699885e-16 -1.211815482344958e-16 7.298114511072858e-16 3.385323880504049e-16 1.682746557170363e-16 -3.967066307507315e-16
-1.044018669009403e-15 -3.791482138760897e-17 -3.689889681041100e-16 -5.166773434949723e-16 6.863865074737627e-16 6.531051648530372e-16
5.338943616414702e-16 2.894407832930576e-16 2.704833725992531e-16 1.160895203195732e-16 2.785127871758636e-16 2.682487876855209e-16
-1.387778780781446e-17 2.539811442995022e-17 3.147411765146316e-17 1.291488951162201e-17 6.970069696094627e-17 -3.788095959251909e-19
-5.937557347294526e-16 -3.519265968729764e-17 -3.236370626448322e-16 1.943907830691782e-16 -1.526249001135124e-17 7.262645309456834e-16
2.552445039412830e-16 0.000000000000000e+00 4.901705163386058e-16 -6.493242501718929e-16 2.209041068680913e-16 -4.392826337199353e-16
-1.756963191302306e-16 -9.478705346902253e-17 -1.960148106741908e-16 8.167364624947371e-17 -9.013617645342600e-17 -1.457303094619863e-17
6.249628730746583e-16 9.887029601948958e-17 -1.055779790618929e-16 -6.870274401887265e-16 -1.129626593597929e-16 3.760852338329981e-16
-4.745669471660029e-16 -2.751982949706104e-16 -1.442222014787673e-16 1.882282950266979e-16 -3.278668683853592e-18 1.374100632380854e-16
6.817373839476967e-16 6.430931615308227e-17 4.163336342344338e-16 -1.376781074629165e-16 -2.115097403774504e-18 -5.090102979824051e-16
-6.249628730746582e-16 -1.015924577198008e-17 -1.313407940064758e-16 1.950226821421652e-16 1.345396597341683e-16 -3.783268488324129e-16
1.157372248338730e-16 -2.146075208533626e-16 4.901705163386057e-16 -4.190096093625480e-16 -1.057968651463015e-16 5.308079463666130e-18
1.530203664005917e-16 -7.682602311074100e-17 -2.044482750813825e-16 1.588477932942547e-16 -2.545407606040582e-18 -2.829071074046496e-17
-1.946537298240351e-16 1.115562610750310e-17 -1.211815482344958e-16 4.337084118324799e-17 -3.054183748472229e-19 1.428311015070250e-16
-1.692556153940849e-16 -2.231125221500618e-17 1.313407940064758e-16 4.930222956443196e-16 4.128598258529342e-16 -5.353314074298953e-17
-4.745669471660029e-16 -2.751982949706104e-16 -1.442222014787673e-16 1.882282950266979e-16 -3.278668683853592e-18 1.374100632380854e-16
3.419627935177464e-17 8.190564599673106e-17 -1.526556658859590e-16 -3.862731695813657e-17 1.162105026612740e-16 -5.281902602756543e-16
-1.387778780781445e-17 -3.889427591334375e-16 -2.136111405178396e-16 1.165372427374293e-16 -1.705092768212893e-16 3.042631266075348e-16
6.817373839476967e-16 6.430931615308227e-17 4.163336342344338e-16 -1.376781074629165e-16 -2.115097403774504e-18 -5.090102979824051e-16
1.530203664005917e-16 -7.682602311074100e-17 -2.044482750813825e-16 1.588477932942547e-16 -2.545407606040582e-18 -2.829071074046496e-17
1.086648412768370e-16 -2.031849154396018e-17 -7.437084071668732e-18 -3.724431461172549e-16 -2.120667888679073e-16 1.353233384044887e-16
9.750921516933387e-17 4.063698308792037e-17 7.582964277521803e-17 -9.140632686583329e-17 1.086084083598221e-16 -2.282613652327126e-16
-1.946537298240351e-16 1.115562610750310e-17 -1.211815482344958e-16 4.337084118324799e-17 -3.054183748472229e-19 1.428311015070250e-16
3.419627935177464e-17 8.190564599673106e-17 -1.526556658859590e-16 -3.862731695813657e-17 1.162105026612740e-16 -5.281902602756543e-16
-1.387778780781446e-17 2.539811442995022e-17 3.147411765146316e-17 1.291488951162201e-17 6.970069696094627e-17 -3.788095959251909e-19
-1.756963191302306e-16 -9.478705346902253e-17 -1.960148106741908e-16 8.167364624947371e-17 -9.013617645342600e-17 -1.457303094619863e-17
-1.387778780781445e-17 -3.889427591334375e-16 -2.136111405178396e-16 1.165372427374293e-16 -1.705092768212893e-16 3.042631266075348e-16
1.086648412768370e-16 -2.031849154396018e-17 -7.437084071668732e-18 -3.724431461172549e-16 -2.120667888679073e-16 1.353233384044887e-16
-1.364204168924659e-16 -3.283519850161897e-17 1.915668676090911e-16 6.572749108469762e-17 -6.515767760887252e-17 -3.869578052416641e-17
1.361080850155677e-18 -1.834981037165320e-16 -1.015924577198008e-17 -2.340507166859962e-16 1.979397616000990e-17 9.432122023313993e-17
9.750921516933387e-17 4.063698308792037e-17 7.582964277521803e-17 -9.140632686583329e-17 1.086084083598221e-16 -2.282613652327126e-16
-1.387778780781446e-17 2.539811442995022e-17 3.147411765146316e-17 1.291488951162201e-17 6.970069696094627e-17 -3.788095959251909e-19
-5.937557347294526e-16 -3.519265968729764e-17 -3.236370626448322e-16 1.943907830691782e-16 -1.526249001135124e-17 7.262645309456834e-16
2.552445039412830e-16 0.000000000000000e+00 4.901705163386058e-16 -6.493242501718929e-16 2.209041068680913e-16 -4.392826337199353e-16
-1.756963191302306e-16 -9.478705346902253e-17 -1.960148106741908e-16 8.167364624947371e-17 -9.013617645342600e-17 -1.457303094619863e-17
-1.364204168924659e-16 -3.283519850161897e-17 1.915668676090911e-16 6.572749108469762e-17 -6.515767760887252e-17 -3.869578052416641e-17
-2.294816889967001e-16 1.543814472507474e-16 1.814076218371109e-16 1.195917113027301e-16 4.085774098059492e-16 -2.385521225403409e-16
5.679929197848698e-16 1.415000397784559e-16 1.814076218371109e-16 -4.470301480087344e-16 -5.980692783506708e-16 2.695168723850574e-16
1.361080850155677e-18 -1.834981037165320e-16 -1.015924577198008e-17 -2.340507166859962e-16 1.979397616000990e-17 9.432122023313993e-17
        </DataArray>
  </PointData>
  <CellData>
        <DataArray type="Float64" Name="element_2PK_stresses_xyz" NumberOfComponents="6" format="ascii">
2.775557561562891e-15 -6.938893903907228e-16 4.163336342344337e-16 -2.602085213965212e-16 3.794707603699265e-18 -3.577867169202165e-17
4.163336342344337e-15 -1.387778780781446e-16 1.387778780781446e-16 -1.344410693882025e-15 1.897353801849633e-18 -1.517883041479706e-17
2.775557561562891e-16 0.000000000000000e+00 -1.387778780781446e-16 4.163336342344337e-16 8.283304597789257e-16 -7.501052730340962e-15
3.330669073875470e-15 -1.249000902703301e-15 1.387778780781446e-15 -6.505213034913025e-16 -2.886688284242660e-16 1.141068576432369e-14
4.163336342344337e-16 -4.163336342344337e-16 5.551115123125783e-16 1.994931997373326e-16 2.760378731148093e-15 -3.466194345436154e-15
1.665334536937735e-15 0.000000000000000e+00 -9.714451465470120e-16 -5.637851296924624e-16 -2.778268066994105e-15 -4.293440603042574e-16
-8.326672684688674e-16 -1.387778780781446e-15 -1.526556658859590e-15 -9.627715291671279e-16 -1.384526174263990e-15 -9.553447442856022e-15
2.498001805406602e-15 1.387778780781446e-16 1.804112415015879e-15 -1.934216675714140e-15 1.364739484616128e-15 1.341754398559436e-14
-4.163336342344337e-16 -1.526556658859590e-15 1.387778780781446e-16 -1.088538981175446e-15 -1.683765973869988e-15 1.302343649589588e-14
-1.942890293094024e-15 1.387778780781446e-16 4.163336342344337e-16 4.770489558936220e-17 1.674821305946984e-15 -1.082630079335400e-14
-1.387778780781446e-15 -1.110223024625157e-15 -5.551115123125783e-16 -1.340073885192083e-15 -2.726768463801042e-16 -3.190264892538597e-15
4.163336342344337e-16 8.326672684688674e-16 1.526556658859590e-15 -1.925543058334256e-15 2.631900773708561e-16 1.539024983843174e-15
9.714451465470120e-16 -1.387778780781446e-16 2.775557561562891e-16 -1.626303258728257e-16 -2.829767670187165e-16 5.154297127996088e-15
-1.387778780781446e-16 -1.387778780781446e-15 -4.163336342344337e-16 -1.192622389734055e-16 2.764715539838035e-16 -6.316019755814305e-15
-2.775557561562891e-16 -1.387778780781446e-16 -2.775557561562891e-16 -5.182486384480711e-16 -5.005219329279331e-15 3.064497440530279e-15
-1.110223024625157e-15 -6.938893903907228e-16 0.000000000000000e+00 -1.266348137463069e-15 5.565209751368094e-15 -3.574072461598467e-15
-1.387778780781446e-16 -8.326672684688674e-16 5.551115123125783e-16 -5.811323644522305e-16 3.252606517456503e-18 1.132991270247352e-15
-1.387778780781446e-16 -8.326672684688674e-16 -4.163336342344337e-16 -8.630249292984613e-16 -1.626303258728258e-18 -1.602450810933575e-15
0.000000000000000e+00 0.000000000000000e+00 -8.326672684688674e-16 -2.298508605669269e-16 -2.797241605012601e-16 1.973247953923618e-16
0.000000000000000e+00 -1.387778780781446e-16 2.498001805406602e-15 -1.088538981175446e-15 5.627009275199766e-16 3.702550419037998e-16
        </DataArray>
        <DataArray type="Float64" Name="element_GL_strains_xyz" NumberOfComponents="6" format="ascii">
2.775557561562891e-16 -6.938893903907228e-17 4.163336342344337e-17 -2.602085213965212e-17 3.794707603699266e-19 -3.577867169202165e-18
4.163336342344337e-16 -1.387778780781446e-17 1.387778780781446e-17 -1.344410693882025e-16 1.897353801849633e-19 -1.517883041479706e-18
2.775557561562891e-17 0.000000000000000e+00 -1.387778780781446e-17 4.163336342344336e-17 8.283304597789254e-17 -7.501052730340963e-16
3.330669073875470e-16 -1.249000902703301e-16 1.387778780781446e-16 -6.505213034913023e-17 -2.886688284242659e-17 1.141068576432369e-15
4.163336342344337e-17 -4.163336342344337e-17 5.551115123125783e-17 1.994931997373326e-17 2.760378731148093e-16 -3.466194345436154e-16
1.665334536937735e-16 0.000000000000000e+00 -9.714451465470120e-17 -5.637851296924624e-17 -2.778268066994105e-16 -4.293440603042573e-17
-8.326672684688674e-17 -1.387778780781446e-16 -1.526556658859590e-16 -9.627715291671279e-17 -1.384526174263990e-16 -9.553447442856022e-16
2.498001805406602e-16 1.387778780781446e-17 1.804112415015879e-16 -1.934216675714140e-16 1.364739484616128e-16 1.341754398559436e-15
-4.163336342344337e-17 -1.526556658859590e-16 1.387778780781446e-17 -1.088538981175446e-16 -1.683765973869988e-16 1.302343649589588e-15
-1.942890293094024e-16 1.387778780781446e-17 4.163336342344337e-17 4.770489558936223e-18 1.674821305946983e-16 -1.082630079335400e-15
-1.387778780781446e-16 -1.110223024625157e-16 -5.551115123125783e-17 -1.340073885192083e-16 -2.726768463801042e-17 -3.190264892538597e-16
4.163336342344337e-17 8.326672684688674e-17 1.526556658859590e-16 -1.925543058334256e-16 2.631900773708560e-17 1.539024983843175e-16
9.714451465470120e-17 -1.387778780781446e-17 2.775557561562891e-17 -1.626303258728257e-17 -2.829767670187165e-17 5.154297127996088e-16
-1.387778780781446e-17 -1.387778780781446e-16 -4.163336342344337e-17 -1.192622389734054e-17 2.764715539838034e-17 -6.316019755814305e-16
-2.775557561562891e-17 -1.387778780781446e-17 -2.775557561562891e-17 -5.182486384480711e-17 -5.005219329279331e-16 3.064497440530279e-16
-1.110223024625157e-16 -6.938893903907228e-17 0.000000000000000e+00 -1.266348137463069e-16 5.565209751368094e-16 -3.574072461598467e-16
-1.387778780781446e-17 -8.326672684688674e-17 5.551115123125783e-17 -5.811323644522305e-17 3.252606517456504e-19 1.132991270247352e-16
-1.387778780781446e-17 -8.326672684688674e-17 -4.163336342344337e-17 -8.630249292984613e-17 -1.626303258728258e-19 -1.602450810933575e-16
0.000000000000000e+00 0.000000000000000e+00 -8.326672684688674e-17 -2.298508605669269e-17 -2.797241605012601e-17 1.973247953923618e-17
0.000000000000000e+00 -1.387778780781446e-17 2.498001805406602e-16 -1.088538981175447e-16 5.627009275199766e-17 3.702550419037998e-17
        </DataArray>
        <DataArray type="Float64" Name="element_owner" format="ascii">
0.000000000000000e+00
0.000000000000000e+00
0.000000000000000e+00
0.000000000000000e+00
0.000000000000000e+00
0.000000000000000e+00
0.000000000000000e+00
0.000000000000000e+00
0.000000000000000e+00
0.000000000000000e+00
0.000000000000000e+00
0.000000000000000e+00
0.000000000000000e+00
0.000000000000000e+00
0.000000000000000e+00
0.000000000000000e+00
0.000000000000000e+00
0.000000000000000e+00
0.000000000000000e+00
0.000000000000000e+00
        </DataArray>
      </CellData>

    </Piece>
  </UnstructuredGrid>
</VTKFile>
