<?xml version="1.0" ?> 
<!-- 
# vtk DataFile Version 3.0
-->
<VTKFile type="UnstructuredGrid" version="0.1" compressor="vtkZLibDataCompressor" byte_order="LittleEndian">
  <UnstructuredGrid>
    <FieldData>
      <DataArray type="Float64" Name="TIME" NumberOfTuples="1" format="ascii">
1e-08
      </DataArray>
    </FieldData>

    <Piece NumberOfPoints="160" NumberOfCells="20" >
      <Points>
        <DataArray type="Float64" NumberOfComponents="3" format="ascii">
0.000000000000000e+00 1.000000000000000e+00 1.000000000000000e-01
0.000000000000000e+00 1.000000000000000e+00 4.999999999999999e-02
0.000000000000000e+00 2.000000000000000e+00 4.999999999999999e-02
0.000000000000000e+00 2.000000000000000e+00 1.000000000000000e-01
5.000000000000000e-01 1.000000000000000e+00 1.000000000000000e-01
5.000000000000000e-01 1.000000000000000e+00 5.000000000000001e-02
5.000000000000001e-01 2.000000000000000e+00 5.000000000000000e-02
5.000000000000000e-01 2.000000000000000e+00 1.000000000000000e-01
0.000000000000000e+00 1.000000000000000e+00 4.999999999999999e-02
0.000000000000000e+00 1.000000000000000e+00 0.000000000000000e+00
0.000000000000000e+00 2.000000000000000e+00 0.000000000000000e+00
0.000000000000000e+00 2.000000000000000e+00 4.999999999999999e-02
5.000000000000000e-01 1.000000000000000e+00 5.000000000000001e-02
5.000000000000000e-01 1.000000000000000e+00 0.000000000000000e+00
5.000000000000000e-01 2.000000000000000e+00 0.000000000000000e+00
5.000000000000001e-01 2.000000000000000e+00 5.000000000000000e-02
0.000000000000000e+00 1.000000000000000e+00 0.000000000000000e+00
0.000000000000000e+00 1.000000000000000e+00 -5.000000000000002e-02
0.000000000000000e+00 2.000000000000000e+00 -5.000000000000002e-02
0.000000000000000e+00 2.000000000000000e+00 0.000000000000000e+00
5.000000000000000e-01 1.000000000000000e+00 0.000000000000000e+00
5.000000000000002e-01 1.000000000000000e+00 -5.000000000000002e-02
5.000000000000000e-01 2.000000000000000e+00 -5.000000000000001e-02
5.000000000000000e-01 2.000000000000000e+00 0.000000000000000e+00
0.000000000000000e+00 1.000000000000000e+00 -5.000000000000002e-02
0.000000000000000e+00 1.000000000000000e+00 -1.000000000000000e-01
0.000000000000000e+00 2.000000000000000e+00 -1.000000000000000e-01
0.000000000000000e+00 2.000000000000000e+00 -5.000000000000002e-02
5.000000000000002e-01 1.000000000000000e+00 -5.000000000000002e-02
5.000000000000000e-01 1.000000000000000e+00 -1.000000000000000e-01
5.000000000000000e-01 2.000000000000000e+00 -1.000000000000000e-01
5.000000000000000e-01 2.000000000000000e+00 -5.000000000000001e-02
5.000000000000000e-01 1.000000000000000e+00 1.000000000000000e-01
5.000000000000000e-01 1.000000000000000e+00 5.000000000000001e-02
5.000000000000001e-01 2.000000000000000e+00 5.000000000000000e-02
5.000000000000000e-01 2.000000000000000e+00 1.000000000000000e-01
1.000000000000000e+00 1.000000000000000e+00 1.000000000000000e-01
1.000000000000000e+00 1.000000000000000e+00 5.000000000000000e-02
1.000000000000000e+00 2.000000000000000e+00 5.000000000000001e-02
1.000000000000000e+00 2.000000000000000e+00 1.000000000000000e-01
5.000000000000000e-01 1.000000000000000e+00 5.000000000000001e-02
5.000000000000000e-01 1.000000000000000e+00 0.000000000000000e+00
5.000000000000000e-01 2.000000000000000e+00 0.000000000000000e+00
5.000000000000001e-01 2.000000000000000e+00 5.000000000000000e-02
1.000000000000000e+00 1.000000000000000e+00 5.000000000000000e-02
1.000000000000000e+00 1.000000000000000e+00 -6.938893903907228e-18
1.000000000000000e+00 2.000000000000000e+00 0.000000000000000e+00
1.000000000000000e+00 2.000000000000000e+00 5.000000000000001e-02
5.000000000000000e-01 1.000000000000000e+00 0.000000000000000e+00
5.000000000000002e-01 1.000000000000000e+00 -5.000000000000002e-02
5.000000000000000e-01 2.000000000000000e+00 -5.000000000000001e-02
5.000000000000000e-01 2.000000000000000e+00 0.000000000000000e+00
1.000000000000000e+00 1.000000000000000e+00 -6.938893903907228e-18
1.000000000000000e+00 1.000000000000000e+00 -5.000000000000002e-02
1.000000000000000e+00 2.000000000000000e+00 -5.000000000000002e-02
1.000000000000000e+00 2.000000000000000e+00 0.000000000000000e+00
5.000000000000002e-01 1.000000000000000e+00 -5.000000000000002e-02
5.000000000000000e-01 1.000000000000000e+00 -1.000000000000000e-01
5.000000000000000e-01 2.000000000000000e+00 -1.000000000000000e-01
5.000000000000000e-01 2.000000000000000e+00 -5.000000000000001e-02
1.000000000000000e+00 1.000000000000000e+00 -5.000000000000002e-02
1.000000000000000e+00 1.000000000000000e+00 -1.000000000000000e-01
1.000000000000000e+00 2.000000000000000e+00 -1.000000000000000e-01
1.000000000000000e+00 2.000000000000000e+00 -5.000000000000002e-02
1.000000000000000e+00 1.000000000000000e+00 1.000000000000000e-01
1.000000000000000e+00 1.000000000000000e+00 5.000000000000000e-02
1.000000000000000e+00 2.000000000000000e+00 5.000000000000001e-02
1.000000000000000e+00 2.000000000000000e+00 1.000000000000000e-01
1.500000000000000e+00 1.000000000000000e+00 1.000000000000000e-01
1.500000000000000e+00 1.000000000000000e+00 5.000000000000000e-02
1.500000000000000e+00 2.000000000000000e+00 5.000000000000003e-02
1.500000000000000e+00 2.000000000000000e+00 1.000000000000000e-01
1.000000000000000e+00 1.000000000000000e+00 5.000000000000000e-02
1.000000000000000e+00 1.000000000000000e+00 -6.938893903907228e-18
1.000000000000000e+00 2.000000000000000e+00 0.000000000000000e+00
1.000000000000000e+00 2.000000000000000e+00 5.000000000000001e-02
1.500000000000000e+00 1.000000000000000e+00 5.000000000000000e-02
1.500000000000000e+00 1.000000000000000e+00 0.000000000000000e+00
1.500000000000000e+00 2.000000000000000e+00 0.000000000000000e+00
1.500000000000000e+00 2.000000000000000e+00 5.000000000000003e-02
1.000000000000000e+00 1.000000000000000e+00 -6.938893903907228e-18
1.000000000000000e+00 1.000000000000000e+00 -5.000000000000002e-02
1.000000000000000e+00 2.000000000000000e+00 -5.000000000000002e-02
1.000000000000000e+00 2.000000000000000e+00 0.000000000000000e+00
1.500000000000000e+00 1.000000000000000e+00 0.000000000000000e+00
1.500000000000000e+00 1.000000000000000e+00 -5.000000000000002e-02
1.500000000000000e+00 2.000000000000000e+00 -5.000000000000002e-02
1.500000000000000e+00 2.000000000000000e+00 0.000000000000000e+00
1.000000000000000e+00 1.000000000000000e+00 -5.000000000000002e-02
1.000000000000000e+00 1.000000000000000e+00 -1.000000000000000e-01
1.000000000000000e+00 2.000000000000000e+00 -1.000000000000000e-01
1.000000000000000e+00 2.000000000000000e+00 -5.000000000000002e-02
1.500000000000000e+00 1.000000000000000e+00 -5.000000000000002e-02
1.500000000000000e+00 1.000000000000000e+00 -1.000000000000000e-01
1.500000000000000e+00 2.000000000000000e+00 -1.000000000000000e-01
1.500000000000000e+00 2.000000000000000e+00 -5.000000000000002e-02
1.500000000000000e+00 1.000000000000000e+00 1.000000000000000e-01
1.500000000000000e+00 1.000000000000000e+00 5.000000000000000e-02
1.500000000000000e+00 2.000000000000000e+00 5.000000000000003e-02
1.500000000000000e+00 2.000000000000000e+00 1.000000000000000e-01
2.000000000000000e+00 1.000000000000000e+00 1.000000000000000e-01
2.000000000000000e+00 1.000000000000000e+00 5.000000000000001e-02
2.000000000000000e+00 2.000000000000000e+00 5.000000000000000e-02
2.000000000000000e+00 2.000000000000000e+00 1.000000000000000e-01
1.500000000000000e+00 1.000000000000000e+00 5.000000000000000e-02
1.500000000000000e+00 1.000000000000000e+00 0.000000000000000e+00
1.500000000000000e+00 2.000000000000000e+00 0.000000000000000e+00
1.500000000000000e+00 2.000000000000000e+00 5.000000000000003e-02
2.000000000000000e+00 1.000000000000000e+00 5.000000000000001e-02
2.000000000000000e+00 1.000000000000000e+00 0.000000000000000e+00
2.000000000000000e+00 2.000000000000000e+00 3.469446951953614e-18
2.000000000000000e+00 2.000000000000000e+00 5.000000000000000e-02
1.500000000000000e+00 1.000000000000000e+00 0.000000000000000e+00
1.500000000000000e+00 1.000000000000000e+00 -5.000000000000002e-02
1.500000000000000e+00 2.000000000000000e+00 -5.000000000000002e-02
1.500000000000000e+00 2.000000000000000e+00 0.000000000000000e+00
2.000000000000000e+00 1.000000000000000e+00 0.000000000000000e+00
2.000000000000000e+00 1.000000000000000e+00 -5.000000000000000e-02
2.000000000000000e+00 2.000000000000000e+00 -5.000000000000001e-02
2.000000000000000e+00 2.000000000000000e+00 3.469446951953614e-18
1.500000000000000e+00 1.000000000000000e+00 -5.000000000000002e-02
1.500000000000000e+00 1.000000000000000e+00 -1.000000000000000e-01
1.500000000000000e+00 2.000000000000000e+00 -1.000000000000000e-01
1.500000000000000e+00 2.000000000000000e+00 -5.000000000000002e-02
2.000000000000000e+00 1.000000000000000e+00 -5.000000000000000e-02
2.000000000000000e+00 1.000000000000000e+00 -1.000000000000000e-01
2.000000000000000e+00 2.000000000000000e+00 -1.000000000000000e-01
2.000000000000000e+00 2.000000000000000e+00 -5.000000000000001e-02
2.000000000000000e+00 1.000000000000000e+00 1.000000000000000e-01
2.000000000000000e+00 1.000000000000000e+00 5.000000000000001e-02
2.000000000000000e+00 2.000000000000000e+00 5.000000000000000e-02
2.000000000000000e+00 2.000000000000000e+00 1.000000000000000e-01
2.500000000000000e+00 1.000000000000000e+00 1.000000000000000e-01
2.500000000000000e+00 1.000000000000000e+00 5.000000000000000e-02
2.500000000000000e+00 2.000000000000000e+00 5.000000000000000e-02
2.500000000000000e+00 2.000000000000000e+00 1.000000000000000e-01
2.000000000000000e+00 1.000000000000000e+00 5.000000000000001e-02
2.000000000000000e+00 1.000000000000000e+00 0.000000000000000e+00
2.000000000000000e+00 2.000000000000000e+00 3.469446951953614e-18
2.000000000000000e+00 2.000000000000000e+00 5.000000000000000e-02
2.500000000000000e+00 1.000000000000000e+00 5.000000000000000e-02
2.500000000000000e+00 1.000000000000000e+00 0.000000000000000e+00
2.500000000000000e+00 2.000000000000000e+00 0.000000000000000e+00
2.500000000000000e+00 2.000000000000000e+00 5.000000000000000e-02
2.000000000000000e+00 1.000000000000000e+00 0.000000000000000e+00
2.000000000000000e+00 1.000000000000000e+00 -5.000000000000000e-02
2.000000000000000e+00 2.000000000000000e+00 -5.000000000000001e-02
2.000000000000000e+00 2.000000000000000e+00 3.469446951953614e-18
2.500000000000000e+00 1.000000000000000e+00 0.000000000000000e+00
2.500000000000000e+00 1.000000000000000e+00 -5.000000000000002e-02
2.500000000000000e+00 2.000000000000000e+00 -5.000000000000002e-02
2.500000000000000e+00 2.000000000000000e+00 0.000000000000000e+00
2.000000000000000e+00 1.000000000000000e+00 -5.000000000000000e-02
2.000000000000000e+00 1.000000000000000e+00 -1.000000000000000e-01
2.000000000000000e+00 2.000000000000000e+00 -1.000000000000000e-01
2.000000000000000e+00 2.000000000000000e+00 -5.000000000000001e-02
2.500000000000000e+00 1.000000000000000e+00 -5.000000000000002e-02
2.500000000000000e+00 1.000000000000000e+00 -1.000000000000000e-01
2.500000000000000e+00 2.000000000000000e+00 -1.000000000000000e-01
2.500000000000000e+00 2.000000000000000e+00 -5.000000000000002e-02
        </DataArray>
      </Points>

      <Cells>
        <DataArray type="Int32" Name="connectivity" format="ascii">
0 1 2 3 4 5 6 7 8 9 10 11 12 13 14 15 16 17 18 19 20 21 22 23 24 25 26 27 28 29 30 31 32 33 34 35 36 37 38 39 40 41 42 43 44 45 46 47 48 49 50 51 52 53 54 55 56 57 58 59 60 61 62 63 64 65 66 67 68 69 70 71 72 73 74 75 76 77 78 79 80 81 82 83 84 85 86 87 88 89 90 91 92 93 94 95 96 97 98 99 100 101 102 103 104 105 106 107 108 109 110 111 112 113 114 115 116 117 118 119 120 121 122 123 124 125 126 127 128 129 130 131 132 133 134 135 136 137 138 139 140 141 142 143 144 145 146 147 148 149 150 151 152 153 154 155 156 157 158 159 
        </DataArray>
        <DataArray type="Int32" Name="offsets" format="ascii">
8 16 24 32 40 48 56 64 72 80 88 96 104 112 120 128 136 144 152 160 
        </DataArray>
        <DataArray type="UInt8" Name="types" format="ascii">
12 12 12 12 12 12 12 12 12 12 12 12 12 12 12 12 12 12 12 12 
        </DataArray>
      </Cells>

  <PointData>
        <DataArray type="Float64" Name="displacement" NumberOfComponents="3" format="ascii">
-8.704107044991392e-02 -1.802323663203283e-13 4.662420669317502e-01
-7.036334674943703e-02 -1.283910797215127e-13 4.688500943681671e-01
-7.036334674966366e-02 -1.281704419133698e-13 4.688500943691886e-01
-8.704107045015372e-02 -1.806943762018150e-13 4.662420669327678e-01
-1.193666882967049e-01 -2.554655141822722e-13 6.408827968910005e-01
-1.009072521854749e-01 -1.972258607767983e-13 6.440291518022508e-01
-1.009072521857371e-01 -1.967720850418385e-13 6.440291518034004e-01
-1.193666882969779e-01 -2.554484408448715e-13 6.408827968921467e-01
-7.036334674943703e-02 -1.283910797215127e-13 4.688500943681671e-01
-5.370185315397535e-02 -7.626039453867445e-14 4.714541251997070e-01
-5.370185315418960e-02 -7.621067167821237e-14 4.714541252007320e-01
-7.036334674966366e-02 -1.281704419133698e-13 4.688500943691886e-01
-1.009072521854749e-01 -1.972258607767983e-13 6.440291518022508e-01
-8.245599978800555e-02 -1.384872216673128e-13 6.471731406775920e-01
-8.245599978825738e-02 -1.383149966440775e-13 6.471731406787448e-01
-1.009072521857371e-01 -1.967720850418385e-13 6.440291518034004e-01
-5.370185315397535e-02 -7.626039453867445e-14 4.714541251997070e-01
-3.704355168131487e-02 -2.442168601291599e-14 4.740570389745072e-01
-3.704355168151678e-02 -2.416986818644841e-14 4.740570389755360e-01
-5.370185315418960e-02 -7.621067167821237e-14 4.714541252007320e-01
-8.245599978800555e-02 -1.384872216673128e-13 6.471731406775920e-01
-6.400746571004270e-02 -7.983064472106893e-14 6.503160944631102e-01
-6.400746571028414e-02 -8.012883143453412e-14 6.503160944642662e-01
-8.245599978825738e-02 -1.383149966440775e-13 6.471731406787448e-01
-3.704355168131487e-02 -2.442168601291599e-14 4.740570389745072e-01
-2.037750278107522e-02 2.797140215391274e-14 4.766610469186616e-01
-2.037750278126399e-02 2.776182336000447e-14 4.766610469196943e-01
-3.704355168151678e-02 -2.416986818644841e-14 4.740570389755360e-01
-6.400746571004270e-02 -7.983064472106893e-14 6.503160944631102e-01
-4.555465892064673e-02 -2.128903957545942e-14 6.534598298057522e-01
-4.555465892087736e-02 -2.122314918243313e-14 6.534598298069115e-01
-6.400746571028414e-02 -8.012883143453412e-14 6.503160944642662e-01
-1.193666882967049e-01 -2.554655141822722e-13 6.408827968910005e-01
-1.009072521854749e-01 -1.972258607767983e-13 6.440291518022508e-01
-1.009072521857371e-01 -1.967720850418385e-13 6.440291518034004e-01
-1.193666882969779e-01 -2.554484408448715e-13 6.408827968921467e-01
-1.556845432796303e-01 -3.453341618233984e-13 8.314462769688336e-01
-1.358672174952318e-01 -2.813213981976773e-13 8.350239614621847e-01
-1.358672174955262e-01 -2.811293167382337e-13 8.350239614634453e-01
-1.556845432799354e-01 -3.455471076116368e-13 8.314462769700905e-01
-1.009072521854749e-01 -1.972258607767983e-13 6.440291518022508e-01
-8.245599978800555e-02 -1.384872216673128e-13 6.471731406775920e-01
-8.245599978825738e-02 -1.383149966440775e-13 6.471731406787448e-01
-1.009072521857371e-01 -1.967720850418385e-13 6.440291518034004e-01
-1.358672174952318e-01 -2.813213981976773e-13 8.350239614621847e-01
-1.160629295995466e-01 -2.171209858276114e-13 8.385973590166765e-01
-1.160629295998309e-01 -2.170531034493157e-13 8.385973590179405e-01
-1.358672174955262e-01 -2.811293167382337e-13 8.350239614634453e-01
-8.245599978800555e-02 -1.384872216673128e-13 6.471731406775920e-01
-6.400746571004270e-02 -7.983064472106893e-14 6.503160944631102e-01
-6.400746571028414e-02 -8.012883143453412e-14 6.503160944642662e-01
-8.245599978825738e-02 -1.383149966440775e-13 6.471731406787448e-01
-1.160629295995466e-01 -2.171209858276114e-13 8.385973590166765e-01
-9.626110789884003e-02 -1.529185002963239e-13 8.421696797420286e-01
-9.626110789911417e-02 -1.528852341998852e-13 8.421696797432963e-01
-1.160629295998309e-01 -2.170531034493157e-13 8.385973590179405e-01
-6.400746571004270e-02 -7.983064472106893e-14 6.503160944631102e-01
-4.555465892064673e-02 -2.128903957545942e-14 6.534598298057522e-01
-4.555465892087736e-02 -2.122314918243313e-14 6.534598298069115e-01
-6.400746571028414e-02 -8.012883143453412e-14 6.503160944642662e-01
-9.626110789884003e-02 -1.529185002963239e-13 8.421696797420286e-01
-7.645219928188661e-02 -8.857435235366835e-14 8.457437640142333e-01
-7.645219928215027e-02 -8.870872625489979e-14 8.457437640155046e-01
-9.626110789911417e-02 -1.528852341998852e-13 8.421696797432963e-01
-1.556845432796303e-01 -3.453341618233984e-13 8.314462769688336e-01
-1.358672174952318e-01 -2.813213981976773e-13 8.350239614621847e-01
-1.358672174955262e-01 -2.811293167382337e-13 8.350239614634453e-01
-1.556845432799354e-01 -3.455471076116368e-13 8.314462769700905e-01
-1.948866513233009e-01 -4.512449634044144e-13 1.033762018395886e+00
-1.741254585559403e-01 -3.810866887214697e-13 1.037647961000309e+00
-1.741254585562720e-01 -3.807543011882516e-13 1.037647961001693e+00
-1.948866513236445e-01 -4.514706205917993e-13 1.033762018397267e+00
-1.358672174952318e-01 -2.813213981976773e-13 8.350239614621847e-01
-1.160629295995466e-01 -2.171209858276114e-13 8.385973590166765e-01
-1.160629295998309e-01 -2.170531034493157e-13 8.385973590179405e-01
-1.358672174955262e-01 -2.811293167382337e-13 8.350239614634453e-01
-1.741254585559403e-01 -3.810866887214697e-13 1.037647961000309e+00
-1.533715593187230e-01 -3.105956978564089e-13 1.041531293741401e+00
-1.533715593190436e-01 -3.106370881324456e-13 1.041531293742788e+00
-1.741254585562720e-01 -3.807543011882516e-13 1.037647961001693e+00
-1.160629295995466e-01 -2.171209858276114e-13 8.385973590166765e-01
-9.626110789884003e-02 -1.529185002963239e-13 8.421696797420286e-01
-9.626110789911417e-02 -1.528852341998852e-13 8.421696797432963e-01
-1.160629295998309e-01 -2.170531034493157e-13 8.385973590179405e-01
-1.533715593187230e-01 -3.105956978564089e-13 1.041531293741401e+00
-1.326194902506190e-01 -2.403158915341524e-13 1.045413871799905e+00
-1.326194902509283e-01 -2.398105769749218e-13 1.045413871801296e+00
-1.533715593190436e-01 -3.106370881324456e-13 1.041531293742788e+00
-9.626110789884003e-02 -1.529185002963239e-13 8.421696797420286e-01
-7.645219928188661e-02 -8.857435235366835e-14 8.457437640142333e-01
-7.645219928215027e-02 -8.870872625489979e-14 8.457437640155046e-01
-9.626110789911417e-02 -1.528852341998852e-13 8.421696797432963e-01
-1.326194902506190e-01 -2.403158915341524e-13 1.045413871799905e+00
-1.118630470179432e-01 -1.696264758774758e-13 1.049297728074761e+00
-1.118630470182404e-01 -1.698522827857346e-13 1.049297728076155e+00
-1.326194902509283e-01 -2.398105769749218e-13 1.045413871801296e+00
-1.948866513233009e-01 -4.512449634044144e-13 1.033762018395886e+00
-1.741254585559403e-01 -3.810866887214697e-13 1.037647961000309e+00
-1.741254585562720e-01 -3.807543011882516e-13 1.037647961001693e+00
-1.948866513236445e-01 -4.514706205917993e-13 1.033762018397267e+00
-2.358010471223546e-01 -5.668567372042529e-13 1.243871703257455e+00
-2.144766007599664e-01 -4.917617677128285e-13 1.247944665701894e+00
-2.144766007603163e-01 -4.915601450540283e-13 1.247944665703378e+00
-2.358010471227080e-01 -5.671214427242112e-13 1.243871703258937e+00
-1.741254585559403e-01 -3.810866887214697e-13 1.037647961000309e+00
-1.533715593187230e-01 -3.105956978564089e-13 1.041531293741401e+00
-1.533715593190436e-01 -3.106370881324456e-13 1.041531293742788e+00
-1.741254585562720e-01 -3.807543011882516e-13 1.037647961001693e+00
-2.144766007599664e-01 -4.917617677128285e-13 1.247944665701894e+00
-1.931623979836884e-01 -4.163226479387275e-13 1.252013998678037e+00
-1.931623979840352e-01 -4.162704703746166e-13 1.252013998679523e+00
-2.144766007603163e-01 -4.915601450540283e-13 1.247944665703378e+00
-1.533715593187230e-01 -3.105956978564089e-13 1.041531293741401e+00
-1.326194902506190e-01 -2.403158915341524e-13 1.045413871799905e+00
-1.326194902509283e-01 -2.398105769749218e-13 1.045413871801296e+00
-1.533715593190436e-01 -3.106370881324456e-13 1.041531293742788e+00
-1.931623979836884e-01 -4.163226479387275e-13 1.252013998678037e+00
-1.718490066647954e-01 -3.411047863994637e-13 1.256082749437947e+00
-1.718490066651387e-01 -3.412541256453878e-13 1.256082749439434e+00
-1.931623979840352e-01 -4.162704703746166e-13 1.252013998679523e+00
-1.326194902506190e-01 -2.403158915341524e-13 1.045413871799905e+00
-1.118630470179432e-01 -1.696264758774758e-13 1.049297728074761e+00
-1.118630470182404e-01 -1.698522827857346e-13 1.049297728076155e+00
-1.326194902509283e-01 -2.398105769749218e-13 1.045413871801296e+00
-1.718490066647954e-01 -3.411047863994637e-13 1.256082749437947e+00
-1.505276167924040e-01 -2.656845084775338e-13 1.260154089615629e+00
-1.505276167927433e-01 -2.655661849785943e-13 1.260154089617118e+00
-1.718490066651387e-01 -3.412541256453878e-13 1.256082749439434e+00
-2.358010471223546e-01 -5.668567372042529e-13 1.243871703257455e+00
-2.144766007599664e-01 -4.917617677128285e-13 1.247944665701894e+00
-2.144766007603163e-01 -4.915601450540283e-13 1.247944665703378e+00
-2.358010471227080e-01 -5.671214427242112e-13 1.243871703258937e+00
-2.772044958509755e-01 -6.766485518629106e-13 1.457970071274657e+00
-2.556976974802321e-01 -6.025357189677080e-13 1.462103297302153e+00
-2.556976974805777e-01 -6.022255382986763e-13 1.462103297303626e+00
-2.772044958513169e-01 -6.773701774515435e-13 1.457970071276131e+00
-2.144766007599664e-01 -4.917617677128285e-13 1.247944665701894e+00
-1.931623979836884e-01 -4.163226479387275e-13 1.252013998678037e+00
-1.931623979840352e-01 -4.162704703746166e-13 1.252013998679523e+00
-2.144766007603163e-01 -4.915601450540283e-13 1.247944665703378e+00
-2.556976974802321e-01 -6.025357189677080e-13 1.462103297302153e+00
-2.341965927627588e-01 -5.274859757375996e-13 1.466234501576778e+00
-2.341965927631082e-01 -5.274653768779821e-13 1.466234501578250e+00
-2.556976974805777e-01 -6.022255382986763e-13 1.462103297303626e+00
-1.931623979836884e-01 -4.163226479387275e-13 1.252013998678037e+00
-1.718490066647954e-01 -3.411047863994637e-13 1.256082749437947e+00
-1.718490066651387e-01 -3.412541256453878e-13 1.256082749439434e+00
-1.931623979840352e-01 -4.162704703746166e-13 1.252013998679523e+00
-2.341965927627588e-01 -5.274859757375996e-13 1.466234501576778e+00
-2.126958206943399e-01 -4.523939847848219e-13 1.470366299034859e+00
-2.126958206946927e-01 -4.526214920260574e-13 1.470366299036331e+00
-2.341965927631082e-01 -5.274653768779821e-13 1.466234501578250e+00
-1.718490066647954e-01 -3.411047863994637e-13 1.256082749437947e+00
-1.505276167924040e-01 -2.656845084775338e-13 1.260154089615629e+00
-1.505276167927433e-01 -2.655661849785943e-13 1.260154089617118e+00
-1.718490066651387e-01 -3.412541256453878e-13 1.256082749439434e+00
-2.126958206943399e-01 -4.523939847848219e-13 1.470366299034859e+00
-1.911891218331849e-01 -3.774787318932795e-13 1.474500222744710e+00
-1.911891218335422e-01 -3.779098104820416e-13 1.474500222746181e+00
-2.126958206946927e-01 -4.526214920260574e-13 1.470366299036331e+00
        </DataArray>
        <DataArray type="Float64" Name="nodal_2PK_stresses_xyz" NumberOfComponents="6" format="ascii">
-3.670508443167296e-02 -3.243664636741008e-15 4.679023579141632e-02 -1.333663486904881e-13 1.963797080477388e-14 2.301035427113770e-03
5.310012745604086e-03 -5.614283105215347e-16 4.662927985181797e-02 1.683762489552247e-14 1.985560066576405e-14 2.116155794139985e-03
5.310012745795924e-03 -1.235390094201692e-15 4.662927985195497e-02 1.570528210168383e-14 -2.187233211954481e-15 2.116155794283723e-03
-3.670508443142446e-02 -3.466777158891008e-15 4.679023579155890e-02 -1.183929075830880e-13 -1.238120644177485e-14 2.301035427209896e-03
5.333681292360178e-03 5.476744282409150e-15 7.111397843459204e-02 -6.774669898960314e-16 1.582662460005041e-14 2.306426854735696e-03
3.817061060704546e-02 5.517576707913771e-15 7.103232542226438e-02 1.145260341774161e-13 2.244128545076534e-14 2.084605396000448e-03
3.817061060728490e-02 3.259945238305102e-15 7.103232542242721e-02 1.151732165131506e-13 1.715457962397881e-14 2.084605396132589e-03
5.333681292621248e-03 -3.107556551725464e-15 7.111397843472600e-02 -4.469302485464958e-15 5.325072570840805e-14 2.306426854848358e-03
5.310012745604086e-03 -5.614283105215347e-16 4.662927985181797e-02 1.683762489552247e-14 1.985560066576405e-14 2.116155794139985e-03
4.748778179042443e-02 5.230724596667896e-15 4.646841171148787e-02 1.536561339476899e-13 2.034906347066162e-14 1.745996070869837e-03
4.748778179056556e-02 4.084651048215674e-15 4.646841171163476e-02 1.565397328227284e-13 6.755392360925299e-15 1.745996071050154e-03
5.310012745795924e-03 -1.235390094201692e-15 4.662927985195497e-02 1.570528210168383e-14 -2.187233211954481e-15 2.116155794283723e-03
3.817061060704546e-02 5.517576707913771e-15 7.103232542226438e-02 1.145260341774161e-13 2.244128545076534e-14 2.084605396000448e-03
7.114635484394169e-02 -2.251982119665358e-15 7.094716583073825e-02 2.334667564151865e-13 6.860314029308654e-15 1.639909100872052e-03
7.114635484415904e-02 -2.243353212841495e-15 7.094716583088156e-02 2.329399715043504e-13 2.881806007519563e-14 1.639909101031885e-03
3.817061060728490e-02 3.259945238305102e-15 7.103232542242721e-02 1.151732165131506e-13 1.715457962397881e-14 2.084605396132589e-03
4.748778179042443e-02 5.230724596667896e-15 4.646841171148787e-02 1.536561339476899e-13 2.034906347066162e-14 1.745996070869837e-03
8.983173028999424e-02 -3.061742224543056e-15 4.662362080183333e-02 2.971053715174422e-13 3.666929816785374e-15 4.335797701709910e-04
8.983173029008476e-02 4.659999931056758e-15 4.662362080195285e-02 2.929972035274578e-13 -7.441735575344999e-15 4.335797703112193e-04
4.748778179056556e-02 4.084651048215674e-15 4.646841171163476e-02 1.565397328227284e-13 6.755392360925299e-15 1.745996071050154e-03
7.114635484394169e-02 -2.251982119665358e-15 7.094716583073825e-02 2.334667564151865e-13 6.860314029308654e-15 1.639909100872052e-03
1.042392834101440e-01 -3.333648630756117e-15 7.102844385730263e-02 3.562330255336051e-13 2.749429277149638e-15 3.092856045116402e-04
1.042392834103412e-01 -8.372796775689096e-15 7.102844385748931e-02 3.510588903657251e-13 2.933670016366645e-14 3.092856046466092e-04
7.114635484415904e-02 -2.243353212841495e-15 7.094716583088156e-02 2.329399715043504e-13 2.881806007519563e-14 1.639909101031885e-03
8.983173028999424e-02 -3.061742224543056e-15 4.662362080183333e-02 2.971053715174422e-13 3.666929816785374e-15 4.335797701709910e-04
1.323317014757996e-01 3.950711309927344e-16 4.677874209287316e-02 4.405764942905335e-13 -1.286526378011397e-14 -6.905994853726428e-04
1.323317014758298e-01 -3.468112055422373e-15 4.677874209302137e-02 4.394505130375289e-13 -2.554312086813685e-14 -6.905994852649108e-04
8.983173029008476e-02 4.659999931056758e-15 4.662362080195285e-02 2.929972035274578e-13 -7.441735575344999e-15 4.335797703112193e-04
1.042392834101440e-01 -3.333648630756117e-15 7.102844385730263e-02 3.562330255336051e-13 2.749429277149638e-15 3.092856045116402e-04
1.374385367225585e-01 -4.614185603874595e-15 7.111322846310446e-02 4.732731959411297e-13 2.335821325611907e-14 -7.996511233567493e-04
1.374385367227376e-01 -1.587054847885429e-16 7.111322846331367e-02 4.754395360896168e-13 -4.275149415845659e-14 -7.996511232556006e-04
1.042392834103412e-01 -8.372796775689096e-15 7.102844385748931e-02 3.510588903657251e-13 2.933670016366645e-14 3.092856046466092e-04
5.333681292360178e-03 5.476744282409150e-15 7.111397843459204e-02 -6.774669898960314e-16 1.582662460005041e-14 2.306426854735696e-03
3.817061060704546e-02 5.517576707913771e-15 7.103232542226438e-02 1.145260341774161e-13 2.244128545076534e-14 2.084605396000448e-03
3.817061060728490e-02 3.259945238305102e-15 7.103232542242721e-02 1.151732165131506e-13 1.715457962397881e-14 2.084605396132589e-03
5.333681292621248e-03 -3.107556551725464e-15 7.111397843472600e-02 -4.469302485464958e-15 5.325072570840805e-14 2.306426854848358e-03
4.581425371331756e-02 -5.723073731968463e-15 9.501292023475186e-02 8.086883693952522e-14 2.925054919333758e-14 2.138920068045913e-03
7.002685924254209e-02 2.740016801553958e-15 9.489461727307516e-02 1.981189884557305e-13 2.275242451576696e-14 1.949553570819291e-03
7.002685924282778e-02 3.787167685348915e-15 9.489461727323931e-02 2.001776425603154e-13 1.073581136480991e-14 1.949553570927860e-03
4.581425371359663e-02 2.516690356845193e-16 9.501292023495830e-02 7.846998361258101e-14 1.571357191432661e-15 2.138920068164329e-03
3.817061060704546e-02 5.517576707913771e-15 7.103232542226438e-02 1.145260341774161e-13 2.244128545076534e-14 2.084605396000448e-03
7.114635484394169e-02 -2.251982119665358e-15 7.094716583073825e-02 2.334667564151865e-13 6.860314029308654e-15 1.639909100872052e-03
7.114635484415904e-02 -2.243353212841495e-15 7.094716583088156e-02 2.329399715043504e-13 2.881806007519563e-14 1.639909101031885e-03
3.817061060728490e-02 3.259945238305102e-15 7.103232542242721e-02 1.151732165131506e-13 1.715457962397881e-14 2.084605396132589e-03
7.002685924254209e-02 2.740016801553958e-15 9.489461727307516e-02 1.981189884557305e-13 2.275242451576696e-14 1.949553570819291e-03
9.430710957465467e-02 5.887428566700280e-15 9.477845489929264e-02 3.157508019125504e-13 1.764057278219865e-14 1.542945448870953e-03
9.430710957494527e-02 3.509611929192628e-15 9.477845489941730e-02 3.163922058711056e-13 1.871258716337228e-14 1.542945449013849e-03
7.002685924282778e-02 3.787167685348915e-15 9.489461727323931e-02 2.001776425603154e-13 1.073581136480991e-14 1.949553570927860e-03
7.114635484394169e-02 -2.251982119665358e-15 7.094716583073825e-02 2.334667564151865e-13 6.860314029308654e-15 1.639909100872052e-03
1.042392834101440e-01 -3.333648630756117e-15 7.102844385730263e-02 3.562330255336051e-13 2.749429277149638e-15 3.092856045116402e-04
1.042392834103412e-01 -8.372796775689096e-15 7.102844385748931e-02 3.510588903657251e-13 2.933670016366645e-14 3.092856046466092e-04
7.114635484415904e-02 -2.243353212841495e-15 7.094716583088156e-02 2.329399715043504e-13 2.881806007519563e-14 1.639909101031885e-03
9.430710957465467e-02 5.887428566700280e-15 9.477845489929264e-02 3.157508019125504e-13 1.764057278219865e-14 1.542945448870953e-03
1.186570190357723e-01 -4.551780911310091e-15 9.489731009361566e-02 4.294426455747297e-13 -4.474070731341411e-15 2.927052875665094e-04
1.186570190360708e-01 -9.548547811646956e-16 9.489731009373695e-02 4.349966453989802e-13 4.921821938509013e-15 2.927052876936533e-04
9.430710957494527e-02 3.509611929192628e-15 9.477845489941730e-02 3.163922058711056e-13 1.871258716337228e-14 1.542945449013849e-03
1.042392834101440e-01 -3.333648630756117e-15 7.102844385730263e-02 3.562330255336051e-13 2.749429277149638e-15 3.092856045116402e-04
1.374385367225585e-01 -4.614185603874595e-15 7.111322846310446e-02 4.732731959411297e-13 2.335821325611907e-14 -7.996511233567493e-04
1.374385367227376e-01 -1.587054847885429e-16 7.111322846331367e-02 4.754395360896168e-13 -4.275149415845659e-14 -7.996511232556006e-04
1.042392834103412e-01 -8.372796775689096e-15 7.102844385748931e-02 3.510588903657251e-13 2.933670016366645e-14 3.092856046466092e-04
1.186570190357723e-01 -4.551780911310091e-15 9.489731009361566e-02 4.294426455747297e-13 -4.474070731341411e-15 2.927052875665094e-04
1.430702268109153e-01 1.174630061986519e-15 9.501402469999776e-02 5.474792012277940e-13 -2.664343632590545e-15 -7.396604323486363e-04
1.430702268112216e-01 -5.907665937228743e-15 9.501402470021619e-02 5.406232081534411e-13 -1.182187993289126e-14 -7.396604322524974e-04
1.186570190360708e-01 -9.548547811646956e-16 9.489731009373695e-02 4.349966453989802e-13 4.921821938509013e-15 2.927052876936533e-04
4.581425371331756e-02 -5.723073731968463e-15 9.501292023475186e-02 8.086883693952522e-14 2.925054919333758e-14 2.138920068045913e-03
7.002685924254209e-02 2.740016801553958e-15 9.489461727307516e-02 1.981189884557305e-13 2.275242451576696e-14 1.949553570819291e-03
7.002685924282778e-02 3.787167685348915e-15 9.489461727323931e-02 2.001776425603154e-13 1.073581136480991e-14 1.949553570927860e-03
4.581425371359663e-02 2.516690356845193e-16 9.501292023495830e-02 7.846998361258101e-14 1.571357191432661e-15 2.138920068164329e-03
8.171805094587570e-02 -1.284851426530520e-15 1.148438060493289e-01 1.714518548522089e-13 4.359249790052187e-14 1.733583159480252e-03
9.763489910612050e-02 4.571660597389782e-16 1.147810391701630e-01 2.883848035394426e-13 3.830047020441266e-14 1.687198230280266e-03
9.763489910652674e-02 2.972425678793720e-15 1.147810391705247e-01 2.844220843855955e-13 3.181453790259339e-14 1.687198230231701e-03
8.171805094635866e-02 -8.221075537374842e-15 1.148438060496702e-01 1.797298847663195e-13 4.600198085040193e-14 1.733583159381708e-03
7.002685924254209e-02 2.740016801553958e-15 9.489461727307516e-02 1.981189884557305e-13 2.275242451576696e-14 1.949553570819291e-03
9.430710957465467e-02 5.887428566700280e-15 9.477845489929264e-02 3.157508019125504e-13 1.764057278219865e-14 1.542945448870953e-03
9.430710957494527e-02 3.509611929192628e-15 9.477845489941730e-02 3.163922058711056e-13 1.871258716337228e-14 1.542945449013849e-03
7.002685924282778e-02 3.787167685348915e-15 9.489461727323931e-02 2.001776425603154e-13 1.073581136480991e-14 1.949553570927860e-03
9.763489910612050e-02 4.571660597389782e-16 1.147810391701630e-01 2.883848035394426e-13 3.830047020441266e-14 1.687198230280266e-03
1.136070263848687e-01 3.326664384281234e-16 1.147116988981104e-01 3.931848770016691e-13 1.939623311775921e-14 1.468762255338504e-03
1.136070263852091e-01 -4.514687891660419e-17 1.147116988984684e-01 3.909892020221710e-13 1.447232914437925e-14 1.468762255296692e-03
9.763489910652674e-02 2.972425678793720e-15 1.147810391705247e-01 2.844220843855955e-13 3.181453790259339e-14 1.687198230231701e-03
9.430710957465467e-02 5.887428566700280e-15 9.477845489929264e-02 3.157508019125504e-13 1.764057278219865e-14 1.542945448870953e-03
1.186570190357723e-01 -4.551780911310091e-15 9.489731009361566e-02 4.294426455747297e-13 -4.474070731341411e-15 2.927052875665094e-04
1.186570190360708e-01 -9.548547811646956e-16 9.489731009373695e-02 4.349966453989802e-13 4.921821938509013e-15 2.927052876936533e-04
9.430710957494527e-02 3.509611929192628e-15 9.477845489941730e-02 3.163922058711056e-13 1.871258716337228e-14 1.542945449013849e-03
1.136070263848687e-01 3.326664384281234e-16 1.147116988981104e-01 3.931848770016691e-13 1.939623311775921e-14 1.468762255338504e-03
1.296234101423042e-01 5.354556769713100e-15 1.147688692136714e-01 4.980113426236123e-13 1.813574430847775e-14 4.362975184074968e-04
1.296234101425774e-01 6.307409206081119e-15 1.147688692140404e-01 4.986898845498008e-13 1.065054403897610e-14 4.362975183739558e-04
1.136070263852091e-01 -4.514687891660419e-17 1.147116988984684e-01 3.909892020221710e-13 1.447232914437925e-14 1.468762255296692e-03
1.186570190357723e-01 -4.551780911310091e-15 9.489731009361566e-02 4.294426455747297e-13 -4.474070731341411e-15 2.927052875665094e-04
1.430702268109153e-01 1.174630061986519e-15 9.501402469999776e-02 5.474792012277940e-13 -2.664343632590545e-15 -7.396604323486363e-04
1.430702268112216e-01 -5.907665937228743e-15 9.501402470021619e-02 5.406232081534411e-13 -1.182187993289126e-14 -7.396604322524974e-04
1.186570190360708e-01 -9.548547811646956e-16 9.489731009373695e-02 4.349966453989802e-13 4.921821938509013e-15 2.927052876936533e-04
1.296234101423042e-01 5.354556769713100e-15 1.147688692136714e-01 4.980113426236123e-13 1.813574430847775e-14 4.362975184074968e-04
1.456785638714358e-01 -3.938888923663186e-15 1.148326129221554e-01 6.110411098761939e-13 1.767568827223704e-15 -4.243917107952137e-04
1.456785638716342e-01 -6.290818840698595e-15 1.148326129225030e-01 6.110454649476175e-13 3.970603294265025e-14 -4.243917109213176e-04
1.296234101425774e-01 6.307409206081119e-15 1.147688692140404e-01 4.986898845498008e-13 1.065054403897610e-14 4.362975183739558e-04
8.171805094587570e-02 -1.284851426530520e-15 1.148438060493289e-01 1.714518548522089e-13 4.359249790052187e-14 1.733583159480252e-03
9.763489910612050e-02 4.571660597389782e-16 1.147810391701630e-01 2.883848035394426e-13 3.830047020441266e-14 1.687198230280266e-03
9.763489910652674e-02 2.972425678793720e-15 1.147810391705247e-01 2.844220843855955e-13 3.181453790259339e-14 1.687198230231701e-03
8.171805094635866e-02 -8.221075537374842e-15 1.148438060496702e-01 1.797298847663195e-13 4.600198085040193e-14 1.733583159381708e-03
1.105451483030909e-01 -6.415628225828085e-15 1.279847300867331e-01 3.675377824674899e-13 2.333665433778703e-14 1.210900760951849e-03
1.184371336397939e-01 6.048446160103810e-15 1.278815035766205e-01 4.128478111952641e-13 3.024704421376022e-14 1.362188150628422e-03
1.184371336400509e-01 -4.648177544782726e-17 1.278815035766618e-01 4.087963193649703e-13 3.108138127134793e-14 1.362188150698682e-03
1.105451483035052e-01 -3.496668568956484e-15 1.279847300868332e-01 3.676639537201943e-13 2.293343951844201e-14 1.210900761007269e-03
9.763489910612050e-02 4.571660597389782e-16 1.147810391701630e-01 2.883848035394426e-13 3.830047020441266e-14 1.687198230280266e-03
1.136070263848687e-01 3.326664384281234e-16 1.147116988981104e-01 3.931848770016691e-13 1.939623311775921e-14 1.468762255338504e-03
1.136070263852091e-01 -4.514687891660419e-17 1.147116988984684e-01 3.909892020221710e-13 1.447232914437925e-14 1.468762255296692e-03
9.763489910652674e-02 2.972425678793720e-15 1.147810391705247e-01 2.844220843855955e-13 3.181453790259339e-14 1.687198230231701e-03
1.184371336397939e-01 6.048446160103810e-15 1.278815035766205e-01 4.128478111952641e-13 3.024704421376022e-14 1.362188150628422e-03
1.263541080126499e-01 -2.417981614746636e-15 1.277970423529490e-01 4.542670237346581e-13 2.818561658301768e-14 1.420353642508528e-03
1.263541080127538e-01 3.934264706432711e-16 1.277970423529034e-01 4.558881243523813e-13 4.889089849322298e-14 1.420353642613110e-03
1.184371336400509e-01 -4.648177544782726e-17 1.278815035766618e-01 4.087963193649703e-13 3.108138127134793e-14 1.362188150698682e-03
1.136070263848687e-01 3.326664384281234e-16 1.147116988981104e-01 3.931848770016691e-13 1.939623311775921e-14 1.468762255338504e-03
1.296234101423042e-01 5.354556769713100e-15 1.147688692136714e-01 4.980113426236123e-13 1.813574430847775e-14 4.362975184074968e-04
1.296234101425774e-01 6.307409206081119e-15 1.147688692140404e-01 4.986898845498008e-13 1.065054403897610e-14 4.362975183739558e-04
1.136070263852091e-01 -4.514687891660419e-17 1.147116988984684e-01 3.909892020221710e-13 1.447232914437925e-14 1.468762255296692e-03
1.263541080126499e-01 -2.417981614746636e-15 1.277970423529490e-01 4.542670237346581e-13 2.818561658301768e-14 1.420353642508528e-03
1.342983724715736e-01 -2.082335619437943e-15 1.279186487310573e-01 4.955492328128445e-13 3.090348070391238e-14 6.829180429657180e-04
1.342983724715010e-01 -2.829333347303344e-15 1.279186487310627e-01 4.936294388364785e-13 2.477539853532743e-14 6.829180430751435e-04
1.263541080127538e-01 3.934264706432711e-16 1.277970423529034e-01 4.558881243523813e-13 4.889089849322298e-14 1.420353642613110e-03
1.296234101423042e-01 5.354556769713100e-15 1.147688692136714e-01 4.980113426236123e-13 1.813574430847775e-14 4.362975184074968e-04
1.456785638714358e-01 -3.938888923663186e-15 1.148326129221554e-01 6.110411098761939e-13 1.767568827223704e-15 -4.243917107952137e-04
1.456785638716342e-01 -6.290818840698595e-15 1.148326129225030e-01 6.110454649476175e-13 3.970603294265025e-14 -4.243917109213176e-04
1.296234101425774e-01 6.307409206081119e-15 1.147688692140404e-01 4.986898845498008e-13 1.065054403897610e-14 4.362975183739558e-04
1.342983724715736e-01 -2.082335619437943e-15 1.279186487310573e-01 4.955492328128445e-13 3.090348070391238e-14 6.829180429657180e-04
1.422683669391967e-01 -2.672630207312063e-15 1.280214898227260e-01 5.428028070588117e-13 1.189048056567430e-14 3.860719413925363e-05
1.422683669389851e-01 4.392407978256025e-15 1.280214898228802e-01 5.370323202199413e-13 3.787290372532798e-15 3.860719418443106e-05
1.342983724715010e-01 -2.829333347303344e-15 1.279186487310627e-01 4.936294388364785e-13 2.477539853532743e-14 6.829180430751435e-04
1.105451483030909e-01 -6.415628225828085e-15 1.279847300867331e-01 3.675377824674899e-13 2.333665433778703e-14 1.210900760951849e-03
1.184371336397939e-01 6.048446160103810e-15 1.278815035766205e-01 4.128478111952641e-13 3.024704421376022e-14 1.362188150628422e-03
1.184371336400509e-01 -4.648177544782726e-17 1.278815035766618e-01 4.087963193649703e-13 3.108138127134793e-14 1.362188150698682e-03
1.105451483035052e-01 -3.496668568956484e-15 1.279847300868332e-01 3.676639537201943e-13 2.293343951844201e-14 1.210900761007269e-03
1.229780375661143e-01 -6.326669364526284e-15 1.325943669577750e-01 4.750774562543680e-13 4.216470027871998e-14 9.019121029495190e-04
1.268399055951060e-01 6.307214083015444e-17 1.325346487812367e-01 4.589018170155653e-13 1.619956612954014e-14 1.179291782058637e-03
1.268399055951127e-01 7.128110326397750e-15 1.325346487810969e-01 4.586917459815631e-13 2.877477675509594e-14 1.179291782363629e-03
1.229780375662801e-01 -7.065038185567130e-15 1.325943669573460e-01 4.714764098975457e-13 3.749972014810023e-14 9.019121032336217e-04
1.184371336397939e-01 6.048446160103810e-15 1.278815035766205e-01 4.128478111952641e-13 3.024704421376022e-14 1.362188150628422e-03
1.263541080126499e-01 -2.417981614746636e-15 1.277970423529490e-01 4.542670237346581e-13 2.818561658301768e-14 1.420353642508528e-03
1.263541080127538e-01 3.934264706432711e-16 1.277970423529034e-01 4.558881243523813e-13 4.889089849322298e-14 1.420353642613110e-03
1.184371336400509e-01 -4.648177544782726e-17 1.278815035766618e-01 4.087963193649703e-13 3.108138127134793e-14 1.362188150698682e-03
1.268399055951060e-01 6.307214083015444e-17 1.325346487812367e-01 4.589018170155653e-13 1.619956612954014e-14 1.179291782058637e-03
1.308005547410135e-01 1.442222014787798e-15 1.324061548617974e-01 4.579272936887233e-13 4.671555260885583e-15 1.405209507527629e-03
1.308005547408412e-01 4.420964491790041e-15 1.324061548615787e-01 4.572697413000851e-13 1.101871810053915e-14 1.405209507771850e-03
1.268399055951127e-01 7.128110326397750e-15 1.325346487810969e-01 4.586917459815631e-13 2.877477675509594e-14 1.179291782363629e-03
1.263541080126499e-01 -2.417981614746636e-15 1.277970423529490e-01 4.542670237346581e-13 2.818561658301768e-14 1.420353642508528e-03
1.342983724715736e-01 -2.082335619437943e-15 1.279186487310573e-01 4.955492328128445e-13 3.090348070391238e-14 6.829180429657180e-04
1.342983724715010e-01 -2.829333347303344e-15 1.279186487310627e-01 4.936294388364785e-13 2.477539853532743e-14 6.829180430751435e-04
1.263541080127538e-01 3.934264706432711e-16 1.277970423529034e-01 4.558881243523813e-13 4.889089849322298e-14 1.420353642613110e-03
1.308005547410135e-01 1.442222014787798e-15 1.324061548617974e-01 4.579272936887233e-13 4.671555260885583e-15 1.405209507527629e-03
1.347816273891794e-01 -2.489992426220230e-16 1.323973636975444e-01 4.536347454881113e-13 1.306667224320849e-14 8.404339254262153e-04
1.347816273888833e-01 -4.652705920764034e-15 1.323973636973442e-01 4.504099120607331e-13 2.322961204035795e-14 8.404339257371953e-04
1.308005547408412e-01 4.420964491790041e-15 1.324061548615787e-01 4.572697413000851e-13 1.101871810053915e-14 1.405209507771850e-03
1.342983724715736e-01 -2.082335619437943e-15 1.279186487310573e-01 4.955492328128445e-13 3.090348070391238e-14 6.829180429657180e-04
1.422683669391967e-01 -2.672630207312063e-15 1.280214898227260e-01 5.428028070588117e-13 1.189048056567430e-14 3.860719413925363e-05
1.422683669389851e-01 4.392407978256025e-15 1.280214898228802e-01 5.370323202199413e-13 3.787290372532798e-15 3.860719418443106e-05
1.342983724715010e-01 -2.829333347303344e-15 1.279186487310627e-01 4.936294388364785e-13 2.477539853532743e-14 6.829180430751435e-04
1.347816273891794e-01 -2.489992426220230e-16 1.323973636975444e-01 4.536347454881113e-13 1.306667224320849e-14 8.404339254262153e-04
1.387222272554129e-01 4.435552512374316e-16 1.324573482764790e-01 4.342129523203949e-13 3.164247100625969e-14 3.270204339434843e-04
1.387222272549211e-01 -4.329335837425478e-15 1.324573482761469e-01 4.330294996473384e-13 3.828029164591499e-14 3.270204342811758e-04
1.347816273888833e-01 -4.652705920764034e-15 1.323973636973442e-01 4.504099120607331e-13 2.322961204035795e-14 8.404339257371953e-04
        </DataArray>
        <DataArray type="Float64" Name="nodal_GL_strains_xyz" NumberOfComponents="6" format="ascii">
-3.670508443167296e-03 -3.243664636741008e-16 4.679023579141633e-03 -1.333663486904882e-14 1.963797080477387e-15 2.301035427113770e-04
5.310012745604086e-04 -5.614283105215351e-17 4.662927985181797e-03 1.683762489552247e-15 1.985560066576404e-15 2.116155794139985e-04
5.310012745795920e-04 -1.235390094201692e-16 4.662927985195497e-03 1.570528210168382e-15 -2.187233211954481e-16 2.116155794283722e-04
-3.670508443142447e-03 -3.466777158891008e-16 4.679023579155892e-03 -1.183929075830880e-14 -1.238120644177485e-15 2.301035427209896e-04
5.333681292360186e-04 5.476744282409151e-16 7.111397843459205e-03 -6.774669898960424e-17 1.582662460005042e-15 2.306426854735696e-04
3.817061060704545e-03 5.517576707913771e-16 7.103232542226436e-03 1.145260341774161e-14 2.244128545076534e-15 2.084605396000448e-04
3.817061060728489e-03 3.259945238305103e-16 7.103232542242720e-03 1.151732165131506e-14 1.715457962397882e-15 2.084605396132589e-04
5.333681292621251e-04 -3.107556551725465e-16 7.111397843472599e-03 -4.469302485464961e-16 5.325072570840804e-15 2.306426854848359e-04
5.310012745604086e-04 -5.614283105215351e-17 4.662927985181797e-03 1.683762489552247e-15 1.985560066576404e-15 2.116155794139985e-04
4.748778179042443e-03 5.230724596667896e-16 4.646841171148787e-03 1.536561339476899e-14 2.034906347066162e-15 1.745996070869837e-04
4.748778179056555e-03 4.084651048215675e-16 4.646841171163476e-03 1.565397328227284e-14 6.755392360925298e-16 1.745996071050153e-04
5.310012745795920e-04 -1.235390094201692e-16 4.662927985195497e-03 1.570528210168382e-15 -2.187233211954481e-16 2.116155794283722e-04
3.817061060704545e-03 5.517576707913771e-16 7.103232542226436e-03 1.145260341774161e-14 2.244128545076534e-15 2.084605396000448e-04
7.114635484394168e-03 -2.251982119665358e-16 7.094716583073825e-03 2.334667564151865e-14 6.860314029308656e-16 1.639909100872052e-04
7.114635484415905e-03 -2.243353212841494e-16 7.094716583088158e-03 2.329399715043503e-14 2.881806007519563e-15 1.639909101031885e-04
3.817061060728489e-03 3.259945238305103e-16 7.103232542242720e-03 1.151732165131506e-14 1.715457962397882e-15 2.084605396132589e-04
4.748778179042443e-03 5.230724596667896e-16 4.646841171148787e-03 1.536561339476899e-14 2.034906347066162e-15 1.745996070869837e-04
8.983173028999423e-03 -3.061742224543056e-16 4.662362080183333e-03 2.971053715174422e-14 3.666929816785373e-16 4.335797701709913e-05
8.983173029008478e-03 4.659999931056758e-16 4.662362080195286e-03 2.929972035274578e-14 -7.441735575345003e-16 4.335797703112193e-05
4.748778179056555e-03 4.084651048215675e-16 4.646841171163476e-03 1.565397328227284e-14 6.755392360925298e-16 1.745996071050153e-04
7.114635484394168e-03 -2.251982119665358e-16 7.094716583073825e-03 2.334667564151865e-14 6.860314029308656e-16 1.639909100872052e-04
1.042392834101440e-02 -3.333648630756119e-16 7.102844385730262e-03 3.562330255336050e-14 2.749429277149639e-16 3.092856045116401e-05
1.042392834103412e-02 -8.372796775689096e-16 7.102844385748930e-03 3.510588903657252e-14 2.933670016366646e-15 3.092856046466091e-05
7.114635484415905e-03 -2.243353212841494e-16 7.094716583088158e-03 2.329399715043503e-14 2.881806007519563e-15 1.639909101031885e-04
8.983173028999423e-03 -3.061742224543056e-16 4.662362080183333e-03 2.971053715174422e-14 3.666929816785373e-16 4.335797701709913e-05
1.323317014757996e-02 3.950711309927347e-17 4.677874209287317e-03 4.405764942905335e-14 -1.286526378011398e-15 -6.905994853726429e-05
1.323317014758298e-02 -3.468112055422373e-16 4.677874209302137e-03 4.394505130375289e-14 -2.554312086813687e-15 -6.905994852649109e-05
8.983173029008478e-03 4.659999931056758e-16 4.662362080195286e-03 2.929972035274578e-14 -7.441735575345003e-16 4.335797703112193e-05
1.042392834101440e-02 -3.333648630756119e-16 7.102844385730262e-03 3.562330255336050e-14 2.749429277149639e-16 3.092856045116401e-05
1.374385367225585e-02 -4.614185603874595e-16 7.111322846310445e-03 4.732731959411299e-14 2.335821325611907e-15 -7.996511233567493e-05
1.374385367227375e-02 -1.587054847885436e-17 7.111322846331366e-03 4.754395360896168e-14 -4.275149415845659e-15 -7.996511232556006e-05
1.042392834103412e-02 -8.372796775689096e-16 7.102844385748930e-03 3.510588903657252e-14 2.933670016366646e-15 3.092856046466091e-05
5.333681292360186e-04 5.476744282409151e-16 7.111397843459205e-03 -6.774669898960424e-17 1.582662460005042e-15 2.306426854735696e-04
3.817061060704545e-03 5.517576707913771e-16 7.103232542226436e-03 1.145260341774161e-14 2.244128545076534e-15 2.084605396000448e-04
3.817061060728489e-03 3.259945238305103e-16 7.103232542242720e-03 1.151732165131506e-14 1.715457962397882e-15 2.084605396132589e-04
5.333681292621251e-04 -3.107556551725465e-16 7.111397843472599e-03 -4.469302485464961e-16 5.325072570840804e-15 2.306426854848359e-04
4.581425371331757e-03 -5.723073731968463e-16 9.501292023475183e-03 8.086883693952526e-15 2.925054919333758e-15 2.138920068045914e-04
7.002685924254209e-03 2.740016801553957e-16 9.489461727307516e-03 1.981189884557305e-14 2.275242451576696e-15 1.949553570819290e-04
7.002685924282778e-03 3.787167685348914e-16 9.489461727323930e-03 2.001776425603153e-14 1.073581136480991e-15 1.949553570927861e-04
4.581425371359660e-03 2.516690356845192e-17 9.501292023495828e-03 7.846998361258098e-15 1.571357191432663e-16 2.138920068164329e-04
3.817061060704545e-03 5.517576707913771e-16 7.103232542226436e-03 1.145260341774161e-14 2.244128545076534e-15 2.084605396000448e-04
7.114635484394168e-03 -2.251982119665358e-16 7.094716583073825e-03 2.334667564151865e-14 6.860314029308656e-16 1.639909100872052e-04
7.114635484415905e-03 -2.243353212841494e-16 7.094716583088158e-03 2.329399715043503e-14 2.881806007519563e-15 1.639909101031885e-04
3.817061060728489e-03 3.259945238305103e-16 7.103232542242720e-03 1.151732165131506e-14 1.715457962397882e-15 2.084605396132589e-04
7.002685924254209e-03 2.740016801553957e-16 9.489461727307516e-03 1.981189884557305e-14 2.275242451576696e-15 1.949553570819290e-04
9.430710957465468e-03 5.887428566700281e-16 9.477845489929262e-03 3.157508019125504e-14 1.764057278219865e-15 1.542945448870953e-04
9.430710957494527e-03 3.509611929192629e-16 9.477845489941732e-03 3.163922058711057e-14 1.871258716337228e-15 1.542945449013849e-04
7.002685924282778e-03 3.787167685348914e-16 9.489461727323930e-03 2.001776425603153e-14 1.073581136480991e-15 1.949553570927861e-04
7.114635484394168e-03 -2.251982119665358e-16 7.094716583073825e-03 2.334667564151865e-14 6.860314029308656e-16 1.639909100872052e-04
1.042392834101440e-02 -3.333648630756119e-16 7.102844385730262e-03 3.562330255336050e-14 2.749429277149639e-16 3.092856045116401e-05
1.042392834103412e-02 -8.372796775689096e-16 7.102844385748930e-03 3.510588903657252e-14 2.933670016366646e-15 3.092856046466091e-05
7.114635484415905e-03 -2.243353212841494e-16 7.094716583088158e-03 2.329399715043503e-14 2.881806007519563e-15 1.639909101031885e-04
9.430710957465468e-03 5.887428566700281e-16 9.477845489929262e-03 3.157508019125504e-14 1.764057278219865e-15 1.542945448870953e-04
1.186570190357723e-02 -4.551780911310092e-16 9.489731009361568e-03 4.294426455747296e-14 -4.474070731341411e-16 2.927052875665092e-05
1.186570190360708e-02 -9.548547811646953e-17 9.489731009373694e-03 4.349966453989802e-14 4.921821938509013e-16 2.927052876936533e-05
9.430710957494527e-03 3.509611929192629e-16 9.477845489941732e-03 3.163922058711057e-14 1.871258716337228e-15 1.542945449013849e-04
1.042392834101440e-02 -3.333648630756119e-16 7.102844385730262e-03 3.562330255336050e-14 2.749429277149639e-16 3.092856045116401e-05
1.374385367225585e-02 -4.614185603874595e-16 7.111322846310445e-03 4.732731959411299e-14 2.335821325611907e-15 -7.996511233567493e-05
1.374385367227375e-02 -1.587054847885436e-17 7.111322846331366e-03 4.754395360896168e-14 -4.275149415845659e-15 -7.996511232556006e-05
1.042392834103412e-02 -8.372796775689096e-16 7.102844385748930e-03 3.510588903657252e-14 2.933670016366646e-15 3.092856046466091e-05
1.186570190357723e-02 -4.551780911310092e-16 9.489731009361568e-03 4.294426455747296e-14 -4.474070731341411e-16 2.927052875665092e-05
1.430702268109153e-02 1.174630061986519e-16 9.501402469999773e-03 5.474792012277939e-14 -2.664343632590546e-16 -7.396604323486360e-05
1.430702268112216e-02 -5.907665937228744e-16 9.501402470021621e-03 5.406232081534412e-14 -1.182187993289126e-15 -7.396604322524976e-05
1.186570190360708e-02 -9.548547811646953e-17 9.489731009373694e-03 4.349966453989802e-14 4.921821938509013e-16 2.927052876936533e-05
4.581425371331757e-03 -5.723073731968463e-16 9.501292023475183e-03 8.086883693952526e-15 2.925054919333758e-15 2.138920068045914e-04
7.002685924254209e-03 2.740016801553957e-16 9.489461727307516e-03 1.981189884557305e-14 2.275242451576696e-15 1.949553570819290e-04
7.002685924282778e-03 3.787167685348914e-16 9.489461727323930e-03 2.001776425603153e-14 1.073581136480991e-15 1.949553570927861e-04
4.581425371359660e-03 2.516690356845192e-17 9.501292023495828e-03 7.846998361258098e-15 1.571357191432663e-16 2.138920068164329e-04
8.171805094587571e-03 -1.284851426530520e-16 1.148438060493289e-02 1.714518548522089e-14 4.359249790052189e-15 1.733583159480253e-04
9.763489910612050e-03 4.571660597389783e-17 1.147810391701630e-02 2.883848035394426e-14 3.830047020441265e-15 1.687198230280265e-04
9.763489910652673e-03 2.972425678793720e-16 1.147810391705248e-02 2.844220843855956e-14 3.181453790259340e-15 1.687198230231701e-04
8.171805094635869e-03 -8.221075537374842e-16 1.148438060496702e-02 1.797298847663195e-14 4.600198085040193e-15 1.733583159381708e-04
7.002685924254209e-03 2.740016801553957e-16 9.489461727307516e-03 1.981189884557305e-14 2.275242451576696e-15 1.949553570819290e-04
9.430710957465468e-03 5.887428566700281e-16 9.477845489929262e-03 3.157508019125504e-14 1.764057278219865e-15 1.542945448870953e-04
9.430710957494527e-03 3.509611929192629e-16 9.477845489941732e-03 3.163922058711057e-14 1.871258716337228e-15 1.542945449013849e-04
7.002685924282778e-03 3.787167685348914e-16 9.489461727323930e-03 2.001776425603153e-14 1.073581136480991e-15 1.949553570927861e-04
9.763489910612050e-03 4.571660597389783e-17 1.147810391701630e-02 2.883848035394426e-14 3.830047020441265e-15 1.687198230280265e-04
1.136070263848687e-02 3.326664384281235e-17 1.147116988981104e-02 3.931848770016690e-14 1.939623311775921e-15 1.468762255338504e-04
1.136070263852091e-02 -4.514687891660434e-18 1.147116988984684e-02 3.909892020221709e-14 1.447232914437925e-15 1.468762255296692e-04
9.763489910652673e-03 2.972425678793720e-16 1.147810391705248e-02 2.844220843855956e-14 3.181453790259340e-15 1.687198230231701e-04
9.430710957465468e-03 5.887428566700281e-16 9.477845489929262e-03 3.157508019125504e-14 1.764057278219865e-15 1.542945448870953e-04
1.186570190357723e-02 -4.551780911310092e-16 9.489731009361568e-03 4.294426455747296e-14 -4.474070731341411e-16 2.927052875665092e-05
1.186570190360708e-02 -9.548547811646953e-17 9.489731009373694e-03 4.349966453989802e-14 4.921821938509013e-16 2.927052876936533e-05
9.430710957494527e-03 3.509611929192629e-16 9.477845489941732e-03 3.163922058711057e-14 1.871258716337228e-15 1.542945449013849e-04
1.136070263848687e-02 3.326664384281235e-17 1.147116988981104e-02 3.931848770016690e-14 1.939623311775921e-15 1.468762255338504e-04
1.296234101423043e-02 5.354556769713101e-16 1.147688692136714e-02 4.980113426236121e-14 1.813574430847775e-15 4.362975184074968e-05
1.296234101425774e-02 6.307409206081119e-16 1.147688692140404e-02 4.986898845498006e-14 1.065054403897610e-15 4.362975183739558e-05
1.136070263852091e-02 -4.514687891660434e-18 1.147116988984684e-02 3.909892020221709e-14 1.447232914437925e-15 1.468762255296692e-04
1.186570190357723e-02 -4.551780911310092e-16 9.489731009361568e-03 4.294426455747296e-14 -4.474070731341411e-16 2.927052875665092e-05
1.430702268109153e-02 1.174630061986519e-16 9.501402469999773e-03 5.474792012277939e-14 -2.664343632590546e-16 -7.396604323486360e-05
1.430702268112216e-02 -5.907665937228744e-16 9.501402470021621e-03 5.406232081534412e-14 -1.182187993289126e-15 -7.396604322524976e-05
1.186570190360708e-02 -9.548547811646953e-17 9.489731009373694e-03 4.349966453989802e-14 4.921821938509013e-16 2.927052876936533e-05
1.296234101423043e-02 5.354556769713101e-16 1.147688692136714e-02 4.980113426236121e-14 1.813574430847775e-15 4.362975184074968e-05
1.456785638714358e-02 -3.938888923663186e-16 1.148326129221554e-02 6.110411098761939e-14 1.767568827223704e-16 -4.243917107952138e-05
1.456785638716343e-02 -6.290818840698595e-16 1.148326129225030e-02 6.110454649476176e-14 3.970603294265025e-15 -4.243917109213176e-05
1.296234101425774e-02 6.307409206081119e-16 1.147688692140404e-02 4.986898845498006e-14 1.065054403897610e-15 4.362975183739558e-05
8.171805094587571e-03 -1.284851426530520e-16 1.148438060493289e-02 1.714518548522089e-14 4.359249790052189e-15 1.733583159480253e-04
9.763489910612050e-03 4.571660597389783e-17 1.147810391701630e-02 2.883848035394426e-14 3.830047020441265e-15 1.687198230280265e-04
9.763489910652673e-03 2.972425678793720e-16 1.147810391705248e-02 2.844220843855956e-14 3.181453790259340e-15 1.687198230231701e-04
8.171805094635869e-03 -8.221075537374842e-16 1.148438060496702e-02 1.797298847663195e-14 4.600198085040193e-15 1.733583159381708e-04
1.105451483030909e-02 -6.415628225828086e-16 1.279847300867330e-02 3.675377824674899e-14 2.333665433778702e-15 1.210900760951849e-04
1.184371336397939e-02 6.048446160103811e-16 1.278815035766206e-02 4.128478111952641e-14 3.024704421376022e-15 1.362188150628422e-04
1.184371336400509e-02 -4.648177544782679e-18 1.278815035766618e-02 4.087963193649702e-14 3.108138127134793e-15 1.362188150698682e-04
1.105451483035053e-02 -3.496668568956483e-16 1.279847300868332e-02 3.676639537201943e-14 2.293343951844200e-15 1.210900761007268e-04
9.763489910612050e-03 4.571660597389783e-17 1.147810391701630e-02 2.883848035394426e-14 3.830047020441265e-15 1.687198230280265e-04
1.136070263848687e-02 3.326664384281235e-17 1.147116988981104e-02 3.931848770016690e-14 1.939623311775921e-15 1.468762255338504e-04
1.136070263852091e-02 -4.514687891660434e-18 1.147116988984684e-02 3.909892020221709e-14 1.447232914437925e-15 1.468762255296692e-04
9.763489910652673e-03 2.972425678793720e-16 1.147810391705248e-02 2.844220843855956e-14 3.181453790259340e-15 1.687198230231701e-04
1.184371336397939e-02 6.048446160103811e-16 1.278815035766206e-02 4.128478111952641e-14 3.024704421376022e-15 1.362188150628422e-04
1.263541080126499e-02 -2.417981614746636e-16 1.277970423529489e-02 4.542670237346580e-14 2.818561658301768e-15 1.420353642508528e-04
1.263541080127538e-02 3.934264706432709e-17 1.277970423529034e-02 4.558881243523812e-14 4.889089849322298e-15 1.420353642613110e-04
1.184371336400509e-02 -4.648177544782679e-18 1.278815035766618e-02 4.087963193649702e-14 3.108138127134793e-15 1.362188150698682e-04
1.136070263848687e-02 3.326664384281235e-17 1.147116988981104e-02 3.931848770016690e-14 1.939623311775921e-15 1.468762255338504e-04
1.296234101423043e-02 5.354556769713101e-16 1.147688692136714e-02 4.980113426236121e-14 1.813574430847775e-15 4.362975184074968e-05
1.296234101425774e-02 6.307409206081119e-16 1.147688692140404e-02 4.986898845498006e-14 1.065054403897610e-15 4.362975183739558e-05
1.136070263852091e-02 -4.514687891660434e-18 1.147116988984684e-02 3.909892020221709e-14 1.447232914437925e-15 1.468762255296692e-04
1.263541080126499e-02 -2.417981614746636e-16 1.277970423529489e-02 4.542670237346580e-14 2.818561658301768e-15 1.420353642508528e-04
1.342983724715736e-02 -2.082335619437944e-16 1.279186487310573e-02 4.955492328128444e-14 3.090348070391238e-15 6.829180429657178e-05
1.342983724715010e-02 -2.829333347303344e-16 1.279186487310626e-02 4.936294388364785e-14 2.477539853532743e-15 6.829180430751436e-05
1.263541080127538e-02 3.934264706432709e-17 1.277970423529034e-02 4.558881243523812e-14 4.889089849322298e-15 1.420353642613110e-04
1.296234101423043e-02 5.354556769713101e-16 1.147688692136714e-02 4.980113426236121e-14 1.813574430847775e-15 4.362975184074968e-05
1.456785638714358e-02 -3.938888923663186e-16 1.148326129221554e-02 6.110411098761939e-14 1.767568827223704e-16 -4.243917107952138e-05
1.456785638716343e-02 -6.290818840698595e-16 1.148326129225030e-02 6.110454649476176e-14 3.970603294265025e-15 -4.243917109213176e-05
1.296234101425774e-02 6.307409206081119e-16 1.147688692140404e-02 4.986898845498006e-14 1.065054403897610e-15 4.362975183739558e-05
1.342983724715736e-02 -2.082335619437944e-16 1.279186487310573e-02 4.955492328128444e-14 3.090348070391238e-15 6.829180429657178e-05
1.422683669391967e-02 -2.672630207312064e-16 1.280214898227261e-02 5.428028070588118e-14 1.189048056567431e-15 3.860719413925364e-06
1.422683669389851e-02 4.392407978256026e-16 1.280214898228802e-02 5.370323202199413e-14 3.787290372532798e-16 3.860719418443096e-06
1.342983724715010e-02 -2.829333347303344e-16 1.279186487310626e-02 4.936294388364785e-14 2.477539853532743e-15 6.829180430751436e-05
1.105451483030909e-02 -6.415628225828086e-16 1.279847300867330e-02 3.675377824674899e-14 2.333665433778702e-15 1.210900760951849e-04
1.184371336397939e-02 6.048446160103811e-16 1.278815035766206e-02 4.128478111952641e-14 3.024704421376022e-15 1.362188150628422e-04
1.184371336400509e-02 -4.648177544782679e-18 1.278815035766618e-02 4.087963193649702e-14 3.108138127134793e-15 1.362188150698682e-04
1.105451483035053e-02 -3.496668568956483e-16 1.279847300868332e-02 3.676639537201943e-14 2.293343951844200e-15 1.210900761007268e-04
1.229780375661143e-02 -6.326669364526284e-16 1.325943669577750e-02 4.750774562543683e-14 4.216470027871998e-15 9.019121029495195e-05
1.268399055951060e-02 6.307214083015462e-18 1.325346487812368e-02 4.589018170155651e-14 1.619956612954014e-15 1.179291782058637e-04
1.268399055951127e-02 7.128110326397752e-16 1.325346487810969e-02 4.586917459815631e-14 2.877477675509594e-15 1.179291782363630e-04
1.229780375662801e-02 -7.065038185567130e-16 1.325943669573459e-02 4.714764098975455e-14 3.749972014810022e-15 9.019121032336215e-05
1.184371336397939e-02 6.048446160103811e-16 1.278815035766206e-02 4.128478111952641e-14 3.024704421376022e-15 1.362188150628422e-04
1.263541080126499e-02 -2.417981614746636e-16 1.277970423529489e-02 4.542670237346580e-14 2.818561658301768e-15 1.420353642508528e-04
1.263541080127538e-02 3.934264706432709e-17 1.277970423529034e-02 4.558881243523812e-14 4.889089849322298e-15 1.420353642613110e-04
1.184371336400509e-02 -4.648177544782679e-18 1.278815035766618e-02 4.087963193649702e-14 3.108138127134793e-15 1.362188150698682e-04
1.268399055951060e-02 6.307214083015462e-18 1.325346487812368e-02 4.589018170155651e-14 1.619956612954014e-15 1.179291782058637e-04
1.308005547410136e-02 1.442222014787798e-16 1.324061548617974e-02 4.579272936887233e-14 4.671555260885582e-16 1.405209507527629e-04
1.308005547408411e-02 4.420964491790042e-16 1.324061548615787e-02 4.572697413000851e-14 1.101871810053915e-15 1.405209507771850e-04
1.268399055951127e-02 7.128110326397752e-16 1.325346487810969e-02 4.586917459815631e-14 2.877477675509594e-15 1.179291782363630e-04
1.263541080126499e-02 -2.417981614746636e-16 1.277970423529489e-02 4.542670237346580e-14 2.818561658301768e-15 1.420353642508528e-04
1.342983724715736e-02 -2.082335619437944e-16 1.279186487310573e-02 4.955492328128444e-14 3.090348070391238e-15 6.829180429657178e-05
1.342983724715010e-02 -2.829333347303344e-16 1.279186487310626e-02 4.936294388364785e-14 2.477539853532743e-15 6.829180430751436e-05
1.263541080127538e-02 3.934264706432709e-17 1.277970423529034e-02 4.558881243523812e-14 4.889089849322298e-15 1.420353642613110e-04
1.308005547410136e-02 1.442222014787798e-16 1.324061548617974e-02 4.579272936887233e-14 4.671555260885582e-16 1.405209507527629e-04
1.347816273891794e-02 -2.489992426220227e-17 1.323973636975444e-02 4.536347454881115e-14 1.306667224320849e-15 8.404339254262156e-05
1.347816273888834e-02 -4.652705920764033e-16 1.323973636973442e-02 4.504099120607330e-14 2.322961204035795e-15 8.404339257371950e-05
1.308005547408411e-02 4.420964491790042e-16 1.324061548615787e-02 4.572697413000851e-14 1.101871810053915e-15 1.405209507771850e-04
1.342983724715736e-02 -2.082335619437944e-16 1.279186487310573e-02 4.955492328128444e-14 3.090348070391238e-15 6.829180429657178e-05
1.422683669391967e-02 -2.672630207312064e-16 1.280214898227261e-02 5.428028070588118e-14 1.189048056567431e-15 3.860719413925364e-06
1.422683669389851e-02 4.392407978256026e-16 1.280214898228802e-02 5.370323202199413e-14 3.787290372532798e-16 3.860719418443096e-06
1.342983724715010e-02 -2.829333347303344e-16 1.279186487310626e-02 4.936294388364785e-14 2.477539853532743e-15 6.829180430751436e-05
1.347816273891794e-02 -2.489992426220227e-17 1.323973636975444e-02 4.536347454881115e-14 1.306667224320849e-15 8.404339254262156e-05
1.387222272554129e-02 4.435552512374314e-17 1.324573482764790e-02 4.342129523203949e-14 3.164247100625968e-15 3.270204339434842e-05
1.387222272549211e-02 -4.329335837425478e-16 1.324573482761469e-02 4.330294996473386e-14 3.828029164591500e-15 3.270204342811758e-05
1.347816273888834e-02 -4.652705920764033e-16 1.323973636973442e-02 4.504099120607330e-14 2.322961204035795e-15 8.404339257371950e-05
        </DataArray>
  </PointData>
  <CellData>
        <DataArray type="Float64" Name="element_2PK_stresses_xyz" NumberOfComponents="6" format="ascii">
2.942844046449344e-03 1.387778780781446e-16 5.900560574910634e-02 4.625074182200001e-15 1.537222404696619e-14 2.043930253047769e-03
4.025388671471120e-02 1.665334536937735e-15 5.875282537910988e-02 1.291950097587615e-13 9.125413069592420e-15 2.110485013728407e-03
7.779054462570517e-02 -4.163336342344336e-16 5.874845483355540e-02 2.564996158385375e-13 2.550550894176980e-14 1.231847950210303e-03
1.154377468501658e-01 -1.665334536937735e-15 5.899159514380484e-02 3.841942000723153e-13 -1.371334827274756e-14 -5.611476848309586e-04
4.056146092235050e-02 1.526556658859590e-15 8.309598136672187e-02 1.064422430473970e-13 2.465280350723979e-14 2.086912929082715e-03
6.906306769337775e-02 2.081668171172169e-15 8.290202828008186e-02 2.198176540146901e-13 1.289653158214819e-14 2.028486832338361e-03
9.759508802126504e-02 -1.110223024625156e-15 8.290082061511633e-02 3.316374828954438e-13 1.777170770884038e-14 1.139961435643706e-03
1.262400768640298e-01 -2.914335439641036e-15 8.309939035040959e-02 4.455388017338189e-13 -1.937433617633802e-15 -6.128723258029794e-04
7.527964961785205e-02 -9.714451465470118e-16 1.049625568685693e-01 1.745198171736119e-13 2.543282210558446e-14 1.818126714206555e-03
9.527090525223923e-02 1.249000902703302e-15 1.047779591327215e-01 2.949165778082764e-13 3.210406686977483e-14 1.916272224533853e-03
1.153690413938266e-01 5.551115123125784e-16 1.047734460762115e-01 4.180757399371274e-13 4.565811776703414e-15 1.169452343023037e-03
1.354871664663947e-01 -1.110223024625156e-15 1.049558993282328e-01 5.375713974095448e-13 5.345578115855946e-15 -4.034315141224876e-04
1.040733072834972e-01 -1.387778780781446e-16 1.214407955542425e-01 2.963998588964803e-13 2.970931599126468e-14 1.456869809142969e-03
1.159710155693486e-01 1.110223024625157e-15 1.212765671477202e-01 3.862891816691913e-13 3.440975998302015e-14 1.747099577063886e-03
1.278613922235677e-01 8.326672684688675e-16 1.212887024236448e-01 4.750703423359283e-13 2.653343742963366e-14 1.250538568738914e-03
1.398148082785446e-01 1.387778780781446e-16 1.214540019411020e-01 5.643180370600323e-13 1.400762713017319e-14 -5.054580142233619e-05
1.249089731443524e-01 -2.081668171172169e-15 1.303158274453976e-01 4.676101459379058e-13 3.341857405928664e-14 9.504851206258372e-04
1.288202288760151e-01 1.804112415015879e-15 1.301524184814662e-01 4.629439634379522e-13 1.899577366071248e-14 1.572625238434045e-03
1.327910901013562e-01 -9.714451465470120e-16 1.301024814216765e-01 4.592686383719008e-13 2.871356762070268e-14 1.397030380379839e-03
1.367519280140242e-01 -2.359223927328458e-15 1.302657572828565e-01 4.534836354315712e-13 2.100284609210656e-14 4.352701960497900e-04
        </DataArray>
        <DataArray type="Float64" Name="element_GL_strains_xyz" NumberOfComponents="6" format="ascii">
2.942844046449344e-04 1.387778780781446e-17 5.900560574910632e-03 4.625074182200000e-16 1.537222404696620e-15 2.043930253047769e-04
4.025388671471120e-03 1.665334536937735e-16 5.875282537910990e-03 1.291950097587615e-14 9.125413069592420e-16 2.110485013728407e-04
7.779054462570516e-03 -4.163336342344337e-17 5.874845483355540e-03 2.564996158385374e-14 2.550550894176980e-15 1.231847950210303e-04
1.154377468501658e-02 -1.665334536937735e-16 5.899159514380484e-03 3.841942000723153e-14 -1.371334827274756e-15 -5.611476848309586e-05
4.056146092235050e-03 1.526556658859590e-16 8.309598136672189e-03 1.064422430473970e-14 2.465280350723979e-15 2.086912929082715e-04
6.906306769337777e-03 2.081668171172169e-16 8.290202828008186e-03 2.198176540146901e-14 1.289653158214820e-15 2.028486832338361e-04
9.759508802126506e-03 -1.110223024625156e-16 8.290082061511633e-03 3.316374828954439e-14 1.777170770884038e-15 1.139961435643706e-04
1.262400768640298e-02 -2.914335439641036e-16 8.309939035040957e-03 4.455388017338188e-14 -1.937433617633803e-16 -6.128723258029794e-05
7.527964961785206e-03 -9.714451465470120e-17 1.049625568685693e-02 1.745198171736119e-14 2.543282210558447e-15 1.818126714206555e-04
9.527090525223922e-03 1.249000902703302e-16 1.047779591327215e-02 2.949165778082764e-14 3.210406686977483e-15 1.916272224533853e-04
1.153690413938266e-02 5.551115123125782e-17 1.047734460762115e-02 4.180757399371272e-14 4.565811776703413e-16 1.169452343023037e-04
1.354871664663947e-02 -1.110223024625157e-16 1.049558993282328e-02 5.375713974095446e-14 5.345578115855947e-16 -4.034315141224876e-05
1.040733072834972e-02 -1.387778780781445e-17 1.214407955542425e-02 2.963998588964803e-14 2.970931599126468e-15 1.456869809142969e-04
1.159710155693486e-02 1.110223024625157e-16 1.212765671477202e-02 3.862891816691913e-14 3.440975998302014e-15 1.747099577063886e-04
1.278613922235678e-02 8.326672684688674e-17 1.212887024236448e-02 4.750703423359282e-14 2.653343742963366e-15 1.250538568738914e-04
1.398148082785446e-02 1.387778780781446e-17 1.214540019411020e-02 5.643180370600323e-14 1.400762713017320e-15 -5.054580142233619e-06
1.249089731443524e-02 -2.081668171172169e-16 1.303158274453976e-02 4.676101459379058e-14 3.341857405928664e-15 9.504851206258370e-05
1.288202288760151e-02 1.804112415015879e-16 1.301524184814662e-02 4.629439634379521e-14 1.899577366071248e-15 1.572625238434045e-04
1.327910901013562e-02 -9.714451465470120e-17 1.301024814216765e-02 4.592686383719009e-14 2.871356762070268e-15 1.397030380379839e-04
1.367519280140242e-02 -2.359223927328458e-16 1.302657572828565e-02 4.534836354315713e-14 2.100284609210656e-15 4.352701960497900e-05
        </DataArray>
        <DataArray type="Float64" Name="element_owner" format="ascii">
1.000000000000000e+00
1.000000000000000e+00
1.000000000000000e+00
1.000000000000000e+00
1.000000000000000e+00
1.000000000000000e+00
1.000000000000000e+00
1.000000000000000e+00
1.000000000000000e+00
1.000000000000000e+00
1.000000000000000e+00
1.000000000000000e+00
1.000000000000000e+00
1.000000000000000e+00
1.000000000000000e+00
1.000000000000000e+00
1.000000000000000e+00
1.000000000000000e+00
1.000000000000000e+00
1.000000000000000e+00
        </DataArray>
      </CellData>

    </Piece>
  </UnstructuredGrid>
</VTKFile>
