<?xml version="1.0" ?> 
<!-- 
# vtk DataFile Version 3.0
-->
<VTKFile type="UnstructuredGrid" version="0.1" compressor="vtkZLibDataCompressor" byte_order="LittleEndian">
  <UnstructuredGrid>
    <FieldData>
      <DataArray type="Float64" Name="TIME" NumberOfTuples="1" format="ascii">
2.000000000000000e-01 
      </DataArray>
    </FieldData>

    <Piece NumberOfPoints="48" NumberOfCells="12" >
      <Points>
        <DataArray type="Float64" NumberOfComponents="3" format="ascii">
5.000000000000000e-01 2.500000000000000e-01 0.000000000000000e+00
5.000000000000000e-01 0.000000000000000e+00 0.000000000000000e+00
7.500000000000000e-01 0.000000000000000e+00 0.000000000000000e+00
7.500000000000000e-01 2.500000000000000e-01 0.000000000000000e+00
2.500000000000000e-01 2.500000000000000e-01 0.000000000000000e+00
2.500000000000000e-01 0.000000000000000e+00 0.000000000000000e+00
5.000000000000000e-01 0.000000000000000e+00 0.000000000000000e+00
5.000000000000000e-01 2.500000000000000e-01 0.000000000000000e+00
7.500000000000000e-01 5.000000000000000e-01 0.000000000000000e+00
7.500000000000000e-01 2.500000000000000e-01 0.000000000000000e+00
1.000000000000000e+00 2.500000000000000e-01 0.000000000000000e+00
1.000000000000000e+00 5.000000000000000e-01 0.000000000000000e+00
5.000000000000000e-01 5.000000000000000e-01 0.000000000000000e+00
5.000000000000000e-01 2.500000000000000e-01 0.000000000000000e+00
7.500000000000000e-01 2.500000000000000e-01 0.000000000000000e+00
7.500000000000000e-01 5.000000000000000e-01 0.000000000000000e+00
2.500000000000000e-01 5.000000000000000e-01 0.000000000000000e+00
2.500000000000000e-01 2.500000000000000e-01 0.000000000000000e+00
5.000000000000000e-01 2.500000000000000e-01 0.000000000000000e+00
5.000000000000000e-01 5.000000000000000e-01 0.000000000000000e+00
0.000000000000000e+00 5.000000000000000e-01 0.000000000000000e+00
0.000000000000000e+00 2.500000000000000e-01 0.000000000000000e+00
2.500000000000000e-01 2.500000000000000e-01 0.000000000000000e+00
2.500000000000000e-01 5.000000000000000e-01 0.000000000000000e+00
7.500000000000000e-01 7.500000000000000e-01 0.000000000000000e+00
7.500000000000000e-01 5.000000000000000e-01 0.000000000000000e+00
1.000000000000000e+00 5.000000000000000e-01 0.000000000000000e+00
1.000000000000000e+00 7.500000000000000e-01 0.000000000000000e+00
5.000000000000000e-01 7.500000000000000e-01 0.000000000000000e+00
5.000000000000000e-01 5.000000000000000e-01 0.000000000000000e+00
7.500000000000000e-01 5.000000000000000e-01 0.000000000000000e+00
7.500000000000000e-01 7.500000000000000e-01 0.000000000000000e+00
2.500000000000000e-01 7.500000000000000e-01 0.000000000000000e+00
2.500000000000000e-01 5.000000000000000e-01 0.000000000000000e+00
5.000000000000000e-01 5.000000000000000e-01 0.000000000000000e+00
5.000000000000000e-01 7.500000000000000e-01 0.000000000000000e+00
0.000000000000000e+00 7.500000000000000e-01 0.000000000000000e+00
0.000000000000000e+00 5.000000000000000e-01 0.000000000000000e+00
2.500000000000000e-01 5.000000000000000e-01 0.000000000000000e+00
2.500000000000000e-01 7.500000000000000e-01 0.000000000000000e+00
2.500000000000000e-01 1.000000000000000e+00 0.000000000000000e+00
2.500000000000000e-01 7.500000000000000e-01 0.000000000000000e+00
5.000000000000000e-01 7.500000000000000e-01 0.000000000000000e+00
5.000000000000000e-01 1.000000000000000e+00 0.000000000000000e+00
0.000000000000000e+00 1.000000000000000e+00 0.000000000000000e+00
0.000000000000000e+00 7.500000000000000e-01 0.000000000000000e+00
2.500000000000000e-01 7.500000000000000e-01 0.000000000000000e+00
2.500000000000000e-01 1.000000000000000e+00 0.000000000000000e+00
        </DataArray>
      </Points>

      <Cells>
        <DataArray type="Int32" Name="connectivity" format="ascii">
0 1 2 3 4 5 6 7 8 9 10 11 12 13 14 15 16 17 18 19 20 21 22 23 24 25 26 27 28 29 30 31 32 33 34 35 36 37 38 39 40 41 42 43 44 45 46 47 
        </DataArray>
        <DataArray type="Int32" Name="offsets" format="ascii">
4 8 12 16 20 24 28 32 36 40 44 48 
        </DataArray>
        <DataArray type="UInt8" Name="types" format="ascii">
9 9 9 9 9 9 9 9 9 9 9 9 
        </DataArray>
      </Cells>

  <PointData>
        <DataArray type="Float64" Name="displacement" NumberOfComponents="2" format="ascii">
2.845430262516469e-04 -1.041186243467299e-04
0.000000000000000e+00 0.000000000000000e+00
0.000000000000000e+00 0.000000000000000e+00
4.091144833442444e-04 -1.458150264723911e-04
3.987763193587126e-04 9.151789414396330e-06
0.000000000000000e+00 0.000000000000000e+00
0.000000000000000e+00 0.000000000000000e+00
2.845430262516469e-04 -1.041186243467299e-04
-2.596902181753063e-03 -1.773957782909532e-03
4.091144833442444e-04 -1.458150264723911e-04
5.060058721239159e-04 3.252217064298111e-04
-2.859198817298366e-03 -1.690292498706496e-03
-2.118867259024852e-03 -1.586757556672786e-03
2.845430262516469e-04 -1.041186243467299e-04
4.091144833442444e-04 -1.458150264723911e-04
-2.596902181753063e-03 -1.773957782909532e-03
-2.567285290024131e-03 -1.663341105511546e-03
3.987763193587126e-04 9.151789414396330e-06
2.845430262516469e-04 -1.041186243467299e-04
-2.118867259024852e-03 -1.586757556672786e-03
-3.171474466672924e-03 -1.205432162741324e-03
5.290119894375314e-04 -5.865455669715634e-04
3.987763193587126e-04 9.151789414396330e-06
-2.567285290024131e-03 -1.663341105511546e-03
1.501482265954210e-02 2.750625449790030e-02
-2.596902181753063e-03 -1.773957782909532e-03
-2.859198817298366e-03 -1.690292498706496e-03
1.321590136537832e-02 1.058688647372934e-02
1.492640139216303e-02 2.514838835155141e-02
-2.118867259024852e-03 -1.586757556672786e-03
-2.596902181753063e-03 -1.773957782909532e-03
1.501482265954210e-02 2.750625449790030e-02
1.489274648049282e-02 2.287108889023930e-02
-2.567285290024131e-03 -1.663341105511546e-03
-2.118867259024852e-03 -1.586757556672786e-03
1.492640139216303e-02 2.514838835155141e-02
1.666706532702158e-02 3.942608632711121e-02
-3.171474466672924e-03 -1.205432162741324e-03
-2.567285290024131e-03 -1.663341105511546e-03
1.489274648049282e-02 2.287108889023930e-02
5.000000000000000e-02 5.000000000000000e-02
1.489274648049282e-02 2.287108889023930e-02
1.492640139216303e-02 2.514838835155141e-02
5.000000000000000e-02 5.000000000000000e-02
5.000000000000000e-02 5.000000000000000e-02
1.666706532702158e-02 3.942608632711121e-02
1.489274648049282e-02 2.287108889023930e-02
5.000000000000000e-02 5.000000000000000e-02
        </DataArray>
        <DataArray type="Float64" Name="nodal_cauchy_stresses_xyz" NumberOfComponents="6" format="ascii">
6.811320129932750e-05 -3.122631247665700e-03 0.000000000000000e+00 -2.245637593540663e-03 0.000000000000000e+00 0.000000000000000e+00
1.190462177854199e-06 -4.156344900232364e-04 0.000000000000000e+00 5.685921131972458e-04 0.000000000000000e+00 0.000000000000000e+00
2.445630648738866e-06 -5.821736042343404e-04 0.000000000000000e+00 8.171679456055599e-04 0.000000000000000e+00 0.000000000000000e+00
5.139147035240052e-04 -3.481268560722714e-03 0.000000000000000e+00 -2.132105699989308e-03 0.000000000000000e+00 0.000000000000000e+00
-4.240621130252345e-04 -3.263983382457445e-03 0.000000000000000e+00 -2.045486708935277e-03 0.000000000000000e+00 0.000000000000000e+00
2.199487485492752e-06 3.663645392312151e-05 0.000000000000000e+00 7.977834665368856e-04 0.000000000000000e+00 0.000000000000000e+00
1.190462177854199e-06 -4.156344900232364e-04 0.000000000000000e+00 5.685921131972458e-04 0.000000000000000e+00 0.000000000000000e+00
6.811320129932750e-05 -3.122631247665700e-03 0.000000000000000e+00 -2.245637593540663e-03 0.000000000000000e+00 0.000000000000000e+00
1.066469829015255e-03 6.699337197573439e-02 0.000000000000000e+00 1.892253183606100e-02 0.000000000000000e+00 0.000000000000000e+00
5.139147035240052e-04 -3.481268560722714e-03 0.000000000000000e+00 -2.132105699989308e-03 0.000000000000000e+00 0.000000000000000e+00
4.720986009227691e-04 -3.291924986812262e-03 0.000000000000000e+00 -1.866284804163246e-03 0.000000000000000e+00 0.000000000000000e+00
9.496580133831563e-04 2.254335774814660e-02 0.000000000000000e+00 1.451061211531517e-02 0.000000000000000e+00 0.000000000000000e+00
2.323946230752698e-03 6.069901866823013e-02 0.000000000000000e+00 1.847168598518823e-02 0.000000000000000e+00 0.000000000000000e+00
6.811320129932750e-05 -3.122631247665700e-03 0.000000000000000e+00 -2.245637593540663e-03 0.000000000000000e+00 0.000000000000000e+00
5.139147035240052e-04 -3.481268560722714e-03 0.000000000000000e+00 -2.132105699989308e-03 0.000000000000000e+00 0.000000000000000e+00
1.066469829015255e-03 6.699337197573439e-02 0.000000000000000e+00 1.892253183606100e-02 0.000000000000000e+00 0.000000000000000e+00
4.439529383110844e-03 5.395840477553557e-02 0.000000000000000e+00 1.777038963043720e-02 0.000000000000000e+00 0.000000000000000e+00
-4.240621130252345e-04 -3.263983382457445e-03 0.000000000000000e+00 -2.045486708935277e-03 0.000000000000000e+00 0.000000000000000e+00
6.811320129932750e-05 -3.122631247665700e-03 0.000000000000000e+00 -2.245637593540663e-03 0.000000000000000e+00 0.000000000000000e+00
2.323946230752698e-03 6.069901866823013e-02 0.000000000000000e+00 1.847168598518823e-02 0.000000000000000e+00 0.000000000000000e+00
5.335344830881479e-03 1.014771958351657e-01 0.000000000000000e+00 2.214482095748230e-02 0.000000000000000e+00 0.000000000000000e+00
-4.251674489639374e-04 -2.362277361141775e-03 0.000000000000000e+00 -1.964977842144733e-03 0.000000000000000e+00 0.000000000000000e+00
-4.240621130252345e-04 -3.263983382457445e-03 0.000000000000000e+00 -2.045486708935277e-03 0.000000000000000e+00 0.000000000000000e+00
4.439529383110844e-03 5.395840477553557e-02 0.000000000000000e+00 1.777038963043720e-02 0.000000000000000e+00 0.000000000000000e+00
7.113829693464082e-03 1.257492364334267e-01 0.000000000000000e+00 4.802634914970613e-02 0.000000000000000e+00 0.000000000000000e+00
1.066469829015255e-03 6.699337197573439e-02 0.000000000000000e+00 1.892253183606100e-02 0.000000000000000e+00 0.000000000000000e+00
9.496580133831563e-04 2.254335774814660e-02 0.000000000000000e+00 1.451061211531517e-02 0.000000000000000e+00 0.000000000000000e+00
1.093359941467578e-03 1.279269296405490e-01 0.000000000000000e+00 2.991596682237997e-02 0.000000000000000e+00 0.000000000000000e+00
1.355046494640686e-02 1.275104245536703e-01 0.000000000000000e+00 6.929402511244288e-02 0.000000000000000e+00 0.000000000000000e+00
2.323946230752698e-03 6.069901866823013e-02 0.000000000000000e+00 1.847168598518823e-02 0.000000000000000e+00 0.000000000000000e+00
1.066469829015255e-03 6.699337197573439e-02 0.000000000000000e+00 1.892253183606100e-02 0.000000000000000e+00 0.000000000000000e+00
7.113829693464082e-03 1.257492364334267e-01 0.000000000000000e+00 4.802634914970613e-02 0.000000000000000e+00 0.000000000000000e+00
7.118926470201391e-03 1.253002701493102e-01 0.000000000000000e+00 4.898149519192518e-02 0.000000000000000e+00 0.000000000000000e+00
4.439529383110844e-03 5.395840477553557e-02 0.000000000000000e+00 1.777038963043720e-02 0.000000000000000e+00 0.000000000000000e+00
2.323946230752698e-03 6.069901866823013e-02 0.000000000000000e+00 1.847168598518823e-02 0.000000000000000e+00 0.000000000000000e+00
1.355046494640686e-02 1.275104245536703e-01 0.000000000000000e+00 6.929402511244288e-02 0.000000000000000e+00 0.000000000000000e+00
2.701060758870289e-04 1.271980249155883e-01 0.000000000000000e+00 2.664221339866705e-02 0.000000000000000e+00 0.000000000000000e+00
5.335344830881479e-03 1.014771958351657e-01 0.000000000000000e+00 2.214482095748230e-02 0.000000000000000e+00 0.000000000000000e+00
4.439529383110844e-03 5.395840477553557e-02 0.000000000000000e+00 1.777038963043720e-02 0.000000000000000e+00 0.000000000000000e+00
7.118926470201391e-03 1.253002701493102e-01 0.000000000000000e+00 4.898149519192518e-02 0.000000000000000e+00 0.000000000000000e+00
1.981043318027816e-02 1.367163322636492e-01 0.000000000000000e+00 8.751823888468427e-02 0.000000000000000e+00 0.000000000000000e+00
7.118926470201391e-03 1.253002701493102e-01 0.000000000000000e+00 4.898149519192518e-02 0.000000000000000e+00 0.000000000000000e+00
1.355046494640686e-02 1.275104245536703e-01 0.000000000000000e+00 6.929402511244288e-02 0.000000000000000e+00 0.000000000000000e+00
1.994018344231530e-02 1.254998719888164e-01 0.000000000000000e+00 8.616332880990468e-02 0.000000000000000e+00 0.000000000000000e+00
1.754965317298469e-02 5.233005869539368e-02 0.000000000000000e+00 7.332488500667059e-02 0.000000000000000e+00 0.000000000000000e+00
2.701060758870289e-04 1.271980249155883e-01 0.000000000000000e+00 2.664221339866705e-02 0.000000000000000e+00 0.000000000000000e+00
7.118926470201391e-03 1.253002701493102e-01 0.000000000000000e+00 4.898149519192518e-02 0.000000000000000e+00 0.000000000000000e+00
1.981043318027816e-02 1.367163322636492e-01 0.000000000000000e+00 8.751823888468427e-02 0.000000000000000e+00 0.000000000000000e+00
        </DataArray>
  </PointData>
  <CellData>
        <DataArray type="Float64" Name="element_cauchy_stresses_xyz" NumberOfComponents="6" format="ascii">
2.512264679789671e-04 -4.984991219042826e-04 0.000000000000000e+00 6.514282302684440e-04 0.000000000000000e+00 0.000000000000000e+00
-2.267962156414531e-04 -1.891958140784227e-04 0.000000000000000e+00 5.697419670716175e-04 0.000000000000000e+00 0.000000000000000e+00
-1.837243476265044e-04 -7.141849563814983e-03 0.000000000000000e+00 -5.726778250480927e-03 0.000000000000000e+00 0.000000000000000e+00
-5.873431160877773e-04 -6.104344245439181e-03 0.000000000000000e+00 -5.566065942124355e-03 0.000000000000000e+00 0.000000000000000e+00
7.905744368448709e-04 -6.188111705133927e-03 0.000000000000000e+00 -5.342408846231956e-03 0.000000000000000e+00 0.000000000000000e+00
1.130508853833441e-03 -4.458132633259176e-03 0.000000000000000e+00 -6.477785701554091e-03 0.000000000000000e+00 0.000000000000000e+00
-7.942390398262429e-04 9.643035586436302e-02 0.000000000000000e+00 2.144742899294983e-02 0.000000000000000e+00 0.000000000000000e+00
4.454725501414554e-03 1.347189256145348e-01 0.000000000000000e+00 4.544133782353429e-02 0.000000000000000e+00 0.000000000000000e+00
6.015058822556358e-03 1.217610932175996e-01 0.000000000000000e+00 4.475647884735021e-02 0.000000000000000e+00 0.000000000000000e+00
1.689832228494639e-03 1.598379865578466e-01 0.000000000000000e+00 2.864415776683610e-02 0.000000000000000e+00 0.000000000000000e+00
2.069968447042950e-02 1.323587027823792e-01 0.000000000000000e+00 8.952779901819279e-02 0.000000000000000e+00 0.000000000000000e+00
1.172708716906529e-02 9.181606801023806e-02 0.000000000000000e+00 6.218412695630146e-02 0.000000000000000e+00 0.000000000000000e+00
        </DataArray>
      </CellData>

    </Piece>
  </UnstructuredGrid>
</VTKFile>
