<?xml version="1.0" ?> 
<!-- 
# vtk DataFile Version 3.0
-->
<VTKFile type="UnstructuredGrid" version="0.1" compressor="vtkZLibDataCompressor" byte_order="LittleEndian">
  <UnstructuredGrid>
    <FieldData>
      <DataArray type="Float64" Name="TIME" NumberOfTuples="1" format="ascii">
1.000000000000000e-01 
      </DataArray>
    </FieldData>

    <Piece NumberOfPoints="16" NumberOfCells="4" >
      <Points>
        <DataArray type="Float64" NumberOfComponents="3" format="ascii">
7.500000000000000e-01 2.500000000000000e-01 0.000000000000000e+00
7.500000000000000e-01 0.000000000000000e+00 0.000000000000000e+00
1.000000000000000e+00 0.000000000000000e+00 0.000000000000000e+00
1.000000000000000e+00 2.500000000000000e-01 0.000000000000000e+00
0.000000000000000e+00 2.500000000000000e-01 0.000000000000000e+00
0.000000000000000e+00 0.000000000000000e+00 0.000000000000000e+00
2.500000000000000e-01 0.000000000000000e+00 0.000000000000000e+00
2.500000000000000e-01 2.500000000000000e-01 0.000000000000000e+00
7.500000000000000e-01 1.000000000000000e+00 0.000000000000000e+00
7.500000000000000e-01 7.500000000000000e-01 0.000000000000000e+00
1.000000000000000e+00 7.500000000000000e-01 0.000000000000000e+00
1.000000000000000e+00 1.000000000000000e+00 0.000000000000000e+00
5.000000000000000e-01 1.000000000000000e+00 0.000000000000000e+00
5.000000000000000e-01 7.500000000000000e-01 0.000000000000000e+00
7.500000000000000e-01 7.500000000000000e-01 0.000000000000000e+00
7.500000000000000e-01 1.000000000000000e+00 0.000000000000000e+00
        </DataArray>
      </Points>

      <Cells>
        <DataArray type="Int32" Name="connectivity" format="ascii">
0 1 2 3 4 5 6 7 8 9 10 11 12 13 14 15 
        </DataArray>
        <DataArray type="Int32" Name="offsets" format="ascii">
4 8 12 16 
        </DataArray>
        <DataArray type="UInt8" Name="types" format="ascii">
9 9 9 9 
        </DataArray>
      </Cells>

  <PointData>
        <DataArray type="Float64" Name="displacement" NumberOfComponents="2" format="ascii">
2.058292735896462e-04 2.458540727946164e-04
0.000000000000000e+00 0.000000000000000e+00
0.000000000000000e+00 0.000000000000000e+00
1.935397072626022e-04 1.352186844130871e-04
2.534391294327476e-04 2.901274357817804e-04
0.000000000000000e+00 0.000000000000000e+00
0.000000000000000e+00 0.000000000000000e+00
1.942864853720384e-04 2.068826835002551e-04
5.000000000000000e-02 5.000000000000000e-02
4.309407181976890e-03 8.608135598910690e-03
3.510704881018884e-03 2.728831688363652e-03
5.000000000000000e-02 5.000000000000000e-02
5.000000000000000e-02 5.000000000000000e-02
4.207734713743972e-03 7.596891482612180e-03
4.309407181976890e-03 8.608135598910690e-03
5.000000000000000e-02 5.000000000000000e-02
        </DataArray>
        <DataArray type="Float64" Name="nodal_cauchy_stresses_xyz" NumberOfComponents="6" format="ascii">
4.728757597492613e-05 -2.900250626105274e-03 0.000000000000000e+00 -1.030272106500742e-03 0.000000000000000e+00 0.000000000000000e+00
6.656308329745974e-07 9.851625456571938e-04 0.000000000000000e+00 4.124629963991466e-04 0.000000000000000e+00 0.000000000000000e+00
5.820021463253052e-07 5.415316007852966e-04 0.000000000000000e+00 3.874911993002913e-04 0.000000000000000e+00 0.000000000000000e+00
-3.980065867435854e-05 -1.191913170639019e-03 0.000000000000000e+00 -1.078677544750141e-03 0.000000000000000e+00 0.000000000000000e+00
-2.212089702898747e-04 -3.807336898991139e-03 0.000000000000000e+00 -1.288769600189898e-03 0.000000000000000e+00 0.000000000000000e+00
9.951538707046839e-07 1.162994204505359e-03 0.000000000000000e+00 5.080296402356893e-04 0.000000000000000e+00 0.000000000000000e+00
5.864323018428115e-07 8.288343463724382e-04 0.000000000000000e+00 3.892039904533405e-04 0.000000000000000e+00 0.000000000000000e+00
-1.459933214561865e-04 -2.290266533670441e-03 0.000000000000000e+00 -9.747548764207384e-04 0.000000000000000e+00 0.000000000000000e+00
3.424817182965327e-02 2.282801186372120e-01 0.000000000000000e+00 1.271720153939041e-01 0.000000000000000e+00 0.000000000000000e+00
1.517064792754576e-02 1.349026392053784e-01 0.000000000000000e+00 6.376480677705332e-02 0.000000000000000e+00 0.000000000000000e+00
1.276316794758232e-02 1.380806612983944e-01 0.000000000000000e+00 5.844515028973338e-02 0.000000000000000e+00 0.000000000000000e+00
3.555433890077137e-02 2.663750266798899e-01 0.000000000000000e+00 1.346288099359868e-01 0.000000000000000e+00 0.000000000000000e+00
3.444337263207365e-02 2.348175884783495e-01 0.000000000000000e+00 1.283584490750145e-01 0.000000000000000e+00 0.000000000000000e+00
1.823385687876263e-02 1.366854643387215e-01 0.000000000000000e+00 7.191245002450308e-02 0.000000000000000e+00 0.000000000000000e+00
1.517064792754576e-02 1.349026392053784e-01 0.000000000000000e+00 6.376480677705332e-02 0.000000000000000e+00 0.000000000000000e+00
3.424817182965327e-02 2.282801186372120e-01 0.000000000000000e+00 1.271720153939041e-01 0.000000000000000e+00 0.000000000000000e+00
        </DataArray>
  </PointData>
  <CellData>
        <DataArray type="Float64" Name="element_cauchy_stresses_xyz" NumberOfComponents="6" format="ascii">
-2.406515589008279e-05 7.632680915472108e-04 0.000000000000000e+00 2.892576794039775e-04 0.000000000000000e+00 0.000000000000000e+00
-1.174840438139815e-04 9.959259766629397e-04 0.000000000000000e+00 3.652688618545811e-04 0.000000000000000e+00 0.000000000000000e+00
3.140029989533295e-02 2.453654895368354e-01 0.000000000000000e+00 1.235517573961112e-01 0.000000000000000e+00 0.000000000000000e+00
3.492144486752313e-02 2.320217208053270e-01 0.000000000000000e+00 1.290412375115127e-01 0.000000000000000e+00 0.000000000000000e+00
        </DataArray>
      </CellData>

    </Piece>
  </UnstructuredGrid>
</VTKFile>
