<?xml version="1.0" ?> 
<!-- 
# vtk DataFile Version 3.0
-->
<VTKFile type="UnstructuredGrid" version="0.1" compressor="vtkZLibDataCompressor" byte_order="LittleEndian">
  <UnstructuredGrid>
    <FieldData>
      <DataArray type="Float64" Name="TIME" NumberOfTuples="1" format="ascii">
2.000000000000000e-01 
      </DataArray>
    </FieldData>

    <Piece NumberOfPoints="28" NumberOfCells="7" >
      <Points>
        <DataArray type="Float64" NumberOfComponents="3" format="ascii">
7.500000000000000e-01 2.500000000000000e-01 0.000000000000000e+00
7.500000000000000e-01 0.000000000000000e+00 0.000000000000000e+00
1.000000000000000e+00 0.000000000000000e+00 0.000000000000000e+00
1.000000000000000e+00 2.500000000000000e-01 0.000000000000000e+00
5.000000000000000e-01 2.500000000000000e-01 0.000000000000000e+00
5.000000000000000e-01 0.000000000000000e+00 0.000000000000000e+00
7.500000000000000e-01 0.000000000000000e+00 0.000000000000000e+00
7.500000000000000e-01 2.500000000000000e-01 0.000000000000000e+00
2.500000000000000e-01 2.500000000000000e-01 0.000000000000000e+00
2.500000000000000e-01 0.000000000000000e+00 0.000000000000000e+00
5.000000000000000e-01 0.000000000000000e+00 0.000000000000000e+00
5.000000000000000e-01 2.500000000000000e-01 0.000000000000000e+00
0.000000000000000e+00 2.500000000000000e-01 0.000000000000000e+00
0.000000000000000e+00 0.000000000000000e+00 0.000000000000000e+00
2.500000000000000e-01 0.000000000000000e+00 0.000000000000000e+00
2.500000000000000e-01 2.500000000000000e-01 0.000000000000000e+00
7.500000000000000e-01 5.000000000000000e-01 0.000000000000000e+00
7.500000000000000e-01 2.500000000000000e-01 0.000000000000000e+00
1.000000000000000e+00 2.500000000000000e-01 0.000000000000000e+00
1.000000000000000e+00 5.000000000000000e-01 0.000000000000000e+00
5.000000000000000e-01 5.000000000000000e-01 0.000000000000000e+00
5.000000000000000e-01 2.500000000000000e-01 0.000000000000000e+00
7.500000000000000e-01 2.500000000000000e-01 0.000000000000000e+00
7.500000000000000e-01 5.000000000000000e-01 0.000000000000000e+00
2.500000000000000e-01 5.000000000000000e-01 0.000000000000000e+00
2.500000000000000e-01 2.500000000000000e-01 0.000000000000000e+00
5.000000000000000e-01 2.500000000000000e-01 0.000000000000000e+00
5.000000000000000e-01 5.000000000000000e-01 0.000000000000000e+00
        </DataArray>
      </Points>

      <Cells>
        <DataArray type="Int32" Name="connectivity" format="ascii">
0 1 2 3 4 5 6 7 8 9 10 11 12 13 14 15 16 17 18 19 20 21 22 23 24 25 26 27 
        </DataArray>
        <DataArray type="Int32" Name="offsets" format="ascii">
4 8 12 16 20 24 28 
        </DataArray>
        <DataArray type="UInt8" Name="types" format="ascii">
9 9 9 9 9 9 9 
        </DataArray>
      </Cells>

  <PointData>
        <DataArray type="Float64" Name="displacement" NumberOfComponents="2" format="ascii">
4.091144833442442e-04 -1.458150264723918e-04
0.000000000000000e+00 0.000000000000000e+00
0.000000000000000e+00 0.000000000000000e+00
5.060058721239160e-04 3.252217064298113e-04
2.845430262516465e-04 -1.041186243467302e-04
0.000000000000000e+00 0.000000000000000e+00
0.000000000000000e+00 0.000000000000000e+00
4.091144833442442e-04 -1.458150264723918e-04
3.987763193587123e-04 9.151789414402590e-06
0.000000000000000e+00 0.000000000000000e+00
0.000000000000000e+00 0.000000000000000e+00
2.845430262516465e-04 -1.041186243467302e-04
5.290119894375323e-04 -5.865455669715683e-04
0.000000000000000e+00 0.000000000000000e+00
0.000000000000000e+00 0.000000000000000e+00
3.987763193587123e-04 9.151789414402590e-06
-2.596902181753062e-03 -1.773957782909530e-03
4.091144833442442e-04 -1.458150264723918e-04
5.060058721239160e-04 3.252217064298113e-04
-2.859198817298366e-03 -1.690292498706496e-03
-2.118867259024853e-03 -1.586757556672785e-03
2.845430262516465e-04 -1.041186243467302e-04
4.091144833442442e-04 -1.458150264723918e-04
-2.596902181753062e-03 -1.773957782909530e-03
-2.567285290024130e-03 -1.663341105511557e-03
3.987763193587123e-04 9.151789414402590e-06
2.845430262516465e-04 -1.041186243467302e-04
-2.118867259024853e-03 -1.586757556672785e-03
        </DataArray>
        <DataArray type="Float64" Name="nodal_cauchy_stresses_xyz" NumberOfComponents="6" format="ascii">
5.139147035240054e-04 -3.481268560722689e-03 0.000000000000000e+00 -2.132105699989309e-03 0.000000000000000e+00 0.000000000000000e+00
2.445630648738900e-06 -5.821736042343406e-04 0.000000000000000e+00 8.171679456055604e-04 0.000000000000000e+00 0.000000000000000e+00
3.738325536937614e-06 1.303984055631043e-03 0.000000000000000e+00 1.014404884847152e-03 0.000000000000000e+00 0.000000000000000e+00
4.720986009227692e-04 -3.291924986812263e-03 0.000000000000000e+00 -1.866284804163247e-03 0.000000000000000e+00 0.000000000000000e+00
6.811320129932752e-05 -3.122631247665628e-03 0.000000000000000e+00 -2.245637593540665e-03 0.000000000000000e+00 0.000000000000000e+00
1.190462177854209e-06 -4.156344900232366e-04 0.000000000000000e+00 5.685921131972460e-04 0.000000000000000e+00 0.000000000000000e+00
2.445630648738900e-06 -5.821736042343406e-04 0.000000000000000e+00 8.171679456055604e-04 0.000000000000000e+00 0.000000000000000e+00
5.139147035240054e-04 -3.481268560722689e-03 0.000000000000000e+00 -2.132105699989309e-03 0.000000000000000e+00 0.000000000000000e+00
-4.240621130252347e-04 -3.263983382457570e-03 0.000000000000000e+00 -2.045486708935277e-03 0.000000000000000e+00 0.000000000000000e+00
2.199487485492732e-06 3.663645392312150e-05 0.000000000000000e+00 7.977834665368861e-04 0.000000000000000e+00 0.000000000000000e+00
1.190462177854209e-06 -4.156344900232366e-04 0.000000000000000e+00 5.685921131972460e-04 0.000000000000000e+00 0.000000000000000e+00
6.811320129932752e-05 -3.122631247665628e-03 0.000000000000000e+00 -2.245637593540665e-03 0.000000000000000e+00 0.000000000000000e+00
-4.251674489639374e-04 -2.362277361141737e-03 0.000000000000000e+00 -1.964977842144733e-03 0.000000000000000e+00 0.000000000000000e+00
3.890881917748606e-06 -2.338081650351017e-03 0.000000000000000e+00 1.053479599906731e-03 0.000000000000000e+00 0.000000000000000e+00
2.199487485492732e-06 3.663645392312150e-05 0.000000000000000e+00 7.977834665368861e-04 0.000000000000000e+00 0.000000000000000e+00
-4.240621130252347e-04 -3.263983382457570e-03 0.000000000000000e+00 -2.045486708935277e-03 0.000000000000000e+00 0.000000000000000e+00
1.066469829015253e-03 6.699337197573449e-02 0.000000000000000e+00 1.892253183606096e-02 0.000000000000000e+00 0.000000000000000e+00
5.139147035240054e-04 -3.481268560722689e-03 0.000000000000000e+00 -2.132105699989309e-03 0.000000000000000e+00 0.000000000000000e+00
4.720986009227692e-04 -3.291924986812263e-03 0.000000000000000e+00 -1.866284804163247e-03 0.000000000000000e+00 0.000000000000000e+00
9.496580133831569e-04 2.254335774814663e-02 0.000000000000000e+00 1.451061211531517e-02 0.000000000000000e+00 0.000000000000000e+00
2.323946230752702e-03 6.069901866823020e-02 0.000000000000000e+00 1.847168598518830e-02 0.000000000000000e+00 0.000000000000000e+00
6.811320129932752e-05 -3.122631247665628e-03 0.000000000000000e+00 -2.245637593540665e-03 0.000000000000000e+00 0.000000000000000e+00
5.139147035240054e-04 -3.481268560722689e-03 0.000000000000000e+00 -2.132105699989309e-03 0.000000000000000e+00 0.000000000000000e+00
1.066469829015253e-03 6.699337197573449e-02 0.000000000000000e+00 1.892253183606096e-02 0.000000000000000e+00 0.000000000000000e+00
4.439529383110851e-03 5.395840477553562e-02 0.000000000000000e+00 1.777038963043728e-02 0.000000000000000e+00 0.000000000000000e+00
-4.240621130252347e-04 -3.263983382457570e-03 0.000000000000000e+00 -2.045486708935277e-03 0.000000000000000e+00 0.000000000000000e+00
6.811320129932752e-05 -3.122631247665628e-03 0.000000000000000e+00 -2.245637593540665e-03 0.000000000000000e+00 0.000000000000000e+00
2.323946230752702e-03 6.069901866823020e-02 0.000000000000000e+00 1.847168598518830e-02 0.000000000000000e+00 0.000000000000000e+00
        </DataArray>
  </PointData>
  <CellData>
        <DataArray type="Float64" Name="element_cauchy_stresses_xyz" NumberOfComponents="6" format="ascii">
1.994676735653768e-04 3.639709839806008e-04 0.000000000000000e+00 1.387473902477159e-03 0.000000000000000e+00 0.000000000000000e+00
2.512264679789671e-04 -4.984991219042826e-04 0.000000000000000e+00 6.514282302684440e-04 0.000000000000000e+00 0.000000000000000e+00
-2.267962156414531e-04 -1.891958140784227e-04 0.000000000000000e+00 5.697419670716175e-04 0.000000000000000e+00 0.000000000000000e+00
-2.540149089356567e-04 -1.146549729737486e-03 0.000000000000000e+00 1.519909500798199e-03 0.000000000000000e+00 0.000000000000000e+00
-1.837243476265044e-04 -7.141849563814983e-03 0.000000000000000e+00 -5.726778250480927e-03 0.000000000000000e+00 0.000000000000000e+00
-5.873431160877760e-04 -6.104344245439071e-03 0.000000000000000e+00 -5.566065942124413e-03 0.000000000000000e+00 0.000000000000000e+00
7.905744368448685e-04 -6.188111705133930e-03 0.000000000000000e+00 -5.342408846231846e-03 0.000000000000000e+00 0.000000000000000e+00
        </DataArray>
      </CellData>

    </Piece>
  </UnstructuredGrid>
</VTKFile>
