<?xml version="1.0" ?> 
<!-- 
# vtk DataFile Version 3.0
-->
<VTKFile type="UnstructuredGrid" version="0.1" compressor="vtkZLibDataCompressor" byte_order="LittleEndian">
  <UnstructuredGrid>
    <FieldData>
      <DataArray type="Float64" Name="TIME" NumberOfTuples="1" format="ascii">
1.000000000000000e-01 
      </DataArray>
    </FieldData>

    <Piece NumberOfPoints="36" NumberOfCells="9" >
      <Points>
        <DataArray type="Float64" NumberOfComponents="3" format="ascii">
0.000000000000000e+00 5.000000000000000e-01 0.000000000000000e+00
0.000000000000000e+00 2.500000000000000e-01 0.000000000000000e+00
2.500000000000000e-01 2.500000000000000e-01 0.000000000000000e+00
2.500000000000000e-01 5.000000000000000e-01 0.000000000000000e+00
7.500000000000000e-01 7.500000000000000e-01 0.000000000000000e+00
7.500000000000000e-01 5.000000000000000e-01 0.000000000000000e+00
1.000000000000000e+00 5.000000000000000e-01 0.000000000000000e+00
1.000000000000000e+00 7.500000000000000e-01 0.000000000000000e+00
5.000000000000000e-01 7.500000000000000e-01 0.000000000000000e+00
5.000000000000000e-01 5.000000000000000e-01 0.000000000000000e+00
7.500000000000000e-01 5.000000000000000e-01 0.000000000000000e+00
7.500000000000000e-01 7.500000000000000e-01 0.000000000000000e+00
2.500000000000000e-01 7.500000000000000e-01 0.000000000000000e+00
2.500000000000000e-01 5.000000000000000e-01 0.000000000000000e+00
5.000000000000000e-01 5.000000000000000e-01 0.000000000000000e+00
5.000000000000000e-01 7.500000000000000e-01 0.000000000000000e+00
0.000000000000000e+00 7.500000000000000e-01 0.000000000000000e+00
0.000000000000000e+00 5.000000000000000e-01 0.000000000000000e+00
2.500000000000000e-01 5.000000000000000e-01 0.000000000000000e+00
2.500000000000000e-01 7.500000000000000e-01 0.000000000000000e+00
7.500000000000000e-01 1.000000000000000e+00 0.000000000000000e+00
7.500000000000000e-01 7.500000000000000e-01 0.000000000000000e+00
1.000000000000000e+00 7.500000000000000e-01 0.000000000000000e+00
1.000000000000000e+00 1.000000000000000e+00 0.000000000000000e+00
5.000000000000000e-01 1.000000000000000e+00 0.000000000000000e+00
5.000000000000000e-01 7.500000000000000e-01 0.000000000000000e+00
7.500000000000000e-01 7.500000000000000e-01 0.000000000000000e+00
7.500000000000000e-01 1.000000000000000e+00 0.000000000000000e+00
2.500000000000000e-01 1.000000000000000e+00 0.000000000000000e+00
2.500000000000000e-01 7.500000000000000e-01 0.000000000000000e+00
5.000000000000000e-01 7.500000000000000e-01 0.000000000000000e+00
5.000000000000000e-01 1.000000000000000e+00 0.000000000000000e+00
0.000000000000000e+00 1.000000000000000e+00 0.000000000000000e+00
0.000000000000000e+00 7.500000000000000e-01 0.000000000000000e+00
2.500000000000000e-01 7.500000000000000e-01 0.000000000000000e+00
2.500000000000000e-01 1.000000000000000e+00 0.000000000000000e+00
        </DataArray>
      </Points>

      <Cells>
        <DataArray type="Int32" Name="connectivity" format="ascii">
0 1 2 3 4 5 6 7 8 9 10 11 12 13 14 15 16 17 18 19 20 21 22 23 24 25 26 27 28 29 30 31 32 33 34 35 
        </DataArray>
        <DataArray type="Int32" Name="offsets" format="ascii">
4 8 12 16 20 24 28 32 36 
        </DataArray>
        <DataArray type="UInt8" Name="types" format="ascii">
9 9 9 9 9 9 9 9 9 
        </DataArray>
      </Cells>

  <PointData>
        <DataArray type="Float64" Name="displacement" NumberOfComponents="2" format="ascii">
-1.147997298790356e-03 -1.936572961278487e-03
2.534391294327478e-04 2.901274357817787e-04
1.942864853720383e-04 2.068826835002570e-04
-9.150284713761310e-04 -1.158405952685495e-03
4.309407181976889e-03 8.608135598910690e-03
-9.639220007731454e-04 -1.470336484174569e-03
-8.638464684379954e-04 -6.004435084522782e-04
3.510704881018885e-03 2.728831688363651e-03
4.207734713743973e-03 7.596891482612181e-03
-8.678768044312322e-04 -1.289549087569236e-03
-9.639220007731454e-04 -1.470336484174569e-03
4.309407181976889e-03 8.608135598910690e-03
4.102403420033562e-03 6.610440982698040e-03
-9.150284713761310e-04 -1.158405952685495e-03
-8.678768044312322e-04 -1.289549087569236e-03
4.207734713743973e-03 7.596891482612181e-03
4.874271930369084e-03 1.240171156677696e-02
-1.147997298790356e-03 -1.936572961278487e-03
-9.150284713761310e-04 -1.158405952685495e-03
4.102403420033562e-03 6.610440982698040e-03
5.000000000000000e-02 5.000000000000000e-02
4.309407181976889e-03 8.608135598910690e-03
3.510704881018885e-03 2.728831688363651e-03
5.000000000000000e-02 5.000000000000000e-02
5.000000000000000e-02 5.000000000000000e-02
4.207734713743973e-03 7.596891482612181e-03
4.309407181976889e-03 8.608135598910690e-03
5.000000000000000e-02 5.000000000000000e-02
5.000000000000000e-02 5.000000000000000e-02
4.102403420033562e-03 6.610440982698040e-03
4.207734713743973e-03 7.596891482612181e-03
5.000000000000000e-02 5.000000000000000e-02
5.000000000000000e-02 5.000000000000000e-02
4.874271930369084e-03 1.240171156677696e-02
4.102403420033562e-03 6.610440982698040e-03
5.000000000000000e-02 5.000000000000000e-02
        </DataArray>
        <DataArray type="Float64" Name="nodal_cauchy_stresses_xyz" NumberOfComponents="6" format="ascii">
1.220772369434419e-03 2.681895563262411e-02 0.000000000000000e+00 6.941449780258571e-03 0.000000000000000e+00 0.000000000000000e+00
-2.212089702898747e-04 -3.807336898991139e-03 0.000000000000000e+00 -1.288769600189898e-03 0.000000000000000e+00 0.000000000000000e+00
-1.459933214561866e-04 -2.290266533670443e-03 0.000000000000000e+00 -9.747548764207390e-04 0.000000000000000e+00 0.000000000000000e+00
7.615687661147592e-04 1.359943795023884e-02 0.000000000000000e+00 4.887957790825083e-03 0.000000000000000e+00 0.000000000000000e+00
1.517064792754578e-02 1.349026392053785e-01 0.000000000000000e+00 6.376480677705335e-02 0.000000000000000e+00 0.000000000000000e+00
2.393347484117997e-04 1.805136975061590e-02 0.000000000000000e+00 5.248220567352139e-03 0.000000000000000e+00 0.000000000000000e+00
5.563281104260426e-04 5.284264221390829e-03 0.000000000000000e+00 5.176433005768978e-03 0.000000000000000e+00 0.000000000000000e+00
1.276316794758233e-02 1.380806612983945e-01 0.000000000000000e+00 5.844515028973342e-02 0.000000000000000e+00 0.000000000000000e+00
1.823385687876264e-02 1.366854643387215e-01 0.000000000000000e+00 7.191245002450311e-02 0.000000000000000e+00 0.000000000000000e+00
1.128572825225257e-04 1.584684792571322e-02 0.000000000000000e+00 4.096597422621648e-03 0.000000000000000e+00 0.000000000000000e+00
2.393347484117997e-04 1.805136975061590e-02 0.000000000000000e+00 5.248220567352139e-03 0.000000000000000e+00 0.000000000000000e+00
1.517064792754578e-02 1.349026392053785e-01 0.000000000000000e+00 6.376480677705335e-02 0.000000000000000e+00 0.000000000000000e+00
1.538872405995190e-02 1.361220326686616e-01 0.000000000000000e+00 6.462572909368722e-02 0.000000000000000e+00 0.000000000000000e+00
7.615687661147592e-04 1.359943795023884e-02 0.000000000000000e+00 4.887957790825083e-03 0.000000000000000e+00 0.000000000000000e+00
1.128572825225257e-04 1.584684792571322e-02 0.000000000000000e+00 4.096597422621648e-03 0.000000000000000e+00 0.000000000000000e+00
1.823385687876264e-02 1.366854643387215e-01 0.000000000000000e+00 7.191245002450311e-02 0.000000000000000e+00 0.000000000000000e+00
1.191760101259989e-02 1.316949974968216e-01 0.000000000000000e+00 5.471429470724084e-02 0.000000000000000e+00 0.000000000000000e+00
1.220772369434419e-03 2.681895563262411e-02 0.000000000000000e+00 6.941449780258571e-03 0.000000000000000e+00 0.000000000000000e+00
7.615687661147592e-04 1.359943795023884e-02 0.000000000000000e+00 4.887957790825083e-03 0.000000000000000e+00 0.000000000000000e+00
1.538872405995190e-02 1.361220326686616e-01 0.000000000000000e+00 6.462572909368722e-02 0.000000000000000e+00 0.000000000000000e+00
3.424817182965328e-02 2.282801186372121e-01 0.000000000000000e+00 1.271720153939041e-01 0.000000000000000e+00 0.000000000000000e+00
1.517064792754578e-02 1.349026392053785e-01 0.000000000000000e+00 6.376480677705335e-02 0.000000000000000e+00 0.000000000000000e+00
1.276316794758233e-02 1.380806612983945e-01 0.000000000000000e+00 5.844515028973342e-02 0.000000000000000e+00 0.000000000000000e+00
3.555433890077139e-02 2.663750266798899e-01 0.000000000000000e+00 1.346288099359868e-01 0.000000000000000e+00 0.000000000000000e+00
3.444337263207366e-02 2.348175884783496e-01 0.000000000000000e+00 1.283584490750146e-01 0.000000000000000e+00 0.000000000000000e+00
1.823385687876264e-02 1.366854643387215e-01 0.000000000000000e+00 7.191245002450311e-02 0.000000000000000e+00 0.000000000000000e+00
1.517064792754578e-02 1.349026392053785e-01 0.000000000000000e+00 6.376480677705335e-02 0.000000000000000e+00 0.000000000000000e+00
3.424817182965328e-02 2.282801186372121e-01 0.000000000000000e+00 1.271720153939041e-01 0.000000000000000e+00 0.000000000000000e+00
3.459772098732455e-02 2.409963094620461e-01 0.000000000000000e+00 1.294929930371523e-01 0.000000000000000e+00 0.000000000000000e+00
1.538872405995190e-02 1.361220326686616e-01 0.000000000000000e+00 6.462572909368722e-02 0.000000000000000e+00 0.000000000000000e+00
1.823385687876264e-02 1.366854643387215e-01 0.000000000000000e+00 7.191245002450311e-02 0.000000000000000e+00 0.000000000000000e+00
3.444337263207366e-02 2.348175884783496e-01 0.000000000000000e+00 1.283584490750146e-01 0.000000000000000e+00 0.000000000000000e+00
3.331492150154142e-02 2.044981595601815e-01 0.000000000000000e+00 1.223313857652795e-01 0.000000000000000e+00 0.000000000000000e+00
1.191760101259989e-02 1.316949974968216e-01 0.000000000000000e+00 5.471429470724084e-02 0.000000000000000e+00 0.000000000000000e+00
1.538872405995190e-02 1.361220326686616e-01 0.000000000000000e+00 6.462572909368722e-02 0.000000000000000e+00 0.000000000000000e+00
3.459772098732455e-02 2.409963094620461e-01 0.000000000000000e+00 1.294929930371523e-01 0.000000000000000e+00 0.000000000000000e+00
        </DataArray>
  </PointData>
  <CellData>
        <DataArray type="Float64" Name="element_cauchy_stresses_xyz" NumberOfComponents="6" format="ascii">
3.703306402350207e-04 -7.094268484930976e-03 0.000000000000000e+00 -1.784646747605143e-03 0.000000000000000e+00 0.000000000000000e+00
-1.097979250602184e-03 2.819538568662462e-02 0.000000000000000e+00 5.047761014000791e-03 0.000000000000000e+00 0.000000000000000e+00
4.764060825670642e-04 4.038051952950554e-02 0.000000000000000e+00 1.201687679887924e-02 0.000000000000000e+00 0.000000000000000e+00
7.399554569251081e-04 3.523627785595289e-02 0.000000000000000e+00 1.166892415197587e-02 0.000000000000000e+00 0.000000000000000e+00
-6.851591953545779e-04 4.752029852546408e-02 0.000000000000000e+00 6.823230642915300e-03 0.000000000000000e+00 0.000000000000000e+00
3.140029989533295e-02 2.453654895368354e-01 0.000000000000000e+00 1.235517573961112e-01 0.000000000000000e+00 0.000000000000000e+00
3.492144486752313e-02 2.320217208053270e-01 0.000000000000000e+00 1.290412375115127e-01 0.000000000000000e+00 0.000000000000000e+00
3.509290770923178e-02 2.383662948115748e-01 0.000000000000000e+00 1.301750320715083e-01 0.000000000000000e+00 0.000000000000000e+00
3.054401760404364e-02 2.208323384743370e-01 0.000000000000000e+00 1.187691958607713e-01 0.000000000000000e+00 0.000000000000000e+00
        </DataArray>
      </CellData>

    </Piece>
  </UnstructuredGrid>
</VTKFile>
