<?xml version="1.0" ?> 
<!-- 
# vtk DataFile Version 3.0
-->
<VTKFile type="UnstructuredGrid" version="0.1" compressor="vtkZLibDataCompressor" byte_order="LittleEndian">
  <UnstructuredGrid>
    <FieldData>
      <DataArray type="Float64" Name="TIME" NumberOfTuples="1" format="ascii">
1.000000000000000e-01 
      </DataArray>
    </FieldData>

    <Piece NumberOfPoints="28" NumberOfCells="7" >
      <Points>
        <DataArray type="Float64" NumberOfComponents="3" format="ascii">
7.500000000000000e-01 2.500000000000000e-01 0.000000000000000e+00
7.500000000000000e-01 0.000000000000000e+00 0.000000000000000e+00
1.000000000000000e+00 0.000000000000000e+00 0.000000000000000e+00
1.000000000000000e+00 2.500000000000000e-01 0.000000000000000e+00
5.000000000000000e-01 2.500000000000000e-01 0.000000000000000e+00
5.000000000000000e-01 0.000000000000000e+00 0.000000000000000e+00
7.500000000000000e-01 0.000000000000000e+00 0.000000000000000e+00
7.500000000000000e-01 2.500000000000000e-01 0.000000000000000e+00
2.500000000000000e-01 2.500000000000000e-01 0.000000000000000e+00
2.500000000000000e-01 0.000000000000000e+00 0.000000000000000e+00
5.000000000000000e-01 0.000000000000000e+00 0.000000000000000e+00
5.000000000000000e-01 2.500000000000000e-01 0.000000000000000e+00
0.000000000000000e+00 2.500000000000000e-01 0.000000000000000e+00
0.000000000000000e+00 0.000000000000000e+00 0.000000000000000e+00
2.500000000000000e-01 0.000000000000000e+00 0.000000000000000e+00
2.500000000000000e-01 2.500000000000000e-01 0.000000000000000e+00
7.500000000000000e-01 5.000000000000000e-01 0.000000000000000e+00
7.500000000000000e-01 2.500000000000000e-01 0.000000000000000e+00
1.000000000000000e+00 2.500000000000000e-01 0.000000000000000e+00
1.000000000000000e+00 5.000000000000000e-01 0.000000000000000e+00
5.000000000000000e-01 5.000000000000000e-01 0.000000000000000e+00
5.000000000000000e-01 2.500000000000000e-01 0.000000000000000e+00
7.500000000000000e-01 2.500000000000000e-01 0.000000000000000e+00
7.500000000000000e-01 5.000000000000000e-01 0.000000000000000e+00
2.500000000000000e-01 5.000000000000000e-01 0.000000000000000e+00
2.500000000000000e-01 2.500000000000000e-01 0.000000000000000e+00
5.000000000000000e-01 2.500000000000000e-01 0.000000000000000e+00
5.000000000000000e-01 5.000000000000000e-01 0.000000000000000e+00
        </DataArray>
      </Points>

      <Cells>
        <DataArray type="Int32" Name="connectivity" format="ascii">
0 1 2 3 4 5 6 7 8 9 10 11 12 13 14 15 16 17 18 19 20 21 22 23 24 25 26 27 
        </DataArray>
        <DataArray type="Int32" Name="offsets" format="ascii">
4 8 12 16 20 24 28 
        </DataArray>
        <DataArray type="UInt8" Name="types" format="ascii">
9 9 9 9 9 9 9 
        </DataArray>
      </Cells>

  <PointData>
        <DataArray type="Float64" Name="displacement" NumberOfComponents="2" format="ascii">
2.058292735896461e-04 2.458540727946163e-04
0.000000000000000e+00 0.000000000000000e+00
0.000000000000000e+00 0.000000000000000e+00
1.935397072626022e-04 1.352186844130872e-04
1.755889154725782e-04 2.179960188951120e-04
0.000000000000000e+00 0.000000000000000e+00
0.000000000000000e+00 0.000000000000000e+00
2.058292735896461e-04 2.458540727946163e-04
1.942864853720383e-04 2.068826835002570e-04
0.000000000000000e+00 0.000000000000000e+00
0.000000000000000e+00 0.000000000000000e+00
1.755889154725782e-04 2.179960188951120e-04
2.534391294327478e-04 2.901274357817787e-04
0.000000000000000e+00 0.000000000000000e+00
0.000000000000000e+00 0.000000000000000e+00
1.942864853720383e-04 2.068826835002570e-04
-9.639220007731454e-04 -1.470336484174569e-03
2.058292735896461e-04 2.458540727946163e-04
1.935397072626022e-04 1.352186844130872e-04
-8.638464684379954e-04 -6.004435084522782e-04
-8.678768044312322e-04 -1.289549087569236e-03
1.755889154725782e-04 2.179960188951120e-04
2.058292735896461e-04 2.458540727946163e-04
-9.639220007731454e-04 -1.470336484174569e-03
-9.150284713761310e-04 -1.158405952685495e-03
1.942864853720383e-04 2.068826835002570e-04
1.755889154725782e-04 2.179960188951120e-04
-8.678768044312322e-04 -1.289549087569236e-03
        </DataArray>
        <DataArray type="Float64" Name="nodal_cauchy_stresses_xyz" NumberOfComponents="6" format="ascii">
4.728757597492616e-05 -2.900250626105275e-03 0.000000000000000e+00 -1.030272106500743e-03 0.000000000000000e+00 0.000000000000000e+00
6.656308329746017e-07 9.851625456571943e-04 0.000000000000000e+00 4.124629963991469e-04 0.000000000000000e+00 0.000000000000000e+00
5.820021463253018e-07 5.415316007852970e-04 0.000000000000000e+00 3.874911993002916e-04 0.000000000000000e+00 0.000000000000000e+00
-3.980065867435852e-05 -1.191913170639021e-03 0.000000000000000e+00 -1.078677544750142e-03 0.000000000000000e+00 0.000000000000000e+00
3.192904862696501e-05 -2.547040286147468e-03 0.000000000000000e+00 -8.162087022184354e-04 0.000000000000000e+00 0.000000000000000e+00
4.884924854376910e-07 8.733679614090920e-04 0.000000000000000e+00 3.517890184276464e-04 0.000000000000000e+00 0.000000000000000e+00
6.656308329746017e-07 9.851625456571943e-04 0.000000000000000e+00 4.124629963991469e-04 0.000000000000000e+00 0.000000000000000e+00
4.728757597492616e-05 -2.900250626105275e-03 0.000000000000000e+00 -1.030272106500743e-03 0.000000000000000e+00 0.000000000000000e+00
-1.459933214561866e-04 -2.290266533670443e-03 0.000000000000000e+00 -9.747548764207390e-04 0.000000000000000e+00 0.000000000000000e+00
5.864323018428022e-07 8.288343463724388e-04 0.000000000000000e+00 3.892039904533406e-04 0.000000000000000e+00 0.000000000000000e+00
4.884924854376910e-07 8.733679614090920e-04 0.000000000000000e+00 3.517890184276464e-04 0.000000000000000e+00 0.000000000000000e+00
3.192904862696501e-05 -2.547040286147468e-03 0.000000000000000e+00 -8.162087022184354e-04 0.000000000000000e+00 0.000000000000000e+00
-2.212089702898747e-04 -3.807336898991139e-03 0.000000000000000e+00 -1.288769600189898e-03 0.000000000000000e+00 0.000000000000000e+00
9.951538707046602e-07 1.162994204505359e-03 0.000000000000000e+00 5.080296402356900e-04 0.000000000000000e+00 0.000000000000000e+00
5.864323018428022e-07 8.288343463724388e-04 0.000000000000000e+00 3.892039904533406e-04 0.000000000000000e+00 0.000000000000000e+00
-1.459933214561866e-04 -2.290266533670443e-03 0.000000000000000e+00 -9.747548764207390e-04 0.000000000000000e+00 0.000000000000000e+00
2.393347484117997e-04 1.805136975061590e-02 0.000000000000000e+00 5.248220567352139e-03 0.000000000000000e+00 0.000000000000000e+00
4.728757597492616e-05 -2.900250626105275e-03 0.000000000000000e+00 -1.030272106500743e-03 0.000000000000000e+00 0.000000000000000e+00
-3.980065867435852e-05 -1.191913170639021e-03 0.000000000000000e+00 -1.078677544750142e-03 0.000000000000000e+00 0.000000000000000e+00
5.563281104260426e-04 5.284264221390829e-03 0.000000000000000e+00 5.176433005768978e-03 0.000000000000000e+00 0.000000000000000e+00
1.128572825225257e-04 1.584684792571322e-02 0.000000000000000e+00 4.096597422621648e-03 0.000000000000000e+00 0.000000000000000e+00
3.192904862696501e-05 -2.547040286147468e-03 0.000000000000000e+00 -8.162087022184354e-04 0.000000000000000e+00 0.000000000000000e+00
4.728757597492616e-05 -2.900250626105275e-03 0.000000000000000e+00 -1.030272106500743e-03 0.000000000000000e+00 0.000000000000000e+00
2.393347484117997e-04 1.805136975061590e-02 0.000000000000000e+00 5.248220567352139e-03 0.000000000000000e+00 0.000000000000000e+00
7.615687661147592e-04 1.359943795023884e-02 0.000000000000000e+00 4.887957790825083e-03 0.000000000000000e+00 0.000000000000000e+00
-1.459933214561866e-04 -2.290266533670443e-03 0.000000000000000e+00 -9.747548764207390e-04 0.000000000000000e+00 0.000000000000000e+00
3.192904862696501e-05 -2.547040286147468e-03 0.000000000000000e+00 -8.162087022184354e-04 0.000000000000000e+00 0.000000000000000e+00
1.128572825225257e-04 1.584684792571322e-02 0.000000000000000e+00 4.096597422621648e-03 0.000000000000000e+00 0.000000000000000e+00
        </DataArray>
  </PointData>
  <CellData>
        <DataArray type="Float64" Name="element_cauchy_stresses_xyz" NumberOfComponents="6" format="ascii">
-2.406515589008279e-05 7.632680915472108e-04 0.000000000000000e+00 2.892576794039775e-04 0.000000000000000e+00 0.000000000000000e+00
6.105971739028254e-05 9.292754036704958e-04 0.000000000000000e+00 4.100389970329564e-04 0.000000000000000e+00 0.000000000000000e+00
-3.679614789944777e-05 8.511641160666217e-04 0.000000000000000e+00 3.816120787667105e-04 0.000000000000000e+00 0.000000000000000e+00
-1.174840438139815e-04 9.959259766629397e-04 0.000000000000000e+00 3.652688618545813e-04 0.000000000000000e+00 0.000000000000000e+00
1.914080399039206e-04 -4.858210239912563e-03 0.000000000000000e+00 -1.449675498769412e-03 0.000000000000000e+00 0.000000000000000e+00
-1.113630950828741e-04 -6.374763633080540e-03 0.000000000000000e+00 -2.336357577504887e-03 0.000000000000000e+00 0.000000000000000e+00
7.687213940288141e-05 -5.685549045574235e-03 0.000000000000000e+00 -2.247661040043987e-03 0.000000000000000e+00 0.000000000000000e+00
        </DataArray>
      </CellData>

    </Piece>
  </UnstructuredGrid>
</VTKFile>
