<?xml version="1.0" ?> 
<!-- 
# vtk DataFile Version 3.0
-->
<VTKFile type="UnstructuredGrid" version="0.1" compressor="vtkZLibDataCompressor" byte_order="LittleEndian">
  <UnstructuredGrid>
    <FieldData>
      <DataArray type="Float64" Name="TIME" NumberOfTuples="1" format="ascii">
5.000000000000000e-01 
      </DataArray>
    </FieldData>

    <Piece NumberOfPoints="54" NumberOfCells="2" >
      <Points>
        <DataArray type="Float64" NumberOfComponents="3" format="ascii">
0.000000000000000e+00 0.000000000000000e+00 0.000000000000000e+00
1.000000000000000e+00 0.000000000000000e+00 0.000000000000000e+00
1.000000000000000e+00 1.000000000000000e+00 0.000000000000000e+00
0.000000000000000e+00 1.000000000000000e+00 0.000000000000000e+00
0.000000000000000e+00 0.000000000000000e+00 1.000000000000000e+00
1.000000000000000e+00 0.000000000000000e+00 1.000000000000000e+00
1.000000000000000e+00 1.000000000000000e+00 1.000000000000000e+00
0.000000000000000e+00 1.000000000000000e+00 1.000000000000000e+00
5.000000000000000e-01 0.000000000000000e+00 0.000000000000000e+00
1.000000000000000e+00 5.000000000000000e-01 0.000000000000000e+00
5.000000000000000e-01 1.000000000000000e+00 0.000000000000000e+00
0.000000000000000e+00 5.000000000000000e-01 0.000000000000000e+00
5.000000000000000e-01 0.000000000000000e+00 1.000000000000000e+00
1.000000000000000e+00 5.000000000000000e-01 1.000000000000000e+00
5.000000000000000e-01 1.000000000000000e+00 1.000000000000000e+00
0.000000000000000e+00 5.000000000000000e-01 1.000000000000000e+00
0.000000000000000e+00 0.000000000000000e+00 5.000000000000000e-01
1.000000000000000e+00 0.000000000000000e+00 5.000000000000000e-01
1.000000000000000e+00 1.000000000000000e+00 5.000000000000000e-01
0.000000000000000e+00 1.000000000000000e+00 5.000000000000000e-01
0.000000000000000e+00 5.000000000000000e-01 5.000000000000000e-01
1.000000000000000e+00 5.000000000000000e-01 5.000000000000000e-01
5.000000000000000e-01 0.000000000000000e+00 5.000000000000000e-01
5.000000000000000e-01 1.000000000000000e+00 5.000000000000000e-01
5.000000000000000e-01 5.000000000000000e-01 0.000000000000000e+00
5.000000000000000e-01 5.000000000000000e-01 1.000000000000000e+00
5.000000000000000e-01 5.000000000000000e-01 5.000000000000000e-01
1.000000000000000e+00 0.000000000000000e+00 0.000000000000000e+00
2.000000000000000e+00 0.000000000000000e+00 0.000000000000000e+00
2.000000000000000e+00 1.000000000000000e+00 0.000000000000000e+00
1.000000000000000e+00 1.000000000000000e+00 0.000000000000000e+00
1.000000000000000e+00 0.000000000000000e+00 1.000000000000000e+00
2.000000000000000e+00 0.000000000000000e+00 1.000000000000000e+00
2.000000000000000e+00 1.000000000000000e+00 1.000000000000000e+00
1.000000000000000e+00 1.000000000000000e+00 1.000000000000000e+00
1.500000000000000e+00 0.000000000000000e+00 0.000000000000000e+00
2.000000000000000e+00 5.000000000000000e-01 0.000000000000000e+00
1.500000000000000e+00 1.000000000000000e+00 0.000000000000000e+00
1.000000000000000e+00 5.000000000000000e-01 0.000000000000000e+00
1.500000000000000e+00 0.000000000000000e+00 1.000000000000000e+00
2.000000000000000e+00 5.000000000000000e-01 1.000000000000000e+00
1.500000000000000e+00 1.000000000000000e+00 1.000000000000000e+00
1.000000000000000e+00 5.000000000000000e-01 1.000000000000000e+00
1.000000000000000e+00 0.000000000000000e+00 5.000000000000000e-01
2.000000000000000e+00 0.000000000000000e+00 5.000000000000000e-01
2.000000000000000e+00 1.000000000000000e+00 5.000000000000000e-01
1.000000000000000e+00 1.000000000000000e+00 5.000000000000000e-01
1.000000000000000e+00 5.000000000000000e-01 5.000000000000000e-01
2.000000000000000e+00 5.000000000000000e-01 5.000000000000000e-01
1.500000000000000e+00 0.000000000000000e+00 5.000000000000000e-01
1.500000000000000e+00 1.000000000000000e+00 5.000000000000000e-01
1.500000000000000e+00 5.000000000000000e-01 0.000000000000000e+00
1.500000000000000e+00 5.000000000000000e-01 1.000000000000000e+00
1.500000000000000e+00 5.000000000000000e-01 5.000000000000000e-01
        </DataArray>
      </Points>

      <Cells>
        <DataArray type="Int32" Name="connectivity" format="ascii">
0 1 2 3 4 5 6 7 8 9 10 11 12 13 14 15 16 17 18 19 20 21 22 23 24 25 26 27 28 29 30 31 32 33 34 35 36 37 38 39 40 41 42 43 44 45 46 47 48 49 50 51 52 53 
        </DataArray>
        <DataArray type="Int32" Name="offsets" format="ascii">
27 54 
        </DataArray>
        <DataArray type="UInt8" Name="types" format="ascii">
29 29 
        </DataArray>
      </Cells>

  <PointData>
        <DataArray type="Float64" Name="displacement" NumberOfComponents="3" format="ascii">
0.000000000000000e+00 0.000000000000000e+00 0.000000000000000e+00
5.401895303142691e-02 -1.652897057030071e-03 -3.306146000015276e-03
5.771010060468049e-02 -1.660551683273448e-03 -3.322139038619579e-03
0.000000000000000e+00 0.000000000000000e+00 0.000000000000000e+00
0.000000000000000e+00 0.000000000000000e+00 0.000000000000000e+00
6.140508628732171e-02 -1.668984126721618e-03 -3.336957898605871e-03
6.510324610136164e-02 -1.676824986504820e-03 -3.353323292243512e-03
0.000000000000000e+00 0.000000000000000e+00 0.000000000000000e+00
2.719960359879004e-02 -3.930284628395133e-04 -7.864534030542032e-04
5.586286482025456e-02 -1.656714579021412e-03 -3.314104714937737e-03
2.891959349086952e-02 -3.950683377344729e-04 -7.912825142534568e-04
0.000000000000000e+00 0.000000000000000e+00 0.000000000000000e+00
3.064184290429171e-02 -3.978845616764441e-04 -7.946672701205940e-04
6.325262796082548e-02 -1.672895143547756e-03 -3.345104660597214e-03
3.236630728743606e-02 -3.999783934963652e-04 -7.996042927389195e-04
0.000000000000000e+00 0.000000000000000e+00 0.000000000000000e+00
0.000000000000000e+00 0.000000000000000e+00 0.000000000000000e+00
5.770549701586025e-02 -1.660865897760815e-03 -3.321474330135633e-03
6.140039824932127e-02 -1.668615510658202e-03 -3.337655059669842e-03
0.000000000000000e+00 0.000000000000000e+00 0.000000000000000e+00
0.000000000000000e+00 0.000000000000000e+00 0.000000000000000e+00
5.955134775013245e-02 -1.664731089796865e-03 -3.329527800674328e-03
2.891998498349367e-02 -3.954640938222271e-04 -7.905583795180840e-04
3.064217973573976e-02 -3.975307601218716e-04 -7.954412509660739e-04
2.805941820379677e-02 -3.940481677014822e-04 -7.888717968849034e-04
3.150387855609108e-02 -3.989311961438918e-04 -7.971394325773833e-04
2.978089370713394e-02 -3.964971705876916e-04 -7.930035611904391e-04
5.401895303142691e-02 -1.652897057030071e-03 -3.306146000015276e-03
1.041444930401630e-01 -7.745259215258132e-03 -1.549201699812698e-02
1.140984278631480e-01 -7.749557523725274e-03 -1.550360746882291e-02
5.771010060468049e-02 -1.660551683273448e-03 -3.322139038619579e-03
6.140508628732171e-02 -1.668984126721618e-03 -3.336957898605871e-03
1.239170453057639e-01 -7.756401714618374e-03 -1.550834199022718e-02
1.336060240939278e-01 -7.759867589460031e-03 -1.551826694272229e-02
6.510324610136164e-02 -1.676824986504820e-03 -3.353323292243512e-03
7.981633020347159e-02 -3.948808876664700e-03 -7.896866780621091e-03
1.091407068829637e-01 -7.747559057719379e-03 -1.549812165385550e-02
8.615908816909083e-02 -3.974774362812755e-03 -7.947145870457591e-03
5.586286482025456e-02 -1.656714579021412e-03 -3.314104714937737e-03
9.245734916564378e-02 -3.998547068628174e-03 -7.999643071807843e-03
1.287794956396106e-01 -7.758270388260318e-03 -1.551358836250395e-02
9.871197641504788e-02 -4.023445727775864e-03 -8.047788514778980e-03
6.325262796082548e-02 -1.672895143547756e-03 -3.345104660597214e-03
5.770549701586025e-02 -1.660865897760815e-03 -3.321474330135633e-03
1.141064141042586e-01 -7.751435663268068e-03 -1.550135345311812e-02
1.239253008001622e-01 -7.755292240093876e-03 -1.551205138166226e-02
6.140039824932127e-02 -1.668615510658202e-03 -3.337655059669842e-03
5.955134775013245e-02 -1.664731089796865e-03 -3.329527800674328e-03
1.190344433970144e-01 -7.753506879120057e-03 -1.550699850608845e-02
8.615865719689234e-02 -3.973857983397039e-03 -7.948600478478819e-03
9.245697253351630e-02 -3.999283882824472e-03 -7.997802910494576e-03
8.299321158721769e-02 -3.961835444306555e-03 -7.922097924064665e-03
9.558997656130631e-02 -4.011037763989488e-03 -8.023801218574511e-03
8.931322223804503e-02 -3.986613512713657e-03 -7.973290175243425e-03
        </DataArray>
        <DataArray type="Float64" Name="nodal_GL_strains_xyz" NumberOfComponents="6" format="ascii">
5.627986701403166e-02 8.760987656432427e-08 3.428141658874063e-07 4.037563745464501e-05 1.733124659789407e-07 8.013551115176187e-05
5.460051586339215e-02 -5.859892594127339e-07 -2.439360456346671e-06 3.206192653000447e-04 -1.770080867504807e-06 6.380377381326248e-04
5.910579965130688e-02 -6.394273888890407e-07 -2.832879393650964e-06 3.127553208686368e-04 -1.997127395596181e-06 6.156127063236812e-04
5.964844578036049e-02 9.152563488369750e-08 3.427270459276075e-07 4.013543630165814e-05 1.771981750813529e-07 7.849810851026615e-05
6.303271750274012e-02 8.734288601751741e-08 3.732266576543332e-07 3.873172753560741e-05 1.806400474254363e-07 7.916337631354585e-05
6.360194041087516e-02 -7.812600084386592e-07 -2.860855128080667e-06 2.983630678531474e-04 -2.216525010790706e-06 6.069243213489021e-04
6.808735147474071e-02 -8.317035548886075e-07 -3.242395821751713e-06 2.908344798090051e-04 -2.428498100639677e-06 5.851698264564367e-04
6.643323499661116e-02 9.080980894941652e-08 3.713442400041736e-07 3.847751162352552e-05 1.836449396459401e-07 7.749789614339806e-05
5.548481886391100e-02 -5.609885750012902e-07 -2.291648268824156e-06 7.963199934571849e-05 -1.908891437843626e-06 1.594810518202033e-04
5.685271617780269e-02 -6.128207857645212e-07 -2.637903473090150e-06 3.166790151467196e-04 -1.883871896715776e-06 6.268862872273281e-04
5.938223352418285e-02 -5.603679270643763e-07 -2.383823763988854e-06 7.974071262803852e-05 -1.913923496005297e-06 1.601301300097601e-04
5.796387898415198e-02 8.956564949165569e-08 3.428860489804346e-07 4.025091017643952e-05 1.752831820399932e-07 7.929010704528996e-05
6.329733048904590e-02 -6.071583197342962e-07 -2.286974627965374e-06 8.027833451134688e-05 -1.919472966751078e-06 1.599111544799489e-04
6.584459341099469e-02 -8.065757773702114e-07 -3.053444375785543e-06 2.945899550255800e-04 -2.322771897959607e-06 5.961086381066837e-04
6.722948026192652e-02 -6.066985931662056e-07 -2.379794377317108e-06 8.038246640445064e-05 -1.925540724876651e-06 1.605510801719429e-04
6.473249575679249e-02 8.907457730796881e-08 3.723983126281838e-07 3.860030450594767e-05 1.821699363420618e-07 7.830529530149212e-05
5.965497619389951e-02 8.759118350144563e-08 3.579881118818314e-07 3.950094975686522e-05 1.770873051380213e-07 7.961302845745679e-05
5.909987174211150e-02 -6.854157292043568e-07 -2.651827664615747e-06 3.096134338969671e-04 -1.994364192862562e-06 6.224134808247667e-04
6.359599685330687e-02 -7.373742509577484e-07 -3.039209885171006e-06 3.019176688221364e-04 -2.213859166415585e-06 6.003215596681413e-04
6.303911819309815e-02 9.128123522814027e-08 3.570060322173319e-07 3.925510320916943e-05 1.805317665192648e-07 7.796283420940873e-05
6.134666770338769e-02 8.943427404143846e-08 3.576112408294757e-07 3.937354809259527e-05 1.788371960380033e-07 7.876189447495897e-05
6.134769466505759e-02 -7.114977622126476e-07 -2.847318171438445e-06 3.057569520975147e-04 -2.104374817973327e-06 6.114287330854934e-04
5.937735572431520e-02 -5.839485525810073e-07 -2.289315809042949e-06 7.996525144260630e-05 -1.914147446362263e-06 1.597182331042782e-04
6.329236362849061e-02 -5.834005993356968e-07 -2.381813822052333e-06 8.007166277487480e-05 -1.919689711001388e-06 1.603621457321563e-04
5.743006809925869e-02 -5.606785111567513e-07 -2.337614998710369e-06 7.968915653687423e-05 -1.911399742047316e-06 1.598106280694578e-04
6.526006011868281e-02 -6.069287654852506e-07 -2.333247956721879e-06 8.033305379824443e-05 -1.922495299219560e-06 1.602361434110005e-04
6.133145780204941e-02 -5.836748604992614e-07 -2.335436034395233e-06 8.002118956678885e-05 -1.916908942972877e-06 1.600452320615745e-04
5.460051586339215e-02 -5.859892594127339e-07 -2.439360456346671e-06 3.206192653000447e-04 -1.770080867504807e-06 6.380377381326248e-04
4.850680337944810e-02 4.473393130106396e-05 1.777716857695618e-04 7.058982365006489e-04 8.613736603634975e-05 1.414804647593022e-03
5.710494025302666e-02 4.446082638586184e-05 1.743713013355803e-04 7.071162058595832e-04 8.503723350814832e-05 1.426447401832292e-03
5.910579965130688e-02 -6.394273888890407e-07 -2.832879393650964e-06 3.127553208686368e-04 -1.997127395596181e-06 6.156127063236812e-04
6.360194041087516e-02 -7.812600084386592e-07 -2.860855128080667e-06 2.983630678531474e-04 -2.216525010790706e-06 6.069243213489021e-04
6.553189498897237e-02 4.304040044726797e-05 1.756115303863640e-04 7.175584903482078e-04 8.396801092769058e-05 1.419870284868803e-03
7.379579052201767e-02 4.277957797774175e-05 1.722602675455382e-04 7.189198591596493e-04 8.292789583030507e-05 1.431798799227495e-03
6.808735147474071e-02 -8.317035548886075e-07 -3.242395821751713e-06 2.908344798090051e-04 -2.428498100639677e-06 5.851698264564367e-04
5.147439987913632e-02 -5.884033952715874e-06 -2.314713559373582e-05 2.961109203484579e-04 -1.004226928860637e-05 5.910052655198164e-04
5.283332785965938e-02 4.459466937037572e-05 1.760650184735854e-04 7.066969166978889e-04 8.558410152092757e-05 1.420264762181659e-03
5.807071365627761e-02 -5.812686320810598e-06 -2.211136639005065e-05 2.944630586461310e-04 -9.693668566076849e-06 5.856990532839587e-04
5.685271617780269e-02 -6.128207857645212e-07 -2.637903473090150e-06 3.166790151467196e-04 -1.883871896715776e-06 6.268862872273281e-04
6.455860990871157e-02 -5.369276426012021e-06 -2.258943770438481e-05 2.907614756608064e-04 -9.356642717425794e-06 5.843272259268744e-04
6.968952758263078e-02 4.290761532563696e-05 1.739293239595014e-04 7.184096639787862e-04 8.344504864329593e-05 1.425491207495732e-03
7.094180219831359e-02 -5.304276736833770e-06 -2.157905722099243e-05 2.890312033695258e-04 -9.030782291720669e-06 5.788565081356551e-04
6.584459341099469e-02 -8.065757773702114e-07 -3.053444375785543e-06 2.945899550255800e-04 -2.322771897959607e-06 5.961086381066837e-04
5.909987174211150e-02 -6.854157292043568e-07 -2.651827664615747e-06 3.096134338969671e-04 -1.994364192862562e-06 6.224134808247667e-04
5.712732948491256e-02 4.388068524385112e-05 1.766496885895062e-04 7.110141941914989e-04 8.504022828997964e-05 1.418814494855419e-03
6.555480443705182e-02 4.361367150563951e-05 1.732765477499691e-04 7.123217952716471e-04 8.397069132378120e-05 1.430523344206346e-03
6.359599685330687e-02 -7.373742509577484e-07 -3.039209885171006e-06 3.019176688221364e-04 -2.213859166415585e-06 6.003215596681413e-04
6.134769466505759e-02 -7.114977622126476e-07 -2.847318171438445e-06 3.057569520975147e-04 -2.104374817973327e-06 6.114287330854934e-04
6.136761809649545e-02 4.374464385996881e-05 1.749566217766464e-04 7.118477351516081e-04 8.450242313665028e-05 1.424315917159693e-03
5.808414625578566e-02 -5.623811025262619e-06 -2.287209589396868e-05 2.932927036951585e-04 -9.698819950368463e-06 5.878301134206909e-04
6.457224069158307e-02 -5.555676404602419e-06 -2.184889042111457e-05 2.916032678038099e-04 -9.361595441066996e-06 5.824404815521556e-04
5.478968151890613e-02 -5.848602430112982e-06 -2.262638772317006e-05 2.953075286404917e-04 -9.867809322809024e-06 5.882804478435949e-04
6.776650125686415e-02 -5.337002542890784e-06 -2.208146225933593e-05 2.899165878711064e-04 -9.193555934600648e-06 5.815197875985510e-04
6.134489697244694e-02 -5.589977709885563e-06 -2.235766838948328e-05 2.924684073293060e-04 -9.530049303914489e-06 5.850634576260354e-04
        </DataArray>
        <DataArray type="Float64" Name="nodal_cauchy_stresses_xyz" NumberOfComponents="6" format="ascii">
5.936330369158680e+00 4.306839792609628e-07 1.693832392672312e-06 4.491606129467949e-03 8.674917740448502e-07 8.914582727231255e-03
5.751510519851948e+00 -2.202191434158947e-04 -8.866517238347795e-04 1.437627960173857e-02 -4.965899950349270e-04 2.845023511041922e-02
6.251159017141307e+00 -2.154329994098506e-04 -8.776635752505819e-04 1.186181277545181e-02 -4.963239546159525e-04 2.279003454399949e-02
6.310662930078739e+00 3.702500587718914e-07 1.409008263785435e-06 4.491780661825042e-03 7.258079305104886e-07 8.785023375616090e-03
6.688844623446578e+00 2.874642671350978e-07 1.206527418721871e-06 4.360668452717670e-03 5.851028624890905e-07 8.912694285153505e-03
6.753534414818442e+00 -2.151850657322235e-04 -8.462158070320705e-04 8.701113514110893e-03 -4.944982614806268e-04 1.836313796027878e-02
7.258385665089291e+00 -2.093586832587367e-04 -8.330664093622630e-04 6.158704912629557e-03 -4.912148929075240e-04 1.264702781377025e-02
7.070951878072479e+00 2.254541268513905e-07 9.154039435048123e-07 4.357992563743447e-03 4.456646057200602e-07 8.777427956008482e-03
5.848326628929173e+00 -6.381482613740154e-05 -2.599216520680755e-04 -1.208798891470212e-03 -2.023223641658960e-04 -2.397446402653061e-03
6.000817175654120e+00 -2.179064687399134e-04 -8.826797804584039e-04 1.312360874880961e-02 -4.966468115257259e-04 2.563633072394587e-02
6.281039264035714e+00 -6.253373076151831e-05 -2.639962794035213e-04 -1.887581801447528e-03 -2.001590806867980e-04 -3.716070381822224e-03
6.123204265073518e+00 4.007033569739474e-07 1.549513466267356e-06 4.491221712591769e-03 7.962870354676435e-07 8.847104191034367e-03
6.718524343847269e+00 -6.583572599152755e-05 -2.496029565074020e-04 -2.537291470743209e-03 -1.980090346313946e-04 -5.132345933928669e-03
7.005495192963851e+00 -2.123417036743360e-04 -8.401406127441541e-04 7.433943165131123e-03 -4.930293636412374e-04 1.552041773324182e-02
7.160746348439984e+00 -6.452099846902153e-05 -2.535431150616798e-04 -3.235859429026987e-03 -1.958713104558212e-04 -6.490539443587785e-03
6.879580047107748e+00 2.566654392911219e-07 1.058868462316373e-06 4.358889325802140e-03 5.149478364149617e-07 8.842484326150136e-03
6.311391998371956e+00 3.571191330357052e-07 1.453842089401967e-06 4.420799127650765e-03 7.247733999274087e-07 8.909921896559016e-03
6.250506576109218e+00 -2.182181944470966e-04 -8.676758594638977e-04 1.157064201090048e-02 -4.962855094529823e-04 2.344209019952974e-02
6.752861883750083e+00 -2.129006195243172e-04 -8.565225712608904e-04 9.041343521170593e-03 -4.944767108407187e-04 1.775182126178753e-02
6.689560269869549e+00 2.958019966262274e-07 1.165627291069084e-06 4.419670528982777e-03 5.840659213470959e-07 8.777631161830651e-03
6.500170907124067e+00 3.266820004037388e-07 1.307733592113033e-06 4.419777216728275e-03 6.540209186984658e-07 8.841136344426227e-03
6.501193595962643e+00 -2.156343522033673e-04 -8.626093608595576e-04 1.031028339590427e-02 -4.955620741902977e-04 2.061270585129073e-02
6.280493109471886e+00 -6.483414415270447e-05 -2.548135350421486e-04 -1.866172628134198e-03 -2.001896953326751e-04 -3.751647623337927e-03
6.717970537865487e+00 -6.353570077560852e-05 -2.588212190872292e-04 -2.554808297401143e-03 -1.980388530488184e-04 -5.090047807387412e-03
6.063948623436255e+00 -6.317747016921504e-05 -2.619680946488815e-04 -1.546535314044730e-03 -2.012467621734100e-04 -3.053333189947008e-03
6.938906076392763e+00 -6.518159038534116e-05 -2.515811012926807e-04 -2.884918259112940e-03 -1.969460431188286e-04 -5.807977710283027e-03
6.498499923407165e+00 -6.418813423065188e-05 -2.568259816680707e-04 -2.208833423541204e-03 -1.991202329319396e-04 -4.417400769868966e-03
5.751510519851948e+00 -2.202191434158947e-04 -8.866517238347795e-04 1.437627960173857e-02 -4.965899950349270e-04 2.845023511041922e-02
5.084092331823676e+00 3.483955481212359e-03 1.381459136366960e-02 2.663228056972416e-02 6.647786058379407e-03 5.353360991938998e-02
6.030878817319588e+00 3.496796133059913e-03 1.361845169221458e-02 1.940828278761523e-02 6.615793982056572e-03 3.990381744934643e-02
6.251159017141307e+00 -2.154329994098506e-04 -8.776635752505819e-04 1.186181277545181e-02 -4.963239546159525e-04 2.279003454399949e-02
6.753534414818442e+00 -2.151850657322235e-04 -8.462158070320705e-04 8.701113514110893e-03 -4.944982614806268e-04 1.836313796027878e-02
6.972108065333743e+00 3.384191921956665e-03 1.390975705968120e-02 1.328970953020846e-02 6.581792018506948e-03 2.522697598396815e-02
7.907698031235923e+00 3.393523418361460e-03 1.369958902507171e-02 6.633056816252049e-03 6.545838552966551e-03 1.273164526214136e-02
7.258385665089291e+00 -2.093586832587367e-04 -8.330664093622630e-04 6.158704912629557e-03 -4.912148929075240e-04 1.264702781377025e-02
5.407001943792786e+00 -7.217500889711326e-04 -2.847079302045134e-03 -1.773636812505855e-03 -1.278447986671456e-03 -3.677667359987586e-03
5.558789519514931e+00 3.490207935790919e-03 1.371811723292072e-02 2.299501280816808e-02 6.632142800029796e-03 4.659762849318898e-02
6.136009126468647e+00 -6.856867212205091e-04 -2.627340339875813e-03 -5.936584562762514e-03 -1.186636379844957e-03 -1.221821813854675e-02
6.000817175654120e+00 -2.179064687399134e-04 -8.826797804584039e-04 1.312360874880961e-02 -4.966468115257259e-04 2.563633072394587e-02
6.860928934281631e+00 -6.131671853403327e-04 -2.563826837372871e-03 -1.024604600826501e-02 -1.097900306603567e-03 -2.019327079385811e-02
7.441257023859626e+00 3.388724343570197e-03 1.380603938186909e-02 9.937093847321140e-03 6.564146587035659e-03 1.886564650502553e-02
7.581590305031344e+00 -5.796619432461472e-04 -2.354320025737005e-03 -1.427274931151521e-02 -1.012120206162436e-03 -2.846129212316063e-02
7.005495192963851e+00 -2.123417036743360e-04 -8.401406127441541e-04 7.433943165131123e-03 -4.930293636412374e-04 1.552041773324182e-02
6.250506576109218e+00 -2.182181944470966e-04 -8.676758594638977e-04 1.157064201090048e-02 -4.962855094529823e-04 2.344209019952974e-02
6.033382247093009e+00 3.435613905096147e-03 1.385963897435667e-02 1.972251735831268e-02 6.616183722484426e-03 3.917996683272897e-02
6.974670057898672e+00 3.446585267462455e-03 1.365676125100556e-02 1.278961623641505e-02 6.582167946507949e-03 2.612132945021731e-02
6.752861883750083e+00 -2.129006195243172e-04 -8.565225712608904e-04 9.041343521170593e-03 -4.944767108407187e-04 1.775182126178753e-02
6.501193595962643e+00 -2.156343522033673e-04 -8.626093608595576e-04 1.031028339590427e-02 -4.955620741902977e-04 2.061270585129073e-02
6.505358292524739e+00 3.440950169643578e-03 1.375968586312542e-02 1.623126328140400e-02 6.599520351824270e-03 3.253322464510870e-02
6.137535955254893e+00 -6.663888141922542e-04 -2.704059336698559e-03 -6.070934285113150e-03 -1.186883290376866e-03 -1.201345528376262e-02
6.862424059461378e+00 -6.316302965261890e-04 -2.489492506260975e-03 -1.016532737214912e-02 -1.098128710989826e-03 -2.041679755429286e-02
5.772390762754749e+00 -7.036294818267689e-04 -2.736126904662857e-03 -3.864915753440687e-03 -1.232214168231216e-03 -7.978592800751950e-03
7.222171759305165e+00 -5.963326498476618e-04 -2.458042082273971e-03 -1.226896677541645e-02 -1.054702879938555e-03 -2.435749937754911e-02
6.500879948855904e+00 -6.489242226159044e-04 -2.595719132782422e-03 -8.127822156733631e-03 -1.142188484440354e-03 -1.624556888186805e-02
        </DataArray>
  </PointData>
  <CellData>
        <DataArray type="Float64" Name="element_GL_strains_xyz" NumberOfComponents="6" format="ascii">
6.134132621464814e-02 -5.360732374937994e-07 -2.145218946629039e-06 1.065500873540268e-04 -1.658300367474140e-06 2.131059140461190e-04
6.132018523247668e-02 5.314463885153631e-06 2.125777536117119e-05 3.895455650629218e-04 1.088584113284646e-05 7.790372746165434e-04
        </DataArray>
        <DataArray type="Float64" Name="element_cauchy_stresses_xyz" NumberOfComponents="6" format="ascii">
6.500405900327125e+00 -7.505881916252869e-05 -3.003443953870759e-04 4.400988479989595e-04 -2.054430719116097e-04 8.809548990805822e-04
6.500585381694751e+00 2.489087953993322e-04 9.957514454145694e-04 1.642611540375532e-03 5.221014439328315e-04 3.280875546286335e-03
        </DataArray>
      </CellData>

    </Piece>
  </UnstructuredGrid>
</VTKFile>
