<?xml version="1.0" ?> 
<!-- 
# vtk DataFile Version 3.0
-->
<VTKFile type="UnstructuredGrid" version="0.1" compressor="vtkZLibDataCompressor" byte_order="LittleEndian">
  <UnstructuredGrid>
    <FieldData>
      <DataArray type="Float64" Name="TIME" NumberOfTuples="1" format="ascii">
1.000000000000000e+00 
      </DataArray>
    </FieldData>

    <Piece NumberOfPoints="24" NumberOfCells="4" >
      <Points>
        <DataArray type="Float64" NumberOfComponents="3" format="ascii">
0.000000000000000e+00 0.000000000000000e+00 0.000000000000000e+00
0.000000000000000e+00 1.000000000000000e+00 0.000000000000000e+00
1.000000000000000e+00 1.000000000000000e+00 0.000000000000000e+00
0.000000000000000e+00 0.000000000000000e+00 1.000000000000000e+00
0.000000000000000e+00 1.000000000000000e+00 1.000000000000000e+00
1.000000000000000e+00 1.000000000000000e+00 1.000000000000000e+00
0.000000000000000e+00 0.000000000000000e+00 0.000000000000000e+00
1.000000000000000e+00 1.000000000000000e+00 0.000000000000000e+00
1.000000000000000e+00 0.000000000000000e+00 0.000000000000000e+00
0.000000000000000e+00 0.000000000000000e+00 1.000000000000000e+00
1.000000000000000e+00 1.000000000000000e+00 1.000000000000000e+00
1.000000000000000e+00 0.000000000000000e+00 1.000000000000000e+00
1.000000000000000e+00 0.000000000000000e+00 0.000000000000000e+00
1.000000000000000e+00 1.000000000000000e+00 0.000000000000000e+00
2.000000000000000e+00 1.000000000000000e+00 0.000000000000000e+00
1.000000000000000e+00 0.000000000000000e+00 1.000000000000000e+00
1.000000000000000e+00 1.000000000000000e+00 1.000000000000000e+00
2.000000000000000e+00 1.000000000000000e+00 1.000000000000000e+00
1.000000000000000e+00 0.000000000000000e+00 0.000000000000000e+00
2.000000000000000e+00 1.000000000000000e+00 0.000000000000000e+00
2.000000000000000e+00 0.000000000000000e+00 0.000000000000000e+00
1.000000000000000e+00 0.000000000000000e+00 1.000000000000000e+00
2.000000000000000e+00 1.000000000000000e+00 1.000000000000000e+00
2.000000000000000e+00 0.000000000000000e+00 1.000000000000000e+00
        </DataArray>
      </Points>

      <Cells>
        <DataArray type="Int32" Name="connectivity" format="ascii">
0 1 2 3 4 5 6 7 8 9 10 11 12 13 14 15 16 17 18 19 20 21 22 23 
        </DataArray>
        <DataArray type="Int32" Name="offsets" format="ascii">
6 12 18 24 
        </DataArray>
        <DataArray type="UInt8" Name="types" format="ascii">
13 13 13 13 
        </DataArray>
      </Cells>

  <PointData>
        <DataArray type="Float64" Name="displacement" NumberOfComponents="3" format="ascii">
0.000000000000000e+00 0.000000000000000e+00 0.000000000000000e+00
0.000000000000000e+00 0.000000000000000e+00 0.000000000000000e+00
1.078906330996335e-01 -4.265233085246212e-04 -3.000899831837502e-03
0.000000000000000e+00 0.000000000000000e+00 0.000000000000000e+00
0.000000000000000e+00 0.000000000000000e+00 0.000000000000000e+00
1.161473397398753e-01 -1.660928996725372e-03 -3.045255230402882e-03
0.000000000000000e+00 0.000000000000000e+00 0.000000000000000e+00
1.078906330996335e-01 -4.265233085246212e-04 -3.000899831837502e-03
1.057294189755749e-01 9.042332926187750e-05 -4.281543668908172e-03
0.000000000000000e+00 0.000000000000000e+00 0.000000000000000e+00
1.161473397398753e-01 -1.660928996725372e-03 -3.045255230402882e-03
1.136690945071878e-01 -2.151679228702605e-03 -4.353366084262818e-03
1.057294189755749e-01 9.042332926187750e-05 -4.281543668908172e-03
1.078906330996335e-01 -4.265233085246212e-04 -3.000899831837502e-03
2.131416676335270e-01 -2.686983000301848e-03 -1.562348828662600e-02
1.136690945071878e-01 -2.151679228702605e-03 -4.353366084262818e-03
1.161473397398753e-01 -1.660928996725372e-03 -3.045255230402882e-03
2.355326979945602e-01 -5.676395989850658e-03 -1.575510677027454e-02
1.057294189755749e-01 9.042332926187750e-05 -4.281543668908172e-03
2.131416676335270e-01 -2.686983000301848e-03 -1.562348828662600e-02
2.063686149000321e-01 -3.148830134558807e-03 -1.977790564199948e-02
1.136690945071878e-01 -2.151679228702605e-03 -4.353366084262818e-03
2.355326979945602e-01 -5.676395989850658e-03 -1.575510677027454e-02
2.313284494165633e-01 -6.505552642817465e-03 -1.990633031521506e-02
        </DataArray>
        <DataArray type="Float64" Name="nodal_GL_strains_xyz" NumberOfComponents="6" format="ascii">
1.125159421048161e-01 -2.568753164940697e-04 -6.711991648737190e-06 5.120113874806111e-04 3.201609592676675e-04 -1.820610875186418e-03
1.137096128718077e-01 0.000000000000000e+00 -3.872162741521320e-06 -2.132616542623106e-04 0.000000000000000e+00 -1.500449915918751e-03
1.119623743410118e-01 -3.425004219920929e-04 -1.780922384294244e-05 3.601369694753717e-04 -1.841796219396636e-04 1.250333514505221e-03
1.215140970649929e-01 2.473520084566851e-04 -6.711991648737186e-06 -2.648640889058922e-04 3.270277134649839e-04 -1.849655328666425e-03
1.228926498923631e-01 0.000000000000000e+00 -3.872162741521319e-06 -8.304644983626854e-04 0.000000000000000e+00 -1.522627615201440e-03
1.232039702845876e-01 3.298026779422466e-04 -1.780922384294244e-05 -3.866433486509413e-04 -1.745664470761469e-04 1.259243127504516e-03
1.125159421048161e-01 -2.568753164940697e-04 -6.711991648737190e-06 5.120113874806111e-04 3.201609592676675e-04 -1.820610875186418e-03
1.119623743410118e-01 -3.425004219920929e-04 -1.780922384294244e-05 3.601369694753717e-04 -1.841796219396636e-04 1.250333514505221e-03
1.093273002232569e-01 -1.781806356635955e-04 -5.455059551706047e-05 1.124043282532181e-03 1.304868707387288e-05 -1.015475555311284e-03
1.215140970649929e-01 2.473520084566851e-04 -6.711991648737186e-06 -2.648640889058922e-04 3.270277134649839e-04 -1.849655328666425e-03
1.232039702845876e-01 3.298026779422466e-04 -1.780922384294244e-05 -3.866433486509413e-04 -1.745664470761469e-04 1.259243127504516e-03
1.238022196472937e-01 6.119338261925582e-04 -5.455059551706047e-05 -6.245091933406374e-05 1.822085686396959e-05 -9.977782741471730e-04
1.093273002232569e-01 -1.781806356635955e-04 -5.455059551706047e-05 1.124043282532181e-03 1.304868707387288e-05 -1.015475555311284e-03
1.119623743410118e-01 -3.425004219920929e-04 -1.780922384294244e-05 3.601369694753717e-04 -1.841796219396636e-04 1.250333514505221e-03
1.083298146659731e-01 -1.039563700132361e-05 1.037459877780237e-04 1.067422709186505e-03 -8.606699638338480e-05 5.323336645745733e-03
1.238022196472937e-01 6.119338261925582e-04 -5.455059551706047e-05 -6.245091933406374e-05 1.822085686396959e-05 -9.977782741471730e-04
1.232039702845876e-01 3.298026779422466e-04 -1.780922384294244e-05 -3.866433486509413e-04 -1.745664470761469e-04 1.259243127504516e-03
1.256355573521293e-01 6.705487308321524e-04 1.037459877780237e-04 -2.440445392765464e-04 -9.363198864921599e-05 5.463914911126041e-03
1.093273002232569e-01 -1.781806356635955e-04 -5.455059551706047e-05 1.124043282532181e-03 1.304868707387288e-05 -1.015475555311284e-03
1.083298146659731e-01 -1.039563700132361e-05 1.037459877780237e-04 1.067422709186505e-03 -8.606699638338480e-05 5.323336645745733e-03
1.058043905185430e-01 4.929593589854918e-04 1.709512348318509e-04 2.078457284908117e-03 4.823326500761933e-04 5.994136804912753e-03
1.238022196472937e-01 6.119338261925582e-04 -5.455059551706047e-05 -6.245091933406374e-05 1.822085686396959e-05 -9.977782741471730e-04
1.256355573521293e-01 6.705487308321524e-04 1.037459877780237e-04 -2.440445392765464e-04 -9.363198864921599e-05 5.463914911126041e-03
1.246873979804815e-01 8.463934447509346e-04 1.709512348318509e-04 1.421127895879474e-04 4.480610085639666e-04 6.180120221337490e-03
        </DataArray>
        <DataArray type="Float64" Name="nodal_cauchy_stresses_xyz" NumberOfComponents="6" format="ascii">
1.245441038546650e+01 -2.324935394699771e-02 8.408697596892907e-04 4.973600206898478e-02 2.873610935820332e-02 -2.228647231204413e-01
1.259567854116439e+01 -2.260561536818267e-05 5.557134139880316e-04 -2.587321260620716e-02 1.272022291046969e-04 -1.841577773931276e-01
1.238916080481694e+01 -3.089425162757940e-02 -8.310740207232705e-04 2.656678805165286e-02 -1.663677943386865e-02 5.117775795495481e-02
1.354208177733935e+01 2.227704147885851e-02 8.935733612938380e-04 -4.904790167505706e-02 2.984710928609111e-02 -2.296520703332874e-01
1.371452107249851e+01 2.365956896758534e-04 5.859912161847782e-04 -1.031545459866223e-01 5.073838272122641e-04 -1.896763553923573e-01
1.374879799551578e+01 2.987951656039406e-02 -7.583588301833225e-04 -7.067619095363267e-02 -1.518510221135461e-02 4.241591733492214e-02
1.245441038546650e+01 -2.324935394699771e-02 8.408697596892907e-04 4.973600206898478e-02 2.873610935820332e-02 -2.228647231204413e-01
1.238916080481694e+01 -3.089425162757940e-02 -8.310740207232705e-04 2.656678805165286e-02 -1.663677943386865e-02 5.117775795495481e-02
1.206376280606676e+01 -1.637571069505379e-02 6.334186077012888e-04 9.384595018957076e-02 9.002338621721048e-04 -2.181748613526837e-01
1.354208177733935e+01 2.227704147885851e-02 8.935733612938380e-04 -4.904790167505706e-02 2.984710928609111e-02 -2.296520703332874e-01
1.374879799551578e+01 2.987951656039406e-02 -7.583588301833225e-04 -7.067619095363267e-02 -1.518510221135461e-02 4.241591733492214e-02
1.381098518572152e+01 5.504796792243459e-02 8.123725543629982e-04 -4.883623316513439e-02 2.874153258750952e-03 -2.352169229162782e-01
1.206376280606676e+01 -1.637571069505379e-02 6.334186077012888e-04 9.384595018957076e-02 9.002338621721048e-04 -2.181748613526837e-01
1.238916080481694e+01 -3.089425162757940e-02 -8.310740207232705e-04 2.656678805165286e-02 -1.663677943386865e-02 5.117775795495481e-02
1.196372273318507e+01 -1.271067363506562e-03 -1.877459160812486e-03 7.607790291667625e-02 -1.001773613571150e-02 3.809560199395952e-01
1.381098518572152e+01 5.504796792243459e-02 8.123725543629982e-04 -4.883623316513439e-02 2.874153258750952e-03 -2.352169229162782e-01
1.374879799551578e+01 2.987951656039406e-02 -7.583588301833225e-04 -7.067619095363267e-02 -1.518510221135461e-02 4.241591733492214e-02
1.405662400577351e+01 6.046958526471231e-02 -1.945821093009650e-03 -7.785159862530666e-02 -9.253029046075445e-03 3.687359278608847e-01
1.206376280606676e+01 -1.637571069505379e-02 6.334186077012888e-04 9.384595018957076e-02 9.002338621721048e-04 -2.181748613526837e-01
1.196372273318507e+01 -1.271067363506562e-03 -1.877459160812486e-03 7.607790291667625e-02 -1.001773613571150e-02 3.809560199395952e-01
1.166034658581300e+01 4.338920856912169e-02 1.298772814283441e-03 1.734858135346542e-01 3.975201932679863e-02 4.364126046164927e-01
1.381098518572152e+01 5.504796792243459e-02 8.123725543629982e-04 -4.883623316513439e-02 2.874153258750952e-03 -2.352169229162782e-01
1.405662400577351e+01 6.046958526471231e-02 -1.945821093009650e-03 -7.785159862530666e-02 -9.253029046075445e-03 3.687359278608847e-01
1.394241478475376e+01 7.561566213259624e-02 1.122870372860135e-03 -4.022453407098833e-02 3.851036094294523e-02 4.239744870290112e-01
        </DataArray>
  </PointData>
  <CellData>
        <DataArray type="Float64" Name="element_GL_strains_xyz" NumberOfComponents="6" format="ascii">
1.183011313820854e-01 0.000000000000000e+00 -8.976888742795452e-06 -5.218630763125093e-04 -2.057342813667623e-04 1.896740453246841e-05
1.157289077877235e-01 -9.523308037440170e-06 -2.155127290826009e-05 7.690103748871735e-04 7.401502945277576e-05 8.374722012143079e-04
1.187194777685904e-01 -9.523308037440170e-06 8.190386632393279e-06 -2.869068673381022e-04 -4.155854805366149e-04 8.243749310577074e-04
1.152458942495123e-01 6.696764018683243e-04 7.036031044168241e-05 1.110285037248075e-03 6.944619755848891e-04 2.464871902999086e-03
        </DataArray>
        <DataArray type="Float64" Name="element_cauchy_stresses_xyz" NumberOfComponents="6" format="ascii">
1.315647000929608e+01 1.452376803294586e-04 -7.203077439484338e-04 -6.473749001371693e-02 -1.832619057394089e-02 -3.387429125835185e-02
1.284493138367274e+01 -9.967121243624679e-04 -2.382687896906900e-03 6.467367571738564e-02 6.341866364517040e-03 3.387427753665077e-02
1.320952615833521e+01 -4.823363528726800e-04 4.754183695594049e-04 -6.692775686193173e-02 -3.683817391527207e-02 -6.807955578920356e-02
1.278653230938291e+01 5.944111715069653e-02 2.453368685486399e-03 6.778544992639082e-02 6.105239640438238e-02 6.833105961361099e-02
        </DataArray>
      </CellData>

    </Piece>
  </UnstructuredGrid>
</VTKFile>
