<?xml version="1.0" ?> 
<!-- 
# vtk DataFile Version 3.0
-->
<VTKFile type="UnstructuredGrid" version="0.1" compressor="vtkZLibDataCompressor" byte_order="LittleEndian">
  <UnstructuredGrid>
    <FieldData>
      <DataArray type="Float64" Name="TIME" NumberOfTuples="1" format="ascii">
5.000000000000000e-01 
      </DataArray>
    </FieldData>

    <Piece NumberOfPoints="24" NumberOfCells="4" >
      <Points>
        <DataArray type="Float64" NumberOfComponents="3" format="ascii">
0.000000000000000e+00 0.000000000000000e+00 0.000000000000000e+00
0.000000000000000e+00 1.000000000000000e+00 0.000000000000000e+00
1.000000000000000e+00 1.000000000000000e+00 0.000000000000000e+00
0.000000000000000e+00 0.000000000000000e+00 1.000000000000000e+00
0.000000000000000e+00 1.000000000000000e+00 1.000000000000000e+00
1.000000000000000e+00 1.000000000000000e+00 1.000000000000000e+00
0.000000000000000e+00 0.000000000000000e+00 0.000000000000000e+00
1.000000000000000e+00 1.000000000000000e+00 0.000000000000000e+00
1.000000000000000e+00 0.000000000000000e+00 0.000000000000000e+00
0.000000000000000e+00 0.000000000000000e+00 1.000000000000000e+00
1.000000000000000e+00 1.000000000000000e+00 1.000000000000000e+00
1.000000000000000e+00 0.000000000000000e+00 1.000000000000000e+00
1.000000000000000e+00 0.000000000000000e+00 0.000000000000000e+00
1.000000000000000e+00 1.000000000000000e+00 0.000000000000000e+00
2.000000000000000e+00 1.000000000000000e+00 0.000000000000000e+00
1.000000000000000e+00 0.000000000000000e+00 1.000000000000000e+00
1.000000000000000e+00 1.000000000000000e+00 1.000000000000000e+00
2.000000000000000e+00 1.000000000000000e+00 1.000000000000000e+00
1.000000000000000e+00 0.000000000000000e+00 0.000000000000000e+00
2.000000000000000e+00 1.000000000000000e+00 0.000000000000000e+00
2.000000000000000e+00 0.000000000000000e+00 0.000000000000000e+00
1.000000000000000e+00 0.000000000000000e+00 1.000000000000000e+00
2.000000000000000e+00 1.000000000000000e+00 1.000000000000000e+00
2.000000000000000e+00 0.000000000000000e+00 1.000000000000000e+00
        </DataArray>
      </Points>

      <Cells>
        <DataArray type="Int32" Name="connectivity" format="ascii">
0 1 2 3 4 5 6 7 8 9 10 11 12 13 14 15 16 17 18 19 20 21 22 23 
        </DataArray>
        <DataArray type="Int32" Name="offsets" format="ascii">
6 12 18 24 
        </DataArray>
        <DataArray type="UInt8" Name="types" format="ascii">
13 13 13 13 
        </DataArray>
      </Cells>

  <PointData>
        <DataArray type="Float64" Name="displacement" NumberOfComponents="3" format="ascii">
0.000000000000000e+00 0.000000000000000e+00 0.000000000000000e+00
0.000000000000000e+00 0.000000000000000e+00 0.000000000000000e+00
5.708232324844956e-02 -2.231457063452229e-04 -2.494062219702334e-03
0.000000000000000e+00 0.000000000000000e+00 0.000000000000000e+00
0.000000000000000e+00 0.000000000000000e+00 0.000000000000000e+00
6.355036140938300e-02 -1.193310092042890e-03 -2.519658098586192e-03
0.000000000000000e+00 0.000000000000000e+00 0.000000000000000e+00
5.708232324844956e-02 -2.231457063452229e-04 -2.494062219702334e-03
5.562167097047124e-02 7.772906010403529e-05 -3.546141395188449e-03
0.000000000000000e+00 0.000000000000000e+00 0.000000000000000e+00
6.355036140938300e-02 -1.193310092042890e-03 -2.519658098586192e-03
6.198249586554105e-02 -1.502612661355480e-03 -3.584739328720484e-03
5.562167097047124e-02 7.772906010403529e-05 -3.546141395188449e-03
5.708232324844956e-02 -2.231457063452229e-04 -2.494062219702334e-03
1.130002589060670e-01 -1.736332397320492e-03 -1.209802626215181e-02
6.198249586554105e-02 -1.502612661355480e-03 -3.584739328720484e-03
6.355036140938300e-02 -1.193310092042890e-03 -2.519658098586192e-03
1.285036439408961e-01 -3.885741057361986e-03 -1.217049357124158e-02
5.562167097047124e-02 7.772906010403529e-05 -3.546141395188449e-03
1.130002589060670e-01 -1.736332397320492e-03 -1.209802626215181e-02
1.090379084794040e-01 -1.955788328326669e-03 -1.494241497206189e-02
6.198249586554105e-02 -1.502612661355480e-03 -3.584739328720484e-03
1.285036439408961e-01 -3.885741057361986e-03 -1.217049357124158e-02
1.256858990183825e-01 -4.422619178758851e-03 -1.501092253873969e-02
        </DataArray>
        <DataArray type="Float64" Name="nodal_GL_strains_xyz" NumberOfComponents="6" format="ascii">
5.794117805966337e-02 -1.496206570727446e-04 -4.162554590403380e-06 3.481931203852365e-04 2.630197938715290e-04 -1.510050903722695e-03
5.871108934970634e-02 0.000000000000000e+00 -2.376521763103323e-06 -1.115728531726115e-04 0.000000000000000e+00 -1.247031109851167e-03
5.780134775947790e-02 -1.994942094303261e-04 -8.530246717486366e-06 2.353707420857531e-04 -1.311516264315848e-04 8.087682411300144e-04
6.473869605911686e-02 1.555573526020851e-04 -4.162554590403380e-06 -2.587781632186139e-04 2.662703075335732e-04 -1.526099356826668e-03
6.557000717732442e-02 0.000000000000000e+00 -2.376521763103321e-06 -5.966550460214451e-04 2.710505431213761e-20 -1.259829049293096e-03
6.552780460606929e-02 2.074098034694467e-04 -8.530246717486366e-06 -3.448321975820016e-04 -1.267838900902488e-04 8.144306770239533e-04
5.794117805966337e-02 -1.496206570727446e-04 -4.162554590403380e-06 3.481931203852365e-04 2.630197938715290e-04 -1.510050903722695e-03
5.780134775947790e-02 -1.994942094303261e-04 -8.530246717486366e-06 2.353707420857531e-04 -1.311516264315848e-04 8.087682411300144e-04
5.653131979893013e-02 -1.224082691125059e-04 -2.389429595533392e-05 6.241674476297130e-04 4.195346188744383e-05 -7.347032473114267e-04
6.473869605911686e-02 1.555573526020851e-04 -4.162554590403380e-06 -2.587781632186139e-04 2.662703075335732e-04 -1.526099356826668e-03
6.552780460606929e-02 2.074098034694467e-04 -8.530246717486366e-06 -3.448321975820016e-04 -1.267838900902488e-04 8.144306770239533e-04
6.560217641762600e-02 3.890459793079594e-04 -2.389429595533392e-05 -1.384097267330863e-04 4.423622814070252e-05 -7.257441284529817e-04
5.653131979893013e-02 -1.224082691125059e-04 -2.389429595533392e-05 6.241674476297130e-04 4.195346188744383e-05 -7.347032473114267e-04
5.780134775947790e-02 -1.994942094303261e-04 -8.530246717486366e-06 2.353707420857531e-04 -1.311516264315848e-04 8.087682411300144e-04
5.621134631358501e-02 -3.399174659601419e-05 4.200663454385449e-05 5.322716244730274e-04 -7.959547497610935e-05 2.927681845393623e-03
6.560217641762600e-02 3.890459793079594e-04 -2.389429595533392e-05 -1.384097267330863e-04 4.423622814070252e-05 -7.257441284529817e-04
6.552780460606929e-02 2.074098034694467e-04 -8.530246717486366e-06 -3.448321975820016e-04 -1.267838900902488e-04 8.144306770239533e-04
6.644957215598433e-02 4.280116163598537e-04 4.200663454385447e-05 -2.471639498917381e-04 -8.185428117427659e-05 2.984489084752536e-03
5.653131979893013e-02 -1.224082691125059e-04 -2.389429595533392e-05 6.241674476297130e-04 4.195346188744383e-05 -7.347032473114267e-04
5.621134631358501e-02 -3.399174659601419e-05 4.200663454385449e-05 5.322716244730274e-04 -7.959547497610935e-05 2.927681845393623e-03
5.490100546806299e-02 2.312578209534608e-04 6.677901065384646e-05 1.054817263459268e-03 2.213934045414899e-04 3.073393526591127e-03
6.560217641762600e-02 3.890459793079594e-04 -2.389429595533392e-05 -1.384097267330863e-04 4.423622814070252e-05 -7.257441284529817e-04
6.644957215598433e-02 4.280116163598537e-04 4.200663454385447e-05 -2.471639498917381e-04 -8.185428117427659e-05 2.984489084752536e-03
6.579312261199453e-02 5.449085275155376e-04 6.677901065384646e-05 2.261236652530118e-05 2.094944647437648e-04 3.145163462058648e-03
        </DataArray>
        <DataArray type="Float64" Name="nodal_cauchy_stresses_xyz" NumberOfComponents="6" format="ascii">
6.120174362096956e+00 -1.418917936093197e-02 5.992230558188995e-04 3.465715203939667e-02 2.478482178392090e-02 -1.684073996959069e-01
6.205014685432838e+00 -2.064103855361007e-05 3.981579347494021e-04 -1.228661004165509e-02 5.506643035822073e-05 -1.393414082017312e-01
6.105562079481267e+00 -1.885855231822305e-02 -4.684498756236252e-04 2.044001376610656e-02 -1.242596105284879e-02 5.085552816838979e-02
6.877691013253720e+00 1.469083209880270e-02 6.231588888389362e-04 -3.427516053514632e-02 2.536745884026914e-02 -1.722431302459085e-01
6.972466621203844e+00 1.170281376385690e-04 4.126053604729819e-04 -6.730899617278117e-02 3.005702007440473e-04 -1.424996822791509e-01
6.966716448340218e+00 1.967693405159827e-02 -4.407010786935284e-04 -4.615722077477102e-02 -1.167661522139398e-02 4.671263578344216e-02
6.120174362096956e+00 -1.418917936093197e-02 5.992230558188995e-04 3.465715203939667e-02 2.478482178392090e-02 -1.684073996959069e-01
6.105562079481267e+00 -1.885855231822305e-02 -4.684498756236252e-04 2.044001376610656e-02 -1.242596105284879e-02 5.085552816838979e-02
5.961541749817355e+00 -1.169564319570479e-02 4.410692964032032e-04 5.638106177139521e-02 3.835735111423245e-03 -1.192867771982941e-01
6.877691013253720e+00 1.469083209880270e-02 6.231588888389362e-04 -3.427516053514632e-02 2.536745884026914e-02 -1.722431302459085e-01
6.966716448340218e+00 1.967693405159827e-02 -4.407010786935284e-04 -4.615722077477102e-02 -1.167661522139398e-02 4.671263578344216e-02
6.970787124638595e+00 3.670174578816061e-02 5.014352088095340e-04 -2.894305384560937e-02 4.756529306975791e-03 -1.267638761383101e-01
5.961541749817355e+00 -1.169564319570479e-02 4.410692964032032e-04 5.638106177139521e-02 3.835735111423245e-03 -1.192867771982941e-01
6.105562079481267e+00 -1.885855231822305e-02 -4.684498756236252e-04 2.044001376610656e-02 -1.242596105284879e-02 5.085552816838979e-02
5.934565587088617e+00 -3.317136052499021e-03 -1.133446017579802e-03 4.286977847980253e-02 -8.438642749687170e-03 2.340559830947764e-01
6.970787124638595e+00 3.670174578816061e-02 5.014352088095340e-04 -2.894305384560937e-02 4.756529306975791e-03 -1.267638761383101e-01
6.966716448340218e+00 1.967693405159827e-02 -4.407010786935284e-04 -4.615722077477102e-02 -1.167661522139398e-02 4.671263578344216e-02
7.074728947458368e+00 4.046775809001714e-02 -1.145265314040464e-03 -4.370828408495280e-02 -7.955131661170130e-03 2.283613527603718e-01
5.961541749817355e+00 -1.169564319570479e-02 4.410692964032032e-04 5.638106177139521e-02 3.835735111423245e-03 -1.192867771982941e-01
5.934565587088617e+00 -3.317136052499021e-03 -1.133446017579802e-03 4.286977847980253e-02 -8.438642749687170e-03 2.340559830947764e-01
5.789266470316717e+00 2.147457939856646e-02 4.788519759351313e-04 9.425835527869718e-02 1.945161472333462e-02 2.451050266879752e-01
6.970787124638595e+00 3.670174578816061e-02 5.014352088095340e-04 -2.894305384560937e-02 4.756529306975791e-03 -1.267638761383101e-01
7.074728947458368e+00 4.046775809001714e-02 -1.145265314040464e-03 -4.370828408495280e-02 -7.955131661170130e-03 2.283613527603718e-01
7.001111154314629e+00 5.120135045419336e-02 4.398517479007739e-04 -1.697214801989763e-02 1.914640924767570e-02 2.392795514256701e-01
        </DataArray>
  </PointData>
  <CellData>
        <DataArray type="Float64" Name="element_GL_strains_xyz" NumberOfComponents="6" format="ascii">
6.214054826351539e-02 0.000000000000000e+00 -4.967176983302253e-06 -3.541139495969389e-04 -1.616940642829717e-04 -1.102771083023685e-04
6.053932585526495e-02 5.936695529340508e-06 -1.069687978877409e-05 4.435289067636254e-04 1.074303365987307e-04 4.814919686817094e-04
6.231385442954057e-02 5.936695529340508e-06 2.593824849665231e-06 -2.536071404110309e-04 -2.469060452276417e-04 1.955873670124894e-04
6.034706404002876e-02 3.880831742344992e-04 2.734257218221329e-05 5.387148149923317e-04 4.097249529640126e-04 1.091863238586214e-03
        </DataArray>
        <DataArray type="Float64" Name="element_cauchy_stresses_xyz" NumberOfComponents="6" format="ascii">
6.589455123185365e+00 7.292080877575001e-05 -3.794737262229061e-04 -3.993225274772223e-02 -1.514760402556807e-02 -2.660873748224689e-02
6.411027773318001e+00 4.901987178396131e-04 -1.240642889428218e-03 3.991028649665587e-02 9.981076664207680e-03 2.661720524986154e-02
6.609103718853850e+00 7.375989738512267e-04 3.853112127659357e-04 -3.884960399232579e-02 -2.297021190774887e-02 -4.049886351497752e-02
6.389746877625403e+00 3.629100141288605e-02 1.187616885861944e-03 3.919489950905576e-02 3.812669551263702e-02 4.059533429821972e-02
        </DataArray>
      </CellData>

    </Piece>
  </UnstructuredGrid>
</VTKFile>
