<?xml version="1.0" ?> 
<!-- 
# vtk DataFile Version 3.0
-->
<VTKFile type="UnstructuredGrid" version="0.1" compressor="vtkZLibDataCompressor" byte_order="LittleEndian">
  <UnstructuredGrid>
    <FieldData>
      <DataArray type="Float64" Name="TIME" NumberOfTuples="1" format="ascii">
5.000000000000000e-01 
      </DataArray>
    </FieldData>

    <Piece NumberOfPoints="24" NumberOfCells="4" >
      <Points>
        <DataArray type="Float64" NumberOfComponents="3" format="ascii">
0.000000000000000e+00 0.000000000000000e+00 0.000000000000000e+00
1.000000000000000e+00 1.000000000000000e+00 0.000000000000000e+00
0.000000000000000e+00 1.000000000000000e+00 0.000000000000000e+00
0.000000000000000e+00 0.000000000000000e+00 1.000000000000000e+00
1.000000000000000e+00 1.000000000000000e+00 1.000000000000000e+00
0.000000000000000e+00 1.000000000000000e+00 1.000000000000000e+00
0.000000000000000e+00 0.000000000000000e+00 0.000000000000000e+00
1.000000000000000e+00 0.000000000000000e+00 0.000000000000000e+00
1.000000000000000e+00 1.000000000000000e+00 0.000000000000000e+00
0.000000000000000e+00 0.000000000000000e+00 1.000000000000000e+00
1.000000000000000e+00 0.000000000000000e+00 1.000000000000000e+00
1.000000000000000e+00 1.000000000000000e+00 1.000000000000000e+00
1.000000000000000e+00 0.000000000000000e+00 0.000000000000000e+00
2.000000000000000e+00 1.000000000000000e+00 0.000000000000000e+00
1.000000000000000e+00 1.000000000000000e+00 0.000000000000000e+00
1.000000000000000e+00 0.000000000000000e+00 1.000000000000000e+00
2.000000000000000e+00 1.000000000000000e+00 1.000000000000000e+00
1.000000000000000e+00 1.000000000000000e+00 1.000000000000000e+00
1.000000000000000e+00 0.000000000000000e+00 0.000000000000000e+00
2.000000000000000e+00 0.000000000000000e+00 0.000000000000000e+00
2.000000000000000e+00 1.000000000000000e+00 0.000000000000000e+00
1.000000000000000e+00 0.000000000000000e+00 1.000000000000000e+00
2.000000000000000e+00 0.000000000000000e+00 1.000000000000000e+00
2.000000000000000e+00 1.000000000000000e+00 1.000000000000000e+00
        </DataArray>
      </Points>

      <Cells>
        <DataArray type="Int32" Name="connectivity" format="ascii">
0 1 2 3 4 5 6 7 8 9 10 11 12 13 14 15 16 17 18 19 20 21 22 23 
        </DataArray>
        <DataArray type="Int32" Name="offsets" format="ascii">
6 12 18 24 
        </DataArray>
        <DataArray type="UInt8" Name="types" format="ascii">
13 13 13 13 
        </DataArray>
      </Cells>

  <PointData>
        <DataArray type="Float64" Name="displacement" NumberOfComponents="3" format="ascii">
0.000000000000000e+00 0.000000000000000e+00 0.000000000000000e+00
5.708232324844957e-02 -2.231457063451261e-04 -2.494062219702351e-03
0.000000000000000e+00 0.000000000000000e+00 0.000000000000000e+00
0.000000000000000e+00 0.000000000000000e+00 0.000000000000000e+00
6.355036140938308e-02 -1.193310092042763e-03 -2.519658098586268e-03
0.000000000000000e+00 0.000000000000000e+00 0.000000000000000e+00
0.000000000000000e+00 0.000000000000000e+00 0.000000000000000e+00
5.562167097047124e-02 7.772906010406562e-05 -3.546141395188468e-03
5.708232324844957e-02 -2.231457063451261e-04 -2.494062219702351e-03
0.000000000000000e+00 0.000000000000000e+00 0.000000000000000e+00
6.198249586554123e-02 -1.502612661355508e-03 -3.584739328720551e-03
6.355036140938308e-02 -1.193310092042763e-03 -2.519658098586268e-03
5.562167097047124e-02 7.772906010406562e-05 -3.546141395188468e-03
1.130002589060668e-01 -1.736332397320394e-03 -1.209802626215203e-02
5.708232324844957e-02 -2.231457063451261e-04 -2.494062219702351e-03
6.198249586554123e-02 -1.502612661355508e-03 -3.584739328720551e-03
1.285036439408964e-01 -3.885741057361878e-03 -1.217049357124186e-02
6.355036140938308e-02 -1.193310092042763e-03 -2.519658098586268e-03
5.562167097047124e-02 7.772906010406562e-05 -3.546141395188468e-03
1.090379084794040e-01 -1.955788328326503e-03 -1.494241497206210e-02
1.130002589060668e-01 -1.736332397320394e-03 -1.209802626215203e-02
6.198249586554123e-02 -1.502612661355508e-03 -3.584739328720551e-03
1.256858990183825e-01 -4.422619178758811e-03 -1.501092253873993e-02
1.285036439408964e-01 -3.885741057361878e-03 -1.217049357124186e-02
        </DataArray>
        <DataArray type="Float64" Name="nodal_GL_strains_xyz" NumberOfComponents="6" format="ascii">
5.794117805966391e-02 -1.496206570727439e-04 -4.162554590532981e-06 3.481931203852966e-04 2.630197938715367e-04 -1.510050903722711e-03
5.780134775947850e-02 -1.994942094303252e-04 -8.530246717289036e-06 2.353707420858153e-04 -1.311516264316515e-04 8.087682411299316e-04
5.871108934970697e-02 0.000000000000000e+00 -2.376521763140379e-06 -1.115728531725725e-04 -4.323256162785949e-17 -1.247031109851185e-03
6.473869605911761e-02 1.555573526020845e-04 -4.162554590532981e-06 -2.587781632186090e-04 2.662703075335915e-04 -1.526099356826686e-03
6.552780460606998e-02 2.074098034694460e-04 -8.530246717289037e-06 -3.448321975820459e-04 -1.267838900903019e-04 8.144306770238481e-04
6.557000717732503e-02 0.000000000000000e+00 -2.376521763140380e-06 -5.966550460213122e-04 -4.324611415501556e-17 -1.259829049293056e-03
5.794117805966391e-02 -1.496206570727439e-04 -4.162554590532981e-06 3.481931203852966e-04 2.630197938715367e-04 -1.510050903722711e-03
5.653131979893083e-02 -1.224082691125035e-04 -2.389429595534619e-05 6.241674476297910e-04 4.195346188742936e-05 -7.347032473114205e-04
5.780134775947850e-02 -1.994942094303252e-04 -8.530246717289036e-06 2.353707420858153e-04 -1.311516264316515e-04 8.087682411299316e-04
6.473869605911761e-02 1.555573526020845e-04 -4.162554590532981e-06 -2.587781632186090e-04 2.662703075335915e-04 -1.526099356826686e-03
6.560217641762654e-02 3.890459793079596e-04 -2.389429595534619e-05 -1.384097267331687e-04 4.423622814067840e-05 -7.257441284530109e-04
6.552780460606998e-02 2.074098034694460e-04 -8.530246717289037e-06 -3.448321975820459e-04 -1.267838900903019e-04 8.144306770238481e-04
5.653131979893083e-02 -1.224082691125035e-04 -2.389429595534619e-05 6.241674476297910e-04 4.195346188742936e-05 -7.347032473114205e-04
5.621134631358581e-02 -3.399174659601123e-05 4.200663454383613e-05 5.322716244731037e-04 -7.959547497614735e-05 2.927681845393928e-03
5.780134775947850e-02 -1.994942094303252e-04 -8.530246717289036e-06 2.353707420858153e-04 -1.311516264316515e-04 8.087682411299316e-04
6.560217641762654e-02 3.890459793079596e-04 -2.389429595534619e-05 -1.384097267331687e-04 4.423622814067840e-05 -7.257441284530109e-04
6.644957215598472e-02 4.280116163598549e-04 4.200663454383613e-05 -2.471639498918000e-04 -8.185428117434126e-05 2.984489084752782e-03
6.552780460606998e-02 2.074098034694460e-04 -8.530246717289037e-06 -3.448321975820459e-04 -1.267838900903019e-04 8.144306770238481e-04
5.653131979893083e-02 -1.224082691125035e-04 -2.389429595534619e-05 6.241674476297910e-04 4.195346188742936e-05 -7.347032473114205e-04
5.490100546806398e-02 2.312578209534653e-04 6.677901065384673e-05 1.054817263459355e-03 2.213934045414629e-04 3.073393526591237e-03
5.621134631358581e-02 -3.399174659601123e-05 4.200663454383613e-05 5.322716244731037e-04 -7.959547497614735e-05 2.927681845393928e-03
6.560217641762654e-02 3.890459793079596e-04 -2.389429595534619e-05 -1.384097267331687e-04 4.423622814067840e-05 -7.257441284530109e-04
6.579312261199471e-02 5.449085275155408e-04 6.677901065384672e-05 2.261236652531974e-05 2.094944647436664e-04 3.145163462058699e-03
6.644957215598472e-02 4.280116163598549e-04 4.200663454383613e-05 -2.471639498918000e-04 -8.185428117434126e-05 2.984489084752782e-03
        </DataArray>
        <DataArray type="Float64" Name="nodal_cauchy_stresses_xyz" NumberOfComponents="6" format="ascii">
6.120174362097014e+00 -1.418917936093190e-02 5.992230558066394e-04 3.465715203940298e-02 2.478482178392163e-02 -1.684073996959088e-01
6.105562079481332e+00 -1.885855231822296e-02 -4.684498756048008e-04 2.044001376611291e-02 -1.242596105285514e-02 5.085552816838086e-02
6.205014685432904e+00 -2.064103855360611e-05 3.981579347459146e-04 -1.228661004165074e-02 5.506643035411637e-05 -1.393414082017334e-01
6.877691013253800e+00 1.469083209880262e-02 6.231588888267751e-04 -3.427516053514507e-02 2.536745884027088e-02 -1.722431302459108e-01
6.966716448340287e+00 1.967693405159821e-02 -4.407010786747739e-04 -4.615722077477510e-02 -1.167661522139891e-02 4.671263578343066e-02
6.972466621203911e+00 1.170281376385117e-04 4.126053604694577e-04 -6.730899617276619e-02 3.005702007399082e-04 -1.424996822791466e-01
6.120174362097014e+00 -1.418917936093190e-02 5.992230558066394e-04 3.465715203940298e-02 2.478482178392163e-02 -1.684073996959088e-01
5.961541749817431e+00 -1.169564319570457e-02 4.410692964021138e-04 5.638106177140320e-02 3.835735111421795e-03 -1.192867771982948e-01
6.105562079481332e+00 -1.885855231822296e-02 -4.684498756048008e-04 2.044001376611291e-02 -1.242596105285514e-02 5.085552816838086e-02
6.877691013253800e+00 1.469083209880262e-02 6.231588888267751e-04 -3.427516053514507e-02 2.536745884027088e-02 -1.722431302459108e-01
6.970787124638653e+00 3.670174578816067e-02 5.014352088085112e-04 -2.894305384561768e-02 4.756529306973584e-03 -1.267638761383151e-01
6.966716448340287e+00 1.967693405159821e-02 -4.407010786747739e-04 -4.615722077477510e-02 -1.167661522139891e-02 4.671263578343066e-02
5.961541749817431e+00 -1.169564319570457e-02 4.410692964021138e-04 5.638106177140320e-02 3.835735111421795e-03 -1.192867771982948e-01
5.934565587088701e+00 -3.317136052498778e-03 -1.133446017582243e-03 4.286977847981022e-02 -8.438642749690924e-03 2.340559830948049e-01
6.105562079481332e+00 -1.885855231822296e-02 -4.684498756048008e-04 2.044001376611291e-02 -1.242596105285514e-02 5.085552816838086e-02
6.970787124638653e+00 3.670174578816067e-02 5.014352088085112e-04 -2.894305384561768e-02 4.756529306973584e-03 -1.267638761383151e-01
7.074728947458414e+00 4.046775809001731e-02 -1.145265314042838e-03 -4.370828408495918e-02 -7.955131661176177e-03 2.283613527603940e-01
6.966716448340287e+00 1.967693405159821e-02 -4.407010786747739e-04 -4.615722077477510e-02 -1.167661522139891e-02 4.671263578343066e-02
5.961541749817431e+00 -1.169564319570457e-02 4.410692964021138e-04 5.638106177140320e-02 3.835735111421795e-03 -1.192867771982948e-01
5.789266470316827e+00 2.147457939856687e-02 4.788519759348363e-04 9.425835527870624e-02 1.945161472333194e-02 2.451050266879843e-01
5.934565587088701e+00 -3.317136052498778e-03 -1.133446017582243e-03 4.286977847981022e-02 -8.438642749690924e-03 2.340559830948049e-01
6.970787124638653e+00 3.670174578816067e-02 5.014352088085112e-04 -2.894305384561768e-02 4.756529306973584e-03 -1.267638761383151e-01
7.001111154314652e+00 5.120135045419368e-02 4.398517479005056e-04 -1.697214801989554e-02 1.914640924766642e-02 2.392795514256732e-01
7.074728947458414e+00 4.046775809001731e-02 -1.145265314042838e-03 -4.370828408495918e-02 -7.955131661176177e-03 2.283613527603940e-01
        </DataArray>
  </PointData>
  <CellData>
        <DataArray type="Float64" Name="element_GL_strains_xyz" NumberOfComponents="6" format="ascii">
6.214054826351539e-02 0.000000000000000e+00 -4.967176983302253e-06 -3.541139495969389e-04 -1.616940642829717e-04 -1.102771083023685e-04
6.053932585526495e-02 5.936695529340508e-06 -1.069687978877409e-05 4.435289067636254e-04 1.074303365987307e-04 4.814919686817094e-04
6.231385442954057e-02 5.936695529340508e-06 2.593824849665231e-06 -2.536071404110309e-04 -2.469060452276417e-04 1.955873670124894e-04
6.034706404002876e-02 3.880831742344992e-04 2.734257218221329e-05 5.387148149923317e-04 4.097249529640126e-04 1.091863238586214e-03
        </DataArray>
        <DataArray type="Float64" Name="element_cauchy_stresses_xyz" NumberOfComponents="6" format="ascii">
6.589455123185365e+00 7.292080877575001e-05 -3.794737262229061e-04 -3.993225274772223e-02 -1.514760402556807e-02 -2.660873748224689e-02
6.411027773318001e+00 4.901987178396131e-04 -1.240642889428218e-03 3.991028649665587e-02 9.981076664207680e-03 2.661720524986154e-02
6.609103718853850e+00 7.375989738512267e-04 3.853112127659357e-04 -3.884960399232579e-02 -2.297021190774887e-02 -4.049886351497752e-02
6.389746877625403e+00 3.629100141288605e-02 1.187616885861944e-03 3.919489950905576e-02 3.812669551263702e-02 4.059533429821972e-02
        </DataArray>
      </CellData>

    </Piece>
  </UnstructuredGrid>
</VTKFile>
