<?xml version="1.0" ?> 
<!-- 
# vtk DataFile Version 3.0
-->
<VTKFile type="UnstructuredGrid" version="0.1" compressor="vtkZLibDataCompressor" byte_order="LittleEndian">
  <UnstructuredGrid>
    <FieldData>
      <DataArray type="Float64" Name="TIME" NumberOfTuples="1" format="ascii">
1.000000000000000e+00 
      </DataArray>
    </FieldData>

    <Piece NumberOfPoints="336" NumberOfCells="42" >
      <Points>
        <DataArray type="Float64" NumberOfComponents="3" format="ascii">
2.828427124746190e+02 -2.828427124746190e+02 -5.000000000000000e+00
2.828427124746189e+02 -2.828427124746191e+02 5.000000000000000e+00
2.626396615835747e+02 -2.626396615835749e+02 5.000000000000000e+00
2.626396615835748e+02 -2.626396615835748e+02 -5.000000000000000e+00
2.435045716034883e+02 -3.173413361164941e+02 -5.000000000000000e+00
2.435045716034882e+02 -3.173413361164941e+02 5.000000000000000e+00
2.261113879175247e+02 -2.946740978224587e+02 5.000000000000000e+00
2.261113879175248e+02 -2.946740978224588e+02 -5.000000000000000e+00
2.626396615835748e+02 -2.626396615835748e+02 -5.000000000000000e+00
2.626396615835747e+02 -2.626396615835749e+02 5.000000000000000e+00
2.424366106925305e+02 -2.424366106925306e+02 5.000000000000000e+00
2.424366106925306e+02 -2.424366106925306e+02 -5.000000000000000e+00
2.261113879175248e+02 -2.946740978224588e+02 -5.000000000000000e+00
2.261113879175247e+02 -2.946740978224587e+02 5.000000000000000e+00
2.087182042315613e+02 -2.720068595284235e+02 5.000000000000000e+00
2.087182042315614e+02 -2.720068595284235e+02 -5.000000000000000e+00
2.424366106925306e+02 -2.424366106925306e+02 -5.000000000000000e+00
2.424366106925305e+02 -2.424366106925306e+02 5.000000000000000e+00
2.222335598014863e+02 -2.222335598014863e+02 5.000000000000000e+00
2.222335598014863e+02 -2.222335598014863e+02 -5.000000000000000e+00
2.087182042315614e+02 -2.720068595284235e+02 -5.000000000000000e+00
2.087182042315613e+02 -2.720068595284235e+02 5.000000000000000e+00
1.913250205455978e+02 -2.493396212343882e+02 5.000000000000000e+00
1.913250205455979e+02 -2.493396212343882e+02 -5.000000000000000e+00
2.222335598014863e+02 -2.222335598014863e+02 -5.000000000000000e+00
2.222335598014863e+02 -2.222335598014863e+02 5.000000000000000e+00
2.020305089104421e+02 -2.020305089104422e+02 5.000000000000000e+00
2.020305089104421e+02 -2.020305089104422e+02 -5.000000000000000e+00
1.913250205455979e+02 -2.493396212343882e+02 -5.000000000000000e+00
1.913250205455978e+02 -2.493396212343882e+02 5.000000000000000e+00
1.739318368596345e+02 -2.266723829403529e+02 5.000000000000000e+00
1.739318368596344e+02 -2.266723829403529e+02 -5.000000000000000e+00
2.020305089104421e+02 -2.020305089104422e+02 -5.000000000000000e+00
2.020305089104421e+02 -2.020305089104422e+02 5.000000000000000e+00
1.818274580193979e+02 -1.818274580193979e+02 5.000000000000000e+00
1.818274580193979e+02 -1.818274580193979e+02 -5.000000000000000e+00
1.739318368596344e+02 -2.266723829403529e+02 -5.000000000000000e+00
1.739318368596345e+02 -2.266723829403529e+02 5.000000000000000e+00
1.565386531736710e+02 -2.040051446463176e+02 5.000000000000000e+00
1.565386531736710e+02 -2.040051446463176e+02 -5.000000000000000e+00
1.818274580193979e+02 -1.818274580193979e+02 -5.000000000000000e+00
1.818274580193979e+02 -1.818274580193979e+02 5.000000000000000e+00
1.616244071283537e+02 -1.616244071283538e+02 5.000000000000000e+00
1.616244071283537e+02 -1.616244071283537e+02 -5.000000000000000e+00
1.565386531736710e+02 -2.040051446463176e+02 -5.000000000000000e+00
1.565386531736710e+02 -2.040051446463176e+02 5.000000000000000e+00
1.391454694877076e+02 -1.813379063522823e+02 5.000000000000000e+00
1.391454694877075e+02 -1.813379063522823e+02 -5.000000000000000e+00
1.616244071283537e+02 -1.616244071283537e+02 -5.000000000000000e+00
1.616244071283537e+02 -1.616244071283538e+02 5.000000000000000e+00
1.414213562373095e+02 -1.414213562373095e+02 5.000000000000000e+00
1.414213562373095e+02 -1.414213562373095e+02 -5.000000000000000e+00
1.391454694877075e+02 -1.813379063522823e+02 -5.000000000000000e+00
1.391454694877076e+02 -1.813379063522823e+02 5.000000000000000e+00
1.217522858017441e+02 -1.586706680582470e+02 5.000000000000000e+00
1.217522858017441e+02 -1.586706680582470e+02 -5.000000000000000e+00
2.435045716034883e+02 -3.173413361164941e+02 -5.000000000000000e+00
2.435045716034882e+02 -3.173413361164941e+02 5.000000000000000e+00
2.261113879175247e+02 -2.946740978224587e+02 5.000000000000000e+00
2.261113879175248e+02 -2.946740978224588e+02 -5.000000000000000e+00
1.999999999999999e+02 -3.464101615137754e+02 -5.000000000000000e+00
2.000000000000000e+02 -3.464101615137754e+02 5.000000000000000e+00
1.857142857142857e+02 -3.216665785485058e+02 5.000000000000000e+00
1.857142857142857e+02 -3.216665785485058e+02 -5.000000000000000e+00
2.261113879175248e+02 -2.946740978224588e+02 -5.000000000000000e+00
2.261113879175247e+02 -2.946740978224587e+02 5.000000000000000e+00
2.087182042315613e+02 -2.720068595284235e+02 5.000000000000000e+00
2.087182042315614e+02 -2.720068595284235e+02 -5.000000000000000e+00
1.857142857142857e+02 -3.216665785485058e+02 -5.000000000000000e+00
1.857142857142857e+02 -3.216665785485058e+02 5.000000000000000e+00
1.714285714285714e+02 -2.969229955832361e+02 5.000000000000000e+00
1.714285714285714e+02 -2.969229955832361e+02 -5.000000000000000e+00
2.087182042315614e+02 -2.720068595284235e+02 -5.000000000000000e+00
2.087182042315613e+02 -2.720068595284235e+02 5.000000000000000e+00
1.913250205455978e+02 -2.493396212343882e+02 5.000000000000000e+00
1.913250205455979e+02 -2.493396212343882e+02 -5.000000000000000e+00
1.714285714285714e+02 -2.969229955832361e+02 -5.000000000000000e+00
1.714285714285714e+02 -2.969229955832361e+02 5.000000000000000e+00
1.571428571428571e+02 -2.721794126179664e+02 5.000000000000000e+00
1.571428571428571e+02 -2.721794126179664e+02 -5.000000000000000e+00
1.913250205455979e+02 -2.493396212343882e+02 -5.000000000000000e+00
1.913250205455978e+02 -2.493396212343882e+02 5.000000000000000e+00
1.739318368596345e+02 -2.266723829403529e+02 5.000000000000000e+00
1.739318368596344e+02 -2.266723829403529e+02 -5.000000000000000e+00
1.571428571428571e+02 -2.721794126179664e+02 -5.000000000000000e+00
1.571428571428571e+02 -2.721794126179664e+02 5.000000000000000e+00
1.428571428571428e+02 -2.474358296526968e+02 5.000000000000000e+00
1.428571428571428e+02 -2.474358296526967e+02 -5.000000000000000e+00
1.739318368596344e+02 -2.266723829403529e+02 -5.000000000000000e+00
1.739318368596345e+02 -2.266723829403529e+02 5.000000000000000e+00
1.565386531736710e+02 -2.040051446463176e+02 5.000000000000000e+00
1.565386531736710e+02 -2.040051446463176e+02 -5.000000000000000e+00
1.428571428571428e+02 -2.474358296526967e+02 -5.000000000000000e+00
1.428571428571428e+02 -2.474358296526968e+02 5.000000000000000e+00
1.285714285714285e+02 -2.226922466874271e+02 5.000000000000000e+00
1.285714285714286e+02 -2.226922466874270e+02 -5.000000000000000e+00
1.565386531736710e+02 -2.040051446463176e+02 -5.000000000000000e+00
1.565386531736710e+02 -2.040051446463176e+02 5.000000000000000e+00
1.391454694877076e+02 -1.813379063522823e+02 5.000000000000000e+00
1.391454694877075e+02 -1.813379063522823e+02 -5.000000000000000e+00
1.285714285714286e+02 -2.226922466874270e+02 -5.000000000000000e+00
1.285714285714285e+02 -2.226922466874271e+02 5.000000000000000e+00
1.142857142857142e+02 -1.979486637221574e+02 5.000000000000000e+00
1.142857142857143e+02 -1.979486637221574e+02 -5.000000000000000e+00
1.391454694877075e+02 -1.813379063522823e+02 -5.000000000000000e+00
1.391454694877076e+02 -1.813379063522823e+02 5.000000000000000e+00
1.217522858017441e+02 -1.586706680582470e+02 5.000000000000000e+00
1.217522858017441e+02 -1.586706680582470e+02 -5.000000000000000e+00
1.142857142857143e+02 -1.979486637221574e+02 -5.000000000000000e+00
1.142857142857142e+02 -1.979486637221574e+02 5.000000000000000e+00
9.999999999999997e+01 -1.732050807568877e+02 5.000000000000000e+00
1.000000000000000e+02 -1.732050807568877e+02 -5.000000000000000e+00
1.999999999999999e+02 -3.464101615137754e+02 -5.000000000000000e+00
2.000000000000000e+02 -3.464101615137754e+02 5.000000000000000e+00
1.857142857142857e+02 -3.216665785485058e+02 5.000000000000000e+00
1.857142857142857e+02 -3.216665785485058e+02 -5.000000000000000e+00
1.530733729460358e+02 -3.695518130045147e+02 -5.000000000000000e+00
1.530733729460360e+02 -3.695518130045146e+02 5.000000000000000e+00
1.421395605927477e+02 -3.431552549327636e+02 5.000000000000000e+00
1.421395605927476e+02 -3.431552549327637e+02 -5.000000000000000e+00
1.857142857142857e+02 -3.216665785485058e+02 -5.000000000000000e+00
1.857142857142857e+02 -3.216665785485058e+02 5.000000000000000e+00
1.714285714285714e+02 -2.969229955832361e+02 5.000000000000000e+00
1.714285714285714e+02 -2.969229955832361e+02 -5.000000000000000e+00
1.421395605927476e+02 -3.431552549327637e+02 -5.000000000000000e+00
1.421395605927477e+02 -3.431552549327636e+02 5.000000000000000e+00
1.312057482394594e+02 -3.167586968610125e+02 5.000000000000000e+00
1.312057482394593e+02 -3.167586968610125e+02 -5.000000000000000e+00
1.714285714285714e+02 -2.969229955832361e+02 -5.000000000000000e+00
1.714285714285714e+02 -2.969229955832361e+02 5.000000000000000e+00
1.571428571428571e+02 -2.721794126179664e+02 5.000000000000000e+00
1.571428571428571e+02 -2.721794126179664e+02 -5.000000000000000e+00
1.312057482394593e+02 -3.167586968610125e+02 -5.000000000000000e+00
1.312057482394594e+02 -3.167586968610125e+02 5.000000000000000e+00
1.202719358861711e+02 -2.903621387892615e+02 5.000000000000000e+00
1.202719358861711e+02 -2.903621387892616e+02 -5.000000000000000e+00
1.571428571428571e+02 -2.721794126179664e+02 -5.000000000000000e+00
1.571428571428571e+02 -2.721794126179664e+02 5.000000000000000e+00
1.428571428571428e+02 -2.474358296526968e+02 5.000000000000000e+00
1.428571428571428e+02 -2.474358296526967e+02 -5.000000000000000e+00
1.202719358861711e+02 -2.903621387892616e+02 -5.000000000000000e+00
1.202719358861711e+02 -2.903621387892615e+02 5.000000000000000e+00
1.093381235328828e+02 -2.639655807175104e+02 5.000000000000000e+00
1.093381235328828e+02 -2.639655807175105e+02 -5.000000000000000e+00
1.428571428571428e+02 -2.474358296526967e+02 -5.000000000000000e+00
1.428571428571428e+02 -2.474358296526968e+02 5.000000000000000e+00
1.285714285714285e+02 -2.226922466874271e+02 5.000000000000000e+00
1.285714285714286e+02 -2.226922466874270e+02 -5.000000000000000e+00
1.093381235328828e+02 -2.639655807175105e+02 -5.000000000000000e+00
1.093381235328828e+02 -2.639655807175104e+02 5.000000000000000e+00
9.840431117959452e+01 -2.375690226457594e+02 5.000000000000000e+00
9.840431117959456e+01 -2.375690226457594e+02 -5.000000000000000e+00
1.285714285714286e+02 -2.226922466874270e+02 -5.000000000000000e+00
1.285714285714285e+02 -2.226922466874271e+02 5.000000000000000e+00
1.142857142857142e+02 -1.979486637221574e+02 5.000000000000000e+00
1.142857142857143e+02 -1.979486637221574e+02 -5.000000000000000e+00
9.840431117959456e+01 -2.375690226457594e+02 -5.000000000000000e+00
9.840431117959452e+01 -2.375690226457594e+02 5.000000000000000e+00
8.747049882630620e+01 -2.111724645740084e+02 5.000000000000000e+00
8.747049882630627e+01 -2.111724645740083e+02 -5.000000000000000e+00
1.142857142857143e+02 -1.979486637221574e+02 -5.000000000000000e+00
1.142857142857142e+02 -1.979486637221574e+02 5.000000000000000e+00
9.999999999999997e+01 -1.732050807568877e+02 5.000000000000000e+00
1.000000000000000e+02 -1.732050807568877e+02 -5.000000000000000e+00
8.747049882630627e+01 -2.111724645740083e+02 -5.000000000000000e+00
8.747049882630620e+01 -2.111724645740084e+02 5.000000000000000e+00
7.653668647301792e+01 -1.847759065022574e+02 5.000000000000000e+00
7.653668647301799e+01 -1.847759065022573e+02 -5.000000000000000e+00
1.530733729460358e+02 -3.695518130045147e+02 -5.000000000000000e+00
1.530733729460360e+02 -3.695518130045146e+02 5.000000000000000e+00
1.421395605927477e+02 -3.431552549327636e+02 5.000000000000000e+00
1.421395605927476e+02 -3.431552549327637e+02 -5.000000000000000e+00
1.035276180410083e+02 -3.863703305156273e+02 -5.000000000000000e+00
1.035276180410081e+02 -3.863703305156274e+02 5.000000000000000e+00
9.613278818093613e+01 -3.587724497645110e+02 5.000000000000000e+00
9.613278818093625e+01 -3.587724497645111e+02 -5.000000000000000e+00
1.421395605927476e+02 -3.431552549327637e+02 -5.000000000000000e+00
1.421395605927477e+02 -3.431552549327636e+02 5.000000000000000e+00
1.312057482394594e+02 -3.167586968610125e+02 5.000000000000000e+00
1.312057482394593e+02 -3.167586968610125e+02 -5.000000000000000e+00
9.613278818093625e+01 -3.587724497645111e+02 -5.000000000000000e+00
9.613278818093613e+01 -3.587724497645110e+02 5.000000000000000e+00
8.873795832086412e+01 -3.311745690133951e+02 5.000000000000000e+00
8.873795832086424e+01 -3.311745690133948e+02 -5.000000000000000e+00
1.312057482394593e+02 -3.167586968610125e+02 -5.000000000000000e+00
1.312057482394594e+02 -3.167586968610125e+02 5.000000000000000e+00
1.202719358861711e+02 -2.903621387892615e+02 5.000000000000000e+00
1.202719358861711e+02 -2.903621387892616e+02 -5.000000000000000e+00
8.873795832086424e+01 -3.311745690133948e+02 -5.000000000000000e+00
8.873795832086412e+01 -3.311745690133951e+02 5.000000000000000e+00
8.134312846079214e+01 -3.035766882622786e+02 5.000000000000000e+00
8.134312846079219e+01 -3.035766882622786e+02 -5.000000000000000e+00
1.202719358861711e+02 -2.903621387892616e+02 -5.000000000000000e+00
1.202719358861711e+02 -2.903621387892615e+02 5.000000000000000e+00
1.093381235328828e+02 -2.639655807175104e+02 5.000000000000000e+00
1.093381235328828e+02 -2.639655807175105e+02 -5.000000000000000e+00
8.134312846079219e+01 -3.035766882622786e+02 -5.000000000000000e+00
8.134312846079214e+01 -3.035766882622786e+02 5.000000000000000e+00
7.394829860072011e+01 -2.759788075111624e+02 5.000000000000000e+00
7.394829860072016e+01 -2.759788075111624e+02 -5.000000000000000e+00
1.093381235328828e+02 -2.639655807175105e+02 -5.000000000000000e+00
1.093381235328828e+02 -2.639655807175104e+02 5.000000000000000e+00
9.840431117959452e+01 -2.375690226457594e+02 5.000000000000000e+00
9.840431117959456e+01 -2.375690226457594e+02 -5.000000000000000e+00
7.394829860072016e+01 -2.759788075111624e+02 -5.000000000000000e+00
7.394829860072011e+01 -2.759788075111624e+02 5.000000000000000e+00
6.655346874064813e+01 -2.483809267600462e+02 5.000000000000000e+00
6.655346874064814e+01 -2.483809267600461e+02 -5.000000000000000e+00
9.840431117959456e+01 -2.375690226457594e+02 -5.000000000000000e+00
9.840431117959452e+01 -2.375690226457594e+02 5.000000000000000e+00
8.747049882630620e+01 -2.111724645740084e+02 5.000000000000000e+00
8.747049882630627e+01 -2.111724645740083e+02 -5.000000000000000e+00
6.655346874064814e+01 -2.483809267600461e+02 -5.000000000000000e+00
6.655346874064813e+01 -2.483809267600462e+02 5.000000000000000e+00
5.915863888057615e+01 -2.207830460089299e+02 5.000000000000000e+00
5.915863888057609e+01 -2.207830460089299e+02 -5.000000000000000e+00
8.747049882630627e+01 -2.111724645740083e+02 -5.000000000000000e+00
8.747049882630620e+01 -2.111724645740084e+02 5.000000000000000e+00
7.653668647301792e+01 -1.847759065022574e+02 5.000000000000000e+00
7.653668647301799e+01 -1.847759065022573e+02 -5.000000000000000e+00
5.915863888057609e+01 -2.207830460089299e+02 -5.000000000000000e+00
5.915863888057615e+01 -2.207830460089299e+02 5.000000000000000e+00
5.176380902050415e+01 -1.931851652578137e+02 5.000000000000000e+00
5.176380902050406e+01 -1.931851652578137e+02 -5.000000000000000e+00
1.035276180410083e+02 -3.863703305156273e+02 -5.000000000000000e+00
1.035276180410081e+02 -3.863703305156274e+02 5.000000000000000e+00
9.613278818093613e+01 -3.587724497645110e+02 5.000000000000000e+00
9.613278818093625e+01 -3.587724497645111e+02 -5.000000000000000e+00
5.221047688802059e+01 -3.965779445495241e+02 -5.000000000000000e+00
5.221047688802049e+01 -3.965779445495242e+02 5.000000000000000e+00
4.848115711030476e+01 -3.682509485102724e+02 5.000000000000000e+00
4.848115711030482e+01 -3.682509485102725e+02 -5.000000000000000e+00
9.613278818093625e+01 -3.587724497645111e+02 -5.000000000000000e+00
9.613278818093613e+01 -3.587724497645110e+02 5.000000000000000e+00
8.873795832086412e+01 -3.311745690133951e+02 5.000000000000000e+00
8.873795832086424e+01 -3.311745690133948e+02 -5.000000000000000e+00
4.848115711030482e+01 -3.682509485102725e+02 -5.000000000000000e+00
4.848115711030476e+01 -3.682509485102724e+02 5.000000000000000e+00
4.475183733258901e+01 -3.399239524710208e+02 5.000000000000000e+00
4.475183733258906e+01 -3.399239524710207e+02 -5.000000000000000e+00
8.873795832086424e+01 -3.311745690133948e+02 -5.000000000000000e+00
8.873795832086412e+01 -3.311745690133951e+02 5.000000000000000e+00
8.134312846079214e+01 -3.035766882622786e+02 5.000000000000000e+00
8.134312846079219e+01 -3.035766882622786e+02 -5.000000000000000e+00
4.475183733258906e+01 -3.399239524710207e+02 -5.000000000000000e+00
4.475183733258901e+01 -3.399239524710208e+02 5.000000000000000e+00
4.102251755487326e+01 -3.115969564317691e+02 5.000000000000000e+00
4.102251755487330e+01 -3.115969564317689e+02 -5.000000000000000e+00
8.134312846079219e+01 -3.035766882622786e+02 -5.000000000000000e+00
8.134312846079214e+01 -3.035766882622786e+02 5.000000000000000e+00
7.394829860072011e+01 -2.759788075111624e+02 5.000000000000000e+00
7.394829860072016e+01 -2.759788075111624e+02 -5.000000000000000e+00
4.102251755487330e+01 -3.115969564317689e+02 -5.000000000000000e+00
4.102251755487326e+01 -3.115969564317691e+02 5.000000000000000e+00
3.729319777715753e+01 -2.832699603925173e+02 5.000000000000000e+00
3.729319777715754e+01 -2.832699603925172e+02 -5.000000000000000e+00
7.394829860072016e+01 -2.759788075111624e+02 -5.000000000000000e+00
7.394829860072011e+01 -2.759788075111624e+02 5.000000000000000e+00
6.655346874064813e+01 -2.483809267600462e+02 5.000000000000000e+00
6.655346874064814e+01 -2.483809267600461e+02 -5.000000000000000e+00
3.729319777715754e+01 -2.832699603925172e+02 -5.000000000000000e+00
3.729319777715753e+01 -2.832699603925173e+02 5.000000000000000e+00
3.356387799944179e+01 -2.549429643532655e+02 5.000000000000000e+00
3.356387799944177e+01 -2.549429643532655e+02 -5.000000000000000e+00
6.655346874064814e+01 -2.483809267600461e+02 -5.000000000000000e+00
6.655346874064813e+01 -2.483809267600462e+02 5.000000000000000e+00
5.915863888057615e+01 -2.207830460089299e+02 5.000000000000000e+00
5.915863888057609e+01 -2.207830460089299e+02 -5.000000000000000e+00
3.356387799944177e+01 -2.549429643532655e+02 -5.000000000000000e+00
3.356387799944179e+01 -2.549429643532655e+02 5.000000000000000e+00
2.983455822172603e+01 -2.266159683140138e+02 5.000000000000000e+00
2.983455822172601e+01 -2.266159683140138e+02 -5.000000000000000e+00
5.915863888057609e+01 -2.207830460089299e+02 -5.000000000000000e+00
5.915863888057615e+01 -2.207830460089299e+02 5.000000000000000e+00
5.176380902050415e+01 -1.931851652578137e+02 5.000000000000000e+00
5.176380902050406e+01 -1.931851652578137e+02 -5.000000000000000e+00
2.983455822172601e+01 -2.266159683140138e+02 -5.000000000000000e+00
2.983455822172603e+01 -2.266159683140138e+02 5.000000000000000e+00
2.610523844401029e+01 -1.982889722747620e+02 5.000000000000000e+00
2.610523844401025e+01 -1.982889722747621e+02 -5.000000000000000e+00
5.221047688802059e+01 -3.965779445495241e+02 -5.000000000000000e+00
5.221047688802049e+01 -3.965779445495242e+02 5.000000000000000e+00
4.848115711030476e+01 -3.682509485102724e+02 5.000000000000000e+00
4.848115711030482e+01 -3.682509485102725e+02 -5.000000000000000e+00
0.000000000000000e+00 -4.000000000000000e+02 -5.000000000000000e+00
0.000000000000000e+00 -4.000000000000000e+02 5.000000000000000e+00
0.000000000000000e+00 -3.714285714285714e+02 5.000000000000000e+00
0.000000000000000e+00 -3.714285714285714e+02 -5.000000000000000e+00
4.848115711030482e+01 -3.682509485102725e+02 -5.000000000000000e+00
4.848115711030476e+01 -3.682509485102724e+02 5.000000000000000e+00
4.475183733258901e+01 -3.399239524710208e+02 5.000000000000000e+00
4.475183733258906e+01 -3.399239524710207e+02 -5.000000000000000e+00
0.000000000000000e+00 -3.714285714285714e+02 -5.000000000000000e+00
0.000000000000000e+00 -3.714285714285714e+02 5.000000000000000e+00
0.000000000000000e+00 -3.428571428571429e+02 5.000000000000000e+00
0.000000000000000e+00 -3.428571428571428e+02 -5.000000000000000e+00
4.475183733258906e+01 -3.399239524710207e+02 -5.000000000000000e+00
4.475183733258901e+01 -3.399239524710208e+02 5.000000000000000e+00
4.102251755487326e+01 -3.115969564317691e+02 5.000000000000000e+00
4.102251755487330e+01 -3.115969564317689e+02 -5.000000000000000e+00
0.000000000000000e+00 -3.428571428571428e+02 -5.000000000000000e+00
0.000000000000000e+00 -3.428571428571429e+02 5.000000000000000e+00
0.000000000000000e+00 -3.142857142857143e+02 5.000000000000000e+00
0.000000000000000e+00 -3.142857142857143e+02 -5.000000000000000e+00
4.102251755487330e+01 -3.115969564317689e+02 -5.000000000000000e+00
4.102251755487326e+01 -3.115969564317691e+02 5.000000000000000e+00
3.729319777715753e+01 -2.832699603925173e+02 5.000000000000000e+00
3.729319777715754e+01 -2.832699603925172e+02 -5.000000000000000e+00
0.000000000000000e+00 -3.142857142857143e+02 -5.000000000000000e+00
0.000000000000000e+00 -3.142857142857143e+02 5.000000000000000e+00
0.000000000000000e+00 -2.857142857142857e+02 5.000000000000000e+00
0.000000000000000e+00 -2.857142857142857e+02 -5.000000000000000e+00
3.729319777715754e+01 -2.832699603925172e+02 -5.000000000000000e+00
3.729319777715753e+01 -2.832699603925173e+02 5.000000000000000e+00
3.356387799944179e+01 -2.549429643532655e+02 5.000000000000000e+00
3.356387799944177e+01 -2.549429643532655e+02 -5.000000000000000e+00
0.000000000000000e+00 -2.857142857142857e+02 -5.000000000000000e+00
0.000000000000000e+00 -2.857142857142857e+02 5.000000000000000e+00
0.000000000000000e+00 -2.571428571428572e+02 5.000000000000000e+00
0.000000000000000e+00 -2.571428571428571e+02 -5.000000000000000e+00
3.356387799944177e+01 -2.549429643532655e+02 -5.000000000000000e+00
3.356387799944179e+01 -2.549429643532655e+02 5.000000000000000e+00
2.983455822172603e+01 -2.266159683140138e+02 5.000000000000000e+00
2.983455822172601e+01 -2.266159683140138e+02 -5.000000000000000e+00
0.000000000000000e+00 -2.571428571428571e+02 -5.000000000000000e+00
0.000000000000000e+00 -2.571428571428572e+02 5.000000000000000e+00
0.000000000000000e+00 -2.285714285714286e+02 5.000000000000000e+00
0.000000000000000e+00 -2.285714285714286e+02 -5.000000000000000e+00
2.983455822172601e+01 -2.266159683140138e+02 -5.000000000000000e+00
2.983455822172603e+01 -2.266159683140138e+02 5.000000000000000e+00
2.610523844401029e+01 -1.982889722747620e+02 5.000000000000000e+00
2.610523844401025e+01 -1.982889722747621e+02 -5.000000000000000e+00
0.000000000000000e+00 -2.285714285714286e+02 -5.000000000000000e+00
0.000000000000000e+00 -2.285714285714286e+02 5.000000000000000e+00
0.000000000000000e+00 -2.000000000000000e+02 5.000000000000000e+00
0.000000000000000e+00 -2.000000000000000e+02 -5.000000000000000e+00
        </DataArray>
      </Points>

      <Cells>
        <DataArray type="Int32" Name="connectivity" format="ascii">
0 1 2 3 4 5 6 7 8 9 10 11 12 13 14 15 16 17 18 19 20 21 22 23 24 25 26 27 28 29 30 31 32 33 34 35 36 37 38 39 40 41 42 43 44 45 46 47 48 49 50 51 52 53 54 55 56 57 58 59 60 61 62 63 64 65 66 67 68 69 70 71 72 73 74 75 76 77 78 79 80 81 82 83 84 85 86 87 88 89 90 91 92 93 94 95 96 97 98 99 100 101 102 103 104 105 106 107 108 109 110 111 112 113 114 115 116 117 118 119 120 121 122 123 124 125 126 127 128 129 130 131 132 133 134 135 136 137 138 139 140 141 142 143 144 145 146 147 148 149 150 151 152 153 154 155 156 157 158 159 160 161 162 163 164 165 166 167 168 169 170 171 172 173 174 175 176 177 178 179 180 181 182 183 184 185 186 187 188 189 190 191 192 193 194 195 196 197 198 199 200 201 202 203 204 205 206 207 208 209 210 211 212 213 214 215 216 217 218 219 220 221 222 223 224 225 226 227 228 229 230 231 232 233 234 235 236 237 238 239 240 241 242 243 244 245 246 247 248 249 250 251 252 253 254 255 256 257 258 259 260 261 262 263 264 265 266 267 268 269 270 271 272 273 274 275 276 277 278 279 280 281 282 283 284 285 286 287 288 289 290 291 292 293 294 295 296 297 298 299 300 301 302 303 304 305 306 307 308 309 310 311 312 313 314 315 316 317 318 319 320 321 322 323 324 325 326 327 328 329 330 331 332 333 334 335 
        </DataArray>
        <DataArray type="Int32" Name="offsets" format="ascii">
8 16 24 32 40 48 56 64 72 80 88 96 104 112 120 128 136 144 152 160 168 176 184 192 200 208 216 224 232 240 248 256 264 272 280 288 296 304 312 320 328 336 
        </DataArray>
        <DataArray type="UInt8" Name="types" format="ascii">
12 12 12 12 12 12 12 12 12 12 12 12 12 12 12 12 12 12 12 12 12 12 12 12 12 12 12 12 12 12 12 12 12 12 12 12 12 12 12 12 12 12 
        </DataArray>
      </Cells>

  <PointData>
        <DataArray type="Float64" Name="accumulated_plastic_strain" format="ascii">
2.790045103103255e-02
2.791591765765344e-02
1.553698151301124e-02
1.553166264567038e-02
2.837231763032490e-02
2.838520969261858e-02
1.560512163516660e-02
1.560096089028704e-02
1.553166264567038e-02
1.553698151301124e-02
1.803471821543723e-02
1.802459916215759e-02
1.560096089028704e-02
1.560512163516660e-02
1.786411534081933e-02
1.785470241045720e-02
1.802459916215759e-02
1.803471821543723e-02
2.158768868382858e-02
2.157038647029094e-02
1.785470241045720e-02
1.786411534081933e-02
2.120002177665305e-02
2.118091598633471e-02
2.157038647029094e-02
2.158768868382858e-02
2.669275685490809e-02
2.664008931889238e-02
2.118091598633471e-02
2.120002177665305e-02
2.648554703452467e-02
2.642649584686783e-02
2.664008931889238e-02
2.669275685490809e-02
3.698912047847366e-02
3.665670628336376e-02
2.642649584686783e-02
2.648554703452467e-02
3.756241789736587e-02
3.722671477542918e-02
3.665670628336376e-02
3.698912047847366e-02
6.332204284891946e-02
6.320247469390286e-02
3.722671477542918e-02
3.756241789736587e-02
6.413151238268422e-02
6.401088770987405e-02
6.320247469390286e-02
6.332204284891946e-02
1.940082526069949e-01
1.948731116328692e-01
6.401088770987405e-02
6.413151238268422e-02
1.936777294105172e-01
1.945424122862207e-01
2.837231763032490e-02
2.838520969261858e-02
1.560512163516660e-02
1.560096089028704e-02
2.959470316230976e-02
2.960950922008698e-02
1.574389822971799e-02
1.573891936390095e-02
1.560096089028704e-02
1.560512163516660e-02
1.786411534081933e-02
1.785470241045720e-02
1.573891936390095e-02
1.574389822971799e-02
1.748235602886734e-02
1.747322268541498e-02
1.785470241045720e-02
1.786411534081933e-02
2.120002177665305e-02
2.118091598633471e-02
1.747322268541498e-02
1.748235602886734e-02
2.070304804788499e-02
2.067916189038581e-02
2.118091598633471e-02
2.120002177665305e-02
2.648554703452467e-02
2.642649584686783e-02
2.067916189038581e-02
2.070304804788499e-02
2.683210436810636e-02
2.676289108292446e-02
2.642649584686783e-02
2.648554703452467e-02
3.756241789736587e-02
3.722671477542918e-02
2.676289108292446e-02
2.683210436810636e-02
3.942754469662952e-02
3.909410730082506e-02
3.722671477542918e-02
3.756241789736587e-02
6.413151238268422e-02
6.401088770987405e-02
3.909410730082506e-02
3.942754469662952e-02
6.577412613145296e-02
6.566300877085264e-02
6.401088770987405e-02
6.413151238268422e-02
1.936777294105172e-01
1.945424122862207e-01
6.566300877085264e-02
6.577412613145296e-02
1.923758274597775e-01
1.932282409629703e-01
2.959470316230976e-02
2.960950922008698e-02
1.574389822971799e-02
1.573891936390095e-02
3.120150060598367e-02
3.121859542371426e-02
1.610221624396899e-02
1.608970392900791e-02
1.573891936390095e-02
1.574389822971799e-02
1.748235602886734e-02
1.747322268541498e-02
1.608970392900791e-02
1.610221624396899e-02
1.779990312089148e-02
1.777819244667320e-02
1.747322268541498e-02
1.748235602886734e-02
2.070304804788499e-02
2.067916189038581e-02
1.777819244667320e-02
1.779990312089148e-02
2.177797290893439e-02
2.173865659891387e-02
2.067916189038581e-02
2.070304804788499e-02
2.683210436810636e-02
2.676289108292446e-02
2.173865659891387e-02
2.177797290893439e-02
2.908772541044343e-02
2.900824768069114e-02
2.676289108292446e-02
2.683210436810636e-02
3.942754469662952e-02
3.909410730082506e-02
2.900824768069114e-02
2.908772541044343e-02
4.212294524069025e-02
4.180693723906832e-02
3.909410730082506e-02
3.942754469662952e-02
6.577412613145296e-02
6.566300877085264e-02
4.180693723906832e-02
4.212294524069025e-02
6.688232339641981e-02
6.680038790663193e-02
6.566300877085264e-02
6.577412613145296e-02
1.923758274597775e-01
1.932282409629703e-01
6.680038790663193e-02
6.688232339641981e-02
1.900833785808918e-01
1.909148070281084e-01
3.120150060598367e-02
3.121859542371426e-02
1.610221624396899e-02
1.608970392900791e-02
3.333797784957547e-02
3.334159097762181e-02
1.784591305126748e-02
1.783756748586243e-02
1.608970392900791e-02
1.610221624396899e-02
1.779990312089148e-02
1.777819244667320e-02
1.783756748586243e-02
1.784591305126748e-02
2.065639725085368e-02
2.063149987613537e-02
1.777819244667320e-02
1.779990312089148e-02
2.177797290893439e-02
2.173865659891387e-02
2.063149987613537e-02
2.065639725085368e-02
2.561806316022398e-02
2.557505684842661e-02
2.173865659891387e-02
2.177797290893439e-02
2.908772541044343e-02
2.900824768069114e-02
2.557505684842661e-02
2.561806316022398e-02
3.285051982948891e-02
3.277111575913301e-02
2.900824768069114e-02
2.908772541044343e-02
4.212294524069025e-02
4.180693723906832e-02
3.277111575913301e-02
3.285051982948891e-02
4.432845175544482e-02
4.403108482535922e-02
4.180693723906832e-02
4.212294524069025e-02
6.688232339641981e-02
6.680038790663193e-02
4.403108482535922e-02
4.432845175544482e-02
6.680936595372444e-02
6.674896476132464e-02
6.680038790663193e-02
6.688232339641981e-02
1.900833785808918e-01
1.909148070281084e-01
6.674896476132464e-02
6.680936595372444e-02
1.873255926432244e-01
1.881268443230538e-01
3.333797784957547e-02
3.334159097762181e-02
1.784591305126748e-02
1.783756748586243e-02
3.489710602097070e-02
3.488448418823921e-02
2.087790978265252e-02
2.088716526180771e-02
1.783756748586243e-02
1.784591305126748e-02
2.065639725085368e-02
2.063149987613537e-02
2.088716526180771e-02
2.087790978265252e-02
2.540738265503818e-02
2.540598424087603e-02
2.063149987613537e-02
2.065639725085368e-02
2.561806316022398e-02
2.557505684842661e-02
2.540598424087603e-02
2.540738265503818e-02
3.034607870076812e-02
3.033150154342774e-02
2.557505684842661e-02
2.561806316022398e-02
3.285051982948891e-02
3.277111575913301e-02
3.033150154342774e-02
3.034607870076812e-02
3.610619936393651e-02
3.606690084987634e-02
3.277111575913301e-02
3.285051982948891e-02
4.432845175544482e-02
4.403108482535922e-02
3.606690084987634e-02
3.610619936393651e-02
4.537347742287536e-02
4.511789530417461e-02
4.403108482535922e-02
4.432845175544482e-02
6.680936595372444e-02
6.674896476132464e-02
4.511789530417461e-02
4.537347742287536e-02
6.596644160360604e-02
6.594395731925747e-02
6.674896476132464e-02
6.680936595372444e-02
1.873255926432244e-01
1.881268443230538e-01
6.594395731925747e-02
6.596644160360604e-02
1.841477454186091e-01
1.849262887197433e-01
3.489710602097070e-02
3.488448418823921e-02
2.087790978265252e-02
2.088716526180771e-02
7.035033245566708e-02
7.034278146973920e-02
4.388778190059753e-02
4.391094474886479e-02
2.088716526180771e-02
2.087790978265252e-02
2.540738265503818e-02
2.540598424087603e-02
4.391094474886479e-02
4.388778190059753e-02
5.356899425200358e-02
5.360609847331531e-02
2.540598424087603e-02
2.540738265503818e-02
3.034607870076812e-02
3.033150154342774e-02
5.360609847331531e-02
5.356899425200358e-02
6.275338359999713e-02
6.277588423806219e-02
3.033150154342774e-02
3.034607870076812e-02
3.610619936393651e-02
3.606690084987634e-02
6.277588423806219e-02
6.275338359999713e-02
7.332900998640385e-02
7.331021104434121e-02
3.606690084987634e-02
3.610619936393651e-02
4.537347742287536e-02
4.511789530417461e-02
7.331021104434121e-02
7.332900998640385e-02
9.089157088372973e-02
9.042894125553583e-02
4.511789530417461e-02
4.537347742287536e-02
6.596644160360604e-02
6.594395731925747e-02
9.042894125553583e-02
9.089157088372973e-02
1.306326058059512e-01
1.306551723876170e-01
6.594395731925747e-02
6.596644160360604e-02
1.841477454186091e-01
1.849262887197433e-01
1.306551723876170e-01
1.306326058059512e-01
3.632372864746690e-01
3.648105720246394e-01
        </DataArray>
        <DataArray type="Float64" Name="displacement" NumberOfComponents="3" format="ascii">
-1.866188317445209e+01 1.877678336404345e+01 0.000000000000000e+00
-1.866106603513404e+01 1.877584507481986e+01 3.352060030679475e-01
-1.918968717372107e+01 1.928271449346988e+01 3.397174618796156e-01
-1.918940627290200e+01 1.928259127440518e+01 0.000000000000000e+00
-1.646488650512315e+01 2.060027173229212e+01 0.000000000000000e+00
-1.646380560372500e+01 2.060014073987024e+01 3.389782122135808e-01
-1.692267707496780e+01 2.118831756094436e+01 3.405199905080843e-01
-1.692232646867321e+01 2.118755369309830e+01 0.000000000000000e+00
-1.918940627290200e+01 1.928259127440518e+01 0.000000000000000e+00
-1.918968717372107e+01 1.928271449346988e+01 3.397174618796156e-01
-1.989059815667349e+01 1.996223946804059e+01 3.331592598892286e-01
-1.988984766158746e+01 1.996167595286828e+01 0.000000000000000e+00
-1.692232646867321e+01 2.118755369309830e+01 0.000000000000000e+00
-1.692267707496780e+01 2.118831756094436e+01 3.405199905080843e-01
-1.751745708268047e+01 2.196536186157505e+01 3.303862657532237e-01
-1.751567064181231e+01 2.196455260917191e+01 0.000000000000000e+00
-1.988984766158746e+01 1.996167595286828e+01 0.000000000000000e+00
-1.989059815667349e+01 1.996223946804059e+01 3.331592598892286e-01
-2.083806773275259e+01 2.088772738154305e+01 3.197463942981262e-01
-2.083302190140834e+01 2.088289705463686e+01 0.000000000000000e+00
-1.751567064181231e+01 2.196455260917191e+01 0.000000000000000e+00
-1.751745708268047e+01 2.196536186157505e+01 3.303862657532237e-01
-1.832301128042048e+01 2.299537283102944e+01 3.125285146751779e-01
-1.831679391936203e+01 2.299067135322775e+01 0.000000000000000e+00
-2.083302190140834e+01 2.088289705463686e+01 0.000000000000000e+00
-2.083806773275259e+01 2.088772738154305e+01 3.197463942981262e-01
-2.216165267856373e+01 2.218861727378643e+01 2.498721898293994e-01
-2.215326849482170e+01 2.218052006160066e+01 0.000000000000000e+00
-1.831679391936203e+01 2.299067135322775e+01 0.000000000000000e+00
-1.832301128042048e+01 2.299537283102944e+01 3.125285146751779e-01
-1.946293212841091e+01 2.441576974556173e+01 2.424536951560998e-01
-1.945437439667965e+01 2.440777848781163e+01 0.000000000000000e+00
-2.215326849482170e+01 2.218052006160066e+01 0.000000000000000e+00
-2.216165267856373e+01 2.218861727378643e+01 2.498721898293994e-01
-2.406728928358417e+01 2.407185324636800e+01 1.549149050366726e-01
-2.404544556626031e+01 2.405013297077995e+01 0.000000000000000e+00
-1.945437439667965e+01 2.440777848781163e+01 0.000000000000000e+00
-1.946293212841091e+01 2.441576974556173e+01 2.424536951560998e-01
-2.110597138337321e+01 2.654602420086093e+01 1.485587365433750e-01
-2.108546289227243e+01 2.652316472507341e+01 0.000000000000000e+00
-2.404544556626031e+01 2.405013297077995e+01 0.000000000000000e+00
-2.406728928358417e+01 2.407185324636800e+01 1.549149050366726e-01
-2.749043766415757e+01 2.747910919920814e+01 -3.739342398581402e-01
-2.739003909514733e+01 2.737957864462058e+01 0.000000000000000e+00
-2.108546289227243e+01 2.652316472507341e+01 0.000000000000000e+00
-2.110597138337321e+01 2.654602420086093e+01 1.485587365433750e-01
-2.394648588324031e+01 3.059263585681520e+01 -3.756566659182020e-01
-2.386433696668388e+01 3.048067582824551e+01 0.000000000000000e+00
-2.739003909514733e+01 2.737957864462058e+01 0.000000000000000e+00
-2.749043766415757e+01 2.747910919920814e+01 -3.739342398581402e-01
-3.535533905932737e+01 3.535533905932737e+01 -1.665225600508041e+00
-3.535533905932736e+01 3.535533905932738e+01 0.000000000000000e+00
-2.386433696668388e+01 3.048067582824551e+01 0.000000000000000e+00
-2.394648588324031e+01 3.059263585681520e+01 -3.756566659182020e-01
-3.043807145043603e+01 3.966766701456176e+01 -1.624500267515025e+00
-3.043807145043602e+01 3.966766701456176e+01 0.000000000000000e+00
-1.646488650512315e+01 2.060027173229212e+01 0.000000000000000e+00
-1.646380560372500e+01 2.060014073987024e+01 3.389782122135808e-01
-1.692267707496780e+01 2.118831756094436e+01 3.405199905080843e-01
-1.692232646867321e+01 2.118755369309830e+01 0.000000000000000e+00
-1.387734259764007e+01 2.203007137867464e+01 0.000000000000000e+00
-1.387714921157637e+01 2.203106246925130e+01 3.482996526543772e-01
-1.432374574736138e+01 2.267486571829386e+01 3.403866525338715e-01
-1.432176582175578e+01 2.267272874931302e+01 0.000000000000000e+00
-1.692232646867321e+01 2.118755369309830e+01 0.000000000000000e+00
-1.692267707496780e+01 2.118831756094436e+01 3.405199905080843e-01
-1.751745708268047e+01 2.196536186157505e+01 3.303862657532237e-01
-1.751567064181231e+01 2.196455260917191e+01 0.000000000000000e+00
-1.432176582175578e+01 2.267272874931302e+01 0.000000000000000e+00
-1.432374574736138e+01 2.267486571829386e+01 3.403866525338715e-01
-1.486124793754312e+01 2.349482771939008e+01 3.174912516426290e-01
-1.485749115085836e+01 2.349280171541301e+01 0.000000000000000e+00
-1.751567064181231e+01 2.196455260917191e+01 0.000000000000000e+00
-1.751745708268047e+01 2.196536186157505e+01 3.303862657532237e-01
-1.832301128042048e+01 2.299537283102944e+01 3.125285146751779e-01
-1.831679391936203e+01 2.299067135322775e+01 0.000000000000000e+00
-1.485749115085836e+01 2.349280171541301e+01 0.000000000000000e+00
-1.486124793754312e+01 2.349482771939008e+01 3.174912516426290e-01
-1.554466144325493e+01 2.456925970256851e+01 2.937547224456695e-01
-1.553904673323064e+01 2.456426384474748e+01 0.000000000000000e+00
-1.831679391936203e+01 2.299067135322775e+01 0.000000000000000e+00
-1.832301128042048e+01 2.299537283102944e+01 3.125285146751779e-01
-1.946293212841091e+01 2.441576974556173e+01 2.424536951560998e-01
-1.945437439667965e+01 2.440777848781163e+01 0.000000000000000e+00
-1.553904673323064e+01 2.456426384474748e+01 0.000000000000000e+00
-1.554466144325493e+01 2.456925970256851e+01 2.937547224456695e-01
-1.645372470816932e+01 2.612408486815090e+01 2.315700791147594e-01
-1.644836523177860e+01 2.611545741009260e+01 0.000000000000000e+00
-1.945437439667965e+01 2.440777848781163e+01 0.000000000000000e+00
-1.946293212841091e+01 2.441576974556173e+01 2.424536951560998e-01
-2.110597138337321e+01 2.654602420086093e+01 1.485587365433750e-01
-2.108546289227243e+01 2.652316472507341e+01 0.000000000000000e+00
-1.644836523177860e+01 2.611545741009260e+01 0.000000000000000e+00
-1.645372470816932e+01 2.612408486815090e+01 2.315700791147594e-01
-1.771891513085010e+01 2.863136136106788e+01 1.426273353368587e-01
-1.770364640707938e+01 2.860586614943969e+01 0.000000000000000e+00
-2.108546289227243e+01 2.652316472507341e+01 0.000000000000000e+00
-2.110597138337321e+01 2.654602420086093e+01 1.485587365433750e-01
-2.394648588324031e+01 3.059263585681520e+01 -3.756566659182020e-01
-2.386433696668388e+01 3.048067582824551e+01 0.000000000000000e+00
-1.770364640707938e+01 2.860586614943969e+01 0.000000000000000e+00
-1.771891513085010e+01 2.863136136106788e+01 1.426273353368587e-01
-1.991189654882575e+01 3.337648345757377e+01 -3.681146612167350e-01
-1.985246064461350e+01 3.325716083267953e+01 0.000000000000000e+00
-2.386433696668388e+01 3.048067582824551e+01 0.000000000000000e+00
-2.394648588324031e+01 3.059263585681520e+01 -3.756566659182020e-01
-3.043807145043603e+01 3.966766701456176e+01 -1.624500267515025e+00
-3.043807145043602e+01 3.966766701456176e+01 0.000000000000000e+00
-1.985246064461350e+01 3.325716083267953e+01 0.000000000000000e+00
-1.991189654882575e+01 3.337648345757377e+01 -3.681146612167350e-01
-2.500000000000000e+01 4.330127018922194e+01 -1.531100075992557e+00
-2.500000000000000e+01 4.330127018922193e+01 0.000000000000000e+00
-1.387734259764007e+01 2.203007137867464e+01 0.000000000000000e+00
-1.387714921157637e+01 2.203106246925130e+01 3.482996526543772e-01
-1.432374574736138e+01 2.267486571829386e+01 3.403866525338715e-01
-1.432176582175578e+01 2.267272874931302e+01 0.000000000000000e+00
-1.085327131940390e+01 2.288198953289494e+01 0.000000000000000e+00
-1.085402088813249e+01 2.288544555161291e+01 3.545091057036348e-01
-1.140294367501252e+01 2.355195040369953e+01 3.318657073150845e-01
-1.140010067081312e+01 2.354744254620476e+01 0.000000000000000e+00
-1.432176582175578e+01 2.267272874931302e+01 0.000000000000000e+00
-1.432374574736138e+01 2.267486571829386e+01 3.403866525338715e-01
-1.486124793754312e+01 2.349482771939008e+01 3.174912516426290e-01
-1.485749115085836e+01 2.349280171541301e+01 0.000000000000000e+00
-1.140010067081312e+01 2.354744254620476e+01 0.000000000000000e+00
-1.140294367501252e+01 2.355195040369953e+01 3.318657073150845e-01
-1.196061746310784e+01 2.440307988634252e+01 3.009327102746248e-01
-1.195795204381164e+01 2.440002095224727e+01 0.000000000000000e+00
-1.485749115085836e+01 2.349280171541301e+01 0.000000000000000e+00
-1.486124793754312e+01 2.349482771939008e+01 3.174912516426290e-01
-1.554466144325493e+01 2.456925970256851e+01 2.937547224456695e-01
-1.553904673323064e+01 2.456426384474748e+01 0.000000000000000e+00
-1.195795204381164e+01 2.440002095224727e+01 0.000000000000000e+00
-1.196061746310784e+01 2.440307988634252e+01 3.009327102746248e-01
-1.252699546112552e+01 2.560486886274856e+01 2.873198910314660e-01
-1.252629445946955e+01 2.560037054520041e+01 0.000000000000000e+00
-1.553904673323064e+01 2.456426384474748e+01 0.000000000000000e+00
-1.554466144325493e+01 2.456925970256851e+01 2.937547224456695e-01
-1.645372470816932e+01 2.612408486815090e+01 2.315700791147594e-01
-1.644836523177860e+01 2.611545741009260e+01 0.000000000000000e+00
-1.252629445946955e+01 2.560037054520041e+01 0.000000000000000e+00
-1.252699546112552e+01 2.560486886274856e+01 2.873198910314660e-01
-1.312949762390950e+01 2.747862062638029e+01 2.416544035742555e-01
-1.312885560378228e+01 2.746955636664843e+01 0.000000000000000e+00
-1.644836523177860e+01 2.611545741009260e+01 0.000000000000000e+00
-1.645372470816932e+01 2.612408486815090e+01 2.315700791147594e-01
-1.771891513085010e+01 2.863136136106788e+01 1.426273353368587e-01
-1.770364640707938e+01 2.860586614943969e+01 0.000000000000000e+00
-1.312885560378228e+01 2.746955636664843e+01 0.000000000000000e+00
-1.312949762390950e+01 2.747862062638029e+01 2.416544035742555e-01
-1.390574347411481e+01 3.050001226434749e+01 1.550039036598571e-01
-1.389673430264706e+01 3.047202202818789e+01 0.000000000000000e+00
-1.770364640707938e+01 2.860586614943969e+01 0.000000000000000e+00
-1.771891513085010e+01 2.863136136106788e+01 1.426273353368587e-01
-1.991189654882575e+01 3.337648345757377e+01 -3.681146612167350e-01
-1.985246064461350e+01 3.325716083267953e+01 0.000000000000000e+00
-1.389673430264706e+01 3.047202202818789e+01 0.000000000000000e+00
-1.390574347411481e+01 3.050001226434749e+01 1.550039036598571e-01
-1.539630424918217e+01 3.579648835679119e+01 -3.403281214386155e-01
-1.535765753739999e+01 3.567418636479645e+01 0.000000000000000e+00
-1.985246064461350e+01 3.325716083267953e+01 0.000000000000000e+00
-1.991189654882575e+01 3.337648345757377e+01 -3.681146612167350e-01
-2.500000000000000e+01 4.330127018922194e+01 -1.531100075992557e+00
-2.500000000000000e+01 4.330127018922193e+01 0.000000000000000e+00
-1.535765753739999e+01 3.567418636479645e+01 0.000000000000000e+00
-1.539630424918217e+01 3.579648835679119e+01 -3.403281214386155e-01
-1.913417161825448e+01 4.619397662556434e+01 -1.432527837212868e+00
-1.913417161825450e+01 4.619397662556433e+01 0.000000000000000e+00
-1.085327131940390e+01 2.288198953289494e+01 0.000000000000000e+00
-1.085402088813249e+01 2.288544555161291e+01 3.545091057036348e-01
-1.140294367501252e+01 2.355195040369953e+01 3.318657073150845e-01
-1.140010067081312e+01 2.354744254620476e+01 0.000000000000000e+00
-7.371214380111272e+00 2.288254833773642e+01 0.000000000000000e+00
-7.370582725865109e+00 2.288665884794706e+01 3.663791957846577e-01
-8.117764527000698e+00 2.366747862684074e+01 3.432140381863713e-01
-8.121145077919405e+00 2.366186146885528e+01 0.000000000000000e+00
-1.140010067081312e+01 2.354744254620476e+01 0.000000000000000e+00
-1.140294367501252e+01 2.355195040369953e+01 3.318657073150845e-01
-1.196061746310784e+01 2.440307988634252e+01 3.009327102746248e-01
-1.195795204381164e+01 2.440002095224727e+01 0.000000000000000e+00
-8.121145077919405e+00 2.366186146885528e+01 0.000000000000000e+00
-8.117764527000698e+00 2.366747862684074e+01 3.432140381863713e-01
-8.697659388538780e+00 2.474210749510218e+01 3.209740845906736e-01
-8.705550511981793e+00 2.473880723320845e+01 0.000000000000000e+00
-1.195795204381164e+01 2.440002095224727e+01 0.000000000000000e+00
-1.196061746310784e+01 2.440307988634252e+01 3.009327102746248e-01
-1.252699546112552e+01 2.560486886274856e+01 2.873198910314660e-01
-1.252629445946955e+01 2.560037054520041e+01 0.000000000000000e+00
-8.705550511981793e+00 2.473880723320845e+01 0.000000000000000e+00
-8.697659388538780e+00 2.474210749510218e+01 3.209740845906736e-01
-9.076262452385205e+00 2.632869051507796e+01 3.221197109623173e-01
-9.084539986889009e+00 2.632349908655780e+01 0.000000000000000e+00
-1.252629445946955e+01 2.560037054520041e+01 0.000000000000000e+00
-1.252699546112552e+01 2.560486886274856e+01 2.873198910314660e-01
-1.312949762390950e+01 2.747862062638029e+01 2.416544035742555e-01
-1.312885560378228e+01 2.746955636664843e+01 0.000000000000000e+00
-9.084539986889009e+00 2.632349908655780e+01 0.000000000000000e+00
-9.076262452385205e+00 2.632869051507796e+01 3.221197109623173e-01
-9.327872938710192e+00 2.868783084069109e+01 2.706119733938827e-01
-9.331663974997372e+00 2.867603140277285e+01 0.000000000000000e+00
-1.312885560378228e+01 2.746955636664843e+01 0.000000000000000e+00
-1.312949762390950e+01 2.747862062638029e+01 2.416544035742555e-01
-1.390574347411481e+01 3.050001226434749e+01 1.550039036598571e-01
-1.389673430264706e+01 3.047202202818789e+01 0.000000000000000e+00
-9.331663974997372e+00 2.867603140277285e+01 0.000000000000000e+00
-9.327872938710192e+00 2.868783084069109e+01 2.706119733938827e-01
-9.643710223728602e+00 3.213675330851284e+01 1.730097546271753e-01
-9.639465165587415e+00 3.210742039137768e+01 0.000000000000000e+00
-1.389673430264706e+01 3.047202202818789e+01 0.000000000000000e+00
-1.390574347411481e+01 3.050001226434749e+01 1.550039036598571e-01
-1.539630424918217e+01 3.579648835679119e+01 -3.403281214386155e-01
-1.535765753739999e+01 3.567418636479645e+01 0.000000000000000e+00
-9.639465165587415e+00 3.210742039137768e+01 0.000000000000000e+00
-9.643710223728602e+00 3.213675330851284e+01 1.730097546271753e-01
-1.049799047183302e+01 3.769036374451686e+01 -3.061778210609782e-01
-1.047519234113112e+01 3.756788274338469e+01 0.000000000000000e+00
-1.535765753739999e+01 3.567418636479645e+01 0.000000000000000e+00
-1.539630424918217e+01 3.579648835679119e+01 -3.403281214386155e-01
-1.913417161825448e+01 4.619397662556434e+01 -1.432527837212868e+00
-1.913417161825450e+01 4.619397662556433e+01 0.000000000000000e+00
-1.047519234113112e+01 3.756788274338469e+01 0.000000000000000e+00
-1.049799047183302e+01 3.769036374451686e+01 -3.061778210609782e-01
-1.294095225512604e+01 4.829629131445342e+01 -1.367020493643798e+00
-1.294095225512601e+01 4.829629131445342e+01 0.000000000000000e+00
-7.371214380111272e+00 2.288254833773642e+01 0.000000000000000e+00
-7.370582725865109e+00 2.288665884794706e+01 3.663791957846577e-01
-8.117764527000698e+00 2.366747862684074e+01 3.432140381863713e-01
-8.121145077919405e+00 2.366186146885528e+01 0.000000000000000e+00
-3.627353033822762e+00 2.207164620722715e+01 0.000000000000000e+00
-3.625694266599983e+00 2.206699526636987e+01 3.772975803220984e-01
-4.272275928173223e+00 2.315399002736653e+01 4.043273538338321e-01
-4.279184967876038e+00 2.315741287821193e+01 0.000000000000000e+00
-8.121145077919405e+00 2.366186146885528e+01 0.000000000000000e+00
-8.117764527000698e+00 2.366747862684074e+01 3.432140381863713e-01
-8.697659388538780e+00 2.474210749510218e+01 3.209740845906736e-01
-8.705550511981793e+00 2.473880723320845e+01 0.000000000000000e+00
-4.279184967876038e+00 2.315741287821193e+01 0.000000000000000e+00
-4.272275928173223e+00 2.315399002736653e+01 4.043273538338321e-01
-4.679549775857011e+00 2.472032472774515e+01 4.239378054731694e-01
-4.691803819633032e+00 2.471982489446467e+01 0.000000000000000e+00
-8.705550511981793e+00 2.473880723320845e+01 0.000000000000000e+00
-8.697659388538780e+00 2.474210749510218e+01 3.209740845906736e-01
-9.076262452385205e+00 2.632869051507796e+01 3.221197109623173e-01
-9.084539986889009e+00 2.632349908655780e+01 0.000000000000000e+00
-4.691803819633032e+00 2.471982489446467e+01 0.000000000000000e+00
-4.679549775857011e+00 2.472032472774515e+01 4.239378054731694e-01
-4.858623942767673e+00 2.682989854527425e+01 4.074897805650226e-01
-4.867675696745011e+00 2.681986062131418e+01 0.000000000000000e+00
-9.084539986889009e+00 2.632349908655780e+01 0.000000000000000e+00
-9.076262452385205e+00 2.632869051507796e+01 3.221197109623173e-01
-9.327872938710192e+00 2.868783084069109e+01 2.706119733938827e-01
-9.331663974997372e+00 2.867603140277285e+01 0.000000000000000e+00
-4.867675696745011e+00 2.681986062131418e+01 0.000000000000000e+00
-4.858623942767673e+00 2.682989854527425e+01 4.074897805650226e-01
-4.900872527638223e+00 2.960579276808708e+01 3.245119559286297e-01
-4.907395699989147e+00 2.958918700539465e+01 0.000000000000000e+00
-9.331663974997372e+00 2.867603140277285e+01 0.000000000000000e+00
-9.327872938710192e+00 2.868783084069109e+01 2.706119733938827e-01
-9.643710223728602e+00 3.213675330851284e+01 1.730097546271753e-01
-9.639465165587415e+00 3.210742039137768e+01 0.000000000000000e+00
-4.907395699989147e+00 2.958918700539465e+01 0.000000000000000e+00
-4.900872527638223e+00 2.960579276808708e+01 3.245119559286297e-01
-4.979788863199039e+00 3.328175568242253e+01 1.990722605241998e-01
-4.981355515702564e+00 3.324942477811776e+01 0.000000000000000e+00
-9.639465165587415e+00 3.210742039137768e+01 0.000000000000000e+00
-9.643710223728602e+00 3.213675330851284e+01 1.730097546271753e-01
-1.049799047183302e+01 3.769036374451686e+01 -3.061778210609782e-01
-1.047519234113112e+01 3.756788274338469e+01 0.000000000000000e+00
-4.981355515702564e+00 3.324942477811776e+01 0.000000000000000e+00
-4.979788863199039e+00 3.328175568242253e+01 1.990722605241998e-01
-5.343720357160122e+00 3.890123317898442e+01 -2.759296858854965e-01
-5.336362488891929e+00 3.877907922785143e+01 0.000000000000000e+00
-1.047519234113112e+01 3.756788274338469e+01 0.000000000000000e+00
-1.049799047183302e+01 3.769036374451686e+01 -3.061778210609782e-01
-1.294095225512604e+01 4.829629131445342e+01 -1.367020493643798e+00
-1.294095225512601e+01 4.829629131445342e+01 0.000000000000000e+00
-5.336362488891929e+00 3.877907922785143e+01 0.000000000000000e+00
-5.343720357160122e+00 3.890123317898442e+01 -2.759296858854965e-01
-6.526309611002574e+00 4.957224306869052e+01 -1.318013500790172e+00
-6.526309611002562e+00 4.957224306869053e+01 0.000000000000000e+00
-3.627353033822762e+00 2.207164620722715e+01 0.000000000000000e+00
-3.625694266599983e+00 2.206699526636987e+01 3.772975803220984e-01
-4.272275928173223e+00 2.315399002736653e+01 4.043273538338321e-01
-4.279184967876038e+00 2.315741287821193e+01 0.000000000000000e+00
0.000000000000000e+00 2.148334538172342e+01 0.000000000000000e+00
0.000000000000000e+00 2.147455818367482e+01 3.769321667682302e-01
0.000000000000000e+00 2.274384320025539e+01 4.280397453777417e-01
0.000000000000000e+00 2.275291551041387e+01 0.000000000000000e+00
-4.279184967876038e+00 2.315741287821193e+01 0.000000000000000e+00
-4.272275928173223e+00 2.315399002736653e+01 4.043273538338321e-01
-4.679549775857011e+00 2.472032472774515e+01 4.239378054731694e-01
-4.691803819633032e+00 2.471982489446467e+01 0.000000000000000e+00
0.000000000000000e+00 2.275291551041387e+01 0.000000000000000e+00
0.000000000000000e+00 2.274384320025539e+01 4.280397453777417e-01
0.000000000000000e+00 2.453165563562247e+01 4.691119941878538e-01
0.000000000000000e+00 2.453469101664909e+01 0.000000000000000e+00
-4.691803819633032e+00 2.471982489446467e+01 0.000000000000000e+00
-4.679549775857011e+00 2.472032472774515e+01 4.239378054731694e-01
-4.858623942767673e+00 2.682989854527425e+01 4.074897805650226e-01
-4.867675696745011e+00 2.681986062131418e+01 0.000000000000000e+00
0.000000000000000e+00 2.453469101664909e+01 0.000000000000000e+00
0.000000000000000e+00 2.453165563562247e+01 4.691119941878538e-01
0.000000000000000e+00 2.683228757401233e+01 4.409185813918170e-01
0.000000000000000e+00 2.682300166047075e+01 0.000000000000000e+00
-4.867675696745011e+00 2.681986062131418e+01 0.000000000000000e+00
-4.858623942767673e+00 2.682989854527425e+01 4.074897805650226e-01
-4.900872527638223e+00 2.960579276808708e+01 3.245119559286297e-01
-4.907395699989147e+00 2.958918700539465e+01 0.000000000000000e+00
0.000000000000000e+00 2.682300166047075e+01 0.000000000000000e+00
0.000000000000000e+00 2.683228757401233e+01 4.409185813918170e-01
0.000000000000000e+00 2.975188339005871e+01 3.574421155317189e-01
0.000000000000000e+00 2.973754826168120e+01 0.000000000000000e+00
-4.907395699989147e+00 2.958918700539465e+01 0.000000000000000e+00
-4.900872527638223e+00 2.960579276808708e+01 3.245119559286297e-01
-4.979788863199039e+00 3.328175568242253e+01 1.990722605241998e-01
-4.981355515702564e+00 3.324942477811776e+01 0.000000000000000e+00
0.000000000000000e+00 2.973754826168120e+01 0.000000000000000e+00
0.000000000000000e+00 2.975188339005871e+01 3.574421155317189e-01
0.000000000000000e+00 3.354283341754203e+01 2.252382245779445e-01
0.000000000000000e+00 3.351046626634536e+01 0.000000000000000e+00
-4.981355515702564e+00 3.324942477811776e+01 0.000000000000000e+00
-4.979788863199039e+00 3.328175568242253e+01 1.990722605241998e-01
-5.343720357160122e+00 3.890123317898442e+01 -2.759296858854965e-01
-5.336362488891929e+00 3.877907922785143e+01 0.000000000000000e+00
0.000000000000000e+00 3.351046626634536e+01 0.000000000000000e+00
0.000000000000000e+00 3.354283341754203e+01 2.252382245779445e-01
0.000000000000000e+00 3.928030302960397e+01 -2.532298562164466e-01
0.000000000000000e+00 3.915889949689579e+01 0.000000000000000e+00
-5.336362488891929e+00 3.877907922785143e+01 0.000000000000000e+00
-5.343720357160122e+00 3.890123317898442e+01 -2.759296858854965e-01
-6.526309611002574e+00 4.957224306869052e+01 -1.318013500790172e+00
-6.526309611002562e+00 4.957224306869053e+01 0.000000000000000e+00
0.000000000000000e+00 3.915889949689579e+01 0.000000000000000e+00
0.000000000000000e+00 3.928030302960397e+01 -2.532298562164466e-01
0.000000000000000e+00 5.000000000000000e+01 -1.288595315133526e+00
0.000000000000000e+00 5.000000000000000e+01 0.000000000000000e+00
        </DataArray>
        <DataArray type="Float64" Name="kinematic_plastic_strain" NumberOfComponents="9" format="ascii">
7.339238947157604e-03 1.827026142146500e-02 -2.314261031020608e-05 1.827026142146501e-02 7.217416345938529e-03 1.889511364698325e-05 -2.314261031020608e-05 1.889511364698325e-05 -1.455665529309613e-02
7.337153230018592e-03 1.828582664727515e-02 9.244172779266211e-06 1.828582664727514e-02 7.215410587972928e-03 -8.139619880837698e-06 9.244172779266219e-06 -8.139619880837693e-06 -1.455256381799151e-02
3.822693049734968e-03 1.040787015063795e-02 1.287388912060447e-06 1.040787015063795e-02 3.746192125154191e-03 -1.528156586191094e-06 1.287388912060452e-06 -1.528156586191093e-06 -7.568885174889156e-03
3.823562828543777e-03 1.040257541990031e-02 2.098027407415155e-06 1.040257541990031e-02 3.746988657762910e-03 9.771473421610755e-07 2.098027407415153e-06 9.771473421610753e-07 -7.570551486306689e-03
1.115631341007082e-02 1.823059551282806e-02 -3.486525472610509e-05 1.823059551282806e-02 3.622550527168071e-03 -5.050540498302791e-06 -3.486525472610509e-05 -5.050540498302794e-06 -1.477886393723890e-02
1.114846945993197e-02 1.824604000506743e-02 1.696485669402201e-05 1.824604000506743e-02 3.624580484983504e-03 1.555026562118848e-05 1.696485669402203e-05 1.555026562118848e-05 -1.477304994491548e-02
5.746598982582731e-03 1.028528593434283e-02 -2.351672451114598e-06 1.028528593434283e-02 1.841735468397911e-03 4.412144731972790e-06 -2.351672451114608e-06 4.412144731972791e-06 -7.588334450980646e-03
5.751639597536488e-03 1.027966189313828e-02 3.993392262161845e-06 1.027966189313828e-02 1.839499455960246e-03 -6.134202943574216e-06 3.993392262161848e-06 -6.134202943574214e-06 -7.591139053496733e-03
3.823562828543777e-03 1.040257541990031e-02 2.098027407415155e-06 1.040257541990031e-02 3.746988657762910e-03 9.771473421610755e-07 2.098027407415153e-06 9.771473421610753e-07 -7.570551486306689e-03
3.822693049734968e-03 1.040787015063795e-02 1.287388912060447e-06 1.040787015063795e-02 3.746192125154191e-03 -1.528156586191094e-06 1.287388912060452e-06 -1.528156586191093e-06 -7.568885174889156e-03
3.762174169279508e-03 1.260160378866269e-02 -2.198096000971985e-05 1.260160378866269e-02 3.666164403106129e-03 1.236813895874113e-05 -2.198096000971985e-05 1.236813895874113e-05 -7.428338572385638e-03
3.766958377371665e-03 1.259036395648479e-02 6.937020384028737e-06 1.259036395648479e-02 3.670766652127998e-03 -3.579921020569414e-06 6.937020384028736e-06 -3.579921020569414e-06 -7.437725029499664e-03
5.751639597536488e-03 1.027966189313828e-02 3.993392262161845e-06 1.027966189313828e-02 1.839499455960246e-03 -6.134202943574216e-06 3.993392262161848e-06 -6.134202943574214e-06 -7.591139053496733e-03
5.746598982582731e-03 1.028528593434283e-02 -2.351672451114598e-06 1.028528593434283e-02 1.841735468397911e-03 4.412144731972790e-06 -2.351672451114608e-06 4.412144731972791e-06 -7.588334450980646e-03
5.733482089747669e-03 1.230911594684489e-02 -3.320873315110924e-05 1.230911594684489e-02 1.621659080978028e-03 1.107922745429677e-05 -3.320873315110922e-05 1.107922745429677e-05 -7.355141170725693e-03
5.742494457920553e-03 1.229754589798809e-02 2.170778813218614e-05 1.229754589798809e-02 1.622023655085551e-03 -2.821875800366134e-06 2.170778813218614e-05 -2.821875800366135e-06 -7.364518113006106e-03
3.766958377371665e-03 1.259036395648479e-02 6.937020384028737e-06 1.259036395648479e-02 3.670766652127998e-03 -3.579921020569414e-06 6.937020384028736e-06 -3.579921020569414e-06 -7.437725029499664e-03
3.762174169279508e-03 1.260160378866269e-02 -2.198096000971985e-05 1.260160378866269e-02 3.666164403106129e-03 1.236813895874113e-05 -2.198096000971985e-05 1.236813895874113e-05 -7.428338572385638e-03
3.565446588230614e-03 1.564803192948649e-02 -6.366381324949695e-05 1.564803192948649e-02 3.452403997764565e-03 3.713900719213279e-05 -6.366381324949695e-05 3.713900719213279e-05 -7.017850585995179e-03
3.573815750252180e-03 1.562995687692590e-02 6.329178372524353e-05 1.562995687692590e-02 3.460198048001456e-03 -3.659279041994430e-05 6.329178372524353e-05 -3.659279041994430e-05 -7.034013798253634e-03
5.742494457920553e-03 1.229754589798809e-02 2.170778813218614e-05 1.229754589798809e-02 1.622023655085551e-03 -2.821875800366134e-06 2.170778813218614e-05 -2.821875800366135e-06 -7.364518113006106e-03
5.733482089747669e-03 1.230911594684489e-02 -3.320873315110924e-05 1.230911594684489e-02 1.621659080978028e-03 1.107922745429677e-05 -3.320873315110922e-05 1.107922745429677e-05 -7.355141170725693e-03
5.588938683646585e-03 1.519715819345436e-02 -7.476629795250071e-05 1.519715819345436e-02 1.276400760660045e-03 3.093761299183380e-05 -7.476629795250071e-05 3.093761299183380e-05 -6.865339444306631e-03
5.596815894879804e-03 1.517807563231740e-02 8.226319203209702e-05 1.517807563231740e-02 1.281434997931741e-03 -2.715544248769539e-05 8.226319203209705e-05 -2.715544248769538e-05 -6.878250892811546e-03
3.573815750252180e-03 1.562995687692590e-02 6.329178372524353e-05 1.562995687692590e-02 3.460198048001456e-03 -3.659279041994430e-05 6.329178372524353e-05 -3.659279041994430e-05 -7.034013798253634e-03
3.565446588230614e-03 1.564803192948649e-02 -6.366381324949695e-05 1.564803192948649e-02 3.452403997764565e-03 3.713900719213279e-05 -6.366381324949695e-05 3.713900719213279e-05 -7.017850585995179e-03
2.789674553163690e-03 2.001898845585801e-02 -1.396203912454767e-04 2.001898845585801e-02 2.680125648451683e-03 8.137488986008988e-05 -1.396203912454767e-04 8.137488986008989e-05 -5.469800201615372e-03
2.805423488908841e-03 1.997405053066057e-02 1.054099846420307e-04 1.997405053066057e-02 2.695290232447646e-03 -6.126592660293784e-05 1.054099846420307e-04 -6.126592660293784e-05 -5.500713721356486e-03
5.596815894879804e-03 1.517807563231740e-02 8.226319203209702e-05 1.517807563231740e-02 1.281434997931741e-03 -2.715544248769539e-05 8.226319203209705e-05 -2.715544248769538e-05 -6.878250892811546e-03
5.588938683646585e-03 1.519715819345436e-02 -7.476629795250071e-05 1.519715819345436e-02 1.276400760660045e-03 3.093761299183380e-05 -7.476629795250071e-05 3.093761299183380e-05 -6.865339444306631e-03
4.933422504086279e-03 1.969414966772901e-02 -1.446743908067851e-04 1.969414966772901e-02 3.982382444699323e-04 7.619424601342072e-05 -1.446743908067852e-04 7.619424601342070e-05 -5.331660748556210e-03
4.945787903247028e-03 1.964466303391278e-02 1.156308697999549e-04 1.964466303391279e-02 4.121780859001473e-04 -4.948465197130487e-05 1.156308697999549e-04 -4.948465197130487e-05 -5.357965989147178e-03
2.805423488908841e-03 1.997405053066057e-02 1.054099846420307e-04 1.997405053066057e-02 2.695290232447646e-03 -6.126592660293784e-05 1.054099846420307e-04 -6.126592660293784e-05 -5.500713721356486e-03
2.789674553163690e-03 2.001898845585801e-02 -1.396203912454767e-04 2.001898845585801e-02 2.680125648451683e-03 8.137488986008988e-05 -1.396203912454767e-04 8.137488986008989e-05 -5.469800201615372e-03
1.154577149848646e-03 2.824813934935600e-02 -5.228445883743085e-04 2.824813934935603e-02 1.099739019053431e-03 3.412976958592064e-04 -5.228445883743084e-04 3.412976958592064e-04 -2.254316168902076e-03
1.244884793390571e-03 2.800150157060776e-02 2.613446801657819e-04 2.800150157060775e-02 1.174881339763971e-03 -1.550244602785771e-04 2.613446801657817e-04 -1.550244602785770e-04 -2.419766133154541e-03
4.945787903247028e-03 1.964466303391278e-02 1.156308697999549e-04 1.964466303391279e-02 4.121780859001473e-04 -4.948465197130487e-05 1.156308697999549e-04 -4.948465197130487e-05 -5.357965989147178e-03
4.933422504086279e-03 1.969414966772901e-02 -1.446743908067851e-04 1.969414966772901e-02 3.982382444699323e-04 7.619424601342072e-05 -1.446743908067852e-04 7.619424601342070e-05 -5.331660748556210e-03
3.453912836472597e-03 2.851068433701063e-02 -5.146955568384203e-04 2.851068433701063e-02 -1.273102491156249e-03 3.210774458449884e-04 -5.146955568384206e-04 3.210774458449884e-04 -2.180810345316345e-03
3.537780055153406e-03 2.826101502635886e-02 2.801680848396685e-04 2.826101502635886e-02 -1.199763198830201e-03 -1.352237638966753e-04 2.801680848396686e-04 -1.352237638966753e-04 -2.338016856323206e-03
1.244884793390571e-03 2.800150157060776e-02 2.613446801657819e-04 2.800150157060775e-02 1.174881339763971e-03 -1.550244602785771e-04 2.613446801657817e-04 -1.550244602785770e-04 -2.419766133154541e-03
1.154577149848646e-03 2.824813934935600e-02 -5.228445883743085e-04 2.824813934935603e-02 1.099739019053431e-03 3.412976958592064e-04 -5.228445883743084e-04 3.412976958592064e-04 -2.254316168902076e-03
-5.669080071885762e-03 4.776209661134154e-02 -6.425297330066996e-04 4.776209661134155e-02 -5.404416967975040e-03 5.110446050248043e-04 -6.425297330066995e-04 5.110446050248043e-04 1.107349703986080e-02
-5.708813693572295e-03 4.764297187354834e-02 1.065486813058764e-03 4.764297187354834e-02 -5.431616771798454e-03 -7.880360543189150e-04 1.065486813058764e-03 -7.880360543189150e-04 1.114043046537075e-02
3.537780055153406e-03 2.826101502635886e-02 2.801680848396685e-04 2.826101502635886e-02 -1.199763198830201e-03 -1.352237638966753e-04 2.801680848396686e-04 -1.352237638966753e-04 -2.338016856323206e-03
3.453912836472597e-03 2.851068433701063e-02 -5.146955568384203e-04 2.851068433701063e-02 -1.273102491156249e-03 3.210774458449884e-04 -5.146955568384206e-04 3.210774458449884e-04 -2.180810345316345e-03
-3.251591908669605e-03 4.825574954991134e-02 -6.464798998180771e-04 4.825574954991133e-02 -7.686772470107016e-03 4.681850849956960e-04 -6.464798998180770e-04 4.681850849956960e-04 1.093836437877662e-02
-3.294700475729622e-03 4.813887328142318e-02 9.948679717423764e-04 4.813887328142319e-02 -7.717778998836963e-03 -7.361483974088952e-04 9.948679717423762e-04 -7.361483974088952e-04 1.101247947456659e-02
-5.708813693572295e-03 4.764297187354834e-02 1.065486813058764e-03 4.764297187354834e-02 -5.431616771798454e-03 -7.880360543189150e-04 1.065486813058764e-03 -7.880360543189150e-04 1.114043046537075e-02
-5.669080071885762e-03 4.776209661134154e-02 -6.425297330066996e-04 4.776209661134155e-02 -5.404416967975040e-03 5.110446050248043e-04 -6.425297330066995e-04 5.110446050248043e-04 1.107349703986080e-02
-3.117460711486747e-02 1.413350110153189e-01 -4.124653679309951e-03 1.413350110153189e-01 -2.944707548383076e-02 3.549786581143720e-03 -4.124653679309951e-03 3.549786581143721e-03 6.062168259869820e-02
-3.128892909874631e-02 1.420601630448453e-01 2.645966070411655e-05 1.420601630448453e-01 -2.967520917815455e-02 -5.102763054843497e-05 2.645966070411677e-05 -5.102763054843519e-05 6.096413827690086e-02
-3.294700475729622e-03 4.813887328142318e-02 9.948679717423764e-04 4.813887328142319e-02 -7.717778998836963e-03 -7.361483974088952e-04 9.948679717423762e-04 -7.361483974088952e-04 1.101247947456659e-02
-3.251591908669605e-03 4.825574954991134e-02 -6.464798998180771e-04 4.825574954991133e-02 -7.686772470107016e-03 4.681850849956960e-04 -6.464798998180770e-04 4.681850849956960e-04 1.093836437877662e-02
-2.555707869590808e-02 1.411487369172517e-01 -2.886383220875221e-03 1.411487369172518e-01 -3.353369172159096e-02 3.094764987735811e-03 -2.886383220875221e-03 3.094764987735811e-03 5.909077041749900e-02
-2.568281833284546e-02 1.418394697589428e-01 1.332927473614497e-05 1.418394697589428e-01 -3.371858767522510e-02 -4.157739002032935e-05 1.332927473614508e-05 -4.157739002032944e-05 5.940140600807052e-02
1.115631341007082e-02 1.823059551282806e-02 -3.486525472610509e-05 1.823059551282806e-02 3.622550527168071e-03 -5.050540498302791e-06 -3.486525472610509e-05 -5.050540498302794e-06 -1.477886393723890e-02
1.114846945993197e-02 1.824604000506743e-02 1.696485669402201e-05 1.824604000506743e-02 3.624580484983504e-03 1.555026562118848e-05 1.696485669402203e-05 1.555026562118848e-05 -1.477304994491548e-02
5.746598982582731e-03 1.028528593434283e-02 -2.351672451114598e-06 1.028528593434283e-02 1.841735468397911e-03 4.412144731972790e-06 -2.351672451114608e-06 4.412144731972791e-06 -7.588334450980646e-03
5.751639597536488e-03 1.027966189313828e-02 3.993392262161845e-06 1.027966189313828e-02 1.839499455960246e-03 -6.134202943574216e-06 3.993392262161848e-06 -6.134202943574214e-06 -7.591139053496733e-03
1.550595233806299e-02 1.792696563963098e-02 -1.996190533022919e-05 1.792696563963097e-02 -1.262208189108400e-04 -3.329804957513252e-05 -1.996190533022917e-05 -3.329804957513252e-05 -1.537973151915214e-02
1.548927589665230e-02 1.794911349624177e-02 1.629899402421290e-06 1.794911349624177e-02 -1.187342888141725e-04 5.401975704330721e-05 1.629899402421250e-06 5.401975704330721e-05 -1.537054160783813e-02
7.801427738291952e-03 9.850798831929517e-03 -1.598167383809961e-05 9.850798831929517e-03 -1.814338965001453e-04 1.970759024251017e-05 -1.598167383809960e-05 1.970759024251018e-05 -7.619993841791801e-03
7.809964248061419e-03 9.842641911901352e-03 2.515877372581629e-05 9.842641911901352e-03 -1.869388782981779e-04 -1.857741817358214e-05 2.515877372581630e-05 -1.857741817358215e-05 -7.623025369763235e-03
5.751639597536488e-03 1.027966189313828e-02 3.993392262161845e-06 1.027966189313828e-02 1.839499455960246e-03 -6.134202943574216e-06 3.993392262161848e-06 -6.134202943574214e-06 -7.591139053496733e-03
5.746598982582731e-03 1.028528593434283e-02 -2.351672451114598e-06 1.028528593434283e-02 1.841735468397911e-03 4.412144731972790e-06 -2.351672451114608e-06 4.412144731972791e-06 -7.588334450980646e-03
5.733482089747669e-03 1.230911594684489e-02 -3.320873315110924e-05 1.230911594684489e-02 1.621659080978028e-03 1.107922745429677e-05 -3.320873315110922e-05 1.107922745429677e-05 -7.355141170725693e-03
5.742494457920553e-03 1.229754589798809e-02 2.170778813218614e-05 1.229754589798809e-02 1.622023655085551e-03 -2.821875800366134e-06 2.170778813218614e-05 -2.821875800366135e-06 -7.364518113006106e-03
7.809964248061419e-03 9.842641911901352e-03 2.515877372581629e-05 9.842641911901352e-03 -1.869388782981779e-04 -1.857741817358214e-05 2.515877372581630e-05 -1.857741817358215e-05 -7.623025369763235e-03
7.801427738291952e-03 9.850798831929517e-03 -1.598167383809961e-05 9.850798831929517e-03 -1.814338965001453e-04 1.970759024251017e-05 -1.598167383809960e-05 1.970759024251018e-05 -7.619993841791801e-03
7.749570358657152e-03 1.151396213275417e-02 -4.275793977424772e-05 1.151396213275416e-02 -6.195250244391388e-04 2.213440499735869e-05 -4.275793977424773e-05 2.213440499735869e-05 -7.130045334218016e-03
7.754480329045865e-03 1.150375601147005e-02 4.507595169863890e-05 1.150375601147005e-02 -6.207208163897900e-04 -1.035052774449739e-05 4.507595169863889e-05 -1.035052774449739e-05 -7.133759512656077e-03
5.742494457920553e-03 1.229754589798809e-02 2.170778813218614e-05 1.229754589798809e-02 1.622023655085551e-03 -2.821875800366134e-06 2.170778813218614e-05 -2.821875800366135e-06 -7.364518113006106e-03
5.733482089747669e-03 1.230911594684489e-02 -3.320873315110924e-05 1.230911594684489e-02 1.621659080978028e-03 1.107922745429677e-05 -3.320873315110922e-05 1.107922745429677e-05 -7.355141170725693e-03
5.588938683646585e-03 1.519715819345436e-02 -7.476629795250071e-05 1.519715819345436e-02 1.276400760660045e-03 3.093761299183380e-05 -7.476629795250071e-05 3.093761299183380e-05 -6.865339444306631e-03
5.596815894879804e-03 1.517807563231740e-02 8.226319203209702e-05 1.517807563231740e-02 1.281434997931741e-03 -2.715544248769539e-05 8.226319203209705e-05 -2.715544248769538e-05 -6.878250892811546e-03
7.754480329045865e-03 1.150375601147005e-02 4.507595169863890e-05 1.150375601147005e-02 -6.207208163897900e-04 -1.035052774449739e-05 4.507595169863889e-05 -1.035052774449739e-05 -7.133759512656077e-03
7.749570358657152e-03 1.151396213275417e-02 -4.275793977424772e-05 1.151396213275416e-02 -6.195250244391388e-04 2.213440499735869e-05 -4.275793977424773e-05 2.213440499735869e-05 -7.130045334218016e-03
7.739762759348732e-03 1.430116210886397e-02 -6.640339012985183e-05 1.430116210886399e-02 -1.188114593138488e-03 3.933100608211282e-05 -6.640339012985181e-05 3.933100608211282e-05 -6.551648166210242e-03
7.735129927312797e-03 1.428142209651420e-02 7.209889532046543e-05 1.428142209651421e-02 -1.180522948871485e-03 -2.899365477945869e-05 7.209889532046544e-05 -2.899365477945869e-05 -6.554606978441310e-03
5.596815894879804e-03 1.517807563231740e-02 8.226319203209702e-05 1.517807563231740e-02 1.281434997931741e-03 -2.715544248769539e-05 8.226319203209705e-05 -2.715544248769538e-05 -6.878250892811546e-03
5.588938683646585e-03 1.519715819345436e-02 -7.476629795250071e-05 1.519715819345436e-02 1.276400760660045e-03 3.093761299183380e-05 -7.476629795250071e-05 3.093761299183380e-05 -6.865339444306631e-03
4.933422504086279e-03 1.969414966772901e-02 -1.446743908067851e-04 1.969414966772901e-02 3.982382444699323e-04 7.619424601342072e-05 -1.446743908067852e-04 7.619424601342070e-05 -5.331660748556210e-03
4.945787903247028e-03 1.964466303391278e-02 1.156308697999549e-04 1.964466303391279e-02 4.121780859001473e-04 -4.948465197130487e-05 1.156308697999549e-04 -4.948465197130487e-05 -5.357965989147178e-03
7.735129927312797e-03 1.428142209651420e-02 7.209889532046543e-05 1.428142209651421e-02 -1.180522948871485e-03 -2.899365477945869e-05 7.209889532046544e-05 -2.899365477945869e-05 -6.554606978441310e-03
7.739762759348732e-03 1.430116210886397e-02 -6.640339012985183e-05 1.430116210886399e-02 -1.188114593138488e-03 3.933100608211282e-05 -6.640339012985181e-05 3.933100608211282e-05 -6.551648166210242e-03
7.362521245016626e-03 1.939109192114065e-02 -1.260160070136891e-04 1.939109192114065e-02 -2.189756341548542e-03 8.207313631834886e-05 -1.260160070136891e-04 8.207313631834886e-05 -5.172764903468085e-03
7.367744797449314e-03 1.933414451450860e-02 8.436069029135848e-05 1.933414451450859e-02 -2.174687581701460e-03 -5.607150151463575e-05 8.436069029135854e-05 -5.607150151463577e-05 -5.193057215747855e-03
4.945787903247028e-03 1.964466303391278e-02 1.156308697999549e-04 1.964466303391279e-02 4.121780859001473e-04 -4.948465197130487e-05 1.156308697999549e-04 -4.948465197130487e-05 -5.357965989147178e-03
4.933422504086279e-03 1.969414966772901e-02 -1.446743908067851e-04 1.969414966772901e-02 3.982382444699323e-04 7.619424601342072e-05 -1.446743908067852e-04 7.619424601342070e-05 -5.331660748556210e-03
3.453912836472597e-03 2.851068433701063e-02 -5.146955568384203e-04 2.851068433701063e-02 -1.273102491156249e-03 3.210774458449884e-04 -5.146955568384206e-04 3.210774458449884e-04 -2.180810345316345e-03
3.537780055153406e-03 2.826101502635886e-02 2.801680848396685e-04 2.826101502635886e-02 -1.199763198830201e-03 -1.352237638966753e-04 2.801680848396686e-04 -1.352237638966753e-04 -2.338016856323206e-03
7.367744797449314e-03 1.933414451450860e-02 8.436069029135848e-05 1.933414451450859e-02 -2.174687581701460e-03 -5.607150151463575e-05 8.436069029135854e-05 -5.607150151463577e-05 -5.193057215747855e-03
7.362521245016626e-03 1.939109192114065e-02 -1.260160070136891e-04 1.939109192114065e-02 -2.189756341548542e-03 8.207313631834886e-05 -1.260160070136891e-04 8.207313631834886e-05 -5.172764903468085e-03
6.007101924735660e-03 2.936154901250206e-02 -4.815589885595727e-04 2.936154901250206e-02 -3.818343193597798e-03 3.096300248089630e-04 -4.815589885595728e-04 3.096300248089631e-04 -2.188758731137867e-03
6.081898902696533e-03 2.911336980102410e-02 2.589147246443142e-04 2.911336980102410e-02 -3.750480836762366e-03 -1.392980284151964e-04 2.589147246443142e-04 -1.392980284151964e-04 -2.331418065934165e-03
3.537780055153406e-03 2.826101502635886e-02 2.801680848396685e-04 2.826101502635886e-02 -1.199763198830201e-03 -1.352237638966753e-04 2.801680848396686e-04 -1.352237638966753e-04 -2.338016856323206e-03
3.453912836472597e-03 2.851068433701063e-02 -5.146955568384203e-04 2.851068433701063e-02 -1.273102491156249e-03 3.210774458449884e-04 -5.146955568384206e-04 3.210774458449884e-04 -2.180810345316345e-03
-3.251591908669605e-03 4.825574954991134e-02 -6.464798998180771e-04 4.825574954991133e-02 -7.686772470107016e-03 4.681850849956960e-04 -6.464798998180770e-04 4.681850849956960e-04 1.093836437877662e-02
-3.294700475729622e-03 4.813887328142318e-02 9.948679717423764e-04 4.813887328142319e-02 -7.717778998836963e-03 -7.361483974088952e-04 9.948679717423762e-04 -7.361483974088952e-04 1.101247947456659e-02
6.081898902696533e-03 2.911336980102410e-02 2.589147246443142e-04 2.911336980102410e-02 -3.750480836762366e-03 -1.392980284151964e-04 2.589147246443142e-04 -1.392980284151964e-04 -2.331418065934165e-03
6.007101924735660e-03 2.936154901250206e-02 -4.815589885595727e-04 2.936154901250206e-02 -3.818343193597798e-03 3.096300248089630e-04 -4.815589885595728e-04 3.096300248089631e-04 -2.188758731137867e-03
-4.858122677389110e-04 4.908327676645342e-02 -5.880197994681661e-04 4.908327676645341e-02 -9.932074057833036e-03 4.216681938718842e-04 -5.880197994681661e-04 4.216681938718842e-04 1.041788632557194e-02
-5.299342347804726e-04 4.897964034596925e-02 8.953289499501066e-04 4.897964034596924e-02 -9.963891772307099e-03 -7.031158449901428e-04 8.953289499501066e-04 -7.031158449901427e-04 1.049382600708758e-02
-3.294700475729622e-03 4.813887328142318e-02 9.948679717423764e-04 4.813887328142319e-02 -7.717778998836963e-03 -7.361483974088952e-04 9.948679717423762e-04 -7.361483974088952e-04 1.101247947456659e-02
-3.251591908669605e-03 4.825574954991134e-02 -6.464798998180771e-04 4.825574954991133e-02 -7.686772470107016e-03 4.681850849956960e-04 -6.464798998180770e-04 4.681850849956960e-04 1.093836437877662e-02
-2.555707869590808e-02 1.411487369172517e-01 -2.886383220875221e-03 1.411487369172518e-01 -3.353369172159096e-02 3.094764987735811e-03 -2.886383220875221e-03 3.094764987735811e-03 5.909077041749900e-02
-2.568281833284546e-02 1.418394697589428e-01 1.332927473614497e-05 1.418394697589428e-01 -3.371858767522510e-02 -4.157739002032935e-05 1.332927473614508e-05 -4.157739002032944e-05 5.940140600807052e-02
-5.299342347804726e-04 4.897964034596925e-02 8.953289499501066e-04 4.897964034596924e-02 -9.963891772307099e-03 -7.031158449901428e-04 8.953289499501066e-04 -7.031158449901427e-04 1.049382600708758e-02
-4.858122677389110e-04 4.908327676645342e-02 -5.880197994681661e-04 4.908327676645341e-02 -9.932074057833036e-03 4.216681938718842e-04 -5.880197994681661e-04 4.216681938718842e-04 1.041788632557194e-02
-1.849856869073609e-02 1.398971909970057e-01 -2.249773825740071e-03 1.398971909970057e-01 -3.672393595605813e-02 2.806885385923566e-03 -2.249773825740070e-03 2.806885385923566e-03 5.522250464679424e-02
-1.863706722976115e-02 1.405581758257719e-01 1.373601356625739e-06 1.405581758257720e-01 -3.689567091298016e-02 -3.169997494552456e-05 1.373601356625631e-06 -3.169997494552456e-05 5.553273814274134e-02
1.550595233806299e-02 1.792696563963098e-02 -1.996190533022919e-05 1.792696563963097e-02 -1.262208189108400e-04 -3.329804957513252e-05 -1.996190533022917e-05 -3.329804957513252e-05 -1.537973151915214e-02
1.548927589665230e-02 1.794911349624177e-02 1.629899402421290e-06 1.794911349624177e-02 -1.187342888141725e-04 5.401975704330721e-05 1.629899402421250e-06 5.401975704330721e-05 -1.537054160783813e-02
7.801427738291952e-03 9.850798831929517e-03 -1.598167383809961e-05 9.850798831929517e-03 -1.814338965001453e-04 1.970759024251017e-05 -1.598167383809960e-05 1.970759024251018e-05 -7.619993841791801e-03
7.809964248061419e-03 9.842641911901352e-03 2.515877372581629e-05 9.842641911901352e-03 -1.869388782981779e-04 -1.857741817358214e-05 2.515877372581630e-05 -1.857741817358215e-05 -7.623025369763235e-03
2.046469964913785e-02 1.691679947588915e-02 -4.706643063267363e-06 1.691679947588916e-02 -4.389588301686463e-03 -8.724410856570129e-05 -4.706643063267404e-06 -8.724410856570130e-05 -1.607511134745139e-02
2.045279152308561e-02 1.693756364717908e-02 -2.302861331135717e-05 1.693756364717908e-02 -4.384164154361802e-03 1.026521719518533e-04 -2.302861331135714e-05 1.026521719518533e-04 -1.606862736872379e-02
1.012485364127260e-02 9.113971995418160e-03 -4.121084577185460e-06 9.113971995418160e-03 -2.489589027526879e-03 4.855578001418707e-05 -4.121084577185469e-06 4.855578001418707e-05 -7.635264613745720e-03
1.012329583547323e-02 9.105174642211790e-03 2.821920939430547e-05 9.105174642211791e-03 -2.493300261450939e-03 -4.591990301958029e-05 2.821920939430547e-05 -4.591990301958029e-05 -7.629995574022299e-03
7.809964248061419e-03 9.842641911901352e-03 2.515877372581629e-05 9.842641911901352e-03 -1.869388782981779e-04 -1.857741817358214e-05 2.515877372581630e-05 -1.857741817358215e-05 -7.623025369763235e-03
7.801427738291952e-03 9.850798831929517e-03 -1.598167383809961e-05 9.850798831929517e-03 -1.814338965001453e-04 1.970759024251017e-05 -1.598167383809960e-05 1.970759024251018e-05 -7.619993841791801e-03
7.749570358657152e-03 1.151396213275417e-02 -4.275793977424772e-05 1.151396213275416e-02 -6.195250244391388e-04 2.213440499735869e-05 -4.275793977424773e-05 2.213440499735869e-05 -7.130045334218016e-03
7.754480329045865e-03 1.150375601147005e-02 4.507595169863890e-05 1.150375601147005e-02 -6.207208163897900e-04 -1.035052774449739e-05 4.507595169863889e-05 -1.035052774449739e-05 -7.133759512656077e-03
1.012329583547323e-02 9.105174642211790e-03 2.821920939430547e-05 9.105174642211791e-03 -2.493300261450939e-03 -4.591990301958029e-05 2.821920939430547e-05 -4.591990301958029e-05 -7.629995574022299e-03
1.012485364127260e-02 9.113971995418160e-03 -4.121084577185460e-06 9.113971995418160e-03 -2.489589027526879e-03 4.855578001418707e-05 -4.121084577185469e-06 4.855578001418707e-05 -7.635264613745720e-03
1.024449876830001e-02 1.072922539769738e-02 4.852135745521801e-06 1.072922539769738e-02 -3.245911868619791e-03 4.929397205094623e-05 4.852135745521791e-06 4.929397205094624e-05 -6.998586899680217e-03
1.022922973853498e-02 1.071800146677366e-02 1.872836339657678e-05 1.071800146677366e-02 -3.243040770954752e-03 -2.940035197508630e-05 1.872836339657678e-05 -2.940035197508630e-05 -6.986188967580230e-03
7.754480329045865e-03 1.150375601147005e-02 4.507595169863890e-05 1.150375601147005e-02 -6.207208163897900e-04 -1.035052774449739e-05 4.507595169863889e-05 -1.035052774449739e-05 -7.133759512656077e-03
7.749570358657152e-03 1.151396213275417e-02 -4.275793977424772e-05 1.151396213275416e-02 -6.195250244391388e-04 2.213440499735869e-05 -4.275793977424773e-05 2.213440499735869e-05 -7.130045334218016e-03
7.739762759348732e-03 1.430116210886397e-02 -6.640339012985183e-05 1.430116210886399e-02 -1.188114593138488e-03 3.933100608211282e-05 -6.640339012985181e-05 3.933100608211282e-05 -6.551648166210242e-03
7.735129927312797e-03 1.428142209651420e-02 7.209889532046543e-05 1.428142209651421e-02 -1.180522948871485e-03 -2.899365477945869e-05 7.209889532046544e-05 -2.899365477945869e-05 -6.554606978441310e-03
1.022922973853498e-02 1.071800146677366e-02 1.872836339657678e-05 1.071800146677366e-02 -3.243040770954752e-03 -2.940035197508630e-05 1.872836339657678e-05 -2.940035197508630e-05 -6.986188967580230e-03
1.024449876830001e-02 1.072922539769738e-02 4.852135745521801e-06 1.072922539769738e-02 -3.245911868619791e-03 4.929397205094623e-05 4.852135745521791e-06 4.929397205094624e-05 -6.998586899680217e-03
1.067762680540019e-02 1.400765799706634e-02 -3.580032159179666e-06 1.400765799706635e-02 -4.096575849678045e-03 6.247735667101513e-05 -3.580032159179667e-06 6.247735667101514e-05 -6.581050955722152e-03
1.066001589444302e-02 1.397949918136460e-02 5.253915432090053e-06 1.397949918136460e-02 -4.086722495383459e-03 -4.265722641752394e-05 5.253915432090058e-06 -4.265722641752395e-05 -6.573293399059555e-03
7.735129927312797e-03 1.428142209651420e-02 7.209889532046543e-05 1.428142209651421e-02 -1.180522948871485e-03 -2.899365477945869e-05 7.209889532046544e-05 -2.899365477945869e-05 -6.554606978441310e-03
7.739762759348732e-03 1.430116210886397e-02 -6.640339012985183e-05 1.430116210886399e-02 -1.188114593138488e-03 3.933100608211282e-05 -6.640339012985181e-05 3.933100608211282e-05 -6.551648166210242e-03
7.362521245016626e-03 1.939109192114065e-02 -1.260160070136891e-04 1.939109192114065e-02 -2.189756341548542e-03 8.207313631834886e-05 -1.260160070136891e-04 8.207313631834886e-05 -5.172764903468085e-03
7.367744797449314e-03 1.933414451450860e-02 8.436069029135848e-05 1.933414451450859e-02 -2.174687581701460e-03 -5.607150151463575e-05 8.436069029135854e-05 -5.607150151463577e-05 -5.193057215747855e-03
1.066001589444302e-02 1.397949918136460e-02 5.253915432090053e-06 1.397949918136460e-02 -4.086722495383459e-03 -4.265722641752394e-05 5.253915432090058e-06 -4.265722641752395e-05 -6.573293399059555e-03
1.067762680540019e-02 1.400765799706634e-02 -3.580032159179666e-06 1.400765799706635e-02 -4.096575849678045e-03 6.247735667101513e-05 -3.580032159179667e-06 6.247735667101514e-05 -6.581050955722152e-03
1.060066310460573e-02 1.995655108491846e-02 -7.716574614746228e-05 1.995655108491847e-02 -5.151587278954700e-03 9.623017433544588e-05 -7.716574614746229e-05 9.623017433544587e-05 -5.449075825651034e-03
1.060768738526910e-02 1.988892022201520e-02 3.881644533600928e-05 1.988892022201520e-02 -5.139073341351527e-03 -7.261219848424574e-05 3.881644533600928e-05 -7.261219848424572e-05 -5.468614043917580e-03
7.367744797449314e-03 1.933414451450860e-02 8.436069029135848e-05 1.933414451450859e-02 -2.174687581701460e-03 -5.607150151463575e-05 8.436069029135854e-05 -5.607150151463577e-05 -5.193057215747855e-03
7.362521245016626e-03 1.939109192114065e-02 -1.260160070136891e-04 1.939109192114065e-02 -2.189756341548542e-03 8.207313631834886e-05 -1.260160070136891e-04 8.207313631834886e-05 -5.172764903468085e-03
6.007101924735660e-03 2.936154901250206e-02 -4.815589885595727e-04 2.936154901250206e-02 -3.818343193597798e-03 3.096300248089630e-04 -4.815589885595728e-04 3.096300248089631e-04 -2.188758731137867e-03
6.081898902696533e-03 2.911336980102410e-02 2.589147246443142e-04 2.911336980102410e-02 -3.750480836762366e-03 -1.392980284151964e-04 2.589147246443142e-04 -1.392980284151964e-04 -2.331418065934165e-03
1.060768738526910e-02 1.988892022201520e-02 3.881644533600928e-05 1.988892022201520e-02 -5.139073341351527e-03 -7.261219848424574e-05 3.881644533600928e-05 -7.261219848424572e-05 -5.468614043917580e-03
1.060066310460573e-02 1.995655108491846e-02 -7.716574614746228e-05 1.995655108491847e-02 -5.151587278954700e-03 9.623017433544588e-05 -7.716574614746229e-05 9.623017433544587e-05 -5.449075825651034e-03
9.213393621432449e-03 3.032088113512579e-02 -4.358939313061369e-04 3.032088113512578e-02 -6.658007555841140e-03 3.099112738313996e-04 -4.358939313061369e-04 3.099112738313996e-04 -2.555386065591309e-03
9.284107483961477e-03 3.008540593049946e-02 2.307304981878704e-04 3.008540593049947e-02 -6.593782605357411e-03 -1.564117206626225e-04 2.307304981878704e-04 -1.564117206626225e-04 -2.690324878604068e-03
6.081898902696533e-03 2.911336980102410e-02 2.589147246443142e-04 2.911336980102410e-02 -3.750480836762366e-03 -1.392980284151964e-04 2.589147246443142e-04 -1.392980284151964e-04 -2.331418065934165e-03
6.007101924735660e-03 2.936154901250206e-02 -4.815589885595727e-04 2.936154901250206e-02 -3.818343193597798e-03 3.096300248089630e-04 -4.815589885595728e-04 3.096300248089631e-04 -2.188758731137867e-03
-4.858122677389110e-04 4.908327676645342e-02 -5.880197994681661e-04 4.908327676645341e-02 -9.932074057833036e-03 4.216681938718842e-04 -5.880197994681661e-04 4.216681938718842e-04 1.041788632557194e-02
-5.299342347804726e-04 4.897964034596925e-02 8.953289499501066e-04 4.897964034596924e-02 -9.963891772307099e-03 -7.031158449901428e-04 8.953289499501066e-04 -7.031158449901427e-04 1.049382600708758e-02
9.284107483961477e-03 3.008540593049946e-02 2.307304981878704e-04 3.008540593049947e-02 -6.593782605357411e-03 -1.564117206626225e-04 2.307304981878704e-04 -1.564117206626225e-04 -2.690324878604068e-03
9.213393621432449e-03 3.032088113512579e-02 -4.358939313061369e-04 3.032088113512578e-02 -6.658007555841140e-03 3.099112738313996e-04 -4.358939313061369e-04 3.099112738313996e-04 -2.555386065591309e-03
2.926580648938552e-03 4.902369047147858e-02 -5.093508703941505e-04 4.902369047147857e-02 -1.244075074879772e-02 4.027063070723641e-04 -5.093508703941503e-04 4.027063070723641e-04 9.514170099859158e-03
2.885802415119655e-03 4.894985841939455e-02 8.160175189031756e-04 4.894985841939454e-02 -1.246571734322431e-02 -6.984179779666184e-04 8.160175189031756e-04 -6.984179779666185e-04 9.579914928104661e-03
-5.299342347804726e-04 4.897964034596925e-02 8.953289499501066e-04 4.897964034596924e-02 -9.963891772307099e-03 -7.031158449901428e-04 8.953289499501066e-04 -7.031158449901427e-04 1.049382600708758e-02
-4.858122677389110e-04 4.908327676645342e-02 -5.880197994681661e-04 4.908327676645341e-02 -9.932074057833036e-03 4.216681938718842e-04 -5.880197994681661e-04 4.216681938718842e-04 1.041788632557194e-02
-1.849856869073609e-02 1.398971909970057e-01 -2.249773825740071e-03 1.398971909970057e-01 -3.672393595605813e-02 2.806885385923566e-03 -2.249773825740070e-03 2.806885385923566e-03 5.522250464679424e-02
-1.863706722976115e-02 1.405581758257719e-01 1.373601356625739e-06 1.405581758257720e-01 -3.689567091298016e-02 -3.169997494552456e-05 1.373601356625631e-06 -3.169997494552456e-05 5.553273814274134e-02
2.885802415119655e-03 4.894985841939455e-02 8.160175189031756e-04 4.894985841939454e-02 -1.246571734322431e-02 -6.984179779666184e-04 8.160175189031756e-04 -6.984179779666185e-04 9.579914928104661e-03
2.926580648938552e-03 4.902369047147858e-02 -5.093508703941505e-04 4.902369047147857e-02 -1.244075074879772e-02 4.027063070723641e-04 -5.093508703941503e-04 4.027063070723641e-04 9.514170099859158e-03
-1.023200342286849e-02 1.368430328723019e-01 -2.255533732950410e-03 1.368430328723019e-01 -4.043101417575902e-02 2.752792127678214e-03 -2.255533732950410e-03 2.752792127678214e-03 5.066301759862751e-02
-1.036999554549571e-02 1.374836683736869e-01 -3.603544684517378e-06 1.374836683736868e-01 -4.060650705649355e-02 -2.590371238178643e-05 -3.603544684517134e-06 -2.590371238178637e-05 5.097650260198926e-02
2.046469964913785e-02 1.691679947588915e-02 -4.706643063267363e-06 1.691679947588916e-02 -4.389588301686463e-03 -8.724410856570129e-05 -4.706643063267404e-06 -8.724410856570130e-05 -1.607511134745139e-02
2.045279152308561e-02 1.693756364717908e-02 -2.302861331135717e-05 1.693756364717908e-02 -4.384164154361802e-03 1.026521719518533e-04 -2.302861331135714e-05 1.026521719518533e-04 -1.606862736872379e-02
1.012485364127260e-02 9.113971995418160e-03 -4.121084577185460e-06 9.113971995418160e-03 -2.489589027526879e-03 4.855578001418707e-05 -4.121084577185469e-06 4.855578001418707e-05 -7.635264613745720e-03
1.012329583547323e-02 9.105174642211790e-03 2.821920939430547e-05 9.105174642211791e-03 -2.493300261450939e-03 -4.591990301958029e-05 2.821920939430547e-05 -4.591990301958029e-05 -7.629995574022299e-03
2.602624931655230e-02 1.510536275841023e-02 -3.642981770478228e-05 1.510536275841022e-02 -9.372485390570159e-03 -1.022965989967054e-04 -3.642981770478228e-05 -1.022965989967054e-04 -1.665376392598213e-02
2.606261963695791e-02 1.507319065950987e-02 -2.613484574562772e-05 1.507319065950986e-02 -9.414253195538855e-03 9.517589811396760e-05 -2.613484574562768e-05 9.517589811396766e-05 -1.664836644141907e-02
1.348409651884161e-02 8.560854350404858e-03 3.853829659379069e-05 8.560854350404861e-03 -5.378105515246543e-03 6.125424048355305e-05 3.853829659379067e-05 6.125424048355305e-05 -8.105991003595062e-03
1.345518563949177e-02 8.578257082536324e-03 -5.559238934158241e-05 8.578257082536322e-03 -5.357532163052239e-03 -7.953043097863508e-05 -5.559238934158240e-05 -7.953043097863508e-05 -8.097653476439528e-03
1.012329583547323e-02 9.105174642211790e-03 2.821920939430547e-05 9.105174642211791e-03 -2.493300261450939e-03 -4.591990301958029e-05 2.821920939430547e-05 -4.591990301958029e-05 -7.629995574022299e-03
1.012485364127260e-02 9.113971995418160e-03 -4.121084577185460e-06 9.113971995418160e-03 -2.489589027526879e-03 4.855578001418707e-05 -4.121084577185469e-06 4.855578001418707e-05 -7.635264613745720e-03
1.024449876830001e-02 1.072922539769738e-02 4.852135745521801e-06 1.072922539769738e-02 -3.245911868619791e-03 4.929397205094623e-05 4.852135745521791e-06 4.929397205094624e-05 -6.998586899680217e-03
1.022922973853498e-02 1.071800146677366e-02 1.872836339657678e-05 1.071800146677366e-02 -3.243040770954752e-03 -2.940035197508630e-05 1.872836339657678e-05 -2.940035197508630e-05 -6.986188967580230e-03
1.345518563949177e-02 8.578257082536324e-03 -5.559238934158241e-05 8.578257082536322e-03 -5.357532163052239e-03 -7.953043097863508e-05 -5.559238934158240e-05 -7.953043097863508e-05 -8.097653476439528e-03
1.348409651884161e-02 8.560854350404858e-03 3.853829659379069e-05 8.560854350404861e-03 -5.378105515246543e-03 6.125424048355305e-05 3.853829659379067e-05 6.125424048355305e-05 -8.105991003595062e-03
1.438043720124198e-02 1.081310069595926e-02 9.015573535716583e-05 1.081310069595927e-02 -6.691440262739998e-03 8.325017582123526e-05 9.015573535716585e-05 8.325017582123530e-05 -7.688996938501984e-03
1.435345533731147e-02 1.081033409869664e-02 -1.245735714384182e-04 1.081033409869663e-02 -6.678705710656390e-03 -8.194022759944072e-05 -1.245735714384182e-04 -8.194022759944072e-05 -7.674749626655077e-03
1.022922973853498e-02 1.071800146677366e-02 1.872836339657678e-05 1.071800146677366e-02 -3.243040770954752e-03 -2.940035197508630e-05 1.872836339657678e-05 -2.940035197508630e-05 -6.986188967580230e-03
1.024449876830001e-02 1.072922539769738e-02 4.852135745521801e-06 1.072922539769738e-02 -3.245911868619791e-03 4.929397205094623e-05 4.852135745521791e-06 4.929397205094624e-05 -6.998586899680217e-03
1.067762680540019e-02 1.400765799706634e-02 -3.580032159179666e-06 1.400765799706635e-02 -4.096575849678045e-03 6.247735667101513e-05 -3.580032159179667e-06 6.247735667101514e-05 -6.581050955722152e-03
1.066001589444302e-02 1.397949918136460e-02 5.253915432090053e-06 1.397949918136460e-02 -4.086722495383459e-03 -4.265722641752394e-05 5.253915432090058e-06 -4.265722641752395e-05 -6.573293399059555e-03
1.435345533731147e-02 1.081033409869664e-02 -1.245735714384182e-04 1.081033409869663e-02 -6.678705710656390e-03 -8.194022759944072e-05 -1.245735714384182e-04 -8.194022759944072e-05 -7.674749626655077e-03
1.438043720124198e-02 1.081310069595926e-02 9.015573535716583e-05 1.081310069595927e-02 -6.691440262739998e-03 8.325017582123526e-05 9.015573535716585e-05 8.325017582123530e-05 -7.688996938501984e-03
1.523730395080599e-02 1.477682741101462e-02 6.025412841035097e-05 1.477682741101462e-02 -7.780835694382773e-03 1.019558808206647e-04 6.025412841035097e-05 1.019558808206647e-04 -7.456468256423213e-03
1.523784796845060e-02 1.474049706725329e-02 -1.056144244387590e-04 1.474049706725329e-02 -7.781138822285514e-03 -9.965663947505900e-05 -1.056144244387590e-04 -9.965663947505900e-05 -7.456709146165101e-03
1.066001589444302e-02 1.397949918136460e-02 5.253915432090053e-06 1.397949918136460e-02 -4.086722495383459e-03 -4.265722641752394e-05 5.253915432090058e-06 -4.265722641752395e-05 -6.573293399059555e-03
1.067762680540019e-02 1.400765799706634e-02 -3.580032159179666e-06 1.400765799706635e-02 -4.096575849678045e-03 6.247735667101513e-05 -3.580032159179667e-06 6.247735667101514e-05 -6.581050955722152e-03
1.060066310460573e-02 1.995655108491846e-02 -7.716574614746228e-05 1.995655108491847e-02 -5.151587278954700e-03 9.623017433544588e-05 -7.716574614746229e-05 9.623017433544587e-05 -5.449075825651034e-03
1.060768738526910e-02 1.988892022201520e-02 3.881644533600928e-05 1.988892022201520e-02 -5.139073341351527e-03 -7.261219848424574e-05 3.881644533600928e-05 -7.261219848424572e-05 -5.468614043917580e-03
1.523784796845060e-02 1.474049706725329e-02 -1.056144244387590e-04 1.474049706725329e-02 -7.781138822285514e-03 -9.965663947505900e-05 -1.056144244387590e-04 -9.965663947505900e-05 -7.456709146165101e-03
1.523730395080599e-02 1.477682741101462e-02 6.025412841035097e-05 1.477682741101462e-02 -7.780835694382773e-03 1.019558808206647e-04 6.025412841035097e-05 1.019558808206647e-04 -7.456468256423213e-03
1.501309162779338e-02 2.076195105810709e-02 -3.912355631038935e-05 2.076195105810710e-02 -8.841515521722347e-03 1.311282211567244e-04 -3.912355631038933e-05 1.311282211567244e-04 -6.171576106071054e-03
1.503331229151030e-02 2.068957171725821e-02 4.274305228502263e-06 2.068957171725820e-02 -8.840303282269153e-03 -1.181094056271829e-04 4.274305228502272e-06 -1.181094056271829e-04 -6.193009009241121e-03
1.060768738526910e-02 1.988892022201520e-02 3.881644533600928e-05 1.988892022201520e-02 -5.139073341351527e-03 -7.261219848424574e-05 3.881644533600928e-05 -7.261219848424572e-05 -5.468614043917580e-03
1.060066310460573e-02 1.995655108491846e-02 -7.716574614746228e-05 1.995655108491847e-02 -5.151587278954700e-03 9.623017433544588e-05 -7.716574614746229e-05 9.623017433544587e-05 -5.449075825651034e-03
9.213393621432449e-03 3.032088113512579e-02 -4.358939313061369e-04 3.032088113512578e-02 -6.658007555841140e-03 3.099112738313996e-04 -4.358939313061369e-04 3.099112738313996e-04 -2.555386065591309e-03
9.284107483961477e-03 3.008540593049946e-02 2.307304981878704e-04 3.008540593049947e-02 -6.593782605357411e-03 -1.564117206626225e-04 2.307304981878704e-04 -1.564117206626225e-04 -2.690324878604068e-03
1.503331229151030e-02 2.068957171725821e-02 4.274305228502263e-06 2.068957171725820e-02 -8.840303282269153e-03 -1.181094056271829e-04 4.274305228502272e-06 -1.181094056271829e-04 -6.193009009241121e-03
1.501309162779338e-02 2.076195105810709e-02 -3.912355631038935e-05 2.076195105810710e-02 -8.841515521722347e-03 1.311282211567244e-04 -3.912355631038933e-05 1.311282211567244e-04 -6.171576106071054e-03
1.343684955101140e-02 3.005424740403770e-02 -3.916173723232820e-04 3.005424740403770e-02 -1.035566531467670e-02 3.369412393579819e-04 -3.916173723232820e-04 3.369412393579818e-04 -3.081184236334690e-03
1.350193911188730e-02 2.983240412422237e-02 2.077110549214580e-04 2.983240412422237e-02 -1.029609476478770e-02 -1.754232046943011e-04 2.077110549214579e-04 -1.754232046943011e-04 -3.205844347099614e-03
9.284107483961477e-03 3.008540593049946e-02 2.307304981878704e-04 3.008540593049947e-02 -6.593782605357411e-03 -1.564117206626225e-04 2.307304981878704e-04 -1.564117206626225e-04 -2.690324878604068e-03
9.213393621432449e-03 3.032088113512579e-02 -4.358939313061369e-04 3.032088113512578e-02 -6.658007555841140e-03 3.099112738313996e-04 -4.358939313061369e-04 3.099112738313996e-04 -2.555386065591309e-03
2.926580648938552e-03 4.902369047147858e-02 -5.093508703941505e-04 4.902369047147857e-02 -1.244075074879772e-02 4.027063070723641e-04 -5.093508703941503e-04 4.027063070723641e-04 9.514170099859158e-03
2.885802415119655e-03 4.894985841939455e-02 8.160175189031756e-04 4.894985841939454e-02 -1.246571734322431e-02 -6.984179779666184e-04 8.160175189031756e-04 -6.984179779666185e-04 9.579914928104661e-03
1.350193911188730e-02 2.983240412422237e-02 2.077110549214580e-04 2.983240412422237e-02 -1.029609476478770e-02 -1.754232046943011e-04 2.077110549214579e-04 -1.754232046943011e-04 -3.205844347099614e-03
1.343684955101140e-02 3.005424740403770e-02 -3.916173723232820e-04 3.005424740403770e-02 -1.035566531467670e-02 3.369412393579819e-04 -3.916173723232820e-04 3.369412393579818e-04 -3.081184236334690e-03
7.333030299151472e-03 4.720265146157277e-02 -4.586464891664724e-04 4.720265146157276e-02 -1.587825208544614e-02 4.170319890104476e-04 -4.586464891664722e-04 4.170319890104477e-04 8.545221786294672e-03
7.291635145623915e-03 4.714943003788678e-02 7.804514129668515e-04 4.714943003788680e-02 -1.589420531933983e-02 -7.165655715576623e-04 7.804514129668515e-04 -7.165655715576622e-04 8.602570173715924e-03
2.885802415119655e-03 4.894985841939455e-02 8.160175189031756e-04 4.894985841939454e-02 -1.246571734322431e-02 -6.984179779666184e-04 8.160175189031756e-04 -6.984179779666185e-04 9.579914928104661e-03
2.926580648938552e-03 4.902369047147858e-02 -5.093508703941505e-04 4.902369047147857e-02 -1.244075074879772e-02 4.027063070723641e-04 -5.093508703941503e-04 4.027063070723641e-04 9.514170099859158e-03
-1.023200342286849e-02 1.368430328723019e-01 -2.255533732950410e-03 1.368430328723019e-01 -4.043101417575902e-02 2.752792127678214e-03 -2.255533732950410e-03 2.752792127678214e-03 5.066301759862751e-02
-1.036999554549571e-02 1.374836683736869e-01 -3.603544684517378e-06 1.374836683736868e-01 -4.060650705649355e-02 -2.590371238178643e-05 -3.603544684517134e-06 -2.590371238178637e-05 5.097650260198926e-02
7.291635145623915e-03 4.714943003788678e-02 7.804514129668515e-04 4.714943003788680e-02 -1.589420531933983e-02 -7.165655715576623e-04 7.804514129668515e-04 -7.165655715576622e-04 8.602570173715924e-03
7.333030299151472e-03 4.720265146157277e-02 -4.586464891664724e-04 4.720265146157276e-02 -1.587825208544614e-02 4.170319890104476e-04 -4.586464891664722e-04 4.170319890104477e-04 8.545221786294672e-03
-5.618754911029973e-04 1.314008171603842e-01 -2.490892827582226e-03 1.314008171603843e-01 -4.654462943618264e-02 2.898366010251433e-03 -2.490892827582226e-03 2.898366010251432e-03 4.710650492728562e-02
-6.858198879828980e-04 1.320193353456945e-01 -6.449900189765779e-07 1.320193353456945e-01 -4.673395298563869e-02 -2.546416508115725e-05 -6.449900189765237e-07 -2.546416508115714e-05 4.741977287362157e-02
2.602624931655230e-02 1.510536275841023e-02 -3.642981770478228e-05 1.510536275841022e-02 -9.372485390570159e-03 -1.022965989967054e-04 -3.642981770478228e-05 -1.022965989967054e-04 -1.665376392598213e-02
2.606261963695791e-02 1.507319065950987e-02 -2.613484574562772e-05 1.507319065950986e-02 -9.414253195538855e-03 9.517589811396760e-05 -2.613484574562768e-05 9.517589811396766e-05 -1.664836644141907e-02
1.348409651884161e-02 8.560854350404858e-03 3.853829659379069e-05 8.560854350404861e-03 -5.378105515246543e-03 6.125424048355305e-05 3.853829659379067e-05 6.125424048355305e-05 -8.105991003595062e-03
1.345518563949177e-02 8.578257082536324e-03 -5.559238934158241e-05 8.578257082536322e-03 -5.357532163052239e-03 -7.953043097863508e-05 -5.559238934158240e-05 -7.953043097863508e-05 -8.097653476439528e-03
3.213364463634713e-02 1.100086033517538e-02 -8.489342837697693e-05 1.100086033517538e-02 -1.565487069921646e-02 9.140993205334342e-05 -8.489342837697695e-05 9.140993205334342e-05 -1.647877393713072e-02
3.218355437418670e-02 1.090337862834052e-02 8.023089209806709e-05 1.090337862834052e-02 -1.571150859139084e-02 -8.677587485096810e-05 8.023089209806700e-05 -8.677587485096810e-05 -1.647204578279585e-02
1.856517155006714e-02 7.324773952672533e-03 9.757467653454128e-05 7.324773952672527e-03 -9.307492668138037e-03 -8.614128566679098e-06 9.757467653454132e-05 -8.614128566679088e-06 -9.257678881929118e-03
1.853255238376671e-02 7.380579449540316e-03 -1.500047903746794e-04 7.380579449540316e-03 -9.265031250619180e-03 4.582292398037261e-06 -1.500047903746794e-04 4.582292398037257e-06 -9.267521133147511e-03
1.345518563949177e-02 8.578257082536324e-03 -5.559238934158241e-05 8.578257082536322e-03 -5.357532163052239e-03 -7.953043097863508e-05 -5.559238934158240e-05 -7.953043097863508e-05 -8.097653476439528e-03
1.348409651884161e-02 8.560854350404858e-03 3.853829659379069e-05 8.560854350404861e-03 -5.378105515246543e-03 6.125424048355305e-05 3.853829659379067e-05 6.125424048355305e-05 -8.105991003595062e-03
1.438043720124198e-02 1.081310069595926e-02 9.015573535716583e-05 1.081310069595927e-02 -6.691440262739998e-03 8.325017582123526e-05 9.015573535716585e-05 8.325017582123530e-05 -7.688996938501984e-03
1.435345533731147e-02 1.081033409869664e-02 -1.245735714384182e-04 1.081033409869663e-02 -6.678705710656390e-03 -8.194022759944072e-05 -1.245735714384182e-04 -8.194022759944072e-05 -7.674749626655077e-03
1.853255238376671e-02 7.380579449540316e-03 -1.500047903746794e-04 7.380579449540316e-03 -9.265031250619180e-03 4.582292398037261e-06 -1.500047903746794e-04 4.582292398037257e-06 -9.267521133147511e-03
1.856517155006714e-02 7.324773952672533e-03 9.757467653454128e-05 7.324773952672527e-03 -9.307492668138037e-03 -8.614128566679098e-06 9.757467653454132e-05 -8.614128566679088e-06 -9.257678881929118e-03
2.094154350960934e-02 1.029870571414650e-02 1.175248479277027e-04 1.029870571414650e-02 -1.135285773063628e-02 6.295472673847992e-05 1.175248479277027e-04 6.295472673847989e-05 -9.588685778973059e-03
2.093088131692422e-02 1.031427468995316e-02 -2.453828941703116e-04 1.031427468995316e-02 -1.131720266518628e-02 -8.420754627197139e-05 -2.453828941703116e-04 -8.420754627197139e-05 -9.613678651737958e-03
1.435345533731147e-02 1.081033409869664e-02 -1.245735714384182e-04 1.081033409869663e-02 -6.678705710656390e-03 -8.194022759944072e-05 -1.245735714384182e-04 -8.194022759944072e-05 -7.674749626655077e-03
1.438043720124198e-02 1.081310069595926e-02 9.015573535716583e-05 1.081310069595927e-02 -6.691440262739998e-03 8.325017582123526e-05 9.015573535716585e-05 8.325017582123530e-05 -7.688996938501984e-03
1.523730395080599e-02 1.477682741101462e-02 6.025412841035097e-05 1.477682741101462e-02 -7.780835694382773e-03 1.019558808206647e-04 6.025412841035097e-05 1.019558808206647e-04 -7.456468256423213e-03
1.523784796845060e-02 1.474049706725329e-02 -1.056144244387590e-04 1.474049706725329e-02 -7.781138822285514e-03 -9.965663947505900e-05 -1.056144244387590e-04 -9.965663947505900e-05 -7.456709146165101e-03
2.093088131692422e-02 1.031427468995316e-02 -2.453828941703116e-04 1.031427468995316e-02 -1.131720266518628e-02 -8.420754627197139e-05 -2.453828941703116e-04 -8.420754627197139e-05 -9.613678651737958e-03
2.094154350960934e-02 1.029870571414650e-02 1.175248479277027e-04 1.029870571414650e-02 -1.135285773063628e-02 6.295472673847992e-05 1.175248479277027e-04 6.295472673847989e-05 -9.588685778973059e-03
2.209755522955155e-02 1.408947972304148e-02 4.263504578431241e-05 1.408947972304148e-02 -1.295581664982157e-02 1.156720213754666e-04 4.263504578431238e-05 1.156720213754666e-04 -9.141738579729979e-03
2.211875348854883e-02 1.406887411699133e-02 -1.236923414811252e-04 1.406887411699132e-02 -1.294615821574906e-02 -1.595063507949339e-04 -1.236923414811251e-04 -1.595063507949339e-04 -9.172595272799769e-03
1.523784796845060e-02 1.474049706725329e-02 -1.056144244387590e-04 1.474049706725329e-02 -7.781138822285514e-03 -9.965663947505900e-05 -1.056144244387590e-04 -9.965663947505900e-05 -7.456709146165101e-03
1.523730395080599e-02 1.477682741101462e-02 6.025412841035097e-05 1.477682741101462e-02 -7.780835694382773e-03 1.019558808206647e-04 6.025412841035097e-05 1.019558808206647e-04 -7.456468256423213e-03
1.501309162779338e-02 2.076195105810709e-02 -3.912355631038935e-05 2.076195105810710e-02 -8.841515521722347e-03 1.311282211567244e-04 -3.912355631038933e-05 1.311282211567244e-04 -6.171576106071054e-03
1.503331229151030e-02 2.068957171725821e-02 4.274305228502263e-06 2.068957171725820e-02 -8.840303282269153e-03 -1.181094056271829e-04 4.274305228502272e-06 -1.181094056271829e-04 -6.193009009241121e-03
2.211875348854883e-02 1.406887411699133e-02 -1.236923414811252e-04 1.406887411699132e-02 -1.294615821574906e-02 -1.595063507949339e-04 -1.236923414811251e-04 -1.595063507949339e-04 -9.172595272799769e-03
2.209755522955155e-02 1.408947972304148e-02 4.263504578431241e-05 1.408947972304148e-02 -1.295581664982157e-02 1.156720213754666e-04 4.263504578431238e-05 1.156720213754666e-04 -9.141738579729979e-03
2.184894280171171e-02 1.893094406117563e-02 -7.381655533843672e-05 1.893094406117563e-02 -1.450690464289593e-02 1.641981944988364e-04 -7.381655533843673e-05 1.641981944988364e-04 -7.342038158815761e-03
2.186914262951618e-02 1.889351983383934e-02 -1.828710185912070e-05 1.889351983383934e-02 -1.449404587936404e-02 -1.865379478294947e-04 -1.828710185912071e-05 -1.865379478294947e-04 -7.375096750152158e-03
1.503331229151030e-02 2.068957171725821e-02 4.274305228502263e-06 2.068957171725820e-02 -8.840303282269153e-03 -1.181094056271829e-04 4.274305228502272e-06 -1.181094056271829e-04 -6.193009009241121e-03
1.501309162779338e-02 2.076195105810709e-02 -3.912355631038935e-05 2.076195105810710e-02 -8.841515521722347e-03 1.311282211567244e-04 -3.912355631038933e-05 1.311282211567244e-04 -6.171576106071054e-03
1.343684955101140e-02 3.005424740403770e-02 -3.916173723232820e-04 3.005424740403770e-02 -1.035566531467670e-02 3.369412393579819e-04 -3.916173723232820e-04 3.369412393579818e-04 -3.081184236334690e-03
1.350193911188730e-02 2.983240412422237e-02 2.077110549214580e-04 2.983240412422237e-02 -1.029609476478770e-02 -1.754232046943011e-04 2.077110549214579e-04 -1.754232046943011e-04 -3.205844347099614e-03
2.186914262951618e-02 1.889351983383934e-02 -1.828710185912070e-05 1.889351983383934e-02 -1.449404587936404e-02 -1.865379478294947e-04 -1.828710185912071e-05 -1.865379478294947e-04 -7.375096750152158e-03
2.184894280171171e-02 1.893094406117563e-02 -7.381655533843672e-05 1.893094406117563e-02 -1.450690464289593e-02 1.641981944988364e-04 -7.381655533843673e-05 1.641981944988364e-04 -7.342038158815761e-03
2.024612177736095e-02 2.664802869247723e-02 -3.817203930095216e-04 2.664802869247723e-02 -1.645550479673299e-02 3.790314456438540e-04 -3.817203930095217e-04 3.790314456438540e-04 -3.790616980627967e-03
2.029917835516471e-02 2.646375474996570e-02 1.602908850171764e-04 2.646375474996571e-02 -1.638487439408160e-02 -2.398649338339144e-04 1.602908850171764e-04 -2.398649338339145e-04 -3.914303961083090e-03
1.350193911188730e-02 2.983240412422237e-02 2.077110549214580e-04 2.983240412422237e-02 -1.029609476478770e-02 -1.754232046943011e-04 2.077110549214579e-04 -1.754232046943011e-04 -3.205844347099614e-03
1.343684955101140e-02 3.005424740403770e-02 -3.916173723232820e-04 3.005424740403770e-02 -1.035566531467670e-02 3.369412393579819e-04 -3.916173723232820e-04 3.369412393579818e-04 -3.081184236334690e-03
7.333030299151472e-03 4.720265146157277e-02 -4.586464891664724e-04 4.720265146157276e-02 -1.587825208544614e-02 4.170319890104476e-04 -4.586464891664722e-04 4.170319890104477e-04 8.545221786294672e-03
7.291635145623915e-03 4.714943003788678e-02 7.804514129668515e-04 4.714943003788680e-02 -1.589420531933983e-02 -7.165655715576623e-04 7.804514129668515e-04 -7.165655715576622e-04 8.602570173715924e-03
2.029917835516471e-02 2.646375474996570e-02 1.602908850171764e-04 2.646375474996571e-02 -1.638487439408160e-02 -2.398649338339144e-04 1.602908850171764e-04 -2.398649338339145e-04 -3.914303961083090e-03
2.024612177736095e-02 2.664802869247723e-02 -3.817203930095216e-04 2.664802869247723e-02 -1.645550479673299e-02 3.790314456438540e-04 -3.817203930095217e-04 3.790314456438540e-04 -3.790616980627967e-03
1.409562372382469e-02 4.266391100581707e-02 -4.637261435902552e-04 4.266391100581707e-02 -2.176154422609446e-02 4.400868529398117e-04 -4.637261435902552e-04 4.400868529398115e-04 7.665920502269800e-03
1.405785014732700e-02 4.263771261653311e-02 7.214209143060201e-04 4.263771261653310e-02 -2.176895334262268e-02 -7.786502430638391e-04 7.214209143060201e-04 -7.786502430638390e-04 7.711103195295660e-03
7.291635145623915e-03 4.714943003788678e-02 7.804514129668515e-04 4.714943003788680e-02 -1.589420531933983e-02 -7.165655715576623e-04 7.804514129668515e-04 -7.165655715576622e-04 8.602570173715924e-03
7.333030299151472e-03 4.720265146157277e-02 -4.586464891664724e-04 4.720265146157276e-02 -1.587825208544614e-02 4.170319890104476e-04 -4.586464891664722e-04 4.170319890104477e-04 8.545221786294672e-03
-5.618754911029973e-04 1.314008171603842e-01 -2.490892827582226e-03 1.314008171603843e-01 -4.654462943618264e-02 2.898366010251433e-03 -2.490892827582226e-03 2.898366010251432e-03 4.710650492728562e-02
-6.858198879828980e-04 1.320193353456945e-01 -6.449900189765779e-07 1.320193353456945e-01 -4.673395298563869e-02 -2.546416508115725e-05 -6.449900189765237e-07 -2.546416508115714e-05 4.741977287362157e-02
1.405785014732700e-02 4.263771261653311e-02 7.214209143060201e-04 4.263771261653310e-02 -2.176895334262268e-02 -7.786502430638391e-04 7.214209143060201e-04 -7.786502430638390e-04 7.711103195295660e-03
1.409562372382469e-02 4.266391100581707e-02 -4.637261435902552e-04 4.266391100581707e-02 -2.176154422609446e-02 4.400868529398117e-04 -4.637261435902552e-04 4.400868529398115e-04 7.665920502269800e-03
1.333263636344436e-02 1.214192149612174e-01 -2.594419716034471e-03 1.214192149612174e-01 -5.769368311390740e-02 3.105784777235586e-03 -2.594419716034471e-03 3.105784777235587e-03 4.436104675046302e-02
1.325195916164550e-02 1.219948447584543e-01 4.044740998381812e-06 1.219948447584543e-01 -5.793090342361978e-02 -2.591240949302234e-05 4.044740998381758e-06 -2.591240949302241e-05 4.467894426197428e-02
3.213364463634713e-02 1.100086033517538e-02 -8.489342837697693e-05 1.100086033517538e-02 -1.565487069921646e-02 9.140993205334342e-05 -8.489342837697695e-05 9.140993205334342e-05 -1.647877393713072e-02
3.218355437418670e-02 1.090337862834052e-02 8.023089209806709e-05 1.090337862834052e-02 -1.571150859139084e-02 -8.677587485096810e-05 8.023089209806700e-05 -8.677587485096810e-05 -1.647204578279585e-02
1.856517155006714e-02 7.324773952672533e-03 9.757467653454128e-05 7.324773952672527e-03 -9.307492668138037e-03 -8.614128566679098e-06 9.757467653454132e-05 -8.614128566679088e-06 -9.257678881929118e-03
1.853255238376671e-02 7.380579449540316e-03 -1.500047903746794e-04 7.380579449540316e-03 -9.265031250619180e-03 4.582292398037261e-06 -1.500047903746794e-04 4.582292398037257e-06 -9.267521133147511e-03
7.155411213190005e-02 -7.893731170789866e-03 3.312403765686569e-05 -7.893731170789862e-03 -3.928279301418711e-02 4.135628740643679e-04 3.312403765686565e-05 4.135628740643679e-04 -3.227131911771289e-02
7.150766289365421e-02 -7.984763729296452e-03 -1.216051459615577e-05 -7.984763729296459e-03 -3.923988601579005e-02 -4.245571610078682e-04 -1.216051459615571e-05 -4.245571610078682e-04 -3.226777687786424e-02
4.490461436472365e-02 -2.556881371014558e-03 2.799769971919995e-04 -2.556881371014555e-03 -2.529932565210043e-02 -1.656358317462601e-04 2.799769971919995e-04 -1.656358317462601e-04 -1.960528871262316e-02
4.495044405880937e-02 -2.467993512562426e-03 -8.298483862018755e-06 -2.467993512562426e-03 -2.530499639954142e-02 2.312657853887743e-04 -8.298483862018775e-06 2.312657853887743e-04 -1.964544765926797e-02
1.853255238376671e-02 7.380579449540316e-03 -1.500047903746794e-04 7.380579449540316e-03 -9.265031250619180e-03 4.582292398037261e-06 -1.500047903746794e-04 4.582292398037257e-06 -9.267521133147511e-03
1.856517155006714e-02 7.324773952672533e-03 9.757467653454128e-05 7.324773952672527e-03 -9.307492668138037e-03 -8.614128566679098e-06 9.757467653454132e-05 -8.614128566679088e-06 -9.257678881929118e-03
2.094154350960934e-02 1.029870571414650e-02 1.175248479277027e-04 1.029870571414650e-02 -1.135285773063628e-02 6.295472673847992e-05 1.175248479277027e-04 6.295472673847989e-05 -9.588685778973059e-03
2.093088131692422e-02 1.031427468995316e-02 -2.453828941703116e-04 1.031427468995316e-02 -1.131720266518628e-02 -8.420754627197139e-05 -2.453828941703116e-04 -8.420754627197139e-05 -9.613678651737958e-03
4.495044405880937e-02 -2.467993512562426e-03 -8.298483862018755e-06 -2.467993512562426e-03 -2.530499639954142e-02 2.312657853887743e-04 -8.298483862018775e-06 2.312657853887743e-04 -1.964544765926797e-02
4.490461436472365e-02 -2.556881371014558e-03 2.799769971919995e-04 -2.556881371014555e-03 -2.529932565210043e-02 -1.656358317462601e-04 2.799769971919995e-04 -1.656358317462601e-04 -1.960528871262316e-02
5.420009209245488e-02 2.605694417980602e-03 6.623709054454929e-04 2.605694417980609e-03 -3.305371244914161e-02 7.170611967333291e-05 6.623709054454930e-04 7.170611967333295e-05 -2.114637964331334e-02
5.424569408777391e-02 2.686710837070163e-03 -5.054973476875359e-05 2.686710837070159e-03 -3.299538340807786e-02 9.340140527311678e-05 -5.054973476875363e-05 9.340140527311677e-05 -2.125031067969600e-02
2.093088131692422e-02 1.031427468995316e-02 -2.453828941703116e-04 1.031427468995316e-02 -1.131720266518628e-02 -8.420754627197139e-05 -2.453828941703116e-04 -8.420754627197139e-05 -9.613678651737958e-03
2.094154350960934e-02 1.029870571414650e-02 1.175248479277027e-04 1.029870571414650e-02 -1.135285773063628e-02 6.295472673847992e-05 1.175248479277027e-04 6.295472673847989e-05 -9.588685778973059e-03
2.209755522955155e-02 1.408947972304148e-02 4.263504578431241e-05 1.408947972304148e-02 -1.295581664982157e-02 1.156720213754666e-04 4.263504578431238e-05 1.156720213754666e-04 -9.141738579729979e-03
2.211875348854883e-02 1.406887411699133e-02 -1.236923414811252e-04 1.406887411699132e-02 -1.294615821574906e-02 -1.595063507949339e-04 -1.236923414811251e-04 -1.595063507949339e-04 -9.172595272799769e-03
5.424569408777391e-02 2.686710837070163e-03 -5.054973476875359e-05 2.686710837070159e-03 -3.299538340807786e-02 9.340140527311678e-05 -5.054973476875363e-05 9.340140527311677e-05 -2.125031067969600e-02
5.420009209245488e-02 2.605694417980602e-03 6.623709054454929e-04 2.605694417980609e-03 -3.305371244914161e-02 7.170611967333291e-05 6.623709054454930e-04 7.170611967333295e-05 -2.114637964331334e-02
5.895566844633081e-02 1.235219210389979e-02 4.747880422536073e-04 1.235219210389978e-02 -3.903125456020749e-02 3.096126029958323e-04 4.747880422536070e-04 3.096126029958323e-04 -1.992441388612329e-02
5.899024556525376e-02 1.236146438556346e-02 4.419498978354456e-05 1.236146438556347e-02 -3.897521398875753e-02 -1.914497576237061e-04 4.419498978354462e-05 -1.914497576237062e-04 -2.001503157649628e-02
2.211875348854883e-02 1.406887411699133e-02 -1.236923414811252e-04 1.406887411699132e-02 -1.294615821574906e-02 -1.595063507949339e-04 -1.236923414811251e-04 -1.595063507949339e-04 -9.172595272799769e-03
2.209755522955155e-02 1.408947972304148e-02 4.263504578431241e-05 1.408947972304148e-02 -1.295581664982157e-02 1.156720213754666e-04 4.263504578431238e-05 1.156720213754666e-04 -9.141738579729979e-03
2.184894280171171e-02 1.893094406117563e-02 -7.381655533843672e-05 1.893094406117563e-02 -1.450690464289593e-02 1.641981944988364e-04 -7.381655533843673e-05 1.641981944988364e-04 -7.342038158815761e-03
2.186914262951618e-02 1.889351983383934e-02 -1.828710185912070e-05 1.889351983383934e-02 -1.449404587936404e-02 -1.865379478294947e-04 -1.828710185912071e-05 -1.865379478294947e-04 -7.375096750152158e-03
5.899024556525376e-02 1.236146438556346e-02 4.419498978354456e-05 1.236146438556347e-02 -3.897521398875753e-02 -1.914497576237061e-04 4.419498978354462e-05 -1.914497576237062e-04 -2.001503157649628e-02
5.895566844633081e-02 1.235219210389979e-02 4.747880422536073e-04 1.235219210389978e-02 -3.903125456020749e-02 3.096126029958323e-04 4.747880422536070e-04 3.096126029958323e-04 -1.992441388612329e-02
5.883312674950683e-02 2.486458182130034e-02 2.117221527182950e-04 2.486458182130035e-02 -4.277694396433779e-02 5.157891765435407e-04 2.117221527182951e-04 5.157891765435406e-04 -1.605618278516907e-02
5.884707824331521e-02 2.486571913787662e-02 1.504627163194851e-04 2.486571913787661e-02 -4.270033994335672e-02 -2.712037640807526e-04 1.504627163194852e-04 -2.712037640807526e-04 -1.614673829995851e-02
2.186914262951618e-02 1.889351983383934e-02 -1.828710185912070e-05 1.889351983383934e-02 -1.449404587936404e-02 -1.865379478294947e-04 -1.828710185912071e-05 -1.865379478294947e-04 -7.375096750152158e-03
2.184894280171171e-02 1.893094406117563e-02 -7.381655533843672e-05 1.893094406117563e-02 -1.450690464289593e-02 1.641981944988364e-04 -7.381655533843673e-05 1.641981944988364e-04 -7.342038158815761e-03
2.024612177736095e-02 2.664802869247723e-02 -3.817203930095216e-04 2.664802869247723e-02 -1.645550479673299e-02 3.790314456438540e-04 -3.817203930095217e-04 3.790314456438540e-04 -3.790616980627967e-03
2.029917835516471e-02 2.646375474996570e-02 1.602908850171764e-04 2.646375474996571e-02 -1.638487439408160e-02 -2.398649338339144e-04 1.602908850171764e-04 -2.398649338339145e-04 -3.914303961083090e-03
5.884707824331521e-02 2.486571913787662e-02 1.504627163194851e-04 2.486571913787661e-02 -4.270033994335672e-02 -2.712037640807526e-04 1.504627163194852e-04 -2.712037640807526e-04 -1.614673829995851e-02
5.883312674950683e-02 2.486458182130034e-02 2.117221527182950e-04 2.486458182130035e-02 -4.277694396433779e-02 5.157891765435407e-04 2.117221527182951e-04 5.157891765435406e-04 -1.605618278516907e-02
5.534657867583008e-02 4.193888673346891e-02 -4.961322034346369e-04 4.193888673346892e-02 -4.687178800157530e-02 9.442460905993624e-04 -4.961322034346372e-04 9.442460905993625e-04 -8.474790674254738e-03
5.544084732412791e-02 4.160351160734541e-02 4.072416885102720e-04 4.160351160734542e-02 -4.669790733759581e-02 -4.932930871422987e-04 4.072416885102719e-04 -4.932930871422987e-04 -8.742939986532160e-03
2.029917835516471e-02 2.646375474996570e-02 1.602908850171764e-04 2.646375474996571e-02 -1.638487439408160e-02 -2.398649338339144e-04 1.602908850171764e-04 -2.398649338339145e-04 -3.914303961083090e-03
2.024612177736095e-02 2.664802869247723e-02 -3.817203930095216e-04 2.664802869247723e-02 -1.645550479673299e-02 3.790314456438540e-04 -3.817203930095217e-04 3.790314456438540e-04 -3.790616980627967e-03
1.409562372382469e-02 4.266391100581707e-02 -4.637261435902552e-04 4.266391100581707e-02 -2.176154422609446e-02 4.400868529398117e-04 -4.637261435902552e-04 4.400868529398115e-04 7.665920502269800e-03
1.405785014732700e-02 4.263771261653311e-02 7.214209143060201e-04 4.263771261653310e-02 -2.176895334262268e-02 -7.786502430638391e-04 7.214209143060201e-04 -7.786502430638390e-04 7.711103195295660e-03
5.544084732412791e-02 4.160351160734541e-02 4.072416885102720e-04 4.160351160734542e-02 -4.669790733759581e-02 -4.932930871422987e-04 4.072416885102719e-04 -4.932930871422987e-04 -8.742939986532160e-03
5.534657867583008e-02 4.193888673346891e-02 -4.961322034346369e-04 4.193888673346892e-02 -4.687178800157530e-02 9.442460905993624e-04 -4.961322034346372e-04 9.442460905993625e-04 -8.474790674254738e-03
4.311372097897319e-02 7.361072240869232e-02 -8.251981715188784e-04 7.361072240869233e-02 -5.761784460338565e-02 9.736889274161581e-04 -8.251981715188784e-04 9.736889274161579e-04 1.450412362441236e-02
4.299941651542907e-02 7.365059734598750e-02 1.484408599441072e-03 7.365059734598747e-02 -5.756654541491359e-02 -1.648797419093186e-03 1.484408599441072e-03 -1.648797419093186e-03 1.456712889948456e-02
1.405785014732700e-02 4.263771261653311e-02 7.214209143060201e-04 4.263771261653310e-02 -2.176895334262268e-02 -7.786502430638391e-04 7.214209143060201e-04 -7.786502430638390e-04 7.711103195295660e-03
1.409562372382469e-02 4.266391100581707e-02 -4.637261435902552e-04 4.266391100581707e-02 -2.176154422609446e-02 4.400868529398117e-04 -4.637261435902552e-04 4.400868529398115e-04 7.665920502269800e-03
1.333263636344436e-02 1.214192149612174e-01 -2.594419716034471e-03 1.214192149612174e-01 -5.769368311390740e-02 3.105784777235586e-03 -2.594419716034471e-03 3.105784777235587e-03 4.436104675046302e-02
1.325195916164550e-02 1.219948447584543e-01 4.044740998381812e-06 1.219948447584543e-01 -5.793090342361978e-02 -2.591240949302234e-05 4.044740998381758e-06 -2.591240949302241e-05 4.467894426197428e-02
4.299941651542907e-02 7.365059734598750e-02 1.484408599441072e-03 7.365059734598747e-02 -5.756654541491359e-02 -1.648797419093186e-03 1.484408599441072e-03 -1.648797419093186e-03 1.456712889948456e-02
4.311372097897319e-02 7.361072240869232e-02 -8.251981715188784e-04 7.361072240869233e-02 -5.761784460338565e-02 9.736889274161581e-04 -8.251981715188784e-04 9.736889274161579e-04 1.450412362441236e-02
5.872834780230460e-02 2.160635172227977e-01 -5.409249739377998e-03 2.160635172227977e-01 -1.448960725682512e-01 6.560543302570517e-03 -5.409249739377999e-03 6.560543302570515e-03 8.616772476594656e-02
5.845628154013754e-02 2.173548252435452e-01 1.269126678180347e-05 2.173548252435452e-01 -1.452696073393747e-01 -5.371267076820251e-05 1.269126678180347e-05 -5.371267076820251e-05 8.681332579923698e-02
        </DataArray>
        <DataArray type="Float64" Name="nodal_cauchy_stresses_xyz" NumberOfComponents="6" format="ascii">
-1.452309987509376e-01 -1.454152980499115e-01 5.358319103559053e-04 -1.559683316967962e-01 -4.481431352921698e-05 5.057872127010418e-05
-1.451596023362610e-01 -1.453460515452197e-01 3.988215996374168e-04 -1.560500309116649e-01 -1.395870727997116e-04 1.650628740176078e-04
-1.356280974698928e-01 -1.358341112653088e-01 1.569447326874651e-04 -1.602609392226378e-01 -1.889165806229035e-04 2.228687881813672e-04
-1.356750774555740e-01 -1.358791942498860e-01 2.463305403078018e-04 -1.602122495121498e-01 2.302788726505385e-04 -2.848880445608601e-04
-1.837471381991221e-01 -1.067477151025843e-01 4.036124757722148e-04 -1.512621501150436e-01 -2.474432585915659e-04 -1.405098777706834e-04
-1.837297013327811e-01 -1.066358221180727e-01 2.788965197666829e-04 -1.513239374820397e-01 1.136143541004271e-04 4.348446437878671e-04
-1.760728541242299e-01 -9.561083256063858e-02 1.036922412091979e-04 -1.550573325899948e-01 -5.037695025131766e-06 4.390325987194568e-04
-1.760827854940971e-01 -9.569609315535940e-02 1.948169115294006e-04 -1.550185398671374e-01 9.810986200436500e-05 -3.580220980406924e-04
-1.356750774555740e-01 -1.358791942498860e-01 2.463305403078018e-04 -1.602122495121498e-01 2.302788726505385e-04 -2.848880445608601e-04
-1.356280974698928e-01 -1.358341112653088e-01 1.569447326874651e-04 -1.602609392226378e-01 -1.889165806229035e-04 2.228687881813672e-04
-1.141500679020903e-01 -1.143218525257731e-01 -2.547476234174320e-04 -1.680322071673654e-01 -4.608467264512212e-04 5.482145076255362e-04
-1.142307325623399e-01 -1.143981397599642e-01 -1.066936539682043e-04 -1.679778794298786e-01 3.009215696158155e-04 -3.703096181825350e-04
-1.760827854940971e-01 -9.569609315535940e-02 1.948169115294006e-04 -1.550185398671374e-01 9.810986200436500e-05 -3.580220980406924e-04
-1.760728541242299e-01 -9.561083256063858e-02 1.036922412091979e-04 -1.550573325899948e-01 -5.037695025131766e-06 4.390325987194568e-04
-1.568101180616521e-01 -7.257832438159284e-02 -1.509245614961483e-04 -1.623687926635284e-01 -4.090947009222791e-04 7.048586042894193e-04
-1.569125426312616e-01 -7.266545270900962e-02 2.922271443291921e-05 -1.622963687546616e-01 2.571669837892719e-04 -4.323360355378997e-04
-1.142307325623399e-01 -1.143981397599642e-01 -1.066936539682043e-04 -1.679778794298786e-01 3.009215696158155e-04 -3.703096181825350e-04
-1.141500679020903e-01 -1.143218525257731e-01 -2.547476234174320e-04 -1.680322071673654e-01 -4.608467264512212e-04 5.482145076255362e-04
-8.930571463642673e-02 -8.944771161121892e-02 3.463349761567373e-04 -1.749772834529036e-01 -7.769814419358292e-04 8.949760155982774e-04
-8.938538342143690e-02 -8.952045868084574e-02 4.863323397983470e-04 -1.749358797033121e-01 7.938748982026609e-04 -9.408745587777937e-04
-1.569125426312616e-01 -7.266545270900962e-02 2.922271443291921e-05 -1.622963687546616e-01 2.571669837892719e-04 -4.323360355378997e-04
-1.568101180616521e-01 -7.257832438159284e-02 -1.509245614961483e-04 -1.623687926635284e-01 -4.090947009222791e-04 7.048586042894193e-04
-1.334479445922715e-01 -4.606243140067052e-02 5.362929463283176e-04 -1.691145784721248e-01 -8.325684355865334e-04 1.029679279484560e-03
-1.335728162771511e-01 -4.611764982711404e-02 7.059088736796467e-04 -1.690502560393242e-01 8.635189737994626e-04 -1.100522112583625e-03
-8.938538342143690e-02 -8.952045868084574e-02 4.863323397983470e-04 -1.749358797033121e-01 7.938748982026609e-04 -9.408745587777937e-04
-8.930571463642673e-02 -8.944771161121892e-02 3.463349761567373e-04 -1.749772834529036e-01 -7.769814419358292e-04 8.949760155982774e-04
-5.575954660990375e-02 -5.583233591228355e-02 -6.686386306854009e-04 -1.822519264475267e-01 -1.330783530654157e-03 1.467783602662217e-03
-5.586685850576480e-02 -5.594452606469417e-02 -4.609255390632127e-04 -1.822316751293895e-01 8.066521697032336e-04 -9.384435928404974e-04
-1.335728162771511e-01 -4.611764982711404e-02 7.059088736796467e-04 -1.690502560393242e-01 8.635189737994626e-04 -1.100522112583625e-03
-1.334479445922715e-01 -4.606243140067052e-02 5.362929463283176e-04 -1.691145784721248e-01 -8.325684355865334e-04 1.029679279484560e-03
-1.015220888050116e-01 -9.095761500299608e-03 -6.345449178032480e-04 -1.762838359902131e-01 -1.496796331052894e-03 1.467494138380470e-03
-1.016400215163258e-01 -9.180674617803621e-03 -4.409909648505719e-04 -1.762589896813687e-01 8.562438216147207e-04 -1.126638315558852e-03
-5.586685850576480e-02 -5.594452606469417e-02 -4.609255390632127e-04 -1.822316751293895e-01 8.066521697032336e-04 -9.384435928404974e-04
-5.575954660990375e-02 -5.583233591228355e-02 -6.686386306854009e-04 -1.822519264475267e-01 -1.330783530654157e-03 1.467783602662217e-03
-1.333956149168287e-02 -1.317618194892208e-02 3.428418886410082e-03 -1.870686826985566e-01 -3.715933354169098e-03 3.960171724439790e-03
-1.361670302032673e-02 -1.345900174371357e-02 3.995985150034641e-03 -1.872280922423309e-01 1.541571683325302e-03 -1.696565626308448e-03
-1.016400215163258e-01 -9.180674617803621e-03 -4.409909648505719e-04 -1.762589896813687e-01 8.562438216147207e-04 -1.126638315558852e-03
-1.015220888050116e-01 -9.095761500299608e-03 -6.345449178032480e-04 -1.762838359902131e-01 -1.496796331052894e-03 1.467494138380470e-03
-6.184822171960264e-02 3.756966514703033e-02 3.407972809957663e-03 -1.806401108026794e-01 -4.198838731255928e-03 3.533113833307022e-03
-6.216386941826853e-02 3.737056620960841e-02 3.931866692767325e-03 -1.807876476953810e-01 1.595484398003077e-03 -1.712192269938948e-03
-1.361670302032673e-02 -1.345900174371357e-02 3.995985150034641e-03 -1.872280922423309e-01 1.541571683325302e-03 -1.696565626308448e-03
-1.333956149168287e-02 -1.317618194892208e-02 3.428418886410082e-03 -1.870686826985566e-01 -3.715933354169098e-03 3.960171724439790e-03
6.652928781284007e-02 6.700879347147784e-02 -8.610804710454251e-04 -1.886916856570076e-01 -6.199683382134168e-03 6.328899137628180e-03
6.660895363745178e-02 6.709220029679658e-02 -1.168589502188712e-03 -1.887164884769305e-01 3.327210799056981e-03 -3.631105117473602e-03
-6.216386941826853e-02 3.737056620960841e-02 3.931866692767325e-03 -1.807876476953810e-01 1.595484398003077e-03 -1.712192269938948e-03
-6.184822171960264e-02 3.756966514703033e-02 3.407972809957663e-03 -1.806401108026794e-01 -4.198838731255928e-03 3.533113833307022e-03
1.570446817149750e-02 1.190179834024495e-01 -7.417735483348847e-04 -1.818394258408993e-01 -6.742383750828374e-03 5.494625836786386e-03
1.571894695164068e-02 1.191738491892099e-01 -1.055860942059160e-03 -1.818289973307043e-01 3.705408106437679e-03 -3.346606464696027e-03
6.660895363745178e-02 6.709220029679658e-02 -1.168589502188712e-03 -1.887164884769305e-01 3.327210799056981e-03 -3.631105117473602e-03
6.652928781284007e-02 6.700879347147784e-02 -8.610804710454251e-04 -1.886916856570076e-01 -6.199683382134168e-03 6.328899137628180e-03
1.329109444032452e-01 1.335732304100298e-01 -7.433127095256821e-03 -1.949670924953895e-01 -1.035089814914615e-02 1.050168315895955e-02
1.329720221973658e-01 1.336124663212411e-01 -7.842343261104268e-03 -1.952887939964597e-01 -2.522392077214679e-05 1.223855025716419e-05
1.571894695164068e-02 1.191738491892099e-01 -1.055860942059160e-03 -1.818289973307043e-01 3.705408106437679e-03 -3.346606464696027e-03
1.570446817149750e-02 1.190179834024495e-01 -7.417735483348847e-04 -1.818394258408993e-01 -6.742383750828374e-03 5.494625836786386e-03
7.966949893403287e-02 1.861864157823372e-01 -7.368235835922433e-03 -1.872283611597741e-01 -1.155773140208011e-02 8.814833891146153e-03
7.967889500843378e-02 1.862774474908254e-01 -7.771450298135143e-03 -1.875411056892554e-01 -2.594683539744046e-05 1.693008800660164e-05
-1.837471381991221e-01 -1.067477151025843e-01 4.036124757722148e-04 -1.512621501150436e-01 -2.474432585915659e-04 -1.405098777706834e-04
-1.837297013327811e-01 -1.066358221180727e-01 2.788965197666829e-04 -1.513239374820397e-01 1.136143541004271e-04 4.348446437878671e-04
-1.760728541242299e-01 -9.561083256063858e-02 1.036922412091979e-04 -1.550573325899948e-01 -5.037695025131766e-06 4.390325987194568e-04
-1.760827854940971e-01 -9.569609315535940e-02 1.948169115294006e-04 -1.550185398671374e-01 9.810986200436500e-05 -3.580220980406924e-04
-2.195975789432807e-01 -7.094679269257488e-02 1.887135051060322e-04 -1.372167881280328e-01 -5.956920098616123e-04 -5.834447561403804e-04
-2.195087828000589e-01 -7.089080950251236e-02 5.068371451946602e-05 -1.373168061752391e-01 3.699326298928789e-04 8.824817411616878e-04
-2.136824120914183e-01 -5.913888444036942e-02 3.084145039050436e-04 -1.396422785826767e-01 1.979006213186496e-04 1.012553385791508e-03
-2.137735507964202e-01 -5.917943320238495e-02 4.351490397517414e-04 -1.395541553236686e-01 -1.801398370150192e-04 -8.611694136247381e-04
-1.760827854940971e-01 -9.569609315535940e-02 1.948169115294006e-04 -1.550185398671374e-01 9.810986200436500e-05 -3.580220980406924e-04
-1.760728541242299e-01 -9.561083256063858e-02 1.036922412091979e-04 -1.550573325899948e-01 -5.037695025131766e-06 4.390325987194568e-04
-1.568101180616521e-01 -7.257832438159284e-02 -1.509245614961483e-04 -1.623687926635284e-01 -4.090947009222791e-04 7.048586042894193e-04
-1.569125426312616e-01 -7.266545270900962e-02 2.922271443291921e-05 -1.622963687546616e-01 2.571669837892719e-04 -4.323360355378997e-04
-2.137735507964202e-01 -5.917943320238495e-02 4.351490397517414e-04 -1.395541553236686e-01 -1.801398370150192e-04 -8.611694136247381e-04
-2.136824120914183e-01 -5.913888444036942e-02 3.084145039050436e-04 -1.396422785826767e-01 1.979006213186496e-04 1.012553385791508e-03
-1.962586388403100e-01 -3.466797753880397e-02 2.088463804542075e-04 -1.462280347521853e-01 -3.716328977930650e-04 1.204167509719005e-03
-1.963494627566823e-01 -3.480977263210726e-02 4.364463762615282e-04 -1.461361374097785e-01 1.119977670284867e-04 -1.079135723875187e-03
-1.569125426312616e-01 -7.266545270900962e-02 2.922271443291921e-05 -1.622963687546616e-01 2.571669837892719e-04 -4.323360355378997e-04
-1.568101180616521e-01 -7.257832438159284e-02 -1.509245614961483e-04 -1.623687926635284e-01 -4.090947009222791e-04 7.048586042894193e-04
-1.334479445922715e-01 -4.606243140067052e-02 5.362929463283176e-04 -1.691145784721248e-01 -8.325684355865334e-04 1.029679279484560e-03
-1.335728162771511e-01 -4.611764982711404e-02 7.059088736796467e-04 -1.690502560393242e-01 8.635189737994626e-04 -1.100522112583625e-03
-1.963494627566823e-01 -3.480977263210726e-02 4.364463762615282e-04 -1.461361374097785e-01 1.119977670284867e-04 -1.079135723875187e-03
-1.962586388403100e-01 -3.466797753880397e-02 2.088463804542075e-04 -1.462280347521853e-01 -3.716328977930650e-04 1.204167509719005e-03
-1.743375756387925e-01 -4.325020059756267e-03 5.956590597526084e-04 -1.524742769863054e-01 -9.141991676972945e-04 1.207649646162657e-03
-1.742802569312771e-01 -4.550097841596763e-03 7.603472760903472e-04 -1.524844350774510e-01 8.760376221861620e-04 -1.494920517583808e-03
-1.335728162771511e-01 -4.611764982711404e-02 7.059088736796467e-04 -1.690502560393242e-01 8.635189737994626e-04 -1.100522112583625e-03
-1.334479445922715e-01 -4.606243140067052e-02 5.362929463283176e-04 -1.691145784721248e-01 -8.325684355865334e-04 1.029679279484560e-03
-1.015220888050116e-01 -9.095761500299608e-03 -6.345449178032480e-04 -1.762838359902131e-01 -1.496796331052894e-03 1.467494138380470e-03
-1.016400215163258e-01 -9.180674617803621e-03 -4.409909648505719e-04 -1.762589896813687e-01 8.562438216147207e-04 -1.126638315558852e-03
-1.742802569312771e-01 -4.550097841596763e-03 7.603472760903472e-04 -1.524844350774510e-01 8.760376221861620e-04 -1.494920517583808e-03
-1.743375756387925e-01 -4.325020059756267e-03 5.956590597526084e-04 -1.524742769863054e-01 -9.141991676972945e-04 1.207649646162657e-03
-1.443088047556555e-01 3.759205645774595e-02 -7.241473960810364e-04 -1.585000858666401e-01 -1.622218038030394e-03 1.315573700221681e-03
-1.442581574444000e-01 3.737912979028497e-02 -5.674265145083088e-04 -1.585573040159842e-01 9.394427062003162e-04 -1.050581946727272e-03
-1.016400215163258e-01 -9.180674617803621e-03 -4.409909648505719e-04 -1.762589896813687e-01 8.562438216147207e-04 -1.126638315558852e-03
-1.015220888050116e-01 -9.095761500299608e-03 -6.345449178032480e-04 -1.762838359902131e-01 -1.496796331052894e-03 1.467494138380470e-03
-6.184822171960264e-02 3.756966514703033e-02 3.407972809957663e-03 -1.806401108026794e-01 -4.198838731255928e-03 3.533113833307022e-03
-6.216386941826853e-02 3.737056620960841e-02 3.931866692767325e-03 -1.807876476953810e-01 1.595484398003077e-03 -1.712192269938948e-03
-1.442581574444000e-01 3.737912979028497e-02 -5.674265145083088e-04 -1.585573040159842e-01 9.394427062003162e-04 -1.050581946727272e-03
-1.443088047556555e-01 3.759205645774595e-02 -7.241473960810364e-04 -1.585000858666401e-01 -1.622218038030394e-03 1.315573700221681e-03
-1.058230888579454e-01 8.639938177330703e-02 3.515684988542426e-03 -1.617322002934254e-01 -4.569052689990872e-03 2.986097401293561e-03
-1.061712505488270e-01 8.627171442358217e-02 4.002981320602537e-03 -1.618476393167824e-01 1.790151638012873e-03 -1.340606503825281e-03
-6.216386941826853e-02 3.737056620960841e-02 3.931866692767325e-03 -1.807876476953810e-01 1.595484398003077e-03 -1.712192269938948e-03
-6.184822171960264e-02 3.756966514703033e-02 3.407972809957663e-03 -1.806401108026794e-01 -4.198838731255928e-03 3.533113833307022e-03
1.570446817149750e-02 1.190179834024495e-01 -7.417735483348847e-04 -1.818394258408993e-01 -6.742383750828374e-03 5.494625836786386e-03
1.571894695164068e-02 1.191738491892099e-01 -1.055860942059160e-03 -1.818289973307043e-01 3.705408106437679e-03 -3.346606464696027e-03
-1.061712505488270e-01 8.627171442358217e-02 4.002981320602537e-03 -1.618476393167824e-01 1.790151638012873e-03 -1.340606503825281e-03
-1.058230888579454e-01 8.639938177330703e-02 3.515684988542426e-03 -1.617322002934254e-01 -4.569052689990872e-03 2.986097401293561e-03
-2.971007137429221e-02 1.676229879513384e-01 -5.464944955871761e-04 -1.619103560876505e-01 -7.099917188149766e-03 4.464881600958273e-03
-2.977480228809001e-02 1.678569151770359e-01 -8.545682646322137e-04 -1.618108961560746e-01 4.223197477908306e-03 -2.998051795482690e-03
1.571894695164068e-02 1.191738491892099e-01 -1.055860942059160e-03 -1.818289973307043e-01 3.705408106437679e-03 -3.346606464696027e-03
1.570446817149750e-02 1.190179834024495e-01 -7.417735483348847e-04 -1.818394258408993e-01 -6.742383750828374e-03 5.494625836786386e-03
7.966949893403287e-02 1.861864157823372e-01 -7.368235835922433e-03 -1.872283611597741e-01 -1.155773140208011e-02 8.814833891146153e-03
7.967889500843378e-02 1.862774474908254e-01 -7.771450298135143e-03 -1.875411056892554e-01 -2.594683539744046e-05 1.693008800660164e-05
-2.977480228809001e-02 1.678569151770359e-01 -8.545682646322137e-04 -1.618108961560746e-01 4.223197477908306e-03 -2.998051795482690e-03
-2.971007137429221e-02 1.676229879513384e-01 -5.464944955871761e-04 -1.619103560876505e-01 -7.099917188149766e-03 4.464881600958273e-03
3.246160986674942e-02 2.338089875311126e-01 -7.410706911925117e-03 -1.654061683811823e-01 -1.216303724162738e-02 7.511880600113183e-03
3.241073269310876e-02 2.339631685029538e-01 -7.804759385532258e-03 -1.657040089530698e-01 -2.925073125584795e-05 2.693481110114138e-05
-2.195975789432807e-01 -7.094679269257488e-02 1.887135051060322e-04 -1.372167881280328e-01 -5.956920098616123e-04 -5.834447561403804e-04
-2.195087828000589e-01 -7.089080950251236e-02 5.068371451946602e-05 -1.373168061752391e-01 3.699326298928789e-04 8.824817411616878e-04
-2.136824120914183e-01 -5.913888444036942e-02 3.084145039050436e-04 -1.396422785826767e-01 1.979006213186496e-04 1.012553385791508e-03
-2.137735507964202e-01 -5.917943320238495e-02 4.351490397517414e-04 -1.395541553236686e-01 -1.801398370150192e-04 -8.611694136247381e-04
-2.500443340609294e-01 -4.047895415533931e-02 6.992995639149772e-04 -1.140662477199721e-01 -5.563307089110727e-04 -1.812983720464602e-03
-2.498122713454400e-01 -4.056466762115334e-02 5.575054941173621e-04 -1.143656181905732e-01 1.644618601010089e-04 1.304090143976043e-03
-2.446580466011663e-01 -2.719268011602241e-02 6.777890148716458e-04 -1.157503237255121e-01 1.722630365002567e-04 1.336113377224980e-03
-2.447528635960534e-01 -2.716132076631764e-02 7.463072085666716e-04 -1.155918749371662e-01 -2.695433223237698e-04 -2.415683599675252e-03
-2.137735507964202e-01 -5.917943320238495e-02 4.351490397517414e-04 -1.395541553236686e-01 -1.801398370150192e-04 -8.611694136247381e-04
-2.136824120914183e-01 -5.913888444036942e-02 3.084145039050436e-04 -1.396422785826767e-01 1.979006213186496e-04 1.012553385791508e-03
-1.962586388403100e-01 -3.466797753880397e-02 2.088463804542075e-04 -1.462280347521853e-01 -3.716328977930650e-04 1.204167509719005e-03
-1.963494627566823e-01 -3.480977263210726e-02 4.364463762615282e-04 -1.461361374097785e-01 1.119977670284867e-04 -1.079135723875187e-03
-2.447528635960534e-01 -2.716132076631764e-02 7.463072085666716e-04 -1.155918749371662e-01 -2.695433223237698e-04 -2.415683599675252e-03
-2.446580466011663e-01 -2.719268011602241e-02 6.777890148716458e-04 -1.157503237255121e-01 1.722630365002567e-04 1.336113377224980e-03
-2.290499121072627e-01 1.712182527130209e-03 2.063981365802666e-04 -1.213995757395502e-01 -1.254359809902418e-04 1.206503865957565e-03
-2.288462636171909e-01 1.432615781796829e-03 2.936760700044868e-04 -1.215669860945710e-01 -2.219332634294919e-04 -2.030780025258821e-03
-1.963494627566823e-01 -3.480977263210726e-02 4.364463762615282e-04 -1.461361374097785e-01 1.119977670284867e-04 -1.079135723875187e-03
-1.962586388403100e-01 -3.466797753880397e-02 2.088463804542075e-04 -1.462280347521853e-01 -3.716328977930650e-04 1.204167509719005e-03
-1.743375756387925e-01 -4.325020059756267e-03 5.956590597526084e-04 -1.524742769863054e-01 -9.141991676972945e-04 1.207649646162657e-03
-1.742802569312771e-01 -4.550097841596763e-03 7.603472760903472e-04 -1.524844350774510e-01 8.760376221861620e-04 -1.494920517583808e-03
-2.288462636171909e-01 1.432615781796829e-03 2.936760700044868e-04 -1.215669860945710e-01 -2.219332634294919e-04 -2.030780025258821e-03
-2.290499121072627e-01 1.712182527130209e-03 2.063981365802666e-04 -1.213995757395502e-01 -1.254359809902418e-04 1.206503865957565e-03
-2.096794722956362e-01 3.680043663987418e-02 3.294956899258503e-04 -1.253441586710053e-01 -5.711413597714025e-04 9.607888518324559e-04
-2.093735627670761e-01 3.639704151322253e-02 4.328032113685822e-04 -1.256377107108327e-01 5.192503117162473e-04 -1.088979323681550e-03
-1.742802569312771e-01 -4.550097841596763e-03 7.603472760903472e-04 -1.524844350774510e-01 8.760376221861620e-04 -1.494920517583808e-03
-1.743375756387925e-01 -4.325020059756267e-03 5.956590597526084e-04 -1.524742769863054e-01 -9.141991676972945e-04 1.207649646162657e-03
-1.443088047556555e-01 3.759205645774595e-02 -7.241473960810364e-04 -1.585000858666401e-01 -1.622218038030394e-03 1.315573700221681e-03
-1.442581574444000e-01 3.737912979028497e-02 -5.674265145083088e-04 -1.585573040159842e-01 9.394427062003162e-04 -1.050581946727272e-03
-2.093735627670761e-01 3.639704151322253e-02 4.328032113685822e-04 -1.256377107108327e-01 5.192503117162473e-04 -1.088979323681550e-03
-2.096794722956362e-01 3.680043663987418e-02 3.294956899258503e-04 -1.253441586710053e-01 -5.711413597714025e-04 9.607888518324559e-04
-1.816188257894902e-01 8.007381747450373e-02 -6.057577411961374e-04 -1.292105016729950e-01 -1.424392090301767e-03 9.616876397086107e-04
-1.815661933849475e-01 7.979978807130352e-02 -3.895015109490821e-04 -1.293362997115435e-01 8.294512258340574e-04 -5.023321352155414e-04
-1.442581574444000e-01 3.737912979028497e-02 -5.674265145083088e-04 -1.585573040159842e-01 9.394427062003162e-04 -1.050581946727272e-03
-1.443088047556555e-01 3.759205645774595e-02 -7.241473960810364e-04 -1.585000858666401e-01 -1.622218038030394e-03 1.315573700221681e-03
-1.058230888579454e-01 8.639938177330703e-02 3.515684988542426e-03 -1.617322002934254e-01 -4.569052689990872e-03 2.986097401293561e-03
-1.061712505488270e-01 8.627171442358217e-02 4.002981320602537e-03 -1.618476393167824e-01 1.790151638012873e-03 -1.340606503825281e-03
-1.815661933849475e-01 7.979978807130352e-02 -3.895015109490821e-04 -1.293362997115435e-01 8.294512258340574e-04 -5.023321352155414e-04
-1.816188257894902e-01 8.007381747450373e-02 -6.057577411961374e-04 -1.292105016729950e-01 -1.424392090301767e-03 9.616876397086107e-04
-1.429149937376042e-01 1.282554326143752e-01 3.729394471699943e-03 -1.317268475317031e-01 -4.878044791344193e-03 2.396879782307242e-03
-1.433835868347230e-01 1.281777218322346e-01 4.288659941860210e-03 -1.317617292392886e-01 2.024302010519070e-03 -8.751905468258831e-04
-1.061712505488270e-01 8.627171442358217e-02 4.002981320602537e-03 -1.618476393167824e-01 1.790151638012873e-03 -1.340606503825281e-03
-1.058230888579454e-01 8.639938177330703e-02 3.515684988542426e-03 -1.617322002934254e-01 -4.569052689990872e-03 2.986097401293561e-03
-2.971007137429221e-02 1.676229879513384e-01 -5.464944955871761e-04 -1.619103560876505e-01 -7.099917188149766e-03 4.464881600958273e-03
-2.977480228809001e-02 1.678569151770359e-01 -8.545682646322137e-04 -1.618108961560746e-01 4.223197477908306e-03 -2.998051795482690e-03
-1.433835868347230e-01 1.281777218322346e-01 4.288659941860210e-03 -1.317617292392886e-01 2.024302010519070e-03 -8.751905468258831e-04
-1.429149937376042e-01 1.282554326143752e-01 3.729394471699943e-03 -1.317268475317031e-01 -4.878044791344193e-03 2.396879782307242e-03
-6.619537836124843e-02 2.089441783771442e-01 -4.644684209462206e-04 -1.306670601996522e-01 -7.476118666747119e-03 3.435110869104841e-03
-6.627450879166112e-02 2.092003994257544e-01 -7.713585857294708e-04 -1.304812055455034e-01 4.827959899295838e-03 -2.659297458303579e-03
-2.977480228809001e-02 1.678569151770359e-01 -8.545682646322137e-04 -1.618108961560746e-01 4.223197477908306e-03 -2.998051795482690e-03
-2.971007137429221e-02 1.676229879513384e-01 -5.464944955871761e-04 -1.619103560876505e-01 -7.099917188149766e-03 4.464881600958273e-03
3.246160986674942e-02 2.338089875311126e-01 -7.410706911925117e-03 -1.654061683811823e-01 -1.216303724162738e-02 7.511880600113183e-03
3.241073269310876e-02 2.339631685029538e-01 -7.804759385532258e-03 -1.657040089530698e-01 -2.925073125584795e-05 2.693481110114138e-05
-6.627450879166112e-02 2.092003994257544e-01 -7.713585857294708e-04 -1.304812055455034e-01 4.827959899295838e-03 -2.659297458303579e-03
-6.619537836124843e-02 2.089441783771442e-01 -4.644684209462206e-04 -1.306670601996522e-01 -7.476118666747119e-03 3.435110869104841e-03
-4.093409012042529e-03 2.740914571841832e-01 -7.722827963899233e-03 -1.323529461174182e-01 -1.280856212292482e-02 6.461977747522019e-03
-4.207116041353130e-03 2.743133909809033e-01 -8.114151150701288e-03 -1.326441691705935e-01 -3.911487917916841e-05 3.287913096814115e-05
-2.500443340609294e-01 -4.047895415533931e-02 6.992995639149772e-04 -1.140662477199721e-01 -5.563307089110727e-04 -1.812983720464602e-03
-2.498122713454400e-01 -4.056466762115334e-02 5.575054941173621e-04 -1.143656181905732e-01 1.644618601010089e-04 1.304090143976043e-03
-2.446580466011663e-01 -2.719268011602241e-02 6.777890148716458e-04 -1.157503237255121e-01 1.722630365002567e-04 1.336113377224980e-03
-2.447528635960534e-01 -2.716132076631764e-02 7.463072085666716e-04 -1.155918749371662e-01 -2.695433223237698e-04 -2.415683599675252e-03
-2.699509355515562e-01 -1.326195633793276e-02 1.203012478540239e-03 -8.348671952418693e-02 3.828775743082814e-04 -1.284734451947423e-03
-2.699897396731746e-01 -1.326037591911278e-02 1.242207571245285e-03 -8.331272924080055e-02 -3.565884629403187e-04 1.225291494380481e-03
-2.662589475374127e-01 6.390842953290532e-03 -5.985189354037028e-04 -8.383961268505291e-02 1.139506354613311e-04 8.994018604955335e-04
-2.661551488765989e-01 6.540997820769837e-03 -8.417688821373734e-04 -8.411215106044749e-02 1.851823688514715e-04 -7.427775111774451e-04
-2.447528635960534e-01 -2.716132076631764e-02 7.463072085666716e-04 -1.155918749371662e-01 -2.695433223237698e-04 -2.415683599675252e-03
-2.446580466011663e-01 -2.719268011602241e-02 6.777890148716458e-04 -1.157503237255121e-01 1.722630365002567e-04 1.336113377224980e-03
-2.290499121072627e-01 1.712182527130209e-03 2.063981365802666e-04 -1.213995757395502e-01 -1.254359809902418e-04 1.206503865957565e-03
-2.288462636171909e-01 1.432615781796829e-03 2.936760700044868e-04 -1.215669860945710e-01 -2.219332634294919e-04 -2.030780025258821e-03
-2.661551488765989e-01 6.540997820769837e-03 -8.417688821373734e-04 -8.411215106044749e-02 1.851823688514715e-04 -7.427775111774451e-04
-2.662589475374127e-01 6.390842953290532e-03 -5.985189354037028e-04 -8.383961268505291e-02 1.139506354613311e-04 8.994018604955335e-04
-2.541937310429083e-01 4.017807226820254e-02 -1.517269370900456e-03 -8.510035210367695e-02 4.825781641325028e-04 5.803638618426700e-04
-2.541006100960609e-01 4.024201075861498e-02 -1.659471624133519e-03 -8.528394146390450e-02 -9.321627468598428e-04 3.062769650859329e-04
-2.288462636171909e-01 1.432615781796829e-03 2.936760700044868e-04 -1.215669860945710e-01 -2.219332634294919e-04 -2.030780025258821e-03
-2.290499121072627e-01 1.712182527130209e-03 2.063981365802666e-04 -1.213995757395502e-01 -1.254359809902418e-04 1.206503865957565e-03
-2.096794722956362e-01 3.680043663987418e-02 3.294956899258503e-04 -1.253441586710053e-01 -5.711413597714025e-04 9.607888518324559e-04
-2.093735627670761e-01 3.639704151322253e-02 4.328032113685822e-04 -1.256377107108327e-01 5.192503117162473e-04 -1.088979323681550e-03
-2.541006100960609e-01 4.024201075861498e-02 -1.659471624133519e-03 -8.528394146390450e-02 -9.321627468598428e-04 3.062769650859329e-04
-2.541937310429083e-01 4.017807226820254e-02 -1.517269370900456e-03 -8.510035210367695e-02 4.825781641325028e-04 5.803638618426700e-04
-2.375983240462229e-01 7.149541374466634e-02 4.359120353294508e-04 -8.718349587930194e-02 1.970270787861762e-06 6.308816287703137e-04
-2.376535906350773e-01 7.136314031326962e-02 6.238418360382716e-04 -8.713632504737462e-02 -1.583828472696337e-04 1.711776714714566e-04
-2.093735627670761e-01 3.639704151322253e-02 4.328032113685822e-04 -1.256377107108327e-01 5.192503117162473e-04 -1.088979323681550e-03
-2.096794722956362e-01 3.680043663987418e-02 3.294956899258503e-04 -1.253441586710053e-01 -5.711413597714025e-04 9.607888518324559e-04
-1.816188257894902e-01 8.007381747450373e-02 -6.057577411961374e-04 -1.292105016729950e-01 -1.424392090301767e-03 9.616876397086107e-04
-1.815661933849475e-01 7.979978807130352e-02 -3.895015109490821e-04 -1.293362997115435e-01 8.294512258340574e-04 -5.023321352155414e-04
-2.376535906350773e-01 7.136314031326962e-02 6.238418360382716e-04 -8.713632504737462e-02 -1.583828472696337e-04 1.711776714714566e-04
-2.375983240462229e-01 7.149541374466634e-02 4.359120353294508e-04 -8.718349587930194e-02 1.970270787861762e-06 6.308816287703137e-04
-2.099870332266064e-01 1.120820685156372e-01 -4.923665323371835e-04 -9.133723656976116e-02 -1.310308115838891e-03 7.564281966862255e-04
-2.101283972702692e-01 1.118662787224412e-01 -1.424508681205780e-04 -9.130027342283166e-02 7.529269679790750e-04 -3.469617478844904e-04
-1.815661933849475e-01 7.979978807130352e-02 -3.895015109490821e-04 -1.293362997115435e-01 8.294512258340574e-04 -5.023321352155414e-04
-1.816188257894902e-01 8.007381747450373e-02 -6.057577411961374e-04 -1.292105016729950e-01 -1.424392090301767e-03 9.616876397086107e-04
-1.429149937376042e-01 1.282554326143752e-01 3.729394471699943e-03 -1.317268475317031e-01 -4.878044791344193e-03 2.396879782307242e-03
-1.433835868347230e-01 1.281777218322346e-01 4.288659941860210e-03 -1.317617292392886e-01 2.024302010519070e-03 -8.751905468258831e-04
-2.101283972702692e-01 1.118662787224412e-01 -1.424508681205780e-04 -9.130027342283166e-02 7.529269679790750e-04 -3.469617478844904e-04
-2.099870332266064e-01 1.120820685156372e-01 -4.923665323371835e-04 -9.133723656976116e-02 -1.310308115838891e-03 7.564281966862255e-04
-1.703340247115406e-01 1.602502711023539e-01 3.899492846510821e-03 -9.307248371024746e-02 -5.310521286354723e-03 1.830385129396331e-03
-1.708558270761008e-01 1.601591125187104e-01 4.528122702443227e-03 -9.306228086105596e-02 2.262203342601595e-03 -7.541453269980785e-04
-1.433835868347230e-01 1.281777218322346e-01 4.288659941860210e-03 -1.317617292392886e-01 2.024302010519070e-03 -8.751905468258831e-04
-1.429149937376042e-01 1.282554326143752e-01 3.729394471699943e-03 -1.317268475317031e-01 -4.878044791344193e-03 2.396879782307242e-03
-6.619537836124843e-02 2.089441783771442e-01 -4.644684209462206e-04 -1.306670601996522e-01 -7.476118666747119e-03 3.435110869104841e-03
-6.627450879166112e-02 2.092003994257544e-01 -7.713585857294708e-04 -1.304812055455034e-01 4.827959899295838e-03 -2.659297458303579e-03
-1.708558270761008e-01 1.601591125187104e-01 4.528122702443227e-03 -9.306228086105596e-02 2.262203342601595e-03 -7.541453269980785e-04
-1.703340247115406e-01 1.602502711023539e-01 3.899492846510821e-03 -9.307248371024746e-02 -5.310521286354723e-03 1.830385129396331e-03
-9.184438808319399e-02 2.403249290791629e-01 -3.543058197376294e-04 -9.107051604152774e-02 -7.858275202648299e-03 2.426411315957131e-03
-9.180164130798045e-02 2.405179147233374e-01 -7.143480768301005e-04 -9.089102379026803e-02 5.387624396457716e-03 -2.160928441847837e-03
-6.627450879166112e-02 2.092003994257544e-01 -7.713585857294708e-04 -1.304812055455034e-01 4.827959899295838e-03 -2.659297458303579e-03
-6.619537836124843e-02 2.089441783771442e-01 -4.644684209462206e-04 -1.306670601996522e-01 -7.476118666747119e-03 3.435110869104841e-03
-4.093409012042529e-03 2.740914571841832e-01 -7.722827963899233e-03 -1.323529461174182e-01 -1.280856212292482e-02 6.461977747522019e-03
-4.207116041353130e-03 2.743133909809033e-01 -8.114151150701288e-03 -1.326441691705935e-01 -3.911487917916841e-05 3.287913096814115e-05
-9.180164130798045e-02 2.405179147233374e-01 -7.143480768301005e-04 -9.089102379026803e-02 5.387624396457716e-03 -2.160928441847837e-03
-9.184438808319399e-02 2.403249290791629e-01 -3.543058197376294e-04 -9.107051604152774e-02 -7.858275202648299e-03 2.426411315957131e-03
-2.910812672951819e-02 3.046452878397499e-01 -8.119280863749493e-03 -9.158269774465147e-02 -1.361764509104851e-02 4.841798333285886e-03
-2.929653109143813e-02 3.049414580234620e-01 -8.508421602960840e-03 -9.184119762323335e-02 -4.899572807765169e-05 2.522424111318973e-05
-2.699509355515562e-01 -1.326195633793276e-02 1.203012478540239e-03 -8.348671952418693e-02 3.828775743082814e-04 -1.284734451947423e-03
-2.699897396731746e-01 -1.326037591911278e-02 1.242207571245285e-03 -8.331272924080055e-02 -3.565884629403187e-04 1.225291494380481e-03
-2.662589475374127e-01 6.390842953290532e-03 -5.985189354037028e-04 -8.383961268505291e-02 1.139506354613311e-04 8.994018604955335e-04
-2.661551488765989e-01 6.540997820769837e-03 -8.417688821373734e-04 -8.411215106044749e-02 1.851823688514715e-04 -7.427775111774451e-04
-2.805237937079457e-01 9.191693711682759e-03 -1.325735860049363e-03 -4.819481648570531e-02 -7.346359236471971e-04 1.014703471475727e-03
-2.805404086917617e-01 9.231944411711815e-03 -1.346342660122382e-03 -4.771822487687302e-02 7.896846148263086e-04 -2.531323625680747e-05
-2.789811371889874e-01 2.552004162697599e-02 -1.079684793590318e-03 -4.729674727061475e-02 8.914424864126278e-04 -2.920827304505757e-04
-2.790113144526907e-01 2.553447052583453e-02 -1.073547644622470e-03 -4.750436115352270e-02 -7.010524016227316e-04 1.754559447957647e-03
-2.661551488765989e-01 6.540997820769837e-03 -8.417688821373734e-04 -8.411215106044749e-02 1.851823688514715e-04 -7.427775111774451e-04
-2.662589475374127e-01 6.390842953290532e-03 -5.985189354037028e-04 -8.383961268505291e-02 1.139506354613311e-04 8.994018604955335e-04
-2.541937310429083e-01 4.017807226820254e-02 -1.517269370900456e-03 -8.510035210367695e-02 4.825781641325028e-04 5.803638618426700e-04
-2.541006100960609e-01 4.024201075861498e-02 -1.659471624133519e-03 -8.528394146390450e-02 -9.321627468598428e-04 3.062769650859329e-04
-2.790113144526907e-01 2.553447052583453e-02 -1.073547644622470e-03 -4.750436115352270e-02 -7.010524016227316e-04 1.754559447957647e-03
-2.789811371889874e-01 2.552004162697599e-02 -1.079684793590318e-03 -4.729674727061475e-02 8.914424864126278e-04 -2.920827304505757e-04
-2.707984864685552e-01 5.776760029976228e-02 -1.093126016839975e-03 -4.375488373633737e-02 4.154956316414125e-04 5.947113553572854e-05
-2.709090733919312e-01 5.765825806261685e-02 -8.960839716440301e-04 -4.348221200234262e-02 -6.567030683891146e-04 1.464732505644266e-03
-2.541006100960609e-01 4.024201075861498e-02 -1.659471624133519e-03 -8.528394146390450e-02 -9.321627468598428e-04 3.062769650859329e-04
-2.541937310429083e-01 4.017807226820254e-02 -1.517269370900456e-03 -8.510035210367695e-02 4.825781641325028e-04 5.803638618426700e-04
-2.375983240462229e-01 7.149541374466634e-02 4.359120353294508e-04 -8.718349587930194e-02 1.970270787861762e-06 6.308816287703137e-04
-2.376535906350773e-01 7.136314031326962e-02 6.238418360382716e-04 -8.713632504737462e-02 -1.583828472696337e-04 1.711776714714566e-04
-2.709090733919312e-01 5.765825806261685e-02 -8.960839716440301e-04 -4.348221200234262e-02 -6.567030683891146e-04 1.464732505644266e-03
-2.707984864685552e-01 5.776760029976228e-02 -1.093126016839975e-03 -4.375488373633737e-02 4.154956316414125e-04 5.947113553572854e-05
-2.553377660634783e-01 8.929622440997002e-02 3.760267000090705e-05 -4.408496098013779e-02 -5.610762091678471e-04 5.002379728559958e-04
-2.554729993619176e-01 8.921669174724126e-02 2.305007469722526e-04 -4.378285363578485e-02 6.774769033331342e-04 -3.255519244266431e-05
-2.376535906350773e-01 7.136314031326962e-02 6.238418360382716e-04 -8.713632504737462e-02 -1.583828472696337e-04 1.711776714714566e-04
-2.375983240462229e-01 7.149541374466634e-02 4.359120353294508e-04 -8.718349587930194e-02 1.970270787861762e-06 6.308816287703137e-04
-2.099870332266064e-01 1.120820685156372e-01 -4.923665323371835e-04 -9.133723656976116e-02 -1.310308115838891e-03 7.564281966862255e-04
-2.101283972702692e-01 1.118662787224412e-01 -1.424508681205780e-04 -9.130027342283166e-02 7.529269679790750e-04 -3.469617478844904e-04
-2.554729993619176e-01 8.921669174724126e-02 2.305007469722526e-04 -4.378285363578485e-02 6.774769033331342e-04 -3.255519244266431e-05
-2.553377660634783e-01 8.929622440997002e-02 3.760267000090705e-05 -4.408496098013779e-02 -5.610762091678471e-04 5.002379728559958e-04
-2.274637267232297e-01 1.314260770653333e-01 -8.025452627749918e-04 -4.723834420856995e-02 -1.880835860547684e-03 6.799429305817399e-04
-2.276034542468143e-01 1.312834480813784e-01 -5.318421150161093e-04 -4.722516434913708e-02 8.654784455722356e-04 -2.439919609776403e-04
-2.101283972702692e-01 1.118662787224412e-01 -1.424508681205780e-04 -9.130027342283166e-02 7.529269679790750e-04 -3.469617478844904e-04
-2.099870332266064e-01 1.120820685156372e-01 -4.923665323371835e-04 -9.133723656976116e-02 -1.310308115838891e-03 7.564281966862255e-04
-1.703340247115406e-01 1.602502711023539e-01 3.899492846510821e-03 -9.307248371024746e-02 -5.310521286354723e-03 1.830385129396331e-03
-1.708558270761008e-01 1.601591125187104e-01 4.528122702443227e-03 -9.306228086105596e-02 2.262203342601595e-03 -7.541453269980785e-04
-2.276034542468143e-01 1.312834480813784e-01 -5.318421150161093e-04 -4.722516434913708e-02 8.654784455722356e-04 -2.439919609776403e-04
-2.274637267232297e-01 1.314260770653333e-01 -8.025452627749918e-04 -4.723834420856995e-02 -1.880835860547684e-03 6.799429305817399e-04
-1.863413141764673e-01 1.812176173546935e-01 3.941710719302234e-03 -4.789592069840629e-02 -5.746631760587836e-03 1.166292370650659e-03
-1.868601899933942e-01 1.811422746094671e-01 4.554326195514160e-03 -4.788418001466906e-02 2.423556171706089e-03 -5.012521777638624e-04
-1.708558270761008e-01 1.601591125187104e-01 4.528122702443227e-03 -9.306228086105596e-02 2.262203342601595e-03 -7.541453269980785e-04
-1.703340247115406e-01 1.602502711023539e-01 3.899492846510821e-03 -9.307248371024746e-02 -5.310521286354723e-03 1.830385129396331e-03
-9.184438808319399e-02 2.403249290791629e-01 -3.543058197376294e-04 -9.107051604152774e-02 -7.858275202648299e-03 2.426411315957131e-03
-9.180164130798045e-02 2.405179147233374e-01 -7.143480768301005e-04 -9.089102379026803e-02 5.387624396457716e-03 -2.160928441847837e-03
-1.868601899933942e-01 1.811422746094671e-01 4.554326195514160e-03 -4.788418001466906e-02 2.423556171706089e-03 -5.012521777638624e-04
-1.863413141764673e-01 1.812176173546935e-01 3.941710719302234e-03 -4.789592069840629e-02 -5.746631760587836e-03 1.166292370650659e-03
-1.067032773505368e-01 2.597973043090512e-01 -1.089250944471673e-04 -4.642482286758431e-02 -8.053387905932465e-03 1.329806512870968e-03
-1.065392296501581e-01 2.599429296612084e-01 -5.338882211515005e-04 -4.632531753055522e-02 5.743924050774452e-03 -1.269273667370600e-03
-9.180164130798045e-02 2.405179147233374e-01 -7.143480768301005e-04 -9.089102379026803e-02 5.387624396457716e-03 -2.160928441847837e-03
-9.184438808319399e-02 2.403249290791629e-01 -3.543058197376294e-04 -9.107051604152774e-02 -7.858275202648299e-03 2.426411315957131e-03
-2.910812672951819e-02 3.046452878397499e-01 -8.119280863749493e-03 -9.158269774465147e-02 -1.361764509104851e-02 4.841798333285886e-03
-2.929653109143813e-02 3.049414580234620e-01 -8.508421602960840e-03 -9.184119762323335e-02 -4.899572807765169e-05 2.522424111318973e-05
-1.065392296501581e-01 2.599429296612084e-01 -5.338882211515005e-04 -4.632531753055522e-02 5.743924050774452e-03 -1.269273667370600e-03
-1.067032773505368e-01 2.597973043090512e-01 -1.089250944471673e-04 -4.642482286758431e-02 -8.053387905932465e-03 1.329806512870968e-03
-4.388876228257569e-02 3.227980902190569e-01 -8.270356737747092e-03 -4.652922226420851e-02 -1.415319804412773e-02 2.520833414165355e-03
-4.414515026996461e-02 3.231586109504059e-01 -8.654679723188771e-03 -4.668034339676784e-02 -5.090580143549866e-05 1.442348196072234e-05
-2.805237937079457e-01 9.191693711682759e-03 -1.325735860049363e-03 -4.819481648570531e-02 -7.346359236471971e-04 1.014703471475727e-03
-2.805404086917617e-01 9.231944411711815e-03 -1.346342660122382e-03 -4.771822487687302e-02 7.896846148263086e-04 -2.531323625680747e-05
-2.789811371889874e-01 2.552004162697599e-02 -1.079684793590318e-03 -4.729674727061475e-02 8.914424864126278e-04 -2.920827304505757e-04
-2.790113144526907e-01 2.553447052583453e-02 -1.073547644622470e-03 -4.750436115352270e-02 -7.010524016227316e-04 1.754559447957647e-03
-2.767294977041307e-01 8.412864866778337e-03 -2.027161214371696e-03 2.251540415213401e-02 -8.190790591222359e-04 -6.024509738378549e-05
-2.767329005401855e-01 8.615099606251045e-03 -2.223594268612160e-03 2.272851170936191e-02 5.791092769975020e-04 -1.103151353766431e-03
-2.728044374897927e-01 1.368619809211972e-02 1.516172231824129e-03 7.515971880596450e-03 2.478163131106266e-04 -1.694579544367237e-03
-2.728384794725545e-01 1.355241514390886e-02 1.662979048421540e-03 7.222996244152283e-03 -2.273876110982211e-04 8.174575386455991e-05
-2.790113144526907e-01 2.553447052583453e-02 -1.073547644622470e-03 -4.750436115352270e-02 -7.010524016227316e-04 1.754559447957647e-03
-2.789811371889874e-01 2.552004162697599e-02 -1.079684793590318e-03 -4.729674727061475e-02 8.914424864126278e-04 -2.920827304505757e-04
-2.707984864685552e-01 5.776760029976228e-02 -1.093126016839975e-03 -4.375488373633737e-02 4.154956316414125e-04 5.947113553572854e-05
-2.709090733919312e-01 5.765825806261685e-02 -8.960839716440301e-04 -4.348221200234262e-02 -6.567030683891146e-04 1.464732505644266e-03
-2.728384794725545e-01 1.355241514390886e-02 1.662979048421540e-03 7.222996244152283e-03 -2.273876110982211e-04 8.174575386455991e-05
-2.728044374897927e-01 1.368619809211972e-02 1.516172231824129e-03 7.515971880596450e-03 2.478163131106266e-04 -1.694579544367237e-03
-2.629170001009320e-01 3.991094840914122e-02 2.294148628573420e-03 -1.198251027313920e-02 6.240491227117517e-06 -1.294099879867479e-03
-2.630548115637205e-01 3.984542657191256e-02 2.454111377544501e-03 -1.205389190844401e-02 3.827487840304759e-05 2.071533533055692e-04
-2.709090733919312e-01 5.765825806261685e-02 -8.960839716440301e-04 -4.348221200234262e-02 -6.567030683891146e-04 1.464732505644266e-03
-2.707984864685552e-01 5.776760029976228e-02 -1.093126016839975e-03 -4.375488373633737e-02 4.154956316414125e-04 5.947113553572854e-05
-2.553377660634783e-01 8.929622440997002e-02 3.760267000090705e-05 -4.408496098013779e-02 -5.610762091678471e-04 5.002379728559958e-04
-2.554729993619176e-01 8.921669174724126e-02 2.305007469722526e-04 -4.378285363578485e-02 6.774769033331342e-04 -3.255519244266431e-05
-2.630548115637205e-01 3.984542657191256e-02 2.454111377544501e-03 -1.205389190844401e-02 3.827487840304759e-05 2.071533533055692e-04
-2.629170001009320e-01 3.991094840914122e-02 2.294148628573420e-03 -1.198251027313920e-02 6.240491227117517e-06 -1.294099879867479e-03
-2.541214446065223e-01 8.406768768629633e-02 6.555980069138615e-04 -1.933136134854351e-02 -5.713338017245264e-04 4.458996820323740e-04
-2.541824713509529e-01 8.398547430636702e-02 7.676025594046770e-04 -1.933016973307533e-02 7.450977229288328e-04 -6.972322207542844e-05
-2.554729993619176e-01 8.921669174724126e-02 2.305007469722526e-04 -4.378285363578485e-02 6.774769033331342e-04 -3.255519244266431e-05
-2.553377660634783e-01 8.929622440997002e-02 3.760267000090705e-05 -4.408496098013779e-02 -5.610762091678471e-04 5.002379728559958e-04
-2.274637267232297e-01 1.314260770653333e-01 -8.025452627749918e-04 -4.723834420856995e-02 -1.880835860547684e-03 6.799429305817399e-04
-2.276034542468143e-01 1.312834480813784e-01 -5.318421150161093e-04 -4.722516434913708e-02 8.654784455722356e-04 -2.439919609776403e-04
-2.541824713509529e-01 8.398547430636702e-02 7.676025594046770e-04 -1.933016973307533e-02 7.450977229288328e-04 -6.972322207542844e-05
-2.541214446065223e-01 8.406768768629633e-02 6.555980069138615e-04 -1.933136134854351e-02 -5.713338017245264e-04 4.458996820323740e-04
-2.312715931516283e-01 1.354465400115055e-01 -7.668005725206138e-04 -1.329655857011685e-02 -1.887740533480502e-03 4.682588395260858e-04
-2.314316013409285e-01 1.353157274949600e-01 -4.912278705597435e-04 -1.337082611613912e-02 7.029436013520839e-04 -5.482656234906625e-05
-2.276034542468143e-01 1.312834480813784e-01 -5.318421150161093e-04 -4.722516434913708e-02 8.654784455722356e-04 -2.439919609776403e-04
-2.274637267232297e-01 1.314260770653333e-01 -8.025452627749918e-04 -4.723834420856995e-02 -1.880835860547684e-03 6.799429305817399e-04
-1.863413141764673e-01 1.812176173546935e-01 3.941710719302234e-03 -4.789592069840629e-02 -5.746631760587836e-03 1.166292370650659e-03
-1.868601899933942e-01 1.811422746094671e-01 4.554326195514160e-03 -4.788418001466906e-02 2.423556171706089e-03 -5.012521777638624e-04
-2.314316013409285e-01 1.353157274949600e-01 -4.912278705597435e-04 -1.337082611613912e-02 7.029436013520839e-04 -5.482656234906625e-05
-2.312715931516283e-01 1.354465400115055e-01 -7.668005725206138e-04 -1.329655857011685e-02 -1.887740533480502e-03 4.682588395260858e-04
-1.907197573665005e-01 1.882333440759889e-01 3.734375822798709e-03 -9.131245217431982e-03 -5.845916956682783e-03 8.972630362987374e-04
-1.912401100100123e-01 1.881526789518636e-01 4.354179082357314e-03 -9.138569833759543e-03 2.548004201271841e-03 -9.902381267062394e-05
-1.868601899933942e-01 1.811422746094671e-01 4.554326195514160e-03 -4.788418001466906e-02 2.423556171706089e-03 -5.012521777638624e-04
-1.863413141764673e-01 1.812176173546935e-01 3.941710719302234e-03 -4.789592069840629e-02 -5.746631760587836e-03 1.166292370650659e-03
-1.067032773505368e-01 2.597973043090512e-01 -1.089250944471673e-04 -4.642482286758431e-02 -8.053387905932465e-03 1.329806512870968e-03
-1.065392296501581e-01 2.599429296612084e-01 -5.338882211515005e-04 -4.632531753055522e-02 5.743924050774452e-03 -1.269273667370600e-03
-1.912401100100123e-01 1.881526789518636e-01 4.354179082357314e-03 -9.138569833759543e-03 2.548004201271841e-03 -9.902381267062394e-05
-1.907197573665005e-01 1.882333440759889e-01 3.734375822798709e-03 -9.131245217431982e-03 -5.845916956682783e-03 8.972630362987374e-04
-1.113495766812314e-01 2.659961255798290e-01 5.469875742322543e-05 -1.034949750064759e-02 -8.120454514058047e-03 1.377580938373557e-03
-1.111484449961650e-01 2.661415786301453e-01 -3.981276679192441e-04 -1.030767014338070e-02 5.840467569045646e-03 -9.806124157704138e-05
-1.065392296501581e-01 2.599429296612084e-01 -5.338882211515005e-04 -4.632531753055522e-02 5.743924050774452e-03 -1.269273667370600e-03
-1.067032773505368e-01 2.597973043090512e-01 -1.089250944471673e-04 -4.642482286758431e-02 -8.053387905932465e-03 1.329806512870968e-03
-4.388876228257569e-02 3.227980902190569e-01 -8.270356737747092e-03 -4.652922226420851e-02 -1.415319804412773e-02 2.520833414165355e-03
-4.414515026996461e-02 3.231586109504059e-01 -8.654679723188771e-03 -4.668034339676784e-02 -5.090580143549866e-05 1.442348196072234e-05
-1.111484449961650e-01 2.661415786301453e-01 -3.981276679192441e-04 -1.030767014338070e-02 5.840467569045646e-03 -9.806124157704138e-05
-1.113495766812314e-01 2.659961255798290e-01 5.469875742322543e-05 -1.034949750064759e-02 -8.120454514058047e-03 1.377580938373557e-03
-4.877561337095359e-02 3.282039911074587e-01 -8.226992753103839e-03 -1.201994340133813e-02 -1.427154190578042e-02 1.393643001698172e-03
-4.905824545856043e-02 3.285891295439840e-01 -8.608102494935266e-03 -1.205163351859062e-02 -4.845965170187459e-05 6.954568192612306e-07
        </DataArray>
        <DataArray type="Float64" Name="plastic_strain_incr" format="ascii">
2.392102203528991e-03
2.392449746727958e-03
1.306903388231674e-03
1.306732792140477e-03
2.328762940116147e-03
2.328654422237009e-03
1.280246191328511e-03
1.280405199375740e-03
1.306732792140477e-03
1.306903388231674e-03
1.468251877193967e-03
1.467310284932393e-03
1.280405199375740e-03
1.280246191328511e-03
1.441677506806116e-03
1.441132702865664e-03
1.467310284932393e-03
1.468251877193967e-03
1.691694376905957e-03
1.690588505247054e-03
1.441132702865664e-03
1.441677506806116e-03
1.649790708934348e-03
1.648842848993598e-03
1.690588505247054e-03
1.691694376905957e-03
1.981995580730510e-03
1.979167955532718e-03
1.648842848993598e-03
1.649790708934348e-03
1.933176005213809e-03
1.930094627590692e-03
1.979167955532718e-03
1.981995580730510e-03
2.578614135838843e-03
2.558416793089790e-03
1.930094627590692e-03
1.933176005213809e-03
2.574933644202688e-03
2.553613742135470e-03
2.558416793089790e-03
2.578614135838843e-03
4.688242781850064e-03
4.672437855027875e-03
2.553613742135470e-03
2.574933644202688e-03
4.738466525217004e-03
4.722325679132409e-03
4.672437855027875e-03
4.688242781850064e-03
1.636672892987255e-02
1.637790683440801e-02
4.722325679132409e-03
4.738466525217004e-03
1.643442033404741e-02
1.644770492957975e-02
2.328762940116147e-03
2.328654422237009e-03
1.280246191328511e-03
1.280405199375740e-03
2.116010751195964e-03
2.115388790805691e-03
1.171331289264728e-03
1.172018884438063e-03
1.280405199375740e-03
1.280246191328511e-03
1.441677506806116e-03
1.441132702865664e-03
1.172018884438063e-03
1.171331289264728e-03
1.319354657670299e-03
1.319359318493774e-03
1.441132702865664e-03
1.441677506806116e-03
1.649790708934348e-03
1.648842848993598e-03
1.319359318493774e-03
1.319354657670299e-03
1.518441649848359e-03
1.517314295673635e-03
1.648842848993598e-03
1.649790708934348e-03
1.933176005213809e-03
1.930094627590692e-03
1.517314295673635e-03
1.518441649848359e-03
1.847316228296349e-03
1.843509043827663e-03
1.930094627590692e-03
1.933176005213809e-03
2.574933644202688e-03
2.553613742135470e-03
1.843509043827663e-03
1.847316228296349e-03
2.599918433813667e-03
2.576175155004819e-03
2.553613742135470e-03
2.574933644202688e-03
4.738466525217004e-03
4.722325679132409e-03
2.576175155004819e-03
2.599918433813667e-03
4.850709033814227e-03
4.834244957798932e-03
4.722325679132409e-03
4.738466525217004e-03
1.643442033404741e-02
1.644770492957975e-02
4.834244957798932e-03
4.850709033814227e-03
1.661456242103753e-02
1.663292649837586e-02
2.116010751195964e-03
2.115388790805691e-03
1.171331289264728e-03
1.172018884438063e-03
1.730798599270538e-03
1.731892750965574e-03
9.392591175379494e-04
9.387131288479385e-04
1.172018884438063e-03
1.171331289264728e-03
1.319354657670299e-03
1.319359318493774e-03
9.387131288479385e-04
9.392591175379494e-04
1.082951313272353e-03
1.081610933513179e-03
1.319359318493774e-03
1.319354657670299e-03
1.518441649848359e-03
1.517314295673635e-03
1.081610933513179e-03
1.082951313272353e-03
1.357245183570274e-03
1.354842362683672e-03
1.517314295673635e-03
1.518441649848359e-03
1.847316228296349e-03
1.843509043827663e-03
1.354842362683672e-03
1.357245183570274e-03
1.805872930278711e-03
1.801096906355097e-03
1.843509043827663e-03
1.847316228296349e-03
2.599918433813667e-03
2.576175155004819e-03
1.801096906355097e-03
1.805872930278711e-03
2.651651151308444e-03
2.625965677014452e-03
2.576175155004819e-03
2.599918433813667e-03
4.850709033814227e-03
4.834244957798932e-03
2.625965677014452e-03
2.651651151308444e-03
4.974166457504425e-03
4.957439348449671e-03
4.834244957798932e-03
4.850709033814227e-03
1.661456242103753e-02
1.663292649837586e-02
4.957439348449671e-03
4.974166457504425e-03
1.688808202938586e-02
1.691238973343507e-02
1.730798599270538e-03
1.731892750965574e-03
9.392591175379494e-04
9.387131288479385e-04
1.359020003756930e-03
1.361615252671602e-03
7.342807062583469e-04
7.326768150529447e-04
9.387131288479385e-04
9.392591175379494e-04
1.082951313272353e-03
1.081610933513179e-03
7.326768150529447e-04
7.342807062583469e-04
9.211016474019409e-04
9.186003585320185e-04
1.081610933513179e-03
1.082951313272353e-03
1.357245183570274e-03
1.354842362683672e-03
9.186003585320185e-04
9.211016474019409e-04
1.270281734874068e-03
1.267143012907339e-03
1.354842362683672e-03
1.357245183570274e-03
1.805872930278711e-03
1.801096906355097e-03
1.267143012907339e-03
1.270281734874068e-03
1.760123614193433e-03
1.754402651281377e-03
1.801096906355097e-03
1.805872930278711e-03
2.651651151308444e-03
2.625965677014452e-03
1.754402651281377e-03
1.760123614193433e-03
2.654829668341638e-03
2.627410299909584e-03
2.625965677014452e-03
2.651651151308444e-03
4.974166457504425e-03
4.957439348449671e-03
2.627410299909584e-03
2.654829668341638e-03
5.098039166590901e-03
5.079984221343534e-03
4.957439348449671e-03
4.974166457504425e-03
1.688808202938586e-02
1.691238973343507e-02
5.079984221343534e-03
5.098039166590901e-03
1.721747353387377e-02
1.724682212659542e-02
1.359020003756930e-03
1.361615252671602e-03
7.342807062583469e-04
7.326768150529447e-04
1.309785457993179e-03
1.310587415189227e-03
7.876795175860475e-04
7.875098769132402e-04
7.326768150529447e-04
7.342807062583469e-04
9.211016474019409e-04
9.186003585320185e-04
7.875098769132402e-04
7.876795175860475e-04
9.818771569713798e-04
9.809313986506960e-04
9.186003585320185e-04
9.211016474019409e-04
1.270281734874068e-03
1.267143012907339e-03
9.809313986506960e-04
9.818771569713798e-04
1.234150318827679e-03
1.232788638324373e-03
1.267143012907339e-03
1.270281734874068e-03
1.760123614193433e-03
1.754402651281377e-03
1.232788638324373e-03
1.234150318827679e-03
1.650781619501570e-03
1.645872365859342e-03
1.754402651281377e-03
1.760123614193433e-03
2.654829668341638e-03
2.627410299909584e-03
1.645872365859342e-03
1.650781619501570e-03
2.612217351203149e-03
2.582897063638621e-03
2.627410299909584e-03
2.654829668341638e-03
5.098039166590901e-03
5.079984221343534e-03
2.582897063638621e-03
2.612217351203149e-03
5.212493998683987e-03
5.192527003652610e-03
5.079984221343534e-03
5.098039166590901e-03
1.721747353387377e-02
1.724682212659542e-02
5.192527003652610e-03
5.212493998683987e-03
1.749034416408580e-02
1.752333894332532e-02
1.309785457993179e-03
1.310587415189227e-03
7.876795175860475e-04
7.875098769132402e-04
2.710637069547212e-03
2.710696427632050e-03
1.618696504297211e-03
1.620561211752226e-03
7.875098769132402e-04
7.876795175860475e-04
9.818771569713798e-04
9.809313986506960e-04
1.620561211752226e-03
1.618696504297211e-03
1.888492960225105e-03
1.891082512386916e-03
9.809313986506960e-04
9.818771569713798e-04
1.234150318827679e-03
1.232788638324373e-03
1.891082512386916e-03
1.888492960225105e-03
2.330006452817678e-03
2.328704202799139e-03
1.232788638324373e-03
1.234150318827679e-03
1.650781619501570e-03
1.645872365859342e-03
2.328704202799139e-03
2.330006452817678e-03
3.187161631057482e-03
3.176745417431767e-03
1.645872365859342e-03
1.650781619501570e-03
2.612217351203149e-03
2.582897063638621e-03
3.176745417431767e-03
3.187161631057482e-03
5.217378362518447e-03
5.156386058884204e-03
2.582897063638621e-03
2.612217351203149e-03
5.212493998683987e-03
5.192527003652610e-03
5.156386058884204e-03
5.217378362518447e-03
1.053674287456568e-02
1.049572066595855e-02
5.192527003652610e-03
5.212493998683987e-03
1.749034416408580e-02
1.752333894332532e-02
1.049572066595855e-02
1.053674287456568e-02
3.517991664962780e-02
3.524912778542114e-02
        </DataArray>
        <DataArray type="Float64" Name="plastic_zone" format="ascii">
1.000000000000000e+00
1.000000000000000e+00
5.000000000000000e-01
5.000000000000000e-01
1.000000000000000e+00
1.000000000000000e+00
5.000000000000000e-01
5.000000000000000e-01
5.000000000000000e-01
5.000000000000000e-01
5.000000000000000e-01
5.000000000000000e-01
5.000000000000000e-01
5.000000000000000e-01
5.000000000000000e-01
5.000000000000000e-01
5.000000000000000e-01
5.000000000000000e-01
5.000000000000000e-01
5.000000000000000e-01
5.000000000000000e-01
5.000000000000000e-01
5.000000000000000e-01
5.000000000000000e-01
5.000000000000000e-01
5.000000000000000e-01
5.000000000000000e-01
5.000000000000000e-01
5.000000000000000e-01
5.000000000000000e-01
5.000000000000000e-01
5.000000000000000e-01
5.000000000000000e-01
5.000000000000000e-01
5.000000000000000e-01
5.000000000000000e-01
5.000000000000000e-01
5.000000000000000e-01
5.000000000000000e-01
5.000000000000000e-01
5.000000000000000e-01
5.000000000000000e-01
5.000000000000000e-01
5.000000000000000e-01
5.000000000000000e-01
5.000000000000000e-01
5.000000000000000e-01
5.000000000000000e-01
5.000000000000000e-01
5.000000000000000e-01
1.000000000000000e+00
1.000000000000000e+00
5.000000000000000e-01
5.000000000000000e-01
1.000000000000000e+00
1.000000000000000e+00
1.000000000000000e+00
1.000000000000000e+00
5.000000000000000e-01
5.000000000000000e-01
1.000000000000000e+00
1.000000000000000e+00
5.000000000000000e-01
5.000000000000000e-01
5.000000000000000e-01
5.000000000000000e-01
5.000000000000000e-01
5.000000000000000e-01
5.000000000000000e-01
5.000000000000000e-01
5.000000000000000e-01
5.000000000000000e-01
5.000000000000000e-01
5.000000000000000e-01
5.000000000000000e-01
5.000000000000000e-01
5.000000000000000e-01
5.000000000000000e-01
5.000000000000000e-01
5.000000000000000e-01
5.000000000000000e-01
5.000000000000000e-01
5.000000000000000e-01
5.000000000000000e-01
5.000000000000000e-01
5.000000000000000e-01
5.000000000000000e-01
5.000000000000000e-01
5.000000000000000e-01
5.000000000000000e-01
5.000000000000000e-01
5.000000000000000e-01
5.000000000000000e-01
5.000000000000000e-01
5.000000000000000e-01
5.000000000000000e-01
5.000000000000000e-01
5.000000000000000e-01
5.000000000000000e-01
5.000000000000000e-01
5.000000000000000e-01
5.000000000000000e-01
5.000000000000000e-01
5.000000000000000e-01
5.000000000000000e-01
5.000000000000000e-01
1.000000000000000e+00
1.000000000000000e+00
5.000000000000000e-01
5.000000000000000e-01
1.000000000000000e+00
1.000000000000000e+00
1.000000000000000e+00
1.000000000000000e+00
5.000000000000000e-01
5.000000000000000e-01
1.000000000000000e+00
1.000000000000000e+00
5.000000000000000e-01
5.000000000000000e-01
5.000000000000000e-01
5.000000000000000e-01
5.000000000000000e-01
5.000000000000000e-01
5.000000000000000e-01
5.000000000000000e-01
5.000000000000000e-01
5.000000000000000e-01
5.000000000000000e-01
5.000000000000000e-01
5.000000000000000e-01
5.000000000000000e-01
5.000000000000000e-01
5.000000000000000e-01
5.000000000000000e-01
5.000000000000000e-01
5.000000000000000e-01
5.000000000000000e-01
5.000000000000000e-01
5.000000000000000e-01
5.000000000000000e-01
5.000000000000000e-01
5.000000000000000e-01
5.000000000000000e-01
5.000000000000000e-01
5.000000000000000e-01
5.000000000000000e-01
5.000000000000000e-01
5.000000000000000e-01
5.000000000000000e-01
5.000000000000000e-01
5.000000000000000e-01
5.000000000000000e-01
5.000000000000000e-01
5.000000000000000e-01
5.000000000000000e-01
5.000000000000000e-01
5.000000000000000e-01
5.000000000000000e-01
5.000000000000000e-01
5.000000000000000e-01
5.000000000000000e-01
1.000000000000000e+00
1.000000000000000e+00
5.000000000000000e-01
5.000000000000000e-01
1.000000000000000e+00
1.000000000000000e+00
1.000000000000000e+00
1.000000000000000e+00
5.000000000000000e-01
5.000000000000000e-01
1.000000000000000e+00
1.000000000000000e+00
5.000000000000000e-01
5.000000000000000e-01
5.000000000000000e-01
5.000000000000000e-01
5.000000000000000e-01
5.000000000000000e-01
5.000000000000000e-01
5.000000000000000e-01
5.000000000000000e-01
5.000000000000000e-01
5.000000000000000e-01
5.000000000000000e-01
5.000000000000000e-01
5.000000000000000e-01
5.000000000000000e-01
5.000000000000000e-01
5.000000000000000e-01
5.000000000000000e-01
5.000000000000000e-01
5.000000000000000e-01
5.000000000000000e-01
5.000000000000000e-01
5.000000000000000e-01
5.000000000000000e-01
5.000000000000000e-01
5.000000000000000e-01
5.000000000000000e-01
5.000000000000000e-01
5.000000000000000e-01
5.000000000000000e-01
5.000000000000000e-01
5.000000000000000e-01
5.000000000000000e-01
5.000000000000000e-01
5.000000000000000e-01
5.000000000000000e-01
5.000000000000000e-01
5.000000000000000e-01
5.000000000000000e-01
5.000000000000000e-01
5.000000000000000e-01
5.000000000000000e-01
5.000000000000000e-01
5.000000000000000e-01
1.000000000000000e+00
1.000000000000000e+00
5.000000000000000e-01
5.000000000000000e-01
1.000000000000000e+00
1.000000000000000e+00
1.000000000000000e+00
1.000000000000000e+00
5.000000000000000e-01
5.000000000000000e-01
1.000000000000000e+00
1.000000000000000e+00
5.000000000000000e-01
5.000000000000000e-01
5.000000000000000e-01
5.000000000000000e-01
5.000000000000000e-01
5.000000000000000e-01
5.000000000000000e-01
5.000000000000000e-01
5.000000000000000e-01
5.000000000000000e-01
5.000000000000000e-01
5.000000000000000e-01
5.000000000000000e-01
5.000000000000000e-01
5.000000000000000e-01
5.000000000000000e-01
5.000000000000000e-01
5.000000000000000e-01
5.000000000000000e-01
5.000000000000000e-01
5.000000000000000e-01
5.000000000000000e-01
5.000000000000000e-01
5.000000000000000e-01
5.000000000000000e-01
5.000000000000000e-01
5.000000000000000e-01
5.000000000000000e-01
5.000000000000000e-01
5.000000000000000e-01
5.000000000000000e-01
5.000000000000000e-01
5.000000000000000e-01
5.000000000000000e-01
5.000000000000000e-01
5.000000000000000e-01
5.000000000000000e-01
5.000000000000000e-01
5.000000000000000e-01
5.000000000000000e-01
5.000000000000000e-01
5.000000000000000e-01
5.000000000000000e-01
5.000000000000000e-01
1.000000000000000e+00
1.000000000000000e+00
5.000000000000000e-01
5.000000000000000e-01
1.000000000000000e+00
1.000000000000000e+00
1.000000000000000e+00
1.000000000000000e+00
5.000000000000000e-01
5.000000000000000e-01
2.000000000000000e+00
2.000000000000000e+00
1.000000000000000e+00
1.000000000000000e+00
5.000000000000000e-01
5.000000000000000e-01
5.000000000000000e-01
5.000000000000000e-01
1.000000000000000e+00
1.000000000000000e+00
1.000000000000000e+00
1.000000000000000e+00
5.000000000000000e-01
5.000000000000000e-01
5.000000000000000e-01
5.000000000000000e-01
1.000000000000000e+00
1.000000000000000e+00
1.000000000000000e+00
1.000000000000000e+00
5.000000000000000e-01
5.000000000000000e-01
5.000000000000000e-01
5.000000000000000e-01
1.000000000000000e+00
1.000000000000000e+00
1.000000000000000e+00
1.000000000000000e+00
5.000000000000000e-01
5.000000000000000e-01
5.000000000000000e-01
5.000000000000000e-01
1.000000000000000e+00
1.000000000000000e+00
1.000000000000000e+00
1.000000000000000e+00
5.000000000000000e-01
5.000000000000000e-01
5.000000000000000e-01
5.000000000000000e-01
1.000000000000000e+00
1.000000000000000e+00
1.000000000000000e+00
1.000000000000000e+00
5.000000000000000e-01
5.000000000000000e-01
1.000000000000000e+00
1.000000000000000e+00
1.000000000000000e+00
1.000000000000000e+00
2.000000000000000e+00
2.000000000000000e+00
        </DataArray>
  </PointData>
  <CellData>
        <DataArray type="Float64" Name="element_cauchy_stresses_xyz" NumberOfComponents="6" format="ascii">
-1.651518768976105e-01 -1.250610956187918e-01 -1.909756088517547e-04 -1.555862245153755e-01 6.165431604451744e-05 -5.418678770943471e-05
-1.469689364086234e-01 -1.050767135276203e-01 -2.190333105106333e-04 -1.630916854145256e-01 -1.064164000029588e-04 8.382949773883089e-05
-1.245732981151900e-01 -8.133491045956821e-02 5.655011904075591e-04 -1.704489764591477e-01 1.478959226045309e-04 -2.292633704119515e-04
-9.738343170553876e-02 -5.268174858233321e-02 -1.670960897288921e-03 -1.781122611326100e-01 -4.101732880595299e-04 3.378924615198052e-04
-6.170467039313537e-02 -1.396530579614408e-02 2.946589454601913e-03 -1.841806289914396e-01 3.001235539926795e-04 -3.418682744876486e-04
-8.179502013762432e-03 4.441257891120249e-02 -8.754239951803564e-03 -1.890271818237768e-01 -1.165241832437768e-03 1.030608650621715e-03
9.384193340305837e-02 1.477848332930374e-01 6.338764723759006e-03 -1.872518764262859e-01 -4.713600864608533e-03 4.123888632698484e-03
-2.037492847867004e-01 -8.650710793500749e-02 -6.637859065316499e-05 -1.452384925506092e-01 5.273875954728152e-05 -9.127138088109007e-05
-1.876722633932609e-01 -6.553341193801028e-02 -3.187131477443019e-04 -1.522876185947839e-01 -1.352536640611264e-04 5.563390690641474e-06
-1.672235135833168e-01 -4.043939622168969e-02 4.136434398499592e-04 -1.592455992008203e-01 1.373848513988557e-04 -2.095862634091573e-04
-1.419139371090818e-01 -8.152741950258200e-03 -1.896562274869151e-03 -1.664130072712156e-01 -4.319486951123207e-04 3.048992162243441e-04
-1.071003965550102e-01 3.579865973394113e-02 3.009434448787316e-03 -1.717054434703496e-01 3.445011933617029e-04 -2.762630944305228e-04
-5.570064870479770e-02 9.638715884016327e-02 -8.745593049203495e-03 -1.753926310108314e-01 -1.240756286823372e-03 8.243997005718402e-04
4.360144746127901e-02 1.980180983155160e-01 6.246897269214893e-03 -1.727744608413434e-01 -5.069218373342394e-03 3.420604259251281e-03
-2.371588860199466e-01 -5.353499371029435e-02 -1.974951881738512e-04 -1.261960493791625e-01 8.611834876573118e-05 -7.444405570307915e-05
-2.239496189379535e-01 -3.093451238400234e-02 -7.038782634791927e-04 -1.318380218293699e-01 -1.199160006059845e-04 4.126097966926229e-05
-2.059124666149024e-01 -1.042769491663352e-03 3.701460398218860e-04 -1.370478718129249e-01 2.101292337646787e-04 -1.082657230238370e-04
-1.821134129659935e-01 3.725556034513494e-02 -1.694264926069526e-03 -1.423703016380613e-01 -3.993562172468684e-04 2.740353804192105e-04
-1.478599064254213e-01 8.249635889079512e-02 2.980032762872875e-03 -1.468922789729631e-01 3.702006212904027e-04 -1.966910379698767e-04
-9.611576725314271e-02 1.421163609860132e-01 -8.744304441996500e-03 -1.501514442641904e-01 -1.262296282990506e-03 5.874936572081357e-04
1.886193289173762e-03 2.421268913100724e-01 6.255537173481064e-03 -1.458042612485118e-01 -5.286004911405763e-03 2.811295125734362e-03
-2.628996092077769e-01 -2.532374363457145e-02 -8.057075825303121e-04 -1.007367674938587e-01 1.065178401599483e-04 4.732181450498531e-04
-2.520634912302024e-01 3.350342074340038e-03 -2.858220071138284e-04 -1.017968886324786e-01 -1.141546702375461e-04 6.783951722846125e-04
-2.359926672579014e-01 3.862997774658667e-02 5.474495844778810e-04 -1.035722590325525e-01 4.145960413115478e-04 1.540164773743454e-04
-2.139978618194930e-01 7.587906881068256e-02 -1.840537708788124e-03 -1.081459718500622e-01 -4.291519081431733e-04 2.629523587212731e-04
-1.807360020639681e-01 1.188101763279967e-01 2.877741961402433e-03 -1.129747876241644e-01 4.113419057242447e-04 -1.230841938217160e-04
-1.277215405970932e-01 1.793519450981337e-01 -8.947536572439558e-03 -1.151475568254383e-01 -1.295553966041580e-03 4.185847899433516e-04
-2.856873886153543e-02 2.778096041191953e-01 6.545333240031551e-03 -1.091460468191210e-01 -5.512459939927270e-03 2.189762285291780e-03
-2.789807579609705e-01 2.903915297553078e-03 5.750373198249249e-04 -6.228570732764619e-02 -4.374893084811728e-05 -3.207104764148219e-04
-2.670092634552776e-01 3.656473772225502e-02 2.549163145464061e-03 -6.249163979410516e-02 -7.992844116223355e-05 -3.669486383328119e-04
-2.552286874961592e-01 6.627316068990802e-02 1.345122525112894e-03 -6.563464216809806e-02 4.584442901168531e-04 -2.036596099402512e-04
-2.363646872668682e-01 1.000530532690986e-01 -1.745986061360387e-03 -6.980432683221151e-02 -4.673205570491525e-04 3.396315222148266e-04
-2.033349344693463e-01 1.445094688229172e-01 2.893457125015576e-03 -7.247312906146378e-02 4.768789030096315e-04 8.651444514825152e-05
-1.482185900762702e-01 2.071767992556834e-01 -9.226821460308607e-03 -7.196187999225152e-02 -1.397951704701704e-03 3.370584571293412e-04
-4.797193057452346e-02 3.018678018175147e-01 6.827567622185051e-03 -6.673766120021744e-02 -5.710209658345398e-03 1.370366518601041e-03
-2.808404245082154e-01 8.829780616917355e-03 8.384052776974449e-04 -1.551429982064809e-02 6.718179461868284e-05 -4.666518736856781e-05
-2.754911187312309e-01 3.347092989717849e-02 -2.328644544412745e-03 -1.965462239558257e-02 -3.760492571311519e-05 1.742560461665170e-04
-2.647777834034623e-01 6.664467299193637e-02 4.803979092799686e-04 -2.442543196610990e-02 1.332387813901390e-04 2.879955410506462e-04
-2.482624166569320e-01 1.086920899978867e-01 -1.943926458320322e-03 -2.576922760819840e-02 -5.038370522538388e-04 2.367812422759568e-04
-2.140803365206171e-01 1.590798245461019e-01 3.368821154329352e-03 -2.535474887455737e-02 4.472013680333686e-04 -1.472488304779435e-05
-1.576271198395231e-01 2.220587643401610e-01 -9.232741224481707e-03 -2.417883985696677e-02 -1.490072799961308e-03 1.547853807549427e-04
-5.753156965451418e-02 3.130066512143278e-01 6.835334993372320e-03 -2.231629162192273e-02 -5.788589396351940e-03 4.684376810469367e-04
        </DataArray>
        <DataArray type="Float64" Name="element_owner" format="ascii">
1.000000000000000e+00
1.000000000000000e+00
1.000000000000000e+00
1.000000000000000e+00
1.000000000000000e+00
1.000000000000000e+00
1.000000000000000e+00
1.000000000000000e+00
1.000000000000000e+00
1.000000000000000e+00
1.000000000000000e+00
1.000000000000000e+00
1.000000000000000e+00
1.000000000000000e+00
1.000000000000000e+00
1.000000000000000e+00
1.000000000000000e+00
1.000000000000000e+00
1.000000000000000e+00
1.000000000000000e+00
1.000000000000000e+00
1.000000000000000e+00
1.000000000000000e+00
1.000000000000000e+00
1.000000000000000e+00
1.000000000000000e+00
1.000000000000000e+00
1.000000000000000e+00
1.000000000000000e+00
1.000000000000000e+00
1.000000000000000e+00
1.000000000000000e+00
1.000000000000000e+00
1.000000000000000e+00
1.000000000000000e+00
1.000000000000000e+00
1.000000000000000e+00
1.000000000000000e+00
1.000000000000000e+00
1.000000000000000e+00
1.000000000000000e+00
1.000000000000000e+00
        </DataArray>
      </CellData>

    </Piece>
  </UnstructuredGrid>
</VTKFile>
