<?xml version="1.0" ?> 
<!-- 
# vtk DataFile Version 3.0
-->
<VTKFile type="UnstructuredGrid" version="0.1" compressor="vtkZLibDataCompressor" byte_order="LittleEndian">
  <UnstructuredGrid>
    <FieldData>
      <DataArray type="Float64" Name="TIME" NumberOfTuples="1" format="ascii">
5.000000000000000e-01 
      </DataArray>
    </FieldData>

    <Piece NumberOfPoints="336" NumberOfCells="42" >
      <Points>
        <DataArray type="Float64" NumberOfComponents="3" format="ascii">
2.828427124746190e+02 -2.828427124746190e+02 -5.000000000000000e+00
2.828427124746189e+02 -2.828427124746191e+02 5.000000000000000e+00
2.626396615835747e+02 -2.626396615835749e+02 5.000000000000000e+00
2.626396615835748e+02 -2.626396615835748e+02 -5.000000000000000e+00
2.435045716034883e+02 -3.173413361164941e+02 -5.000000000000000e+00
2.435045716034882e+02 -3.173413361164941e+02 5.000000000000000e+00
2.261113879175247e+02 -2.946740978224587e+02 5.000000000000000e+00
2.261113879175248e+02 -2.946740978224588e+02 -5.000000000000000e+00
2.626396615835748e+02 -2.626396615835748e+02 -5.000000000000000e+00
2.626396615835747e+02 -2.626396615835749e+02 5.000000000000000e+00
2.424366106925305e+02 -2.424366106925306e+02 5.000000000000000e+00
2.424366106925306e+02 -2.424366106925306e+02 -5.000000000000000e+00
2.261113879175248e+02 -2.946740978224588e+02 -5.000000000000000e+00
2.261113879175247e+02 -2.946740978224587e+02 5.000000000000000e+00
2.087182042315613e+02 -2.720068595284235e+02 5.000000000000000e+00
2.087182042315614e+02 -2.720068595284235e+02 -5.000000000000000e+00
2.424366106925306e+02 -2.424366106925306e+02 -5.000000000000000e+00
2.424366106925305e+02 -2.424366106925306e+02 5.000000000000000e+00
2.222335598014863e+02 -2.222335598014863e+02 5.000000000000000e+00
2.222335598014863e+02 -2.222335598014863e+02 -5.000000000000000e+00
2.087182042315614e+02 -2.720068595284235e+02 -5.000000000000000e+00
2.087182042315613e+02 -2.720068595284235e+02 5.000000000000000e+00
1.913250205455978e+02 -2.493396212343882e+02 5.000000000000000e+00
1.913250205455979e+02 -2.493396212343882e+02 -5.000000000000000e+00
2.222335598014863e+02 -2.222335598014863e+02 -5.000000000000000e+00
2.222335598014863e+02 -2.222335598014863e+02 5.000000000000000e+00
2.020305089104421e+02 -2.020305089104422e+02 5.000000000000000e+00
2.020305089104421e+02 -2.020305089104422e+02 -5.000000000000000e+00
1.913250205455979e+02 -2.493396212343882e+02 -5.000000000000000e+00
1.913250205455978e+02 -2.493396212343882e+02 5.000000000000000e+00
1.739318368596345e+02 -2.266723829403529e+02 5.000000000000000e+00
1.739318368596344e+02 -2.266723829403529e+02 -5.000000000000000e+00
2.020305089104421e+02 -2.020305089104422e+02 -5.000000000000000e+00
2.020305089104421e+02 -2.020305089104422e+02 5.000000000000000e+00
1.818274580193979e+02 -1.818274580193979e+02 5.000000000000000e+00
1.818274580193979e+02 -1.818274580193979e+02 -5.000000000000000e+00
1.739318368596344e+02 -2.266723829403529e+02 -5.000000000000000e+00
1.739318368596345e+02 -2.266723829403529e+02 5.000000000000000e+00
1.565386531736710e+02 -2.040051446463176e+02 5.000000000000000e+00
1.565386531736710e+02 -2.040051446463176e+02 -5.000000000000000e+00
1.818274580193979e+02 -1.818274580193979e+02 -5.000000000000000e+00
1.818274580193979e+02 -1.818274580193979e+02 5.000000000000000e+00
1.616244071283537e+02 -1.616244071283538e+02 5.000000000000000e+00
1.616244071283537e+02 -1.616244071283537e+02 -5.000000000000000e+00
1.565386531736710e+02 -2.040051446463176e+02 -5.000000000000000e+00
1.565386531736710e+02 -2.040051446463176e+02 5.000000000000000e+00
1.391454694877076e+02 -1.813379063522823e+02 5.000000000000000e+00
1.391454694877075e+02 -1.813379063522823e+02 -5.000000000000000e+00
1.616244071283537e+02 -1.616244071283537e+02 -5.000000000000000e+00
1.616244071283537e+02 -1.616244071283538e+02 5.000000000000000e+00
1.414213562373095e+02 -1.414213562373095e+02 5.000000000000000e+00
1.414213562373095e+02 -1.414213562373095e+02 -5.000000000000000e+00
1.391454694877075e+02 -1.813379063522823e+02 -5.000000000000000e+00
1.391454694877076e+02 -1.813379063522823e+02 5.000000000000000e+00
1.217522858017441e+02 -1.586706680582470e+02 5.000000000000000e+00
1.217522858017441e+02 -1.586706680582470e+02 -5.000000000000000e+00
2.435045716034883e+02 -3.173413361164941e+02 -5.000000000000000e+00
2.435045716034882e+02 -3.173413361164941e+02 5.000000000000000e+00
2.261113879175247e+02 -2.946740978224587e+02 5.000000000000000e+00
2.261113879175248e+02 -2.946740978224588e+02 -5.000000000000000e+00
1.999999999999999e+02 -3.464101615137754e+02 -5.000000000000000e+00
2.000000000000000e+02 -3.464101615137754e+02 5.000000000000000e+00
1.857142857142857e+02 -3.216665785485058e+02 5.000000000000000e+00
1.857142857142857e+02 -3.216665785485058e+02 -5.000000000000000e+00
2.261113879175248e+02 -2.946740978224588e+02 -5.000000000000000e+00
2.261113879175247e+02 -2.946740978224587e+02 5.000000000000000e+00
2.087182042315613e+02 -2.720068595284235e+02 5.000000000000000e+00
2.087182042315614e+02 -2.720068595284235e+02 -5.000000000000000e+00
1.857142857142857e+02 -3.216665785485058e+02 -5.000000000000000e+00
1.857142857142857e+02 -3.216665785485058e+02 5.000000000000000e+00
1.714285714285714e+02 -2.969229955832361e+02 5.000000000000000e+00
1.714285714285714e+02 -2.969229955832361e+02 -5.000000000000000e+00
2.087182042315614e+02 -2.720068595284235e+02 -5.000000000000000e+00
2.087182042315613e+02 -2.720068595284235e+02 5.000000000000000e+00
1.913250205455978e+02 -2.493396212343882e+02 5.000000000000000e+00
1.913250205455979e+02 -2.493396212343882e+02 -5.000000000000000e+00
1.714285714285714e+02 -2.969229955832361e+02 -5.000000000000000e+00
1.714285714285714e+02 -2.969229955832361e+02 5.000000000000000e+00
1.571428571428571e+02 -2.721794126179664e+02 5.000000000000000e+00
1.571428571428571e+02 -2.721794126179664e+02 -5.000000000000000e+00
1.913250205455979e+02 -2.493396212343882e+02 -5.000000000000000e+00
1.913250205455978e+02 -2.493396212343882e+02 5.000000000000000e+00
1.739318368596345e+02 -2.266723829403529e+02 5.000000000000000e+00
1.739318368596344e+02 -2.266723829403529e+02 -5.000000000000000e+00
1.571428571428571e+02 -2.721794126179664e+02 -5.000000000000000e+00
1.571428571428571e+02 -2.721794126179664e+02 5.000000000000000e+00
1.428571428571428e+02 -2.474358296526968e+02 5.000000000000000e+00
1.428571428571428e+02 -2.474358296526967e+02 -5.000000000000000e+00
1.739318368596344e+02 -2.266723829403529e+02 -5.000000000000000e+00
1.739318368596345e+02 -2.266723829403529e+02 5.000000000000000e+00
1.565386531736710e+02 -2.040051446463176e+02 5.000000000000000e+00
1.565386531736710e+02 -2.040051446463176e+02 -5.000000000000000e+00
1.428571428571428e+02 -2.474358296526967e+02 -5.000000000000000e+00
1.428571428571428e+02 -2.474358296526968e+02 5.000000000000000e+00
1.285714285714285e+02 -2.226922466874271e+02 5.000000000000000e+00
1.285714285714286e+02 -2.226922466874270e+02 -5.000000000000000e+00
1.565386531736710e+02 -2.040051446463176e+02 -5.000000000000000e+00
1.565386531736710e+02 -2.040051446463176e+02 5.000000000000000e+00
1.391454694877076e+02 -1.813379063522823e+02 5.000000000000000e+00
1.391454694877075e+02 -1.813379063522823e+02 -5.000000000000000e+00
1.285714285714286e+02 -2.226922466874270e+02 -5.000000000000000e+00
1.285714285714285e+02 -2.226922466874271e+02 5.000000000000000e+00
1.142857142857142e+02 -1.979486637221574e+02 5.000000000000000e+00
1.142857142857143e+02 -1.979486637221574e+02 -5.000000000000000e+00
1.391454694877075e+02 -1.813379063522823e+02 -5.000000000000000e+00
1.391454694877076e+02 -1.813379063522823e+02 5.000000000000000e+00
1.217522858017441e+02 -1.586706680582470e+02 5.000000000000000e+00
1.217522858017441e+02 -1.586706680582470e+02 -5.000000000000000e+00
1.142857142857143e+02 -1.979486637221574e+02 -5.000000000000000e+00
1.142857142857142e+02 -1.979486637221574e+02 5.000000000000000e+00
9.999999999999997e+01 -1.732050807568877e+02 5.000000000000000e+00
1.000000000000000e+02 -1.732050807568877e+02 -5.000000000000000e+00
1.999999999999999e+02 -3.464101615137754e+02 -5.000000000000000e+00
2.000000000000000e+02 -3.464101615137754e+02 5.000000000000000e+00
1.857142857142857e+02 -3.216665785485058e+02 5.000000000000000e+00
1.857142857142857e+02 -3.216665785485058e+02 -5.000000000000000e+00
1.530733729460358e+02 -3.695518130045147e+02 -5.000000000000000e+00
1.530733729460360e+02 -3.695518130045146e+02 5.000000000000000e+00
1.421395605927477e+02 -3.431552549327636e+02 5.000000000000000e+00
1.421395605927476e+02 -3.431552549327637e+02 -5.000000000000000e+00
1.857142857142857e+02 -3.216665785485058e+02 -5.000000000000000e+00
1.857142857142857e+02 -3.216665785485058e+02 5.000000000000000e+00
1.714285714285714e+02 -2.969229955832361e+02 5.000000000000000e+00
1.714285714285714e+02 -2.969229955832361e+02 -5.000000000000000e+00
1.421395605927476e+02 -3.431552549327637e+02 -5.000000000000000e+00
1.421395605927477e+02 -3.431552549327636e+02 5.000000000000000e+00
1.312057482394594e+02 -3.167586968610125e+02 5.000000000000000e+00
1.312057482394593e+02 -3.167586968610125e+02 -5.000000000000000e+00
1.714285714285714e+02 -2.969229955832361e+02 -5.000000000000000e+00
1.714285714285714e+02 -2.969229955832361e+02 5.000000000000000e+00
1.571428571428571e+02 -2.721794126179664e+02 5.000000000000000e+00
1.571428571428571e+02 -2.721794126179664e+02 -5.000000000000000e+00
1.312057482394593e+02 -3.167586968610125e+02 -5.000000000000000e+00
1.312057482394594e+02 -3.167586968610125e+02 5.000000000000000e+00
1.202719358861711e+02 -2.903621387892615e+02 5.000000000000000e+00
1.202719358861711e+02 -2.903621387892616e+02 -5.000000000000000e+00
1.571428571428571e+02 -2.721794126179664e+02 -5.000000000000000e+00
1.571428571428571e+02 -2.721794126179664e+02 5.000000000000000e+00
1.428571428571428e+02 -2.474358296526968e+02 5.000000000000000e+00
1.428571428571428e+02 -2.474358296526967e+02 -5.000000000000000e+00
1.202719358861711e+02 -2.903621387892616e+02 -5.000000000000000e+00
1.202719358861711e+02 -2.903621387892615e+02 5.000000000000000e+00
1.093381235328828e+02 -2.639655807175104e+02 5.000000000000000e+00
1.093381235328828e+02 -2.639655807175105e+02 -5.000000000000000e+00
1.428571428571428e+02 -2.474358296526967e+02 -5.000000000000000e+00
1.428571428571428e+02 -2.474358296526968e+02 5.000000000000000e+00
1.285714285714285e+02 -2.226922466874271e+02 5.000000000000000e+00
1.285714285714286e+02 -2.226922466874270e+02 -5.000000000000000e+00
1.093381235328828e+02 -2.639655807175105e+02 -5.000000000000000e+00
1.093381235328828e+02 -2.639655807175104e+02 5.000000000000000e+00
9.840431117959452e+01 -2.375690226457594e+02 5.000000000000000e+00
9.840431117959456e+01 -2.375690226457594e+02 -5.000000000000000e+00
1.285714285714286e+02 -2.226922466874270e+02 -5.000000000000000e+00
1.285714285714285e+02 -2.226922466874271e+02 5.000000000000000e+00
1.142857142857142e+02 -1.979486637221574e+02 5.000000000000000e+00
1.142857142857143e+02 -1.979486637221574e+02 -5.000000000000000e+00
9.840431117959456e+01 -2.375690226457594e+02 -5.000000000000000e+00
9.840431117959452e+01 -2.375690226457594e+02 5.000000000000000e+00
8.747049882630620e+01 -2.111724645740084e+02 5.000000000000000e+00
8.747049882630627e+01 -2.111724645740083e+02 -5.000000000000000e+00
1.142857142857143e+02 -1.979486637221574e+02 -5.000000000000000e+00
1.142857142857142e+02 -1.979486637221574e+02 5.000000000000000e+00
9.999999999999997e+01 -1.732050807568877e+02 5.000000000000000e+00
1.000000000000000e+02 -1.732050807568877e+02 -5.000000000000000e+00
8.747049882630627e+01 -2.111724645740083e+02 -5.000000000000000e+00
8.747049882630620e+01 -2.111724645740084e+02 5.000000000000000e+00
7.653668647301792e+01 -1.847759065022574e+02 5.000000000000000e+00
7.653668647301799e+01 -1.847759065022573e+02 -5.000000000000000e+00
1.530733729460358e+02 -3.695518130045147e+02 -5.000000000000000e+00
1.530733729460360e+02 -3.695518130045146e+02 5.000000000000000e+00
1.421395605927477e+02 -3.431552549327636e+02 5.000000000000000e+00
1.421395605927476e+02 -3.431552549327637e+02 -5.000000000000000e+00
1.035276180410083e+02 -3.863703305156273e+02 -5.000000000000000e+00
1.035276180410081e+02 -3.863703305156274e+02 5.000000000000000e+00
9.613278818093613e+01 -3.587724497645110e+02 5.000000000000000e+00
9.613278818093625e+01 -3.587724497645111e+02 -5.000000000000000e+00
1.421395605927476e+02 -3.431552549327637e+02 -5.000000000000000e+00
1.421395605927477e+02 -3.431552549327636e+02 5.000000000000000e+00
1.312057482394594e+02 -3.167586968610125e+02 5.000000000000000e+00
1.312057482394593e+02 -3.167586968610125e+02 -5.000000000000000e+00
9.613278818093625e+01 -3.587724497645111e+02 -5.000000000000000e+00
9.613278818093613e+01 -3.587724497645110e+02 5.000000000000000e+00
8.873795832086412e+01 -3.311745690133951e+02 5.000000000000000e+00
8.873795832086424e+01 -3.311745690133948e+02 -5.000000000000000e+00
1.312057482394593e+02 -3.167586968610125e+02 -5.000000000000000e+00
1.312057482394594e+02 -3.167586968610125e+02 5.000000000000000e+00
1.202719358861711e+02 -2.903621387892615e+02 5.000000000000000e+00
1.202719358861711e+02 -2.903621387892616e+02 -5.000000000000000e+00
8.873795832086424e+01 -3.311745690133948e+02 -5.000000000000000e+00
8.873795832086412e+01 -3.311745690133951e+02 5.000000000000000e+00
8.134312846079214e+01 -3.035766882622786e+02 5.000000000000000e+00
8.134312846079219e+01 -3.035766882622786e+02 -5.000000000000000e+00
1.202719358861711e+02 -2.903621387892616e+02 -5.000000000000000e+00
1.202719358861711e+02 -2.903621387892615e+02 5.000000000000000e+00
1.093381235328828e+02 -2.639655807175104e+02 5.000000000000000e+00
1.093381235328828e+02 -2.639655807175105e+02 -5.000000000000000e+00
8.134312846079219e+01 -3.035766882622786e+02 -5.000000000000000e+00
8.134312846079214e+01 -3.035766882622786e+02 5.000000000000000e+00
7.394829860072011e+01 -2.759788075111624e+02 5.000000000000000e+00
7.394829860072016e+01 -2.759788075111624e+02 -5.000000000000000e+00
1.093381235328828e+02 -2.639655807175105e+02 -5.000000000000000e+00
1.093381235328828e+02 -2.639655807175104e+02 5.000000000000000e+00
9.840431117959452e+01 -2.375690226457594e+02 5.000000000000000e+00
9.840431117959456e+01 -2.375690226457594e+02 -5.000000000000000e+00
7.394829860072016e+01 -2.759788075111624e+02 -5.000000000000000e+00
7.394829860072011e+01 -2.759788075111624e+02 5.000000000000000e+00
6.655346874064813e+01 -2.483809267600462e+02 5.000000000000000e+00
6.655346874064814e+01 -2.483809267600461e+02 -5.000000000000000e+00
9.840431117959456e+01 -2.375690226457594e+02 -5.000000000000000e+00
9.840431117959452e+01 -2.375690226457594e+02 5.000000000000000e+00
8.747049882630620e+01 -2.111724645740084e+02 5.000000000000000e+00
8.747049882630627e+01 -2.111724645740083e+02 -5.000000000000000e+00
6.655346874064814e+01 -2.483809267600461e+02 -5.000000000000000e+00
6.655346874064813e+01 -2.483809267600462e+02 5.000000000000000e+00
5.915863888057615e+01 -2.207830460089299e+02 5.000000000000000e+00
5.915863888057609e+01 -2.207830460089299e+02 -5.000000000000000e+00
8.747049882630627e+01 -2.111724645740083e+02 -5.000000000000000e+00
8.747049882630620e+01 -2.111724645740084e+02 5.000000000000000e+00
7.653668647301792e+01 -1.847759065022574e+02 5.000000000000000e+00
7.653668647301799e+01 -1.847759065022573e+02 -5.000000000000000e+00
5.915863888057609e+01 -2.207830460089299e+02 -5.000000000000000e+00
5.915863888057615e+01 -2.207830460089299e+02 5.000000000000000e+00
5.176380902050415e+01 -1.931851652578137e+02 5.000000000000000e+00
5.176380902050406e+01 -1.931851652578137e+02 -5.000000000000000e+00
1.035276180410083e+02 -3.863703305156273e+02 -5.000000000000000e+00
1.035276180410081e+02 -3.863703305156274e+02 5.000000000000000e+00
9.613278818093613e+01 -3.587724497645110e+02 5.000000000000000e+00
9.613278818093625e+01 -3.587724497645111e+02 -5.000000000000000e+00
5.221047688802059e+01 -3.965779445495241e+02 -5.000000000000000e+00
5.221047688802049e+01 -3.965779445495242e+02 5.000000000000000e+00
4.848115711030476e+01 -3.682509485102724e+02 5.000000000000000e+00
4.848115711030482e+01 -3.682509485102725e+02 -5.000000000000000e+00
9.613278818093625e+01 -3.587724497645111e+02 -5.000000000000000e+00
9.613278818093613e+01 -3.587724497645110e+02 5.000000000000000e+00
8.873795832086412e+01 -3.311745690133951e+02 5.000000000000000e+00
8.873795832086424e+01 -3.311745690133948e+02 -5.000000000000000e+00
4.848115711030482e+01 -3.682509485102725e+02 -5.000000000000000e+00
4.848115711030476e+01 -3.682509485102724e+02 5.000000000000000e+00
4.475183733258901e+01 -3.399239524710208e+02 5.000000000000000e+00
4.475183733258906e+01 -3.399239524710207e+02 -5.000000000000000e+00
8.873795832086424e+01 -3.311745690133948e+02 -5.000000000000000e+00
8.873795832086412e+01 -3.311745690133951e+02 5.000000000000000e+00
8.134312846079214e+01 -3.035766882622786e+02 5.000000000000000e+00
8.134312846079219e+01 -3.035766882622786e+02 -5.000000000000000e+00
4.475183733258906e+01 -3.399239524710207e+02 -5.000000000000000e+00
4.475183733258901e+01 -3.399239524710208e+02 5.000000000000000e+00
4.102251755487326e+01 -3.115969564317691e+02 5.000000000000000e+00
4.102251755487330e+01 -3.115969564317689e+02 -5.000000000000000e+00
8.134312846079219e+01 -3.035766882622786e+02 -5.000000000000000e+00
8.134312846079214e+01 -3.035766882622786e+02 5.000000000000000e+00
7.394829860072011e+01 -2.759788075111624e+02 5.000000000000000e+00
7.394829860072016e+01 -2.759788075111624e+02 -5.000000000000000e+00
4.102251755487330e+01 -3.115969564317689e+02 -5.000000000000000e+00
4.102251755487326e+01 -3.115969564317691e+02 5.000000000000000e+00
3.729319777715753e+01 -2.832699603925173e+02 5.000000000000000e+00
3.729319777715754e+01 -2.832699603925172e+02 -5.000000000000000e+00
7.394829860072016e+01 -2.759788075111624e+02 -5.000000000000000e+00
7.394829860072011e+01 -2.759788075111624e+02 5.000000000000000e+00
6.655346874064813e+01 -2.483809267600462e+02 5.000000000000000e+00
6.655346874064814e+01 -2.483809267600461e+02 -5.000000000000000e+00
3.729319777715754e+01 -2.832699603925172e+02 -5.000000000000000e+00
3.729319777715753e+01 -2.832699603925173e+02 5.000000000000000e+00
3.356387799944179e+01 -2.549429643532655e+02 5.000000000000000e+00
3.356387799944177e+01 -2.549429643532655e+02 -5.000000000000000e+00
6.655346874064814e+01 -2.483809267600461e+02 -5.000000000000000e+00
6.655346874064813e+01 -2.483809267600462e+02 5.000000000000000e+00
5.915863888057615e+01 -2.207830460089299e+02 5.000000000000000e+00
5.915863888057609e+01 -2.207830460089299e+02 -5.000000000000000e+00
3.356387799944177e+01 -2.549429643532655e+02 -5.000000000000000e+00
3.356387799944179e+01 -2.549429643532655e+02 5.000000000000000e+00
2.983455822172603e+01 -2.266159683140138e+02 5.000000000000000e+00
2.983455822172601e+01 -2.266159683140138e+02 -5.000000000000000e+00
5.915863888057609e+01 -2.207830460089299e+02 -5.000000000000000e+00
5.915863888057615e+01 -2.207830460089299e+02 5.000000000000000e+00
5.176380902050415e+01 -1.931851652578137e+02 5.000000000000000e+00
5.176380902050406e+01 -1.931851652578137e+02 -5.000000000000000e+00
2.983455822172601e+01 -2.266159683140138e+02 -5.000000000000000e+00
2.983455822172603e+01 -2.266159683140138e+02 5.000000000000000e+00
2.610523844401029e+01 -1.982889722747620e+02 5.000000000000000e+00
2.610523844401025e+01 -1.982889722747621e+02 -5.000000000000000e+00
5.221047688802059e+01 -3.965779445495241e+02 -5.000000000000000e+00
5.221047688802049e+01 -3.965779445495242e+02 5.000000000000000e+00
4.848115711030476e+01 -3.682509485102724e+02 5.000000000000000e+00
4.848115711030482e+01 -3.682509485102725e+02 -5.000000000000000e+00
0.000000000000000e+00 -4.000000000000000e+02 -5.000000000000000e+00
0.000000000000000e+00 -4.000000000000000e+02 5.000000000000000e+00
0.000000000000000e+00 -3.714285714285714e+02 5.000000000000000e+00
0.000000000000000e+00 -3.714285714285714e+02 -5.000000000000000e+00
4.848115711030482e+01 -3.682509485102725e+02 -5.000000000000000e+00
4.848115711030476e+01 -3.682509485102724e+02 5.000000000000000e+00
4.475183733258901e+01 -3.399239524710208e+02 5.000000000000000e+00
4.475183733258906e+01 -3.399239524710207e+02 -5.000000000000000e+00
0.000000000000000e+00 -3.714285714285714e+02 -5.000000000000000e+00
0.000000000000000e+00 -3.714285714285714e+02 5.000000000000000e+00
0.000000000000000e+00 -3.428571428571429e+02 5.000000000000000e+00
0.000000000000000e+00 -3.428571428571428e+02 -5.000000000000000e+00
4.475183733258906e+01 -3.399239524710207e+02 -5.000000000000000e+00
4.475183733258901e+01 -3.399239524710208e+02 5.000000000000000e+00
4.102251755487326e+01 -3.115969564317691e+02 5.000000000000000e+00
4.102251755487330e+01 -3.115969564317689e+02 -5.000000000000000e+00
0.000000000000000e+00 -3.428571428571428e+02 -5.000000000000000e+00
0.000000000000000e+00 -3.428571428571429e+02 5.000000000000000e+00
0.000000000000000e+00 -3.142857142857143e+02 5.000000000000000e+00
0.000000000000000e+00 -3.142857142857143e+02 -5.000000000000000e+00
4.102251755487330e+01 -3.115969564317689e+02 -5.000000000000000e+00
4.102251755487326e+01 -3.115969564317691e+02 5.000000000000000e+00
3.729319777715753e+01 -2.832699603925173e+02 5.000000000000000e+00
3.729319777715754e+01 -2.832699603925172e+02 -5.000000000000000e+00
0.000000000000000e+00 -3.142857142857143e+02 -5.000000000000000e+00
0.000000000000000e+00 -3.142857142857143e+02 5.000000000000000e+00
0.000000000000000e+00 -2.857142857142857e+02 5.000000000000000e+00
0.000000000000000e+00 -2.857142857142857e+02 -5.000000000000000e+00
3.729319777715754e+01 -2.832699603925172e+02 -5.000000000000000e+00
3.729319777715753e+01 -2.832699603925173e+02 5.000000000000000e+00
3.356387799944179e+01 -2.549429643532655e+02 5.000000000000000e+00
3.356387799944177e+01 -2.549429643532655e+02 -5.000000000000000e+00
0.000000000000000e+00 -2.857142857142857e+02 -5.000000000000000e+00
0.000000000000000e+00 -2.857142857142857e+02 5.000000000000000e+00
0.000000000000000e+00 -2.571428571428572e+02 5.000000000000000e+00
0.000000000000000e+00 -2.571428571428571e+02 -5.000000000000000e+00
3.356387799944177e+01 -2.549429643532655e+02 -5.000000000000000e+00
3.356387799944179e+01 -2.549429643532655e+02 5.000000000000000e+00
2.983455822172603e+01 -2.266159683140138e+02 5.000000000000000e+00
2.983455822172601e+01 -2.266159683140138e+02 -5.000000000000000e+00
0.000000000000000e+00 -2.571428571428571e+02 -5.000000000000000e+00
0.000000000000000e+00 -2.571428571428572e+02 5.000000000000000e+00
0.000000000000000e+00 -2.285714285714286e+02 5.000000000000000e+00
0.000000000000000e+00 -2.285714285714286e+02 -5.000000000000000e+00
2.983455822172601e+01 -2.266159683140138e+02 -5.000000000000000e+00
2.983455822172603e+01 -2.266159683140138e+02 5.000000000000000e+00
2.610523844401029e+01 -1.982889722747620e+02 5.000000000000000e+00
2.610523844401025e+01 -1.982889722747621e+02 -5.000000000000000e+00
0.000000000000000e+00 -2.285714285714286e+02 -5.000000000000000e+00
0.000000000000000e+00 -2.285714285714286e+02 5.000000000000000e+00
0.000000000000000e+00 -2.000000000000000e+02 5.000000000000000e+00
0.000000000000000e+00 -2.000000000000000e+02 -5.000000000000000e+00
        </DataArray>
      </Points>

      <Cells>
        <DataArray type="Int32" Name="connectivity" format="ascii">
0 1 2 3 4 5 6 7 8 9 10 11 12 13 14 15 16 17 18 19 20 21 22 23 24 25 26 27 28 29 30 31 32 33 34 35 36 37 38 39 40 41 42 43 44 45 46 47 48 49 50 51 52 53 54 55 56 57 58 59 60 61 62 63 64 65 66 67 68 69 70 71 72 73 74 75 76 77 78 79 80 81 82 83 84 85 86 87 88 89 90 91 92 93 94 95 96 97 98 99 100 101 102 103 104 105 106 107 108 109 110 111 112 113 114 115 116 117 118 119 120 121 122 123 124 125 126 127 128 129 130 131 132 133 134 135 136 137 138 139 140 141 142 143 144 145 146 147 148 149 150 151 152 153 154 155 156 157 158 159 160 161 162 163 164 165 166 167 168 169 170 171 172 173 174 175 176 177 178 179 180 181 182 183 184 185 186 187 188 189 190 191 192 193 194 195 196 197 198 199 200 201 202 203 204 205 206 207 208 209 210 211 212 213 214 215 216 217 218 219 220 221 222 223 224 225 226 227 228 229 230 231 232 233 234 235 236 237 238 239 240 241 242 243 244 245 246 247 248 249 250 251 252 253 254 255 256 257 258 259 260 261 262 263 264 265 266 267 268 269 270 271 272 273 274 275 276 277 278 279 280 281 282 283 284 285 286 287 288 289 290 291 292 293 294 295 296 297 298 299 300 301 302 303 304 305 306 307 308 309 310 311 312 313 314 315 316 317 318 319 320 321 322 323 324 325 326 327 328 329 330 331 332 333 334 335 
        </DataArray>
        <DataArray type="Int32" Name="offsets" format="ascii">
8 16 24 32 40 48 56 64 72 80 88 96 104 112 120 128 136 144 152 160 168 176 184 192 200 208 216 224 232 240 248 256 264 272 280 288 296 304 312 320 328 336 
        </DataArray>
        <DataArray type="UInt8" Name="types" format="ascii">
12 12 12 12 12 12 12 12 12 12 12 12 12 12 12 12 12 12 12 12 12 12 12 12 12 12 12 12 12 12 12 12 12 12 12 12 12 12 12 12 12 12 
        </DataArray>
      </Cells>

  <PointData>
        <DataArray type="Float64" Name="accumulated_plastic_strain" format="ascii">
9.791399721366592e-03
9.805215227718558e-03
5.319490429296903e-03
5.314186636928245e-03
1.057016756943807e-02
1.058373016180020e-02
5.618865310103471e-03
5.613399392626181e-03
5.314186636928245e-03
5.319490429296903e-03
6.150406300656072e-03
6.144934126861495e-03
5.613399392626181e-03
5.618865310103471e-03
6.353813975057767e-03
6.348007290969069e-03
6.144934126861495e-03
6.150406300656072e-03
7.574467784447193e-03
7.565052466296767e-03
6.348007290969069e-03
6.353813975057767e-03
7.750597176548332e-03
7.740275671965396e-03
7.565052466296767e-03
7.574467784447193e-03
1.005236394621965e-02
1.002297144948282e-02
7.740275671965396e-03
7.750597176548332e-03
1.036114627132188e-02
1.033028238529036e-02
1.002297144948282e-02
1.005236394621965e-02
1.547169679793244e-02
1.529139463321898e-02
1.033028238529036e-02
1.036114627132188e-02
1.598268618934861e-02
1.580726812835221e-02
1.529139463321898e-02
1.547169679793244e-02
2.770730731324401e-02
2.766255018539561e-02
1.580726812835221e-02
1.598268618934861e-02
2.795801280499557e-02
2.791586603895914e-02
2.766255018539561e-02
2.770730731324401e-02
8.238455462359093e-02
8.294322257328685e-02
2.791586603895914e-02
2.795801280499557e-02
8.166956838559947e-02
8.221581272018294e-02
1.057016756943807e-02
1.058373016180020e-02
5.618865310103471e-03
5.613399392626181e-03
1.279991059495541e-02
1.281150717633365e-02
6.569442768488708e-03
6.563839342897932e-03
5.613399392626181e-03
5.618865310103471e-03
6.353813975057767e-03
6.348007290969069e-03
6.563839342897932e-03
6.569442768488708e-03
7.156327354358156e-03
7.149986765968574e-03
6.348007290969069e-03
6.353813975057767e-03
7.750597176548332e-03
7.740275671965396e-03
7.149986765968574e-03
7.156327354358156e-03
8.580621488159209e-03
8.568780586405637e-03
7.740275671965396e-03
7.750597176548332e-03
1.036114627132188e-02
1.033028238529036e-02
8.568780586405637e-03
8.580621488159209e-03
1.149979417551237e-02
1.146766350108583e-02
1.033028238529036e-02
1.036114627132188e-02
1.598268618934861e-02
1.580726812835221e-02
1.146766350108583e-02
1.149979417551237e-02
1.737700682701391e-02
1.722070140983376e-02
1.580726812835221e-02
1.598268618934861e-02
2.795801280499557e-02
2.791586603895914e-02
1.722070140983376e-02
1.737700682701391e-02
2.847062904374020e-02
2.844037590742224e-02
2.791586603895914e-02
2.795801280499557e-02
8.166956838559947e-02
8.221581272018294e-02
2.844037590742224e-02
2.847062904374020e-02
7.967987893413640e-02
8.018152594392960e-02
1.279991059495541e-02
1.281150717633365e-02
6.569442768488708e-03
6.563839342897932e-03
1.585872731650378e-02
1.586111181081666e-02
8.150221019788767e-03
8.146872970558936e-03
6.563839342897932e-03
6.569442768488708e-03
7.156327354358156e-03
7.149986765968574e-03
8.146872970558936e-03
8.150221019788767e-03
8.889275630428574e-03
8.881810386043203e-03
7.149986765968574e-03
7.156327354358156e-03
8.580621488159209e-03
8.568780586405637e-03
8.881810386043203e-03
8.889275630428574e-03
1.057543926102842e-02
1.056065546717578e-02
8.568780586405637e-03
8.580621488159209e-03
1.149979417551237e-02
1.146766350108583e-02
1.056065546717578e-02
1.057543926102842e-02
1.369568880903704e-02
1.366273485588112e-02
1.146766350108583e-02
1.149979417551237e-02
1.737700682701391e-02
1.722070140983376e-02
1.366273485588112e-02
1.369568880903704e-02
1.925276495307223e-02
1.912232542499027e-02
1.722070140983376e-02
1.737700682701391e-02
2.847062904374020e-02
2.844037590742224e-02
1.912232542499027e-02
1.925276495307223e-02
2.881328194221406e-02
2.880128326969181e-02
2.844037590742224e-02
2.847062904374020e-02
7.967987893413640e-02
8.018152594392960e-02
2.880128326969181e-02
2.881328194221406e-02
7.693287695340921e-02
7.737201903369396e-02
1.585872731650378e-02
1.586111181081666e-02
8.150221019788767e-03
8.146872970558936e-03
1.838918271167835e-02
1.838070284033465e-02
1.007281043806322e-02
1.007488794626961e-02
8.146872970558936e-03
8.150221019788767e-03
8.889275630428574e-03
8.881810386043203e-03
1.007488794626961e-02
1.007281043806322e-02
1.153955030374390e-02
1.153396469300131e-02
8.881810386043203e-03
8.889275630428574e-03
1.057543926102842e-02
1.056065546717578e-02
1.153396469300131e-02
1.153955030374390e-02
1.369991695507509e-02
1.368469741288415e-02
1.056065546717578e-02
1.057543926102842e-02
1.369568880903704e-02
1.366273485588112e-02
1.368469741288415e-02
1.369991695507509e-02
1.669820424615707e-02
1.666799358434156e-02
1.366273485588112e-02
1.369568880903704e-02
1.925276495307223e-02
1.912232542499027e-02
1.666799358434156e-02
1.669820424615707e-02
2.115696267359620e-02
2.105191736815061e-02
1.912232542499027e-02
1.925276495307223e-02
2.881328194221406e-02
2.880128326969181e-02
2.105191736815061e-02
2.115696267359620e-02
2.871072791601953e-02
2.871398128522619e-02
2.880128326969181e-02
2.881328194221406e-02
7.693287695340921e-02
7.737201903369396e-02
2.871398128522619e-02
2.871072791601953e-02
7.380458459947875e-02
7.417205386542469e-02
1.838918271167835e-02
1.838070284033465e-02
1.007281043806322e-02
1.007488794626961e-02
1.912432985303747e-02
1.911601555570332e-02
1.151500348488113e-02
1.151938108003602e-02
1.007488794626961e-02
1.007281043806322e-02
1.153955030374390e-02
1.153396469300131e-02
1.151938108003602e-02
1.151500348488113e-02
1.402632090808099e-02
1.402639459183647e-02
1.153396469300131e-02
1.153955030374390e-02
1.369991695507509e-02
1.368469741288415e-02
1.402639459183647e-02
1.402632090808099e-02
1.665441857016752e-02
1.664871764713923e-02
1.368469741288415e-02
1.369991695507509e-02
1.669820424615707e-02
1.666799358434156e-02
1.664871764713923e-02
1.665441857016752e-02
1.939600790543465e-02
1.938543740620549e-02
1.666799358434156e-02
1.669820424615707e-02
2.115696267359620e-02
2.105191736815061e-02
1.938543740620549e-02
1.939600790543465e-02
2.264283235863754e-02
2.257719883004707e-02
2.105191736815061e-02
2.115696267359620e-02
2.871072791601953e-02
2.871398128522619e-02
2.257719883004707e-02
2.264283235863754e-02
2.819954220733523e-02
2.824112384689267e-02
2.871398128522619e-02
2.871072791601953e-02
7.380458459947875e-02
7.417205386542469e-02
2.824112384689267e-02
2.819954220733523e-02
7.024745362567543e-02
7.056554609325097e-02
1.912432985303747e-02
1.911601555570332e-02
1.151500348488113e-02
1.151938108003602e-02
3.800423718149516e-02
3.799861184704371e-02
2.388891045730500e-02
2.389454452685490e-02
1.151938108003602e-02
1.151500348488113e-02
1.402632090808099e-02
1.402639459183647e-02
2.389454452685490e-02
2.388891045730500e-02
2.979283181219923e-02
2.979847434286012e-02
1.402639459183647e-02
1.402632090808099e-02
1.665441857016752e-02
1.664871764713923e-02
2.979847434286012e-02
2.979283181219923e-02
3.528471647252047e-02
3.529104342340882e-02
1.664871764713923e-02
1.665441857016752e-02
1.939600790543465e-02
1.938543740620549e-02
3.529104342340882e-02
3.528471647252047e-02
4.040037541617360e-02
4.041434990835296e-02
1.938543740620549e-02
1.939600790543465e-02
2.264283235863754e-02
2.257719883004707e-02
4.041434990835296e-02
4.040037541617360e-02
4.597741662952793e-02
4.589968663405355e-02
2.257719883004707e-02
2.264283235863754e-02
2.819954220733523e-02
2.824112384689267e-02
4.589968663405355e-02
4.597741662952793e-02
5.528197167012697e-02
5.542697239197424e-02
2.824112384689267e-02
2.819954220733523e-02
7.024745362567543e-02
7.056554609325097e-02
5.542697239197424e-02
5.528197167012697e-02
1.352491905436281e-01
1.358646223737459e-01
        </DataArray>
        <DataArray type="Float64" Name="displacement" NumberOfComponents="3" format="ascii">
-1.061144185103225e+01 1.073068201605530e+01 0.000000000000000e+00
-1.061127440718893e+01 1.073043160314151e+01 1.296815231204059e-01
-1.082066716470511e+01 1.092310141326915e+01 1.308846510190739e-01
-1.082054827424607e+01 1.092309109595944e+01 0.000000000000000e+00
-9.669041272841399e+00 1.145561256329135e+01 0.000000000000000e+00
-9.668010677464078e+00 1.145669344015617e+01 1.373514602311258e-01
-9.875426272432392e+00 1.167995968372925e+01 1.353763590010102e-01
-9.875785012325137e+00 1.167878396053081e+01 0.000000000000000e+00
-1.082054827424607e+01 1.092309109595944e+01 0.000000000000000e+00
-1.082066716470511e+01 1.092310141326915e+01 1.308846510190739e-01
-1.109604166275995e+01 1.118093214759366e+01 1.296584069027687e-01
-1.109597341981577e+01 1.118098771294723e+01 0.000000000000000e+00
-9.875785012325137e+00 1.167878396053081e+01 0.000000000000000e+00
-9.875426272432392e+00 1.167995968372925e+01 1.353763590010102e-01
-1.011534324766338e+01 1.198728433135564e+01 1.305127720813677e-01
-1.011520834265595e+01 1.198667492286172e+01 0.000000000000000e+00
-1.109597341981577e+01 1.118098771294723e+01 0.000000000000000e+00
-1.109604166275995e+01 1.118093214759366e+01 1.296584069027687e-01
-1.147149327752402e+01 1.153784034285658e+01 1.275673011881849e-01
-1.147003706170785e+01 1.153651806899266e+01 0.000000000000000e+00
-1.011520834265595e+01 1.198667492286172e+01 0.000000000000000e+00
-1.011534324766338e+01 1.198728433135564e+01 1.305127720813677e-01
-1.041832274416223e+01 1.241685308339117e+01 1.265745472704739e-01
-1.041696152562656e+01 1.241529298219573e+01 0.000000000000000e+00
-1.147003706170785e+01 1.153651806899266e+01 0.000000000000000e+00
-1.147149327752402e+01 1.153784034285658e+01 1.275673011881849e-01
-1.201079982490174e+01 1.205814544967247e+01 1.051686260080037e-01
-1.200776354962490e+01 1.205525634765667e+01 0.000000000000000e+00
-1.041696152562656e+01 1.241529298219573e+01 0.000000000000000e+00
-1.041832274416223e+01 1.241685308339117e+01 1.265745472704739e-01
-1.083633240955313e+01 1.305327440550081e+01 1.048370246994914e-01
-1.083398084560708e+01 1.304996465339924e+01 0.000000000000000e+00
-1.200776354962490e+01 1.205525634765667e+01 0.000000000000000e+00
-1.201079982490174e+01 1.205814544967247e+01 1.051686260080037e-01
-1.283799609891020e+01 1.286690876911657e+01 6.721570607641376e-02
-1.282848863303157e+01 1.285752036714497e+01 0.000000000000000e+00
-1.083398084560708e+01 1.304996465339924e+01 0.000000000000000e+00
-1.083633240955313e+01 1.305327440550081e+01 1.048370246994914e-01
-1.145682633393827e+01 1.408217242650875e+01 6.723986866346029e-02
-1.144848542894790e+01 1.407169750970921e+01 0.000000000000000e+00
-1.282848863303157e+01 1.285752036714497e+01 0.000000000000000e+00
-1.283799609891020e+01 1.286690876911657e+01 6.721570607641376e-02
-1.440712167025115e+01 1.441947861447248e+01 -1.674473892962021e-01
-1.435564903840286e+01 1.436851850376951e+01 0.000000000000000e+00
-1.144848542894790e+01 1.407169750970921e+01 0.000000000000000e+00
-1.145682633393827e+01 1.408217242650875e+01 6.723986866346029e-02
-1.261734311513568e+01 1.604583747185377e+01 -1.618880536539160e-01
-1.257856548021459e+01 1.598754743679624e+01 0.000000000000000e+00
-1.435564903840286e+01 1.436851850376951e+01 0.000000000000000e+00
-1.440712167025115e+01 1.441947861447248e+01 -1.674473892962021e-01
-1.767766952966369e+01 1.767766952966369e+01 -6.959445123755331e-01
-1.767766952966368e+01 1.767766952966369e+01 0.000000000000000e+00
-1.257856548021459e+01 1.598754743679624e+01 0.000000000000000e+00
-1.261734311513568e+01 1.604583747185377e+01 -1.618880536539160e-01
-1.521903572521802e+01 1.983383350728088e+01 -6.610690995500177e-01
-1.521903572521801e+01 1.983383350728088e+01 0.000000000000000e+00
-9.669041272841399e+00 1.145561256329135e+01 0.000000000000000e+00
-9.668010677464078e+00 1.145669344015617e+01 1.373514602311258e-01
-9.875426272432392e+00 1.167995968372925e+01 1.353763590010102e-01
-9.875785012325137e+00 1.167878396053081e+01 0.000000000000000e+00
-8.412418001799368e+00 1.199268510437384e+01 0.000000000000000e+00
-8.410713644751864e+00 1.199533097897479e+01 1.598816320701074e-01
-8.680841736862495e+00 1.225834392012600e+01 1.505164448944223e-01
-8.681595923400561e+00 1.225532101755208e+01 0.000000000000000e+00
-9.875785012325137e+00 1.167878396053081e+01 0.000000000000000e+00
-9.875426272432392e+00 1.167995968372925e+01 1.353763590010102e-01
-1.011534324766338e+01 1.198728433135564e+01 1.305127720813677e-01
-1.011520834265595e+01 1.198667492286172e+01 0.000000000000000e+00
-8.681595923400561e+00 1.225532101755208e+01 0.000000000000000e+00
-8.680841736862495e+00 1.225834392012600e+01 1.505164448944223e-01
-8.938923949966515e+00 1.261677615396170e+01 1.367120695269282e-01
-8.939161138326023e+00 1.261452125443900e+01 0.000000000000000e+00
-1.011520834265595e+01 1.198667492286172e+01 0.000000000000000e+00
-1.011534324766338e+01 1.198728433135564e+01 1.305127720813677e-01
-1.041832274416223e+01 1.241685308339117e+01 1.265745472704739e-01
-1.041696152562656e+01 1.241529298219573e+01 0.000000000000000e+00
-8.939161138326023e+00 1.261452125443900e+01 0.000000000000000e+00
-8.938923949966515e+00 1.261677615396170e+01 1.367120695269282e-01
-9.196796406924795e+00 1.312708234156773e+01 1.291298355100004e-01
-9.196700909250085e+00 1.312474650510048e+01 0.000000000000000e+00
-1.041696152562656e+01 1.241529298219573e+01 0.000000000000000e+00
-1.041832274416223e+01 1.241685308339117e+01 1.265745472704739e-01
-1.083633240955313e+01 1.305327440550081e+01 1.048370246994914e-01
-1.083398084560708e+01 1.304996465339924e+01 0.000000000000000e+00
-9.196700909250085e+00 1.312474650510048e+01 0.000000000000000e+00
-9.196796406924795e+00 1.312708234156773e+01 1.291298355100004e-01
-9.480020745520076e+00 1.391596272608860e+01 1.094429887384068e-01
-9.479533255039573e+00 1.391192077196054e+01 0.000000000000000e+00
-1.083398084560708e+01 1.304996465339924e+01 0.000000000000000e+00
-1.083633240955313e+01 1.305327440550081e+01 1.048370246994914e-01
-1.145682633393827e+01 1.408217242650875e+01 6.723986866346029e-02
-1.144848542894790e+01 1.407169750970921e+01 0.000000000000000e+00
-9.479533255039573e+00 1.391192077196054e+01 0.000000000000000e+00
-9.480020745520076e+00 1.391596272608860e+01 1.094429887384068e-01
-9.854502492146015e+00 1.521955146949802e+01 7.155712677369444e-02
-9.848719690071588e+00 1.520756120727067e+01 0.000000000000000e+00
-1.144848542894790e+01 1.407169750970921e+01 0.000000000000000e+00
-1.145682633393827e+01 1.408217242650875e+01 6.723986866346029e-02
-1.261734311513568e+01 1.604583747185377e+01 -1.618880536539160e-01
-1.257856548021459e+01 1.598754743679624e+01 0.000000000000000e+00
-9.848719690071588e+00 1.520756120727067e+01 0.000000000000000e+00
-9.854502492146015e+00 1.521955146949802e+01 7.155712677369444e-02
-1.059074789786357e+01 1.756083047745150e+01 -1.421999544732176e-01
-1.056766792836901e+01 1.750159211881363e+01 0.000000000000000e+00
-1.257856548021459e+01 1.598754743679624e+01 0.000000000000000e+00
-1.261734311513568e+01 1.604583747185377e+01 -1.618880536539160e-01
-1.521903572521802e+01 1.983383350728088e+01 -6.610690995500177e-01
-1.521903572521801e+01 1.983383350728088e+01 0.000000000000000e+00
-1.056766792836901e+01 1.750159211881363e+01 0.000000000000000e+00
-1.059074789786357e+01 1.756083047745150e+01 -1.421999544732176e-01
-1.250000000000000e+01 2.165063509461097e+01 -5.707901781696960e-01
-1.250000000000000e+01 2.165063509461097e+01 0.000000000000000e+00
-8.412418001799368e+00 1.199268510437384e+01 0.000000000000000e+00
-8.410713644751864e+00 1.199533097897479e+01 1.598816320701074e-01
-8.680841736862495e+00 1.225834392012600e+01 1.505164448944223e-01
-8.681595923400561e+00 1.225532101755208e+01 0.000000000000000e+00
-6.702491419794196e+00 1.222100454273706e+01 0.000000000000000e+00
-6.700245361065443e+00 1.222464566268578e+01 1.924399165493094e-01
-7.108972971557729e+00 1.255916914761733e+01 1.766622961673815e-01
-7.110871964598685e+00 1.255469934455870e+01 0.000000000000000e+00
-8.681595923400561e+00 1.225532101755208e+01 0.000000000000000e+00
-8.680841736862495e+00 1.225834392012600e+01 1.505164448944223e-01
-8.938923949966515e+00 1.261677615396170e+01 1.367120695269282e-01
-8.939161138326023e+00 1.261452125443900e+01 0.000000000000000e+00
-7.110871964598685e+00 1.255469934455870e+01 0.000000000000000e+00
-7.108972971557729e+00 1.255916914761733e+01 1.766622961673815e-01
-7.449183157992755e+00 1.301698276087265e+01 1.567208331830970e-01
-7.451400697644096e+00 1.301323403786543e+01 0.000000000000000e+00
-8.939161138326023e+00 1.261452125443900e+01 0.000000000000000e+00
-8.938923949966515e+00 1.261677615396170e+01 1.367120695269282e-01
-9.196796406924795e+00 1.312708234156773e+01 1.291298355100004e-01
-9.196700909250085e+00 1.312474650510048e+01 0.000000000000000e+00
-7.451400697644096e+00 1.301323403786543e+01 0.000000000000000e+00
-7.449183157992755e+00 1.301698276087265e+01 1.567208331830970e-01
-7.698336803557182e+00 1.368587366927891e+01 1.470240143193838e-01
-7.700681672238100e+00 1.368244376500536e+01 0.000000000000000e+00
-9.196700909250085e+00 1.312474650510048e+01 0.000000000000000e+00
-9.196796406924795e+00 1.312708234156773e+01 1.291298355100004e-01
-9.480020745520076e+00 1.391596272608860e+01 1.094429887384068e-01
-9.479533255039573e+00 1.391192077196054e+01 0.000000000000000e+00
-7.700681672238100e+00 1.368244376500536e+01 0.000000000000000e+00
-7.698336803557182e+00 1.368587366927891e+01 1.470240143193838e-01
-7.846659151831045e+00 1.471412651655270e+01 1.261873885963439e-01
-7.847909402229448e+00 1.470907112168225e+01 0.000000000000000e+00
-9.479533255039573e+00 1.391192077196054e+01 0.000000000000000e+00
-9.480020745520076e+00 1.391596272608860e+01 1.094429887384068e-01
-9.854502492146015e+00 1.521955146949802e+01 7.155712677369444e-02
-9.848719690071588e+00 1.520756120727067e+01 0.000000000000000e+00
-7.847909402229448e+00 1.470907112168225e+01 0.000000000000000e+00
-7.846659151831045e+00 1.471412651655270e+01 1.261873885963439e-01
-7.950741566866921e+00 1.632275973466823e+01 8.641227931041937e-02
-7.947482347528640e+00 1.631010639111927e+01 0.000000000000000e+00
-9.848719690071588e+00 1.520756120727067e+01 0.000000000000000e+00
-9.854502492146015e+00 1.521955146949802e+01 7.155712677369444e-02
-1.059074789786357e+01 1.756083047745150e+01 -1.421999544732176e-01
-1.056766792836901e+01 1.750159211881363e+01 0.000000000000000e+00
-7.947482347528640e+00 1.631010639111927e+01 0.000000000000000e+00
-7.950741566866921e+00 1.632275973466823e+01 8.641227931041937e-02
-8.278381407345847e+00 1.892723435421954e+01 -1.046636907624593e-01
-8.268856680848685e+00 1.887213711956863e+01 0.000000000000000e+00
-1.056766792836901e+01 1.750159211881363e+01 0.000000000000000e+00
-1.059074789786357e+01 1.756083047745150e+01 -1.421999544732176e-01
-1.250000000000000e+01 2.165063509461097e+01 -5.707901781696960e-01
-1.250000000000000e+01 2.165063509461097e+01 0.000000000000000e+00
-8.268856680848685e+00 1.887213711956863e+01 0.000000000000000e+00
-8.278381407345847e+00 1.892723435421954e+01 -1.046636907624593e-01
-9.567085809127240e+00 2.309698831278217e+01 -4.607786485239261e-01
-9.567085809127249e+00 2.309698831278217e+01 0.000000000000000e+00
-6.702491419794196e+00 1.222100454273706e+01 0.000000000000000e+00
-6.700245361065443e+00 1.222464566268578e+01 1.924399165493094e-01
-7.108972971557729e+00 1.255916914761733e+01 1.766622961673815e-01
-7.110871964598685e+00 1.255469934455870e+01 0.000000000000000e+00
-4.533877924139409e+00 1.199410340773676e+01 0.000000000000000e+00
-4.532310724494169e+00 1.199581299490349e+01 2.217619520895658e-01
-5.064832362605012e+00 1.247887766275300e+01 2.129502863967069e-01
-5.068120964078620e+00 1.247579127281518e+01 0.000000000000000e+00
-7.110871964598685e+00 1.255469934455870e+01 0.000000000000000e+00
-7.108972971557729e+00 1.255916914761733e+01 1.766622961673815e-01
-7.449183157992755e+00 1.301698276087265e+01 1.567208331830970e-01
-7.451400697644096e+00 1.301323403786543e+01 0.000000000000000e+00
-5.068120964078620e+00 1.247579127281518e+01 0.000000000000000e+00
-5.064832362605012e+00 1.247887766275300e+01 2.129502863967069e-01
-5.475208724311960e+00 1.315225112863775e+01 1.986656563083308e-01
-5.480804940685319e+00 1.314854972928308e+01 0.000000000000000e+00
-7.451400697644096e+00 1.301323403786543e+01 0.000000000000000e+00
-7.449183157992755e+00 1.301698276087265e+01 1.567208331830970e-01
-7.698336803557182e+00 1.368587366927891e+01 1.470240143193838e-01
-7.700681672238100e+00 1.368244376500536e+01 0.000000000000000e+00
-5.480804940685319e+00 1.314854972928308e+01 0.000000000000000e+00
-5.475208724311960e+00 1.315225112863775e+01 1.986656563083308e-01
-5.715696403026712e+00 1.410625192562610e+01 1.864179126369784e-01
-5.721345580821778e+00 1.410118302029382e+01 0.000000000000000e+00
-7.700681672238100e+00 1.368244376500536e+01 0.000000000000000e+00
-7.698336803557182e+00 1.368587366927891e+01 1.470240143193838e-01
-7.846659151831045e+00 1.471412651655270e+01 1.261873885963439e-01
-7.847909402229448e+00 1.470907112168225e+01 0.000000000000000e+00
-5.721345580821778e+00 1.410118302029382e+01 0.000000000000000e+00
-5.715696403026712e+00 1.410625192562610e+01 1.864179126369784e-01
-5.766689558586105e+00 1.545634619323158e+01 1.537321733750323e-01
-5.770674343982608e+00 1.544857714202240e+01 0.000000000000000e+00
-7.847909402229448e+00 1.470907112168225e+01 0.000000000000000e+00
-7.846659151831045e+00 1.471412651655270e+01 1.261873885963439e-01
-7.950741566866921e+00 1.632275973466823e+01 8.641227931041937e-02
-7.947482347528640e+00 1.631010639111927e+01 0.000000000000000e+00
-5.770674343982608e+00 1.544857714202240e+01 0.000000000000000e+00
-5.766689558586105e+00 1.545634619323158e+01 1.537321733750323e-01
-5.682268690097465e+00 1.733508314211240e+01 1.027086371169873e-01
-5.682067459531549e+00 1.732191820645405e+01 0.000000000000000e+00
-7.947482347528640e+00 1.631010639111927e+01 0.000000000000000e+00
-7.950741566866921e+00 1.632275973466823e+01 8.641227931041937e-02
-8.278381407345847e+00 1.892723435421954e+01 -1.046636907624593e-01
-8.268856680848685e+00 1.887213711956863e+01 0.000000000000000e+00
-5.682067459531549e+00 1.732191820645405e+01 0.000000000000000e+00
-5.682268690097465e+00 1.733508314211240e+01 1.027086371169873e-01
-5.704124270851969e+00 2.004332244597703e+01 -6.155337506317628e-02
-5.703853659309905e+00 1.999526934384748e+01 0.000000000000000e+00
-8.268856680848685e+00 1.887213711956863e+01 0.000000000000000e+00
-8.278381407345847e+00 1.892723435421954e+01 -1.046636907624593e-01
-9.567085809127240e+00 2.309698831278217e+01 -4.607786485239261e-01
-9.567085809127249e+00 2.309698831278217e+01 0.000000000000000e+00
-5.703853659309905e+00 1.999526934384748e+01 0.000000000000000e+00
-5.704124270851969e+00 2.004332244597703e+01 -6.155337506317628e-02
-6.470476127563020e+00 2.414814565722671e+01 -3.613786668510235e-01
-6.470476127563007e+00 2.414814565722671e+01 0.000000000000000e+00
-4.533877924139409e+00 1.199410340773676e+01 0.000000000000000e+00
-4.532310724494169e+00 1.199581299490349e+01 2.217619520895658e-01
-5.064832362605012e+00 1.247887766275300e+01 2.129502863967069e-01
-5.068120964078620e+00 1.247579127281518e+01 0.000000000000000e+00
-2.198888529840554e+00 1.143447590829517e+01 0.000000000000000e+00
-2.198922707720727e+00 1.143145649333321e+01 2.250208715357732e-01
-2.612491509330151e+00 1.209482039136491e+01 2.420294421028918e-01
-2.614933773053704e+00 1.209752444017158e+01 0.000000000000000e+00
-5.068120964078620e+00 1.247579127281518e+01 0.000000000000000e+00
-5.064832362605012e+00 1.247887766275300e+01 2.129502863967069e-01
-5.475208724311960e+00 1.315225112863775e+01 1.986656563083308e-01
-5.480804940685319e+00 1.314854972928308e+01 0.000000000000000e+00
-2.614933773053704e+00 1.209752444017158e+01 0.000000000000000e+00
-2.612491509330151e+00 1.209482039136491e+01 2.420294421028918e-01
-2.921988987699919e+00 1.304296269283340e+01 2.554415737146877e-01
-2.927903484236733e+00 1.304292944590610e+01 0.000000000000000e+00
-5.480804940685319e+00 1.314854972928308e+01 0.000000000000000e+00
-5.475208724311960e+00 1.315225112863775e+01 1.986656563083308e-01
-5.715696403026712e+00 1.410625192562610e+01 1.864179126369784e-01
-5.721345580821778e+00 1.410118302029382e+01 0.000000000000000e+00
-2.927903484236733e+00 1.304292944590610e+01 0.000000000000000e+00
-2.921988987699919e+00 1.304296269283340e+01 2.554415737146877e-01
-3.088715411687487e+00 1.432039501512212e+01 2.444265024676424e-01
-3.094884566704421e+00 1.431503735921806e+01 0.000000000000000e+00
-5.721345580821778e+00 1.410118302029382e+01 0.000000000000000e+00
-5.715696403026712e+00 1.410625192562610e+01 1.864179126369784e-01
-5.766689558586105e+00 1.545634619323158e+01 1.537321733750323e-01
-5.770674343982608e+00 1.544857714202240e+01 0.000000000000000e+00
-3.094884566704421e+00 1.431503735921806e+01 0.000000000000000e+00
-3.088715411687487e+00 1.432039501512212e+01 2.444265024676424e-01
-3.100982361971920e+00 1.598244706833506e+01 2.030516776223032e-01
-3.107006952285811e+00 1.597259815622095e+01 0.000000000000000e+00
-5.770674343982608e+00 1.544857714202240e+01 0.000000000000000e+00
-5.766689558586105e+00 1.545634619323158e+01 1.537321733750323e-01
-5.682268690097465e+00 1.733508314211240e+01 1.027086371169873e-01
-5.682067459531549e+00 1.732191820645405e+01 0.000000000000000e+00
-3.107006952285811e+00 1.597259815622095e+01 0.000000000000000e+00
-3.100982361971920e+00 1.598244706833506e+01 2.030516776223032e-01
-3.005823724909840e+00 1.807644055092970e+01 1.345823575413631e-01
-3.009576338791012e+00 1.806142073034785e+01 0.000000000000000e+00
-5.682067459531549e+00 1.732191820645405e+01 0.000000000000000e+00
-5.682268690097465e+00 1.733508314211240e+01 1.027086371169873e-01
-5.704124270851969e+00 2.004332244597703e+01 -6.155337506317628e-02
-5.703853659309905e+00 1.999526934384748e+01 0.000000000000000e+00
-3.009576338791012e+00 1.806142073034785e+01 0.000000000000000e+00
-3.005823724909840e+00 1.807644055092970e+01 1.345823575413631e-01
-2.933651939580186e+00 2.080201983785832e+01 -1.758384404764457e-02
-2.939111028617892e+00 2.075945257933981e+01 0.000000000000000e+00
-5.703853659309905e+00 1.999526934384748e+01 0.000000000000000e+00
-5.704124270851969e+00 2.004332244597703e+01 -6.155337506317628e-02
-6.470476127563020e+00 2.414814565722671e+01 -3.613786668510235e-01
-6.470476127563007e+00 2.414814565722671e+01 0.000000000000000e+00
-2.939111028617892e+00 2.075945257933981e+01 0.000000000000000e+00
-2.933651939580186e+00 2.080201983785832e+01 -1.758384404764457e-02
-3.263154805501287e+00 2.478612153434526e+01 -2.801512666792234e-01
-3.263154805501281e+00 2.478612153434526e+01 0.000000000000000e+00
-2.198888529840554e+00 1.143447590829517e+01 0.000000000000000e+00
-2.198922707720727e+00 1.143145649333321e+01 2.250208715357732e-01
-2.612491509330151e+00 1.209482039136491e+01 2.420294421028918e-01
-2.614933773053704e+00 1.209752444017158e+01 0.000000000000000e+00
0.000000000000000e+00 1.111983017301749e+01 0.000000000000000e+00
0.000000000000000e+00 1.111496364555937e+01 2.185819924854834e-01
0.000000000000000e+00 1.185574375820502e+01 2.484458844819506e-01
0.000000000000000e+00 1.186166630859585e+01 0.000000000000000e+00
-2.614933773053704e+00 1.209752444017158e+01 0.000000000000000e+00
-2.612491509330151e+00 1.209482039136491e+01 2.420294421028918e-01
-2.921988987699919e+00 1.304296269283340e+01 2.554415737146877e-01
-2.927903484236733e+00 1.304292944590610e+01 0.000000000000000e+00
0.000000000000000e+00 1.186166630859585e+01 0.000000000000000e+00
0.000000000000000e+00 1.185574375820502e+01 2.484458844819506e-01
0.000000000000000e+00 1.291926425155529e+01 2.801143160706039e-01
0.000000000000000e+00 1.292223786972421e+01 0.000000000000000e+00
-2.927903484236733e+00 1.304292944590610e+01 0.000000000000000e+00
-2.921988987699919e+00 1.304296269283340e+01 2.554415737146877e-01
-3.088715411687487e+00 1.432039501512212e+01 2.444265024676424e-01
-3.094884566704421e+00 1.431503735921806e+01 0.000000000000000e+00
0.000000000000000e+00 1.292223786972421e+01 0.000000000000000e+00
0.000000000000000e+00 1.291926425155529e+01 2.801143160706039e-01
0.000000000000000e+00 1.432508536656678e+01 2.718604110121529e-01
0.000000000000000e+00 1.432083853135195e+01 0.000000000000000e+00
-3.094884566704421e+00 1.431503735921806e+01 0.000000000000000e+00
-3.088715411687487e+00 1.432039501512212e+01 2.444265024676424e-01
-3.100982361971920e+00 1.598244706833506e+01 2.030516776223032e-01
-3.107006952285811e+00 1.597259815622095e+01 0.000000000000000e+00
0.000000000000000e+00 1.432083853135195e+01 0.000000000000000e+00
0.000000000000000e+00 1.432508536656678e+01 2.718604110121529e-01
0.000000000000000e+00 1.610180527966661e+01 2.316090300908552e-01
0.000000000000000e+00 1.609316879095024e+01 0.000000000000000e+00
-3.107006952285811e+00 1.597259815622095e+01 0.000000000000000e+00
-3.100982361971920e+00 1.598244706833506e+01 2.030516776223032e-01
-3.005823724909840e+00 1.807644055092970e+01 1.345823575413631e-01
-3.009576338791012e+00 1.806142073034785e+01 0.000000000000000e+00
0.000000000000000e+00 1.609316879095024e+01 0.000000000000000e+00
0.000000000000000e+00 1.610180527966661e+01 2.316090300908552e-01
0.000000000000000e+00 1.827797321282710e+01 1.601789109202976e-01
0.000000000000000e+00 1.826363118794586e+01 0.000000000000000e+00
-3.009576338791012e+00 1.806142073034785e+01 0.000000000000000e+00
-3.005823724909840e+00 1.807644055092970e+01 1.345823575413631e-01
-2.933651939580186e+00 2.080201983785832e+01 -1.758384404764457e-02
-2.939111028617892e+00 2.075945257933981e+01 0.000000000000000e+00
0.000000000000000e+00 1.826363118794586e+01 0.000000000000000e+00
0.000000000000000e+00 1.827797321282710e+01 1.601789109202976e-01
0.000000000000000e+00 2.104633477877418e+01 1.080931204723308e-02
0.000000000000000e+00 2.100687164971791e+01 0.000000000000000e+00
-2.939111028617892e+00 2.075945257933981e+01 0.000000000000000e+00
-2.933651939580186e+00 2.080201983785832e+01 -1.758384404764457e-02
-3.263154805501287e+00 2.478612153434526e+01 -2.801512666792234e-01
-3.263154805501281e+00 2.478612153434526e+01 0.000000000000000e+00
0.000000000000000e+00 2.100687164971791e+01 0.000000000000000e+00
0.000000000000000e+00 2.104633477877418e+01 1.080931204723308e-02
0.000000000000000e+00 2.500000000000000e+01 -2.413690680839188e-01
0.000000000000000e+00 2.500000000000000e+01 0.000000000000000e+00
        </DataArray>
        <DataArray type="Float64" Name="kinematic_plastic_strain" NumberOfComponents="9" format="ascii">
2.553298994424472e-03 6.388144262038267e-03 3.155279729119215e-06 6.388144262038266e-03 2.561959689431411e-03 1.289289975066201e-06 3.155279729119211e-06 1.289289975066202e-06 -5.115258683855881e-03
2.554966745961632e-03 6.398684771943984e-03 -4.980867540701052e-06 6.398684771943984e-03 2.563892399333289e-03 1.009763388814668e-06 -4.980867540701046e-06 1.009763388814668e-06 -5.118859145294917e-03
1.295524208540472e-03 3.556069659702030e-03 -2.118923161347837e-06 3.556069659702030e-03 1.298640668813876e-03 1.990738656262727e-07 -2.118923161347842e-06 1.990738656262723e-07 -2.594164877354346e-03
1.294455535332777e-03 3.552408933209422e-03 4.473059800760368e-06 3.552408933209423e-03 1.297474186296082e-03 -1.463072170349374e-06 4.473059800760369e-06 -1.463072170349374e-06 -2.591929721628859e-03
4.744099825858245e-03 6.659574780701682e-03 -2.238340765444588e-05 6.659574780701680e-03 7.681179532634640e-04 -3.188039649002208e-05 -2.238340765444588e-05 -3.188039649002208e-05 -5.512217779121707e-03
4.742662977389771e-03 6.671239212452687e-03 1.941841215841757e-05 6.671239212452685e-03 7.722992990600594e-04 3.559480343007368e-05 1.941841215841759e-05 3.559480343007368e-05 -5.514962276449830e-03
2.378974575176399e-03 3.644917558423597e-03 7.472344853911989e-06 3.644917558423597e-03 3.483388665137993e-04 1.513513069077019e-05 7.472344853911981e-06 1.513513069077018e-05 -2.727313441690198e-03
2.380380622422180e-03 3.640481695401441e-03 -4.227420103340646e-06 3.640481695401442e-03 3.446465152753673e-04 -1.643033684921866e-05 -4.227420103340644e-06 -1.643033684921865e-05 -2.725027137697547e-03
1.294455535332777e-03 3.552408933209422e-03 4.473059800760368e-06 3.552408933209423e-03 1.297474186296082e-03 -1.463072170349374e-06 4.473059800760369e-06 -1.463072170349374e-06 -2.591929721628859e-03
1.295524208540472e-03 3.556069659702030e-03 -2.118923161347837e-06 3.556069659702030e-03 1.298640668813876e-03 1.990738656262727e-07 -2.118923161347842e-06 1.990738656262723e-07 -2.594164877354346e-03
1.268048356870265e-03 4.293005285810617e-03 -5.274058707729574e-06 4.293005285810618e-03 1.269656662237288e-03 3.158407859809191e-06 -5.274058707729576e-06 3.158407859809190e-06 -2.537705019107554e-03
1.268103104957294e-03 4.288563486592831e-03 1.886746527094002e-06 4.288563486592831e-03 1.269686648693190e-03 1.407068173956587e-07 1.886746527094002e-06 1.407068173956590e-07 -2.537789753650485e-03
2.380380622422180e-03 3.640481695401441e-03 -4.227420103340646e-06 3.640481695401442e-03 3.446465152753673e-04 -1.643033684921866e-05 -4.227420103340644e-06 -1.643033684921865e-05 -2.725027137697547e-03
2.378974575176399e-03 3.644917558423597e-03 7.472344853911989e-06 3.644917558423597e-03 3.483388665137993e-04 1.513513069077019e-05 7.472344853911981e-06 1.513513069077018e-05 -2.727313441690198e-03
2.447690330601147e-03 4.313397817063469e-03 1.553821690249901e-06 4.313397817063469e-03 1.552310053392575e-04 1.391041198777912e-05 1.553821690249906e-06 1.391041198777912e-05 -2.602921335940404e-03
2.449514687589525e-03 4.308436174480362e-03 -1.670048960494819e-06 4.308436174480364e-03 1.523147533867693e-04 -9.466269406515529e-06 -1.670048960494822e-06 -9.466269406515529e-06 -2.601829440976294e-03
1.268103104957294e-03 4.288563486592831e-03 1.886746527094002e-06 4.288563486592831e-03 1.269686648693190e-03 1.407068173956587e-07 1.886746527094002e-06 1.407068173956590e-07 -2.537789753650485e-03
1.268048356870265e-03 4.293005285810617e-03 -5.274058707729574e-06 4.293005285810618e-03 1.269656662237288e-03 3.158407859809191e-06 -5.274058707729576e-06 3.158407859809190e-06 -2.537705019107554e-03
1.227858831818212e-03 5.491374928541091e-03 -1.588364798994293e-05 5.491374928541092e-03 1.225590529133881e-03 1.264080940314627e-05 -1.588364798994293e-05 1.264080940314627e-05 -2.453449360952093e-03
1.229432820954924e-03 5.483073472788466e-03 1.349091254498180e-05 5.483073472788464e-03 1.227119518630646e-03 -1.042615972593022e-05 1.349091254498180e-05 -1.042615972593022e-05 -2.456552339585571e-03
2.449514687589525e-03 4.308436174480362e-03 -1.670048960494819e-06 4.308436174480364e-03 1.523147533867693e-04 -9.466269406515529e-06 -1.670048960494822e-06 -9.466269406515529e-06 -2.601829440976294e-03
2.447690330601147e-03 4.313397817063469e-03 1.553821690249901e-06 4.313397817063469e-03 1.552310053392575e-04 1.391041198777912e-05 1.553821690249906e-06 1.391041198777912e-05 -2.602921335940404e-03
2.595077267308271e-03 5.481460787589695e-03 -9.201049450148704e-06 5.481460787589695e-03 -1.118535173654776e-04 2.007305118972817e-05 -9.201049450148704e-06 2.007305118972817e-05 -2.483223749942794e-03
2.594946345840973e-03 5.472691526441820e-03 9.472457886906527e-06 5.472691526441821e-03 -1.102365835736890e-04 -1.498125507233478e-05 9.472457886906524e-06 -1.498125507233478e-05 -2.484709762267283e-03
1.229432820954924e-03 5.483073472788466e-03 1.349091254498180e-05 5.483073472788464e-03 1.227119518630646e-03 -1.042615972593022e-05 1.349091254498180e-05 -1.042615972593022e-05 -2.456552339585571e-03
1.227858831818212e-03 5.491374928541091e-03 -1.588364798994293e-05 5.491374928541092e-03 1.225590529133881e-03 1.264080940314627e-05 -1.588364798994293e-05 1.264080940314627e-05 -2.453449360952093e-03
1.004326920568568e-03 7.545334924647529e-03 -4.457407900476044e-05 7.545334924647527e-03 9.984960394384056e-04 3.617023633402979e-05 -4.457407900476044e-05 3.617023633402979e-05 -2.002822960006972e-03
1.010082795903418e-03 7.521323147792662e-03 2.893243231833412e-05 7.521323147792665e-03 1.004134543816421e-03 -2.374033136538491e-05 2.893243231833412e-05 -2.374033136538492e-05 -2.014217339719840e-03
2.594946345840973e-03 5.472691526441820e-03 9.472457886906527e-06 5.472691526441821e-03 -1.102365835736890e-04 -1.498125507233478e-05 9.472457886906524e-06 -1.498125507233478e-05 -2.484709762267283e-03
2.595077267308271e-03 5.481460787589695e-03 -9.201049450148704e-06 5.481460787589695e-03 -1.118535173654776e-04 2.007305118972817e-05 -9.201049450148704e-06 2.007305118972817e-05 -2.483223749942794e-03
2.684838620474143e-03 7.616136783499716e-03 -3.677987921706961e-05 7.616136783499717e-03 -6.515072666371956e-04 4.305276435667518e-05 -3.677987921706961e-05 4.305276435667518e-05 -2.033331353836947e-03
2.687560711280939e-03 7.590755745113852e-03 2.242299896584638e-05 7.590755745113854e-03 -6.438375766045622e-04 -2.843693939111998e-05 2.242299896584638e-05 -2.843693939111997e-05 -2.043723134676376e-03
1.010082795903418e-03 7.521323147792662e-03 2.893243231833412e-05 7.521323147792665e-03 1.004134543816421e-03 -2.374033136538491e-05 2.893243231833412e-05 -2.374033136538492e-05 -2.014217339719840e-03
1.004326920568568e-03 7.545334924647529e-03 -4.457407900476044e-05 7.545334924647527e-03 9.984960394384056e-04 3.617023633402979e-05 -4.457407900476044e-05 3.617023633402979e-05 -2.002822960006972e-03
3.966716939613961e-04 1.181065275019408e-02 -2.371114471577005e-04 1.181065275019408e-02 4.015406939748517e-04 1.971290378848507e-04 -2.371114471577006e-04 1.971290378848507e-04 -7.982123879362485e-04
4.412591501796642e-04 1.167821264372780e-02 9.956717027590684e-05 1.167821264372780e-02 4.393762668258797e-04 -8.049149960601312e-05 9.956717027590684e-05 -8.049149960601315e-05 -8.806354170055438e-04
2.687560711280939e-03 7.590755745113852e-03 2.242299896584638e-05 7.590755745113854e-03 -6.438375766045622e-04 -2.843693939111998e-05 2.242299896584638e-05 -2.843693939111997e-05 -2.043723134676376e-03
2.684838620474143e-03 7.616136783499716e-03 -3.677987921706961e-05 7.616136783499717e-03 -6.515072666371956e-04 4.305276435667518e-05 -3.677987921706961e-05 4.305276435667518e-05 -2.033331353836947e-03
2.476417329374320e-03 1.202936410726218e-02 -2.156627051543301e-04 1.202936410726218e-02 -1.630383478076923e-03 1.960555118351167e-04 -2.156627051543301e-04 1.960555118351167e-04 -8.460338512973968e-04
2.509402127651160e-03 1.189963625158814e-02 9.796357091468151e-05 1.189963625158814e-02 -1.585492310056057e-03 -8.203540300216942e-05 9.796357091468159e-05 -8.203540300216943e-05 -9.239098175951025e-04
4.412591501796642e-04 1.167821264372780e-02 9.956717027590684e-05 1.167821264372780e-02 4.393762668258797e-04 -8.049149960601312e-05 9.956717027590684e-05 -8.049149960601315e-05 -8.806354170055438e-04
3.966716939613961e-04 1.181065275019408e-02 -2.371114471577005e-04 1.181065275019408e-02 4.015406939748517e-04 1.971290378848507e-04 -2.371114471577006e-04 1.971290378848507e-04 -7.982123879362485e-04
-2.284776373173708e-03 2.094929903058213e-02 -3.142599170956810e-04 2.094929903058213e-02 -2.185918749251556e-03 2.788571817904557e-04 -3.142599170956810e-04 2.788571817904557e-04 4.470695122425264e-03
-2.311080865021211e-03 2.089813565467005e-02 5.399021437809194e-04 2.089813565467005e-02 -2.206257055322285e-03 -4.634680230164570e-04 5.399021437809194e-04 -4.634680230164570e-04 4.517337920343496e-03
2.509402127651160e-03 1.189963625158814e-02 9.796357091468151e-05 1.189963625158814e-02 -1.585492310056057e-03 -8.203540300216942e-05 9.796357091468159e-05 -8.203540300216943e-05 -9.239098175951025e-04
2.476417329374320e-03 1.202936410726218e-02 -2.156627051543301e-04 1.202936410726218e-02 -1.630383478076923e-03 1.960555118351167e-04 -2.156627051543301e-04 1.960555118351167e-04 -8.460338512973968e-04
1.268698901699611e-04 2.101976216389087e-02 -2.862352061098766e-04 2.101976216389088e-02 -4.382619676040904e-03 2.570022947799957e-04 -2.862352061098765e-04 2.570022947799957e-04 4.255749785870943e-03
9.038878452854315e-05 2.097399396274974e-02 4.561522922156305e-04 2.097399396274974e-02 -4.393182886804158e-03 -4.623728429301288e-04 4.561522922156304e-04 -4.623728429301287e-04 4.302794102275617e-03
-2.311080865021211e-03 2.089813565467005e-02 5.399021437809194e-04 2.089813565467005e-02 -2.206257055322285e-03 -4.634680230164570e-04 5.399021437809194e-04 -4.634680230164570e-04 4.517337920343496e-03
-2.284776373173708e-03 2.094929903058213e-02 -3.142599170956810e-04 2.094929903058213e-02 -2.185918749251556e-03 2.788571817904557e-04 -3.142599170956810e-04 2.788571817904557e-04 4.470695122425264e-03
-1.188980067764783e-02 6.064708469400763e-02 -2.252881422912018e-03 6.064708469400761e-02 -1.128245292473942e-02 2.050659355166109e-03 -2.252881422912018e-03 2.050659355166110e-03 2.317225360238725e-02
-1.199530612030871e-02 6.110535974466021e-02 6.410128159771262e-06 6.110535974466019e-02 -1.145231523870907e-02 -1.119456197833728e-05 6.410128159771371e-06 -1.119456197833725e-05 2.344762135901779e-02
9.038878452854315e-05 2.097399396274974e-02 4.561522922156305e-04 2.097399396274974e-02 -4.393182886804158e-03 -4.623728429301288e-04 4.561522922156304e-04 -4.623728429301287e-04 4.302794102275617e-03
1.268698901699611e-04 2.101976216389087e-02 -2.862352061098766e-04 2.101976216389088e-02 -4.382619676040904e-03 2.570022947799957e-04 -2.862352061098765e-04 2.570022947799957e-04 4.255749785870943e-03
-6.211356126939361e-03 6.008218528270536e-02 -1.480431360271353e-03 6.008218528270537e-02 -1.566276186049097e-02 2.047888214502319e-03 -1.480431360271354e-03 2.047888214502318e-03 2.187411798743033e-02
-6.312333969721443e-03 6.051060875199270e-02 2.105071856130449e-06 6.051060875199273e-02 -1.581557630539294e-02 -6.228660070483090e-06 2.105071856130551e-06 -6.228660070482913e-06 2.212791027511438e-02
4.744099825858245e-03 6.659574780701682e-03 -2.238340765444588e-05 6.659574780701680e-03 7.681179532634640e-04 -3.188039649002208e-05 -2.238340765444588e-05 -3.188039649002208e-05 -5.512217779121707e-03
4.742662977389771e-03 6.671239212452687e-03 1.941841215841757e-05 6.671239212452685e-03 7.722992990600594e-04 3.559480343007368e-05 1.941841215841759e-05 3.559480343007368e-05 -5.514962276449830e-03
2.378974575176399e-03 3.644917558423597e-03 7.472344853911989e-06 3.644917558423597e-03 3.483388665137993e-04 1.513513069077019e-05 7.472344853911981e-06 1.513513069077018e-05 -2.727313441690198e-03
2.380380622422180e-03 3.640481695401441e-03 -4.227420103340646e-06 3.640481695401442e-03 3.446465152753673e-04 -1.643033684921866e-05 -4.227420103340644e-06 -1.643033684921865e-05 -2.725027137697547e-03
7.793742334963119e-03 7.337531968394604e-03 -4.393470696049551e-05 7.337531968394605e-03 -1.154411408858373e-03 -6.635219376028987e-05 -4.393470696049551e-05 -6.635219376028987e-05 -6.639330926104744e-03
7.791897379754265e-03 7.349474846431108e-03 3.162661223719969e-05 7.349474846431107e-03 -1.152946671486159e-03 6.982523625366383e-05 3.162661223719968e-05 6.982523625366383e-05 -6.638950708268103e-03
3.836218421866145e-03 3.909957070733298e-03 1.435697178218473e-05 3.909957070733299e-03 -6.861062015558769e-04 3.288813557113311e-05 1.435697178218473e-05 3.288813557113312e-05 -3.150112220310268e-03
3.837232998286744e-03 3.904876958289710e-03 -1.206664085453218e-05 3.904876958289709e-03 -6.891695155730115e-04 -3.634524884265535e-05 -1.206664085453218e-05 -3.634524884265536e-05 -3.148063482713731e-03
2.380380622422180e-03 3.640481695401441e-03 -4.227420103340646e-06 3.640481695401442e-03 3.446465152753673e-04 -1.643033684921866e-05 -4.227420103340644e-06 -1.643033684921865e-05 -2.725027137697547e-03
2.378974575176399e-03 3.644917558423597e-03 7.472344853911989e-06 3.644917558423597e-03 3.483388665137993e-04 1.513513069077019e-05 7.472344853911981e-06 1.513513069077018e-05 -2.727313441690198e-03
2.447690330601147e-03 4.313397817063469e-03 1.553821690249901e-06 4.313397817063469e-03 1.552310053392575e-04 1.391041198777912e-05 1.553821690249906e-06 1.391041198777912e-05 -2.602921335940404e-03
2.449514687589525e-03 4.308436174480362e-03 -1.670048960494819e-06 4.308436174480364e-03 1.523147533867693e-04 -9.466269406515529e-06 -1.670048960494822e-06 -9.466269406515529e-06 -2.601829440976294e-03
3.837232998286744e-03 3.904876958289710e-03 -1.206664085453218e-05 3.904876958289709e-03 -6.891695155730115e-04 -3.634524884265535e-05 -1.206664085453218e-05 -3.634524884265536e-05 -3.148063482713731e-03
3.836218421866145e-03 3.909957070733298e-03 1.435697178218473e-05 3.909957070733299e-03 -6.861062015558769e-04 3.288813557113311e-05 1.435697178218473e-05 3.288813557113312e-05 -3.150112220310268e-03
3.950136847209777e-03 4.469197982393439e-03 1.078677170869881e-05 4.469197982393437e-03 -1.078149711595752e-03 3.031805236078044e-05 1.078677170869881e-05 3.031805236078044e-05 -2.871987135614025e-03
3.949998258170793e-03 4.464260258538236e-03 -8.900416433363717e-06 4.464260258538239e-03 -1.081698407013801e-03 -2.803843617177051e-05 -8.900416433363725e-06 -2.803843617177051e-05 -2.868299851156992e-03
2.449514687589525e-03 4.308436174480362e-03 -1.670048960494819e-06 4.308436174480364e-03 1.523147533867693e-04 -9.466269406515529e-06 -1.670048960494822e-06 -9.466269406515529e-06 -2.601829440976294e-03
2.447690330601147e-03 4.313397817063469e-03 1.553821690249901e-06 4.313397817063469e-03 1.552310053392575e-04 1.391041198777912e-05 1.553821690249906e-06 1.391041198777912e-05 -2.602921335940404e-03
2.595077267308271e-03 5.481460787589695e-03 -9.201049450148704e-06 5.481460787589695e-03 -1.118535173654776e-04 2.007305118972817e-05 -9.201049450148704e-06 2.007305118972817e-05 -2.483223749942794e-03
2.594946345840973e-03 5.472691526441820e-03 9.472457886906527e-06 5.472691526441821e-03 -1.102365835736890e-04 -1.498125507233478e-05 9.472457886906524e-06 -1.498125507233478e-05 -2.484709762267283e-03
3.949998258170793e-03 4.464260258538236e-03 -8.900416433363717e-06 4.464260258538239e-03 -1.081698407013801e-03 -2.803843617177051e-05 -8.900416433363725e-06 -2.803843617177051e-05 -2.868299851156992e-03
3.950136847209777e-03 4.469197982393439e-03 1.078677170869881e-05 4.469197982393437e-03 -1.078149711595752e-03 3.031805236078044e-05 1.078677170869881e-05 3.031805236078044e-05 -2.871987135614025e-03
4.303779036431244e-03 5.618051412234593e-03 3.249076744257723e-06 5.618051412234594e-03 -1.631878885947737e-03 3.308025521263004e-05 3.249076744257719e-06 3.308025521263004e-05 -2.671900150483506e-03
4.300704779279274e-03 5.608843752063603e-03 -4.535774510107051e-06 5.608843752063602e-03 -1.630608006528493e-03 -2.617841591343240e-05 -4.535774510107050e-06 -2.617841591343240e-05 -2.670096772750782e-03
2.594946345840973e-03 5.472691526441820e-03 9.472457886906527e-06 5.472691526441821e-03 -1.102365835736890e-04 -1.498125507233478e-05 9.472457886906524e-06 -1.498125507233478e-05 -2.484709762267283e-03
2.595077267308271e-03 5.481460787589695e-03 -9.201049450148704e-06 5.481460787589695e-03 -1.118535173654776e-04 2.007305118972817e-05 -9.201049450148704e-06 2.007305118972817e-05 -2.483223749942794e-03
2.684838620474143e-03 7.616136783499716e-03 -3.677987921706961e-05 7.616136783499717e-03 -6.515072666371956e-04 4.305276435667518e-05 -3.677987921706961e-05 4.305276435667518e-05 -2.033331353836947e-03
2.687560711280939e-03 7.590755745113852e-03 2.242299896584638e-05 7.590755745113854e-03 -6.438375766045622e-04 -2.843693939111998e-05 2.242299896584638e-05 -2.843693939111997e-05 -2.043723134676376e-03
4.300704779279274e-03 5.608843752063603e-03 -4.535774510107051e-06 5.608843752063602e-03 -1.630608006528493e-03 -2.617841591343240e-05 -4.535774510107050e-06 -2.617841591343240e-05 -2.670096772750782e-03
4.303779036431244e-03 5.618051412234593e-03 3.249076744257723e-06 5.618051412234594e-03 -1.631878885947737e-03 3.308025521263004e-05 3.249076744257719e-06 3.308025521263004e-05 -2.671900150483506e-03
4.750501594213502e-03 7.927321806911299e-03 -2.578943370425221e-05 7.927321806911298e-03 -2.531702836792801e-03 5.282523429868040e-05 -2.578943370425221e-05 5.282523429868040e-05 -2.218798757420704e-03
4.751582960771624e-03 7.900051347477326e-03 7.087223132307484e-06 7.900051347477330e-03 -2.523608620371478e-03 -3.873761101311857e-05 7.087223132307489e-06 -3.873761101311857e-05 -2.227974340400146e-03
2.687560711280939e-03 7.590755745113852e-03 2.242299896584638e-05 7.590755745113854e-03 -6.438375766045622e-04 -2.843693939111998e-05 2.242299896584638e-05 -2.843693939111997e-05 -2.043723134676376e-03
2.684838620474143e-03 7.616136783499716e-03 -3.677987921706961e-05 7.616136783499717e-03 -6.515072666371956e-04 4.305276435667518e-05 -3.677987921706961e-05 4.305276435667518e-05 -2.033331353836947e-03
2.476417329374320e-03 1.202936410726218e-02 -2.156627051543301e-04 1.202936410726218e-02 -1.630383478076923e-03 1.960555118351167e-04 -2.156627051543301e-04 1.960555118351167e-04 -8.460338512973968e-04
2.509402127651160e-03 1.189963625158814e-02 9.796357091468151e-05 1.189963625158814e-02 -1.585492310056057e-03 -8.203540300216942e-05 9.796357091468159e-05 -8.203540300216943e-05 -9.239098175951025e-04
4.751582960771624e-03 7.900051347477326e-03 7.087223132307484e-06 7.900051347477330e-03 -2.523608620371478e-03 -3.873761101311857e-05 7.087223132307489e-06 -3.873761101311857e-05 -2.227974340400146e-03
4.750501594213502e-03 7.927321806911299e-03 -2.578943370425221e-05 7.927321806911298e-03 -2.531702836792801e-03 5.282523429868040e-05 -2.578943370425221e-05 5.282523429868040e-05 -2.218798757420704e-03
4.875042303192439e-03 1.252940079189772e-02 -1.829611461256645e-04 1.252940079189772e-02 -3.818698961913690e-03 1.883171018639821e-04 -1.829611461256645e-04 1.883171018639821e-04 -1.056343341278748e-03
4.894833229770050e-03 1.241330890363753e-02 8.632092356193057e-05 1.241330890363752e-02 -3.771361310557500e-03 -9.177928969702730e-05 8.632092356193056e-05 -9.177928969702730e-05 -1.123471919212548e-03
2.509402127651160e-03 1.189963625158814e-02 9.796357091468151e-05 1.189963625158814e-02 -1.585492310056057e-03 -8.203540300216942e-05 9.796357091468159e-05 -8.203540300216943e-05 -9.239098175951025e-04
2.476417329374320e-03 1.202936410726218e-02 -2.156627051543301e-04 1.202936410726218e-02 -1.630383478076923e-03 1.960555118351167e-04 -2.156627051543301e-04 1.960555118351167e-04 -8.460338512973968e-04
1.268698901699611e-04 2.101976216389087e-02 -2.862352061098766e-04 2.101976216389088e-02 -4.382619676040904e-03 2.570022947799957e-04 -2.862352061098765e-04 2.570022947799957e-04 4.255749785870943e-03
9.038878452854315e-05 2.097399396274974e-02 4.561522922156305e-04 2.097399396274974e-02 -4.393182886804158e-03 -4.623728429301288e-04 4.561522922156304e-04 -4.623728429301287e-04 4.302794102275617e-03
4.894833229770050e-03 1.241330890363753e-02 8.632092356193057e-05 1.241330890363752e-02 -3.771361310557500e-03 -9.177928969702730e-05 8.632092356193056e-05 -9.177928969702730e-05 -1.123471919212548e-03
4.875042303192439e-03 1.252940079189772e-02 -1.829611461256645e-04 1.252940079189772e-02 -3.818698961913690e-03 1.883171018639821e-04 -1.829611461256645e-04 1.883171018639821e-04 -1.056343341278748e-03
2.861682276930541e-03 2.098449273097851e-02 -2.305950098454112e-04 2.098449273097851e-02 -6.471708412817771e-03 2.220803980539304e-04 -2.305950098454112e-04 2.220803980539304e-04 3.610026135887226e-03
2.820598453285088e-03 2.095474831357815e-02 3.515156438721494e-04 2.095474831357815e-02 -6.473016167229704e-03 -4.407248238457225e-04 3.515156438721494e-04 -4.407248238457225e-04 3.652417713944618e-03
9.038878452854315e-05 2.097399396274974e-02 4.561522922156305e-04 2.097399396274974e-02 -4.393182886804158e-03 -4.623728429301288e-04 4.561522922156304e-04 -4.623728429301287e-04 4.302794102275617e-03
1.268698901699611e-04 2.101976216389087e-02 -2.862352061098766e-04 2.101976216389088e-02 -4.382619676040904e-03 2.570022947799957e-04 -2.862352061098765e-04 2.570022947799957e-04 4.255749785870943e-03
-6.211356126939361e-03 6.008218528270536e-02 -1.480431360271353e-03 6.008218528270537e-02 -1.566276186049097e-02 2.047888214502319e-03 -1.480431360271354e-03 2.047888214502318e-03 2.187411798743033e-02
-6.312333969721443e-03 6.051060875199270e-02 2.105071856130449e-06 6.051060875199273e-02 -1.581557630539294e-02 -6.228660070483090e-06 2.105071856130551e-06 -6.228660070482913e-06 2.212791027511438e-02
2.820598453285088e-03 2.095474831357815e-02 3.515156438721494e-04 2.095474831357815e-02 -6.473016167229704e-03 -4.407248238457225e-04 3.515156438721494e-04 -4.407248238457225e-04 3.652417713944618e-03
2.861682276930541e-03 2.098449273097851e-02 -2.305950098454112e-04 2.098449273097851e-02 -6.471708412817771e-03 2.220803980539304e-04 -2.305950098454112e-04 2.220803980539304e-04 3.610026135887226e-03
6.257995385382257e-04 5.819415932102527e-02 -8.735336114152789e-04 5.819415932102525e-02 -1.900282623464554e-02 1.906429925599588e-03 -8.735336114152788e-04 1.906429925599588e-03 1.837702669610732e-02
5.340107413262299e-04 5.857414964969605e-02 5.275457062686628e-07 5.857414964969605e-02 -1.914758189342297e-02 -2.281246027419128e-06 5.275457062686052e-07 -2.281246027419195e-06 1.861357115209674e-02
7.793742334963119e-03 7.337531968394604e-03 -4.393470696049551e-05 7.337531968394605e-03 -1.154411408858373e-03 -6.635219376028987e-05 -4.393470696049551e-05 -6.635219376028987e-05 -6.639330926104744e-03
7.791897379754265e-03 7.349474846431108e-03 3.162661223719969e-05 7.349474846431107e-03 -1.152946671486159e-03 6.982523625366383e-05 3.162661223719968e-05 6.982523625366383e-05 -6.638950708268103e-03
3.836218421866145e-03 3.909957070733298e-03 1.435697178218473e-05 3.909957070733299e-03 -6.861062015558769e-04 3.288813557113311e-05 1.435697178218473e-05 3.288813557113312e-05 -3.150112220310268e-03
3.837232998286744e-03 3.904876958289710e-03 -1.206664085453218e-05 3.904876958289709e-03 -6.891695155730115e-04 -3.634524884265535e-05 -1.206664085453218e-05 -3.634524884265536e-05 -3.148063482713731e-03
1.169522839871939e-02 7.858548646973015e-03 -5.585306558486497e-05 7.858548646973013e-03 -3.603105508671782e-03 -8.121846591487135e-05 -5.585306558486497e-05 -8.121846591487136e-05 -8.092122890047604e-03
1.169774994971737e-02 7.858982360877672e-03 2.838240505484391e-05 7.858982360877670e-03 -3.611588600167937e-03 8.225947224276137e-05 2.838240505484392e-05 8.225947224276137e-05 -8.086161349549429e-03
5.852798988142487e-03 4.217921934776781e-03 2.281553594574153e-05 4.217921934776782e-03 -2.040939826953662e-03 4.403066465841599e-05 2.281553594574153e-05 4.403066465841599e-05 -3.811859161188823e-03
5.849243445942853e-03 4.217820500321987e-03 -2.462974556246995e-05 4.217820500321987e-03 -2.038245929117471e-03 -4.980796754773549e-05 -2.462974556246994e-05 -4.980796754773550e-05 -3.810997516825382e-03
3.837232998286744e-03 3.904876958289710e-03 -1.206664085453218e-05 3.904876958289709e-03 -6.891695155730115e-04 -3.634524884265535e-05 -1.206664085453218e-05 -3.634524884265536e-05 -3.148063482713731e-03
3.836218421866145e-03 3.909957070733298e-03 1.435697178218473e-05 3.909957070733299e-03 -6.861062015558769e-04 3.288813557113311e-05 1.435697178218473e-05 3.288813557113312e-05 -3.150112220310268e-03
3.950136847209777e-03 4.469197982393439e-03 1.078677170869881e-05 4.469197982393437e-03 -1.078149711595752e-03 3.031805236078044e-05 1.078677170869881e-05 3.031805236078044e-05 -2.871987135614025e-03
3.949998258170793e-03 4.464260258538236e-03 -8.900416433363717e-06 4.464260258538239e-03 -1.081698407013801e-03 -2.803843617177051e-05 -8.900416433363725e-06 -2.803843617177051e-05 -2.868299851156992e-03
5.849243445942853e-03 4.217820500321987e-03 -2.462974556246995e-05 4.217820500321987e-03 -2.038245929117471e-03 -4.980796754773549e-05 -2.462974556246994e-05 -4.980796754773550e-05 -3.810997516825382e-03
5.852798988142487e-03 4.217921934776781e-03 2.281553594574153e-05 4.217921934776782e-03 -2.040939826953662e-03 4.403066465841599e-05 2.281553594574153e-05 4.403066465841599e-05 -3.811859161188823e-03
6.156976090937822e-03 4.833835965909626e-03 3.030465348977439e-05 4.833835965909627e-03 -2.710749264142802e-03 4.677289189795844e-05 3.030465348977439e-05 4.677289189795845e-05 -3.446226826795020e-03
6.151470792985907e-03 4.830879729926792e-03 -3.000329490192426e-05 4.830879729926791e-03 -2.710053998276650e-03 -4.592832803982049e-05 -3.000329490192425e-05 -4.592832803982048e-05 -3.441416794709256e-03
3.949998258170793e-03 4.464260258538236e-03 -8.900416433363717e-06 4.464260258538239e-03 -1.081698407013801e-03 -2.803843617177051e-05 -8.900416433363725e-06 -2.803843617177051e-05 -2.868299851156992e-03
3.950136847209777e-03 4.469197982393439e-03 1.078677170869881e-05 4.469197982393437e-03 -1.078149711595752e-03 3.031805236078044e-05 1.078677170869881e-05 3.031805236078044e-05 -2.871987135614025e-03
4.303779036431244e-03 5.618051412234593e-03 3.249076744257723e-06 5.618051412234594e-03 -1.631878885947737e-03 3.308025521263004e-05 3.249076744257719e-06 3.308025521263004e-05 -2.671900150483506e-03
4.300704779279274e-03 5.608843752063603e-03 -4.535774510107051e-06 5.608843752063602e-03 -1.630608006528493e-03 -2.617841591343240e-05 -4.535774510107050e-06 -2.617841591343240e-05 -2.670096772750782e-03
6.151470792985907e-03 4.830879729926792e-03 -3.000329490192426e-05 4.830879729926791e-03 -2.710053998276650e-03 -4.592832803982049e-05 -3.000329490192425e-05 -4.592832803982048e-05 -3.441416794709256e-03
6.156976090937822e-03 4.833835965909626e-03 3.030465348977439e-05 4.833835965909627e-03 -2.710749264142802e-03 4.677289189795844e-05 3.030465348977439e-05 4.677289189795845e-05 -3.446226826795020e-03
6.801781045114804e-03 6.092860483155821e-03 2.532774199516648e-05 6.092860483155821e-03 -3.618291203312194e-03 5.153243214128792e-05 2.532774199516648e-05 5.153243214128793e-05 -3.183489841802612e-03
6.797993178974030e-03 6.081036087734292e-03 -2.775849665030468e-05 6.081036087734294e-03 -3.617556470298397e-03 -4.419872023747883e-05 -2.775849665030467e-05 -4.419872023747884e-05 -3.180436708675631e-03
4.300704779279274e-03 5.608843752063603e-03 -4.535774510107051e-06 5.608843752063602e-03 -1.630608006528493e-03 -2.617841591343240e-05 -4.535774510107050e-06 -2.617841591343240e-05 -2.670096772750782e-03
4.303779036431244e-03 5.618051412234593e-03 3.249076744257723e-06 5.618051412234594e-03 -1.631878885947737e-03 3.308025521263004e-05 3.249076744257719e-06 3.308025521263004e-05 -2.671900150483506e-03
4.750501594213502e-03 7.927321806911299e-03 -2.578943370425221e-05 7.927321806911298e-03 -2.531702836792801e-03 5.282523429868040e-05 -2.578943370425221e-05 5.282523429868040e-05 -2.218798757420704e-03
4.751582960771624e-03 7.900051347477326e-03 7.087223132307484e-06 7.900051347477330e-03 -2.523608620371478e-03 -3.873761101311857e-05 7.087223132307489e-06 -3.873761101311857e-05 -2.227974340400146e-03
6.797993178974030e-03 6.081036087734292e-03 -2.775849665030468e-05 6.081036087734294e-03 -3.617556470298397e-03 -4.419872023747883e-05 -2.775849665030467e-05 -4.419872023747884e-05 -3.180436708675631e-03
6.801781045114804e-03 6.092860483155821e-03 2.532774199516648e-05 6.092860483155821e-03 -3.618291203312194e-03 5.153243214128792e-05 2.532774199516648e-05 5.153243214128793e-05 -3.183489841802612e-03
7.519479827461780e-03 8.495535126777694e-03 -6.131000333204744e-06 8.495535126777694e-03 -4.858586157809914e-03 6.753186132586979e-05 -6.131000333204744e-06 6.753186132586977e-05 -2.660893669651864e-03
7.522422134340900e-03 8.465001286109393e-03 -5.143919168841821e-06 8.465001286109393e-03 -4.854883555432664e-03 -5.454649643070979e-05 -5.143919168841820e-06 -5.454649643070980e-05 -2.667538578908241e-03
4.751582960771624e-03 7.900051347477326e-03 7.087223132307484e-06 7.900051347477330e-03 -2.523608620371478e-03 -3.873761101311857e-05 7.087223132307489e-06 -3.873761101311857e-05 -2.227974340400146e-03
4.750501594213502e-03 7.927321806911299e-03 -2.578943370425221e-05 7.927321806911298e-03 -2.531702836792801e-03 5.282523429868040e-05 -2.578943370425221e-05 5.282523429868040e-05 -2.218798757420704e-03
4.875042303192439e-03 1.252940079189772e-02 -1.829611461256645e-04 1.252940079189772e-02 -3.818698961913690e-03 1.883171018639821e-04 -1.829611461256645e-04 1.883171018639821e-04 -1.056343341278748e-03
4.894833229770050e-03 1.241330890363753e-02 8.632092356193057e-05 1.241330890363752e-02 -3.771361310557500e-03 -9.177928969702730e-05 8.632092356193056e-05 -9.177928969702730e-05 -1.123471919212548e-03
7.522422134340900e-03 8.465001286109393e-03 -5.143919168841821e-06 8.465001286109393e-03 -4.854883555432664e-03 -5.454649643070979e-05 -5.143919168841820e-06 -5.454649643070980e-05 -2.667538578908241e-03
7.519479827461780e-03 8.495535126777694e-03 -6.131000333204744e-06 8.495535126777694e-03 -4.858586157809914e-03 6.753186132586979e-05 -6.131000333204744e-06 6.753186132586977e-05 -2.660893669651864e-03
7.802798472869523e-03 1.287439127482812e-02 -1.410787309792861e-04 1.287439127482812e-02 -6.317020919262862e-03 1.800839015202896e-04 -1.410787309792861e-04 1.800839015202896e-04 -1.485777553606659e-03
7.810126942265783e-03 1.277763365670341e-02 7.383665303361564e-05 1.277763365670342e-02 -6.270718475103141e-03 -9.747179714635693e-05 7.383665303361560e-05 -9.747179714635694e-05 -1.539408467162642e-03
4.894833229770050e-03 1.241330890363753e-02 8.632092356193057e-05 1.241330890363752e-02 -3.771361310557500e-03 -9.177928969702730e-05 8.632092356193056e-05 -9.177928969702730e-05 -1.123471919212548e-03
4.875042303192439e-03 1.252940079189772e-02 -1.829611461256645e-04 1.252940079189772e-02 -3.818698961913690e-03 1.883171018639821e-04 -1.829611461256645e-04 1.883171018639821e-04 -1.056343341278748e-03
2.861682276930541e-03 2.098449273097851e-02 -2.305950098454112e-04 2.098449273097851e-02 -6.471708412817771e-03 2.220803980539304e-04 -2.305950098454112e-04 2.220803980539304e-04 3.610026135887226e-03
2.820598453285088e-03 2.095474831357815e-02 3.515156438721494e-04 2.095474831357815e-02 -6.473016167229704e-03 -4.407248238457225e-04 3.515156438721494e-04 -4.407248238457225e-04 3.652417713944618e-03
7.810126942265783e-03 1.277763365670341e-02 7.383665303361564e-05 1.277763365670342e-02 -6.270718475103141e-03 -9.747179714635693e-05 7.383665303361560e-05 -9.747179714635694e-05 -1.539408467162642e-03
7.802798472869523e-03 1.287439127482812e-02 -1.410787309792861e-04 1.287439127482812e-02 -6.317020919262862e-03 1.800839015202896e-04 -1.410787309792861e-04 1.800839015202896e-04 -1.485777553606659e-03
6.089107062548027e-03 2.034499628806832e-02 -1.690762559990226e-04 2.034499628806832e-02 -8.700451258384465e-03 1.958703236147054e-04 -1.690762559990226e-04 1.958703236147054e-04 2.611344195836437e-03
6.047138988754858e-03 2.033718169570289e-02 2.588023318704233e-04 2.033718169570289e-02 -8.691789748387309e-03 -4.107856257503805e-04 2.588023318704234e-04 -4.107856257503805e-04 2.644650759632453e-03
2.820598453285088e-03 2.095474831357815e-02 3.515156438721494e-04 2.095474831357815e-02 -6.473016167229704e-03 -4.407248238457225e-04 3.515156438721494e-04 -4.407248238457225e-04 3.652417713944618e-03
2.861682276930541e-03 2.098449273097851e-02 -2.305950098454112e-04 2.098449273097851e-02 -6.471708412817771e-03 2.220803980539304e-04 -2.305950098454112e-04 2.220803980539304e-04 3.610026135887226e-03
6.257995385382257e-04 5.819415932102527e-02 -8.735336114152789e-04 5.819415932102525e-02 -1.900282623464554e-02 1.906429925599588e-03 -8.735336114152788e-04 1.906429925599588e-03 1.837702669610732e-02
5.340107413262299e-04 5.857414964969605e-02 5.275457062686628e-07 5.857414964969605e-02 -1.914758189342297e-02 -2.281246027419128e-06 5.275457062686052e-07 -2.281246027419195e-06 1.861357115209674e-02
6.047138988754858e-03 2.033718169570289e-02 2.588023318704233e-04 2.033718169570289e-02 -8.691789748387309e-03 -4.107856257503805e-04 2.588023318704234e-04 -4.107856257503805e-04 2.644650759632453e-03
6.089107062548027e-03 2.034499628806832e-02 -1.690762559990226e-04 2.034499628806832e-02 -8.700451258384465e-03 1.958703236147054e-04 -1.690762559990226e-04 1.958703236147054e-04 2.611344195836437e-03
8.421682713614187e-03 5.476602613668465e-02 -5.385894819289118e-04 5.476602613668465e-02 -2.245358187895645e-02 1.728332957447911e-03 -5.385894819289120e-04 1.728332957447911e-03 1.403189916534225e-02
8.352654771924900e-03 5.509063784259284e-02 1.301987010421595e-06 5.509063784259283e-02 -2.259851039654372e-02 -3.559792034164841e-07 1.301987010421649e-06 -3.559792034164570e-07 1.424585562461883e-02
1.169522839871939e-02 7.858548646973015e-03 -5.585306558486497e-05 7.858548646973013e-03 -3.603105508671782e-03 -8.121846591487135e-05 -5.585306558486497e-05 -8.121846591487136e-05 -8.092122890047604e-03
1.169774994971737e-02 7.858982360877672e-03 2.838240505484391e-05 7.858982360877670e-03 -3.611588600167937e-03 8.225947224276137e-05 2.838240505484392e-05 8.225947224276137e-05 -8.086161349549429e-03
5.852798988142487e-03 4.217921934776781e-03 2.281553594574153e-05 4.217921934776782e-03 -2.040939826953662e-03 4.403066465841599e-05 2.281553594574153e-05 4.403066465841599e-05 -3.811859161188823e-03
5.849243445942853e-03 4.217820500321987e-03 -2.462974556246995e-05 4.217820500321987e-03 -2.038245929117471e-03 -4.980796754773549e-05 -2.462974556246994e-05 -4.980796754773550e-05 -3.810997516825382e-03
1.561217121989440e-02 7.277112299117400e-03 -4.262772196399760e-05 7.277112299117402e-03 -6.555287258094875e-03 -3.222038418260764e-05 -4.262772196399760e-05 -3.222038418260764e-05 -9.056883961799531e-03
1.562377760217167e-02 7.252293116286754e-03 2.158592392434853e-05 7.252293116286754e-03 -6.577253999668158e-03 3.993019735195362e-05 2.158592392434853e-05 3.993019735195362e-05 -9.046523602503510e-03
8.411184828850921e-03 4.165086700307468e-03 3.089613385367996e-05 4.165086700307468e-03 -3.846097964769238e-03 2.987541630002826e-05 3.089613385367997e-05 2.987541630002826e-05 -4.565086864081687e-03
8.401084515839178e-03 4.178958976090760e-03 -4.097403246412780e-05 4.178958976090760e-03 -3.832839869244800e-03 -3.377999267232564e-05 -4.097403246412780e-05 -3.377999267232564e-05 -4.568244646594374e-03
5.849243445942853e-03 4.217820500321987e-03 -2.462974556246995e-05 4.217820500321987e-03 -2.038245929117471e-03 -4.980796754773549e-05 -2.462974556246994e-05 -4.980796754773550e-05 -3.810997516825382e-03
5.852798988142487e-03 4.217921934776781e-03 2.281553594574153e-05 4.217921934776782e-03 -2.040939826953662e-03 4.403066465841599e-05 2.281553594574153e-05 4.403066465841599e-05 -3.811859161188823e-03
6.156976090937822e-03 4.833835965909626e-03 3.030465348977439e-05 4.833835965909627e-03 -2.710749264142802e-03 4.677289189795844e-05 3.030465348977439e-05 4.677289189795845e-05 -3.446226826795020e-03
6.151470792985907e-03 4.830879729926792e-03 -3.000329490192426e-05 4.830879729926791e-03 -2.710053998276650e-03 -4.592832803982049e-05 -3.000329490192425e-05 -4.592832803982048e-05 -3.441416794709256e-03
8.401084515839178e-03 4.178958976090760e-03 -4.097403246412780e-05 4.178958976090760e-03 -3.832839869244800e-03 -3.377999267232564e-05 -4.097403246412780e-05 -3.377999267232564e-05 -4.568244646594374e-03
8.411184828850921e-03 4.165086700307468e-03 3.089613385367996e-05 4.165086700307468e-03 -3.846097964769238e-03 2.987541630002826e-05 3.089613385367997e-05 2.987541630002826e-05 -4.565086864081687e-03
9.341135926930024e-03 5.065671141259942e-03 5.153413201715807e-05 5.065671141259942e-03 -4.989276923836645e-03 4.883192881333750e-05 5.153413201715805e-05 4.883192881333750e-05 -4.351859003093375e-03
9.330221553955707e-03 5.070011448908309e-03 -6.626514560550925e-05 5.070011448908311e-03 -4.977070618736681e-03 -5.013648512270412e-05 -6.626514560550923e-05 -5.013648512270412e-05 -4.353150935219031e-03
6.151470792985907e-03 4.830879729926792e-03 -3.000329490192426e-05 4.830879729926791e-03 -2.710053998276650e-03 -4.592832803982049e-05 -3.000329490192425e-05 -4.592832803982048e-05 -3.441416794709256e-03
6.156976090937822e-03 4.833835965909626e-03 3.030465348977439e-05 4.833835965909627e-03 -2.710749264142802e-03 4.677289189795844e-05 3.030465348977439e-05 4.677289189795845e-05 -3.446226826795020e-03
6.801781045114804e-03 6.092860483155821e-03 2.532774199516648e-05 6.092860483155821e-03 -3.618291203312194e-03 5.153243214128792e-05 2.532774199516648e-05 5.153243214128793e-05 -3.183489841802612e-03
6.797993178974030e-03 6.081036087734292e-03 -2.775849665030468e-05 6.081036087734294e-03 -3.617556470298397e-03 -4.419872023747883e-05 -2.775849665030467e-05 -4.419872023747884e-05 -3.180436708675631e-03
9.330221553955707e-03 5.070011448908309e-03 -6.626514560550925e-05 5.070011448908311e-03 -4.977070618736681e-03 -5.013648512270412e-05 -6.626514560550923e-05 -5.013648512270412e-05 -4.353150935219031e-03
9.341135926930024e-03 5.065671141259942e-03 5.153413201715807e-05 5.065671141259942e-03 -4.989276923836645e-03 4.883192881333750e-05 5.153413201715805e-05 4.883192881333750e-05 -4.351859003093375e-03
1.039095531349214e-02 6.534587405132268e-03 4.386390023270146e-05 6.534587405132271e-03 -6.333532817329242e-03 7.024077761495003e-05 4.386390023270146e-05 7.024077761495003e-05 -4.057422496162896e-03
1.038741463274241e-02 6.521889625732631e-03 -5.711614476504825e-05 6.521889625732634e-03 -6.327062390987197e-03 -6.879447227674329e-05 -5.711614476504826e-05 -6.879447227674330e-05 -4.060352241755213e-03
6.797993178974030e-03 6.081036087734292e-03 -2.775849665030468e-05 6.081036087734294e-03 -3.617556470298397e-03 -4.419872023747883e-05 -2.775849665030467e-05 -4.419872023747884e-05 -3.180436708675631e-03
6.801781045114804e-03 6.092860483155821e-03 2.532774199516648e-05 6.092860483155821e-03 -3.618291203312194e-03 5.153243214128792e-05 2.532774199516648e-05 5.153243214128793e-05 -3.183489841802612e-03
7.519479827461780e-03 8.495535126777694e-03 -6.131000333204744e-06 8.495535126777694e-03 -4.858586157809914e-03 6.753186132586979e-05 -6.131000333204744e-06 6.753186132586977e-05 -2.660893669651864e-03
7.522422134340900e-03 8.465001286109393e-03 -5.143919168841821e-06 8.465001286109393e-03 -4.854883555432664e-03 -5.454649643070979e-05 -5.143919168841820e-06 -5.454649643070980e-05 -2.667538578908241e-03
1.038741463274241e-02 6.521889625732631e-03 -5.711614476504825e-05 6.521889625732634e-03 -6.327062390987197e-03 -6.879447227674329e-05 -5.711614476504826e-05 -6.879447227674330e-05 -4.060352241755213e-03
1.039095531349214e-02 6.534587405132268e-03 4.386390023270146e-05 6.534587405132271e-03 -6.333532817329242e-03 7.024077761495003e-05 4.386390023270146e-05 7.024077761495003e-05 -4.057422496162896e-03
1.119144846490507e-02 8.824362886641603e-03 1.155459207906878e-05 8.824362886641603e-03 -7.847481175294515e-03 9.411761939859587e-05 1.155459207906879e-05 9.411761939859587e-05 -3.343967289610563e-03
1.119500354873214e-02 8.794321277995417e-03 -2.396431176429442e-05 8.794321277995414e-03 -7.845666335756271e-03 -9.088441649241562e-05 -2.396431176429442e-05 -9.088441649241561e-05 -3.349337212975866e-03
7.522422134340900e-03 8.465001286109393e-03 -5.143919168841821e-06 8.465001286109393e-03 -4.854883555432664e-03 -5.454649643070979e-05 -5.143919168841820e-06 -5.454649643070980e-05 -2.667538578908241e-03
7.519479827461780e-03 8.495535126777694e-03 -6.131000333204744e-06 8.495535126777694e-03 -4.858586157809914e-03 6.753186132586979e-05 -6.131000333204744e-06 6.753186132586977e-05 -2.660893669651864e-03
7.802798472869523e-03 1.287439127482812e-02 -1.410787309792861e-04 1.287439127482812e-02 -6.317020919262862e-03 1.800839015202896e-04 -1.410787309792861e-04 1.800839015202896e-04 -1.485777553606659e-03
7.810126942265783e-03 1.277763365670341e-02 7.383665303361564e-05 1.277763365670342e-02 -6.270718475103141e-03 -9.747179714635693e-05 7.383665303361560e-05 -9.747179714635694e-05 -1.539408467162642e-03
1.119500354873214e-02 8.794321277995417e-03 -2.396431176429442e-05 8.794321277995414e-03 -7.845666335756271e-03 -9.088441649241562e-05 -2.396431176429442e-05 -9.088441649241561e-05 -3.349337212975866e-03
1.119144846490507e-02 8.824362886641603e-03 1.155459207906878e-05 8.824362886641603e-03 -7.847481175294515e-03 9.411761939859587e-05 1.155459207906879e-05 9.411761939859587e-05 -3.343967289610563e-03
1.141249462702818e-02 1.241996936225416e-02 -9.171906006124719e-05 1.241996936225416e-02 -9.408678806829012e-03 1.862663745805883e-04 -9.171906006124722e-05 1.862663745805883e-04 -2.003815820199164e-03
1.140945171831703e-02 1.234252246427938e-02 4.982635803878154e-05 1.234252246427938e-02 -9.369065216052092e-03 -1.140337927834788e-04 4.982635803878154e-05 -1.140337927834789e-04 -2.040386502264941e-03
7.810126942265783e-03 1.277763365670341e-02 7.383665303361564e-05 1.277763365670342e-02 -6.270718475103141e-03 -9.747179714635693e-05 7.383665303361560e-05 -9.747179714635694e-05 -1.539408467162642e-03
7.802798472869523e-03 1.287439127482812e-02 -1.410787309792861e-04 1.287439127482812e-02 -6.317020919262862e-03 1.800839015202896e-04 -1.410787309792861e-04 1.800839015202896e-04 -1.485777553606659e-03
6.089107062548027e-03 2.034499628806832e-02 -1.690762559990226e-04 2.034499628806832e-02 -8.700451258384465e-03 1.958703236147054e-04 -1.690762559990226e-04 1.958703236147054e-04 2.611344195836437e-03
6.047138988754858e-03 2.033718169570289e-02 2.588023318704233e-04 2.033718169570289e-02 -8.691789748387309e-03 -4.107856257503805e-04 2.588023318704234e-04 -4.107856257503805e-04 2.644650759632453e-03
1.140945171831703e-02 1.234252246427938e-02 4.982635803878154e-05 1.234252246427938e-02 -9.369065216052092e-03 -1.140337927834788e-04 4.982635803878154e-05 -1.140337927834789e-04 -2.040386502264941e-03
1.141249462702818e-02 1.241996936225416e-02 -9.171906006124719e-05 1.241996936225416e-02 -9.408678806829012e-03 1.862663745805883e-04 -9.171906006124722e-05 1.862663745805883e-04 -2.003815820199164e-03
1.001859041588216e-02 1.853064339114636e-02 -1.166949283430709e-04 1.853064339114635e-02 -1.158599222372580e-02 1.850556519276620e-04 -1.166949283430708e-04 1.850556519276620e-04 1.567401807843636e-03
9.979357472345088e-03 1.854027971280769e-02 1.744333266507300e-04 1.854027971280769e-02 -1.157376069945104e-02 -3.776834716316881e-04 1.744333266507300e-04 -3.776834716316881e-04 1.594403227105965e-03
6.047138988754858e-03 2.033718169570289e-02 2.588023318704233e-04 2.033718169570289e-02 -8.691789748387309e-03 -4.107856257503805e-04 2.588023318704234e-04 -4.107856257503805e-04 2.644650759632453e-03
6.089107062548027e-03 2.034499628806832e-02 -1.690762559990226e-04 2.034499628806832e-02 -8.700451258384465e-03 1.958703236147054e-04 -1.690762559990226e-04 1.958703236147054e-04 2.611344195836437e-03
8.421682713614187e-03 5.476602613668465e-02 -5.385894819289118e-04 5.476602613668465e-02 -2.245358187895645e-02 1.728332957447911e-03 -5.385894819289120e-04 1.728332957447911e-03 1.403189916534225e-02
8.352654771924900e-03 5.509063784259284e-02 1.301987010421595e-06 5.509063784259283e-02 -2.259851039654372e-02 -3.559792034164841e-07 1.301987010421649e-06 -3.559792034164570e-07 1.424585562461883e-02
9.979357472345088e-03 1.854027971280769e-02 1.744333266507300e-04 1.854027971280769e-02 -1.157376069945104e-02 -3.776834716316881e-04 1.744333266507300e-04 -3.776834716316881e-04 1.594403227105965e-03
1.001859041588216e-02 1.853064339114636e-02 -1.166949283430709e-04 1.853064339114635e-02 -1.158599222372580e-02 1.850556519276620e-04 -1.166949283430708e-04 1.850556519276620e-04 1.567401807843636e-03
1.766368004245859e-02 4.922954440007052e-02 -3.413167954991112e-04 4.922954440007053e-02 -2.759333303879759e-02 1.555946511647587e-03 -3.413167954991113e-04 1.555946511647586e-03 9.929652996339008e-03
1.762781483572271e-02 4.949115804285667e-02 2.607081669850867e-06 4.949115804285666e-02 -2.774275691802930e-02 8.136263138139768e-07 2.607081669850877e-06 8.136263138141395e-07 1.011494208230658e-02
1.561217121989440e-02 7.277112299117400e-03 -4.262772196399760e-05 7.277112299117402e-03 -6.555287258094875e-03 -3.222038418260764e-05 -4.262772196399760e-05 -3.222038418260764e-05 -9.056883961799531e-03
1.562377760217167e-02 7.252293116286754e-03 2.158592392434853e-05 7.252293116286754e-03 -6.577253999668158e-03 3.993019735195362e-05 2.158592392434853e-05 3.993019735195362e-05 -9.046523602503510e-03
8.411184828850921e-03 4.165086700307468e-03 3.089613385367996e-05 4.165086700307468e-03 -3.846097964769238e-03 2.987541630002826e-05 3.089613385367997e-05 2.987541630002826e-05 -4.565086864081687e-03
8.401084515839178e-03 4.178958976090760e-03 -4.097403246412780e-05 4.178958976090760e-03 -3.832839869244800e-03 -3.377999267232564e-05 -4.097403246412780e-05 -3.377999267232564e-05 -4.568244646594374e-03
1.832570772962513e-02 4.551833437835502e-03 -1.128407250912133e-05 4.551833437835501e-03 -9.359700593104554e-03 6.300908950594461e-05 -1.128407250912134e-05 6.300908950594461e-05 -8.966007136520581e-03
1.833246643387964e-02 4.516342080791068e-03 2.637446057403491e-05 4.516342080791070e-03 -9.369325388524561e-03 -6.000902817892163e-05 2.637446057403488e-05 -6.000902817892163e-05 -8.963141045355083e-03
1.091278375306613e-02 2.911699071609748e-03 3.413955401784831e-05 2.911699071609749e-03 -5.807256392186764e-03 -1.755239586086799e-05 3.413955401784831e-05 -1.755239586086799e-05 -5.105527360879361e-03
1.090622786396511e-02 2.935430431303197e-03 -3.823614779392629e-05 2.935430431303198e-03 -5.794622374455377e-03 2.595782629526754e-05 -3.823614779392629e-05 2.595782629526754e-05 -5.111605489509730e-03
8.401084515839178e-03 4.178958976090760e-03 -4.097403246412780e-05 4.178958976090760e-03 -3.832839869244800e-03 -3.377999267232564e-05 -4.097403246412780e-05 -3.377999267232564e-05 -4.568244646594374e-03
8.411184828850921e-03 4.165086700307468e-03 3.089613385367996e-05 4.165086700307468e-03 -3.846097964769238e-03 2.987541630002826e-05 3.089613385367997e-05 2.987541630002826e-05 -4.565086864081687e-03
9.341135926930024e-03 5.065671141259942e-03 5.153413201715807e-05 5.065671141259942e-03 -4.989276923836645e-03 4.883192881333750e-05 5.153413201715805e-05 4.883192881333750e-05 -4.351859003093375e-03
9.330221553955707e-03 5.070011448908309e-03 -6.626514560550925e-05 5.070011448908311e-03 -4.977070618736681e-03 -5.013648512270412e-05 -6.626514560550923e-05 -5.013648512270412e-05 -4.353150935219031e-03
1.090622786396511e-02 2.935430431303197e-03 -3.823614779392629e-05 2.935430431303198e-03 -5.794622374455377e-03 2.595782629526754e-05 -3.823614779392629e-05 2.595782629526754e-05 -5.111605489509730e-03
1.091278375306613e-02 2.911699071609748e-03 3.413955401784831e-05 2.911699071609749e-03 -5.807256392186764e-03 -1.755239586086799e-05 3.413955401784831e-05 -1.755239586086799e-05 -5.105527360879361e-03
1.298099792794963e-02 3.912615877283335e-03 5.205253131411061e-05 3.912615877283334e-03 -7.634283571820758e-03 1.746925747054373e-05 5.205253131411060e-05 1.746925747054372e-05 -5.346714356128872e-03
1.297429063648289e-02 3.927324422296099e-03 -7.994949091851702e-05 3.927324422296101e-03 -7.613143019212273e-03 -1.036169256490038e-05 -7.994949091851701e-05 -1.036169256490038e-05 -5.361147617270618e-03
9.330221553955707e-03 5.070011448908309e-03 -6.626514560550925e-05 5.070011448908311e-03 -4.977070618736681e-03 -5.013648512270412e-05 -6.626514560550923e-05 -5.013648512270412e-05 -4.353150935219031e-03
9.341135926930024e-03 5.065671141259942e-03 5.153413201715807e-05 5.065671141259942e-03 -4.989276923836645e-03 4.883192881333750e-05 5.153413201715805e-05 4.883192881333750e-05 -4.351859003093375e-03
1.039095531349214e-02 6.534587405132268e-03 4.386390023270146e-05 6.534587405132271e-03 -6.333532817329242e-03 7.024077761495003e-05 4.386390023270146e-05 7.024077761495003e-05 -4.057422496162896e-03
1.038741463274241e-02 6.521889625732631e-03 -5.711614476504825e-05 6.521889625732634e-03 -6.327062390987197e-03 -6.879447227674329e-05 -5.711614476504826e-05 -6.879447227674330e-05 -4.060352241755213e-03
1.297429063648289e-02 3.927324422296099e-03 -7.994949091851702e-05 3.927324422296101e-03 -7.613143019212273e-03 -1.036169256490038e-05 -7.994949091851701e-05 -1.036169256490038e-05 -5.361147617270618e-03
1.298099792794963e-02 3.912615877283335e-03 5.205253131411061e-05 3.912615877283334e-03 -7.634283571820758e-03 1.746925747054373e-05 5.205253131411060e-05 1.746925747054372e-05 -5.346714356128872e-03
1.471938699470600e-02 5.293093481245899e-03 3.964714906933838e-05 5.293093481245900e-03 -9.606684823159756e-03 6.064788071379485e-05 3.964714906933840e-05 6.064788071379486e-05 -5.112702171546244e-03
1.471902300452670e-02 5.290556478285842e-03 -6.933562529195050e-05 5.290556478285839e-03 -9.589270631209268e-03 -6.775700628103415e-05 -6.933562529195050e-05 -6.775700628103415e-05 -5.129752373317418e-03
1.038741463274241e-02 6.521889625732631e-03 -5.711614476504825e-05 6.521889625732634e-03 -6.327062390987197e-03 -6.879447227674329e-05 -5.711614476504826e-05 -6.879447227674330e-05 -4.060352241755213e-03
1.039095531349214e-02 6.534587405132268e-03 4.386390023270146e-05 6.534587405132271e-03 -6.333532817329242e-03 7.024077761495003e-05 4.386390023270146e-05 7.024077761495003e-05 -4.057422496162896e-03
1.119144846490507e-02 8.824362886641603e-03 1.155459207906878e-05 8.824362886641603e-03 -7.847481175294515e-03 9.411761939859587e-05 1.155459207906879e-05 9.411761939859587e-05 -3.343967289610563e-03
1.119500354873214e-02 8.794321277995417e-03 -2.396431176429442e-05 8.794321277995414e-03 -7.845666335756271e-03 -9.088441649241562e-05 -2.396431176429442e-05 -9.088441649241561e-05 -3.349337212975866e-03
1.471902300452670e-02 5.290556478285842e-03 -6.933562529195050e-05 5.290556478285839e-03 -9.589270631209268e-03 -6.775700628103415e-05 -6.933562529195050e-05 -6.775700628103415e-05 -5.129752373317418e-03
1.471938699470600e-02 5.293093481245899e-03 3.964714906933838e-05 5.293093481245900e-03 -9.606684823159756e-03 6.064788071379485e-05 3.964714906933840e-05 6.064788071379486e-05 -5.112702171546244e-03
1.586437316022253e-02 7.116745761021026e-03 7.291612736439556e-06 7.116745761021026e-03 -1.157703269909221e-02 1.052472750348800e-04 7.291612736439549e-06 1.052472750348800e-04 -4.287340461130320e-03
1.586836830224381e-02 7.107188047193680e-03 -4.996313379843426e-05 7.107188047193681e-03 -1.156486229999846e-02 -1.146790996491638e-04 -4.996313379843425e-05 -1.146790996491638e-04 -4.303506002245343e-03
1.119500354873214e-02 8.794321277995417e-03 -2.396431176429442e-05 8.794321277995414e-03 -7.845666335756271e-03 -9.088441649241562e-05 -2.396431176429442e-05 -9.088441649241561e-05 -3.349337212975866e-03
1.119144846490507e-02 8.824362886641603e-03 1.155459207906878e-05 8.824362886641603e-03 -7.847481175294515e-03 9.411761939859587e-05 1.155459207906879e-05 9.411761939859587e-05 -3.343967289610563e-03
1.141249462702818e-02 1.241996936225416e-02 -9.171906006124719e-05 1.241996936225416e-02 -9.408678806829012e-03 1.862663745805883e-04 -9.171906006124722e-05 1.862663745805883e-04 -2.003815820199164e-03
1.140945171831703e-02 1.234252246427938e-02 4.982635803878154e-05 1.234252246427938e-02 -9.369065216052092e-03 -1.140337927834788e-04 4.982635803878154e-05 -1.140337927834789e-04 -2.040386502264941e-03
1.586836830224381e-02 7.107188047193680e-03 -4.996313379843426e-05 7.107188047193681e-03 -1.156486229999846e-02 -1.146790996491638e-04 -4.996313379843425e-05 -1.146790996491638e-04 -4.303506002245343e-03
1.586437316022253e-02 7.116745761021026e-03 7.291612736439556e-06 7.116745761021026e-03 -1.157703269909221e-02 1.052472750348800e-04 7.291612736439549e-06 1.052472750348800e-04 -4.287340461130320e-03
1.630630921133978e-02 9.667195859521430e-03 -5.847602384061203e-05 9.667195859521431e-03 -1.356330968993163e-02 1.960318027570624e-04 -5.847602384061203e-05 1.960318027570625e-04 -2.742999521408153e-03
1.629708447562176e-02 9.626904056345618e-03 1.738038927285336e-06 9.626904056345618e-03 -1.351862469216380e-02 -1.540055750451524e-04 1.738038927285340e-06 -1.540055750451524e-04 -2.778459783457951e-03
1.140945171831703e-02 1.234252246427938e-02 4.982635803878154e-05 1.234252246427938e-02 -9.369065216052092e-03 -1.140337927834788e-04 4.982635803878154e-05 -1.140337927834789e-04 -2.040386502264941e-03
1.141249462702818e-02 1.241996936225416e-02 -9.171906006124719e-05 1.241996936225416e-02 -9.408678806829012e-03 1.862663745805883e-04 -9.171906006124722e-05 1.862663745805883e-04 -2.003815820199164e-03
1.001859041588216e-02 1.853064339114636e-02 -1.166949283430709e-04 1.853064339114635e-02 -1.158599222372580e-02 1.850556519276620e-04 -1.166949283430708e-04 1.850556519276620e-04 1.567401807843636e-03
9.979357472345088e-03 1.854027971280769e-02 1.744333266507300e-04 1.854027971280769e-02 -1.157376069945104e-02 -3.776834716316881e-04 1.744333266507300e-04 -3.776834716316881e-04 1.594403227105965e-03
1.629708447562176e-02 9.626904056345618e-03 1.738038927285336e-06 9.626904056345618e-03 -1.351862469216380e-02 -1.540055750451524e-04 1.738038927285340e-06 -1.540055750451524e-04 -2.778459783457951e-03
1.630630921133978e-02 9.667195859521430e-03 -5.847602384061203e-05 9.667195859521431e-03 -1.356330968993163e-02 1.960318027570624e-04 -5.847602384061203e-05 1.960318027570625e-04 -2.742999521408153e-03
1.552388816998617e-02 1.438712535326696e-02 -9.280336002508158e-05 1.438712535326696e-02 -1.606845288693695e-02 1.817163495997066e-04 -9.280336002508160e-05 1.817163495997066e-04 5.445647169507921e-04
1.550936842464598e-02 1.442534368186326e-02 8.809757934670174e-05 1.442534368186326e-02 -1.606558185325314e-02 -3.746106080568217e-04 8.809757934670175e-05 -3.746106080568217e-04 5.562134286071542e-04
9.979357472345088e-03 1.854027971280769e-02 1.744333266507300e-04 1.854027971280769e-02 -1.157376069945104e-02 -3.776834716316881e-04 1.744333266507300e-04 -3.776834716316881e-04 1.594403227105965e-03
1.001859041588216e-02 1.853064339114636e-02 -1.166949283430709e-04 1.853064339114635e-02 -1.158599222372580e-02 1.850556519276620e-04 -1.166949283430708e-04 1.850556519276620e-04 1.567401807843636e-03
1.766368004245859e-02 4.922954440007052e-02 -3.413167954991112e-04 4.922954440007053e-02 -2.759333303879759e-02 1.555946511647587e-03 -3.413167954991113e-04 1.555946511647586e-03 9.929652996339008e-03
1.762781483572271e-02 4.949115804285667e-02 2.607081669850867e-06 4.949115804285666e-02 -2.774275691802930e-02 8.136263138139768e-07 2.607081669850877e-06 8.136263138141395e-07 1.011494208230658e-02
1.550936842464598e-02 1.442534368186326e-02 8.809757934670174e-05 1.442534368186326e-02 -1.606558185325314e-02 -3.746106080568217e-04 8.809757934670175e-05 -3.746106080568217e-04 5.562134286071542e-04
1.552388816998617e-02 1.438712535326696e-02 -9.280336002508158e-05 1.438712535326696e-02 -1.606845288693695e-02 1.817163495997066e-04 -9.280336002508160e-05 1.817163495997066e-04 5.445647169507921e-04
3.040904511380065e-02 3.921383138015515e-02 -2.706205166216922e-04 3.921383138015513e-02 -3.689712291510479e-02 1.401929365004128e-03 -2.706205166216921e-04 1.401929365004127e-03 6.488077801304152e-03
3.043158375242598e-02 3.940597320589224e-02 4.000166960049526e-06 3.940597320589224e-02 -3.708510258641338e-02 1.182568523026389e-06 4.000166960049495e-06 1.182568523026416e-06 6.653518833987409e-03
1.832570772962513e-02 4.551833437835502e-03 -1.128407250912133e-05 4.551833437835501e-03 -9.359700593104554e-03 6.300908950594461e-05 -1.128407250912134e-05 6.300908950594461e-05 -8.966007136520581e-03
1.833246643387964e-02 4.516342080791068e-03 2.637446057403491e-05 4.516342080791070e-03 -9.369325388524561e-03 -6.000902817892163e-05 2.637446057403488e-05 -6.000902817892163e-05 -8.963141045355083e-03
1.091278375306613e-02 2.911699071609748e-03 3.413955401784831e-05 2.911699071609749e-03 -5.807256392186764e-03 -1.755239586086799e-05 3.413955401784831e-05 -1.755239586086799e-05 -5.105527360879361e-03
1.090622786396511e-02 2.935430431303197e-03 -3.823614779392629e-05 2.935430431303198e-03 -5.794622374455377e-03 2.595782629526754e-05 -3.823614779392629e-05 2.595782629526754e-05 -5.111605489509730e-03
3.838923107744257e-02 -2.424816850281526e-03 4.625716074541057e-06 -2.424816850281526e-03 -2.100014611891163e-02 1.946413259105203e-04 4.625716074541065e-06 1.946413259105203e-04 -1.738908495853092e-02
3.837735717310688e-02 -2.445374915202136e-03 -2.455756216252369e-05 -2.445374915202137e-03 -2.097746620185565e-02 -2.223369028377662e-04 -2.455756216252366e-05 -2.223369028377662e-04 -1.739989097125121e-02
2.407181440832860e-02 -7.955823210110144e-04 5.954381374686114e-05 -7.955823210110139e-04 -1.353774775398179e-02 -9.731889769816127e-05 5.954381374686114e-05 -9.731889769816130e-05 -1.053406665434680e-02
2.408272087132763e-02 -7.760151786185783e-04 -2.728170848391228e-07 -7.760151786185786e-04 -1.353796914525322e-02 1.219098470941118e-04 -2.728170848391263e-07 1.219098470941118e-04 -1.054475172607442e-02
1.090622786396511e-02 2.935430431303197e-03 -3.823614779392629e-05 2.935430431303198e-03 -5.794622374455377e-03 2.595782629526754e-05 -3.823614779392629e-05 2.595782629526754e-05 -5.111605489509730e-03
1.091278375306613e-02 2.911699071609748e-03 3.413955401784831e-05 2.911699071609749e-03 -5.807256392186764e-03 -1.755239586086799e-05 3.413955401784831e-05 -1.755239586086799e-05 -5.105527360879361e-03
1.298099792794963e-02 3.912615877283335e-03 5.205253131411061e-05 3.912615877283334e-03 -7.634283571820758e-03 1.746925747054373e-05 5.205253131411060e-05 1.746925747054372e-05 -5.346714356128872e-03
1.297429063648289e-02 3.927324422296099e-03 -7.994949091851702e-05 3.927324422296101e-03 -7.613143019212273e-03 -1.036169256490038e-05 -7.994949091851701e-05 -1.036169256490038e-05 -5.361147617270618e-03
2.408272087132763e-02 -7.760151786185783e-04 -2.728170848391228e-07 -7.760151786185786e-04 -1.353796914525322e-02 1.219098470941118e-04 -2.728170848391263e-07 1.219098470941118e-04 -1.054475172607442e-02
2.407181440832860e-02 -7.955823210110144e-04 5.954381374686114e-05 -7.955823210110139e-04 -1.353774775398179e-02 -9.731889769816127e-05 5.954381374686114e-05 -9.731889769816130e-05 -1.053406665434680e-02
2.980388595072406e-02 4.317053933525875e-04 1.787515080210750e-04 4.317053933525881e-04 -1.821559102003136e-02 -2.015312468532522e-05 1.787515080210750e-04 -2.015312468532521e-05 -1.158829493069271e-02
2.981781178696882e-02 4.520138205891761e-04 -5.845313606171556e-06 4.520138205891754e-04 -1.818736542661151e-02 6.664883074243768e-05 -5.845313606171582e-06 6.664883074243768e-05 -1.163044636035731e-02
1.297429063648289e-02 3.927324422296099e-03 -7.994949091851702e-05 3.927324422296101e-03 -7.613143019212273e-03 -1.036169256490038e-05 -7.994949091851701e-05 -1.036169256490038e-05 -5.361147617270618e-03
1.298099792794963e-02 3.912615877283335e-03 5.205253131411061e-05 3.912615877283334e-03 -7.634283571820758e-03 1.746925747054373e-05 5.205253131411060e-05 1.746925747054372e-05 -5.346714356128872e-03
1.471938699470600e-02 5.293093481245899e-03 3.964714906933838e-05 5.293093481245900e-03 -9.606684823159756e-03 6.064788071379485e-05 3.964714906933840e-05 6.064788071379486e-05 -5.112702171546244e-03
1.471902300452670e-02 5.290556478285842e-03 -6.933562529195050e-05 5.290556478285839e-03 -9.589270631209268e-03 -6.775700628103415e-05 -6.933562529195050e-05 -6.775700628103415e-05 -5.129752373317418e-03
2.981781178696882e-02 4.520138205891761e-04 -5.845313606171556e-06 4.520138205891754e-04 -1.818736542661151e-02 6.664883074243768e-05 -5.845313606171582e-06 6.664883074243768e-05 -1.163044636035731e-02
2.980388595072406e-02 4.317053933525875e-04 1.787515080210750e-04 4.317053933525881e-04 -1.821559102003136e-02 -2.015312468532522e-05 1.787515080210750e-04 -2.015312468532521e-05 -1.158829493069271e-02
3.459425693848623e-02 2.709580777961567e-03 2.006136110160610e-04 2.709580777961565e-03 -2.331566753665031e-02 9.236383329361252e-05 2.006136110160610e-04 9.236383329361252e-05 -1.127858940183589e-02
3.461047605283552e-02 2.715267989104808e-03 3.022608868221592e-06 2.715267989104814e-03 -2.328189797471392e-02 -7.951729007246829e-05 3.022608868221606e-06 -7.951729007246827e-05 -1.132857807812164e-02
1.471902300452670e-02 5.290556478285842e-03 -6.933562529195050e-05 5.290556478285839e-03 -9.589270631209268e-03 -6.775700628103415e-05 -6.933562529195050e-05 -6.775700628103415e-05 -5.129752373317418e-03
1.471938699470600e-02 5.293093481245899e-03 3.964714906933838e-05 5.293093481245900e-03 -9.606684823159756e-03 6.064788071379485e-05 3.964714906933840e-05 6.064788071379486e-05 -5.112702171546244e-03
1.586437316022253e-02 7.116745761021026e-03 7.291612736439556e-06 7.116745761021026e-03 -1.157703269909221e-02 1.052472750348800e-04 7.291612736439549e-06 1.052472750348800e-04 -4.287340461130320e-03
1.586836830224381e-02 7.107188047193680e-03 -4.996313379843426e-05 7.107188047193681e-03 -1.156486229999846e-02 -1.146790996491638e-04 -4.996313379843425e-05 -1.146790996491638e-04 -4.303506002245343e-03
3.461047605283552e-02 2.715267989104808e-03 3.022608868221592e-06 2.715267989104814e-03 -2.328189797471392e-02 -7.951729007246829e-05 3.022608868221606e-06 -7.951729007246827e-05 -1.132857807812164e-02
3.459425693848623e-02 2.709580777961567e-03 2.006136110160610e-04 2.709580777961565e-03 -2.331566753665031e-02 9.236383329361252e-05 2.006136110160610e-04 9.236383329361252e-05 -1.127858940183589e-02
3.798426853480172e-02 6.134573990684278e-03 1.864265330845204e-04 6.134573990684278e-03 -2.832376453106531e-02 2.291363427372753e-04 1.864265330845205e-04 2.291363427372753e-04 -9.660504003736411e-03
3.800716581931210e-02 6.150034938749765e-03 2.554106056970616e-05 6.150034938749769e-03 -2.829685334502193e-02 -1.732475113106069e-04 2.554106056970612e-05 -1.732475113106069e-04 -9.710312474290151e-03
1.586836830224381e-02 7.107188047193680e-03 -4.996313379843426e-05 7.107188047193681e-03 -1.156486229999846e-02 -1.146790996491638e-04 -4.996313379843425e-05 -1.146790996491638e-04 -4.303506002245343e-03
1.586437316022253e-02 7.116745761021026e-03 7.291612736439556e-06 7.116745761021026e-03 -1.157703269909221e-02 1.052472750348800e-04 7.291612736439549e-06 1.052472750348800e-04 -4.287340461130320e-03
1.630630921133978e-02 9.667195859521430e-03 -5.847602384061203e-05 9.667195859521431e-03 -1.356330968993163e-02 1.960318027570624e-04 -5.847602384061203e-05 1.960318027570625e-04 -2.742999521408153e-03
1.629708447562176e-02 9.626904056345618e-03 1.738038927285336e-06 9.626904056345618e-03 -1.351862469216380e-02 -1.540055750451524e-04 1.738038927285340e-06 -1.540055750451524e-04 -2.778459783457951e-03
3.800716581931210e-02 6.150034938749765e-03 2.554106056970616e-05 6.150034938749769e-03 -2.829685334502193e-02 -1.732475113106069e-04 2.554106056970612e-05 -1.732475113106069e-04 -9.710312474290151e-03
3.798426853480172e-02 6.134573990684278e-03 1.864265330845204e-04 6.134573990684278e-03 -2.832376453106531e-02 2.291363427372753e-04 1.864265330845205e-04 2.291363427372753e-04 -9.660504003736411e-03
4.001513827474416e-02 1.069774129439722e-02 9.322894890066844e-05 1.069774129439722e-02 -3.355407023144195e-02 4.479749792703065e-04 9.322894890066836e-05 4.479749792703065e-04 -6.461068043302176e-03
4.000146037856885e-02 1.066058032377414e-02 6.586871651211817e-05 1.066058032377416e-02 -3.345578125814733e-02 -2.846352248658555e-04 6.586871651211815e-05 -2.846352248658554e-04 -6.545679120421546e-03
1.629708447562176e-02 9.626904056345618e-03 1.738038927285336e-06 9.626904056345618e-03 -1.351862469216380e-02 -1.540055750451524e-04 1.738038927285340e-06 -1.540055750451524e-04 -2.778459783457951e-03
1.630630921133978e-02 9.667195859521430e-03 -5.847602384061203e-05 9.667195859521431e-03 -1.356330968993163e-02 1.960318027570624e-04 -5.847602384061203e-05 1.960318027570625e-04 -2.742999521408153e-03
1.552388816998617e-02 1.438712535326696e-02 -9.280336002508158e-05 1.438712535326696e-02 -1.606845288693695e-02 1.817163495997066e-04 -9.280336002508160e-05 1.817163495997066e-04 5.445647169507921e-04
1.550936842464598e-02 1.442534368186326e-02 8.809757934670174e-05 1.442534368186326e-02 -1.606558185325314e-02 -3.746106080568217e-04 8.809757934670175e-05 -3.746106080568217e-04 5.562134286071542e-04
4.000146037856885e-02 1.066058032377414e-02 6.586871651211817e-05 1.066058032377416e-02 -3.345578125814733e-02 -2.846352248658555e-04 6.586871651211815e-05 -2.846352248658554e-04 -6.545679120421546e-03
4.001513827474416e-02 1.069774129439722e-02 9.322894890066844e-05 1.069774129439722e-02 -3.355407023144195e-02 4.479749792703065e-04 9.322894890066836e-05 4.479749792703065e-04 -6.461068043302176e-03
4.090230697302644e-02 1.814454663467381e-02 4.996948784904159e-05 1.814454663467382e-02 -4.091234736273549e-02 4.614082330208953e-04 4.996948784904163e-05 4.614082330208952e-04 1.004038970902439e-05
4.090172738478626e-02 1.829734932874770e-02 2.372807881948967e-04 1.829734932874767e-02 -4.090604028004928e-02 -7.042058873101653e-04 2.372807881948967e-04 -7.042058873101655e-04 4.312895263035819e-06
1.550936842464598e-02 1.442534368186326e-02 8.809757934670174e-05 1.442534368186326e-02 -1.606558185325314e-02 -3.746106080568217e-04 8.809757934670175e-05 -3.746106080568217e-04 5.562134286071542e-04
1.552388816998617e-02 1.438712535326696e-02 -9.280336002508158e-05 1.438712535326696e-02 -1.606845288693695e-02 1.817163495997066e-04 -9.280336002508160e-05 1.817163495997066e-04 5.445647169507921e-04
3.040904511380065e-02 3.921383138015515e-02 -2.706205166216922e-04 3.921383138015513e-02 -3.689712291510479e-02 1.401929365004128e-03 -2.706205166216921e-04 1.401929365004127e-03 6.488077801304152e-03
3.043158375242598e-02 3.940597320589224e-02 4.000166960049526e-06 3.940597320589224e-02 -3.708510258641338e-02 1.182568523026389e-06 4.000166960049495e-06 1.182568523026416e-06 6.653518833987409e-03
4.090172738478626e-02 1.829734932874770e-02 2.372807881948967e-04 1.829734932874767e-02 -4.090604028004928e-02 -7.042058873101653e-04 2.372807881948967e-04 -7.042058873101655e-04 4.312895263035819e-06
4.090230697302644e-02 1.814454663467381e-02 4.996948784904159e-05 1.814454663467382e-02 -4.091234736273549e-02 4.614082330208953e-04 4.996948784904163e-05 4.614082330208952e-04 1.004038970902439e-05
8.658886487296329e-02 5.223396424114771e-02 -3.852997243257545e-04 5.223396424114771e-02 -9.670864329153210e-02 2.794192362937856e-03 -3.852997243257545e-04 2.794192362937855e-03 1.011977841856888e-02
8.659433088390991e-02 5.270449592080501e-02 7.730944452951151e-06 5.270449592080503e-02 -9.702742550689233e-02 1.199251028626827e-06 7.730944452951178e-06 1.199251028626718e-06 1.043309462298243e-02
        </DataArray>
        <DataArray type="Float64" Name="nodal_cauchy_stresses_xyz" NumberOfComponents="6" format="ascii">
-1.430312116157123e-01 -1.432713786569278e-01 -3.786262552651360e-04 -1.550696648762259e-01 -4.297271224385657e-04 5.014474068833854e-04
-1.430013521874053e-01 -1.432484557658300e-01 -4.329877223590925e-04 -1.551042440957748e-01 3.596044051811734e-04 -4.221421250984077e-04
-1.346227004935624e-01 -1.348833721840564e-01 -3.342860293004151e-05 -1.580691707067436e-01 2.509265782690047e-04 -2.873269967006020e-04
-1.346570549124863e-01 -1.349100437046516e-01 2.923715942992151e-05 -1.580345186726065e-01 -2.753462266727347e-04 3.073288269436972e-04
-1.835571203155013e-01 -1.028260708464933e-01 -1.594778526316508e-04 -1.489831603532534e-01 -3.756395154187280e-04 1.953406171804725e-04
-1.833749940934032e-01 -1.029515759831076e-01 -2.172281012168405e-04 -1.490693929118933e-01 2.890860026356925e-04 -1.525819359085031e-04
-1.752451828546338e-01 -9.407317708533082e-02 1.454626895648884e-05 -1.522411726901988e-01 3.119873565412682e-04 1.446369677061386e-04
-1.754523160107535e-01 -9.392980654630628e-02 8.006616425504552e-05 -1.521487558124514e-01 -3.369667934931019e-04 -1.571034792821923e-04
-1.346570549124863e-01 -1.349100437046516e-01 2.923715942992151e-05 -1.580345186726065e-01 -2.753462266727347e-04 3.073288269436972e-04
-1.346227004935624e-01 -1.348833721840564e-01 -3.342860293004151e-05 -1.580691707067436e-01 2.509265782690047e-04 -2.873269967006020e-04
-1.150670094932625e-01 -1.153900963612872e-01 -4.309133339912401e-05 -1.646394523916771e-01 -6.885707741684104e-05 1.005542973443957e-04
-1.151689671878632e-01 -1.154862554543608e-01 1.534524519989658e-04 -1.645578692338444e-01 -9.765064067158882e-05 8.545930833432717e-05
-1.754523160107535e-01 -9.392980654630628e-02 8.006616425504552e-05 -1.521487558124514e-01 -3.369667934931019e-04 -1.571034792821923e-04
-1.752451828546338e-01 -9.407317708533082e-02 1.454626895648884e-05 -1.522411726901988e-01 3.119873565412682e-04 1.446369677061386e-04
-1.572822454647641e-01 -7.294816552149903e-02 4.883026866196326e-05 -1.587288407863973e-01 8.599152987414044e-05 5.812774097452480e-04
-1.574957919516252e-01 -7.291180459420496e-02 2.258075826615082e-04 -1.586126298346632e-01 -2.803889719844166e-04 -5.430342590354246e-04
-1.151689671878632e-01 -1.154862554543608e-01 1.534524519989658e-04 -1.645578692338444e-01 -9.765064067158882e-05 8.545930833432717e-05
-1.150670094932625e-01 -1.153900963612872e-01 -4.309133339912401e-05 -1.646394523916771e-01 -6.885707741684104e-05 1.005542973443957e-04
-9.158602556568669e-02 -9.192098196324458e-02 2.890592497188691e-04 -1.709050370370544e-01 -4.887755749142750e-04 5.944661445816130e-04
-9.171675832359115e-02 -9.204954636252821e-02 5.442415171556273e-04 -1.708194971448848e-01 4.841421454241623e-04 -6.150088145868943e-04
-1.574957919516252e-01 -7.291180459420496e-02 2.258075826615082e-04 -1.586126298346632e-01 -2.803889719844166e-04 -5.430342590354246e-04
-1.572822454647641e-01 -7.294816552149903e-02 4.883026866196326e-05 -1.587288407863973e-01 8.599152987414044e-05 5.812774097452480e-04
-1.352991317835833e-01 -4.710983847962583e-02 2.886447577326199e-04 -1.650221656935798e-01 -3.419842351103646e-04 9.059288998645432e-04
-1.353663505622711e-01 -4.725515409705650e-02 4.988229533672563e-04 -1.649564265727049e-01 2.714485926102818e-04 -1.090501725303631e-03
-9.171675832359115e-02 -9.204954636252821e-02 5.442415171556273e-04 -1.708194971448848e-01 4.841421454241623e-04 -6.150088145868943e-04
-9.158602556568669e-02 -9.192098196324458e-02 2.890592497188691e-04 -1.709050370370544e-01 -4.887755749142750e-04 5.944661445816130e-04
-6.047189993891348e-02 -6.073796602525573e-02 -2.574114989821933e-04 -1.773223814157448e-01 -1.034551241259912e-03 1.213909001967840e-03
-6.060938578140849e-02 -6.088030071755356e-02 1.679225206420627e-05 -1.772725121073344e-01 7.918873674883779e-04 -9.744789121959438e-04
-1.353663505622711e-01 -4.725515409705650e-02 4.988229533672563e-04 -1.649564265727049e-01 2.714485926102818e-04 -1.090501725303631e-03
-1.352991317835833e-01 -4.710983847962583e-02 2.886447577326199e-04 -1.650221656935798e-01 -3.419842351103646e-04 9.059288998645432e-04
-1.068749368891533e-01 -1.211719891463625e-02 -2.614742568881871e-04 -1.711197484479091e-01 -1.033465058545903e-03 1.220821333549521e-03
-1.068924992022968e-01 -1.235456500265403e-02 -1.122293769846680e-05 -1.711056752816837e-01 6.618703003674127e-04 -1.100330229249521e-03
-6.060938578140849e-02 -6.088030071755356e-02 1.679225206420627e-05 -1.772725121073344e-01 7.918873674883779e-04 -9.744789121959438e-04
-6.047189993891348e-02 -6.073796602525573e-02 -2.574114989821933e-04 -1.773223814157448e-01 -1.034551241259912e-03 1.213909001967840e-03
-2.083142863715213e-02 -2.093585992343883e-02 1.803594299467578e-03 -1.819929379242698e-01 -2.816520280187142e-03 3.172949697716938e-03
-2.114470737236896e-02 -2.126005104456935e-02 2.438813384060790e-03 -1.820523565714748e-01 1.403247647289511e-03 -1.643111334849883e-03
-1.068924992022968e-01 -1.235456500265403e-02 -1.122293769846680e-05 -1.711056752816837e-01 6.618703003674127e-04 -1.100330229249521e-03
-1.068749368891533e-01 -1.211719891463625e-02 -2.614742568881871e-04 -1.711197484479091e-01 -1.033465058545903e-03 1.220821333549521e-03
-7.105996337548985e-02 3.138408461709151e-02 1.795735263666825e-03 -1.749751075956013e-01 -3.123728538886217e-03 2.668455958052743e-03
-7.131350943720496e-02 3.104467535398520e-02 2.387153768459198e-03 -1.750501581648248e-01 1.490439008353688e-03 -1.602351104417404e-03
-2.114470737236896e-02 -2.126005104456935e-02 2.438813384060790e-03 -1.820523565714748e-01 1.403247647289511e-03 -1.643111334849883e-03
-2.083142863715213e-02 -2.093585992343883e-02 1.803594299467578e-03 -1.819929379242698e-01 -2.816520280187142e-03 3.172949697716938e-03
4.020553274949858e-02 4.033072717303732e-02 -4.902826252100429e-04 -1.843475770260836e-01 -3.616933436454564e-03 3.849743340902024e-03
4.023205759418291e-02 4.036443803723497e-02 -6.160587114802133e-04 -1.842695042765551e-01 3.465685477762992e-03 -3.974430180597274e-03
-7.131350943720496e-02 3.104467535398520e-02 2.387153768459198e-03 -1.750501581648248e-01 1.490439008353688e-03 -1.602351104417404e-03
-7.105996337548985e-02 3.138408461709151e-02 1.795735263666825e-03 -1.749751075956013e-01 -3.123728538886217e-03 2.668455958052743e-03
-1.183216090890182e-02 9.137866048714430e-02 -4.402501867407866e-04 -1.772562219883630e-01 -3.796182739447419e-03 3.328033495228249e-03
-1.168294506456048e-02 9.131611769699360e-02 -5.887299963175498e-04 -1.771979071263577e-01 3.943615659134043e-03 -3.240373287592882e-03
4.023205759418291e-02 4.036443803723497e-02 -6.160587114802133e-04 -1.842695042765551e-01 3.465685477762992e-03 -3.974430180597274e-03
4.020553274949858e-02 4.033072717303732e-02 -4.902826252100429e-04 -1.843475770260836e-01 -3.616933436454564e-03 3.849743340902024e-03
8.154398892279643e-02 8.181614938859078e-02 -3.313960176393483e-03 -1.866772054130116e-01 -7.338469927384114e-03 8.012029155092290e-03
8.170778550256974e-02 8.193210502569939e-02 -3.710555040075171e-03 -1.868578669007089e-01 -4.818557171888075e-05 4.734125053075104e-05
-1.168294506456048e-02 9.131611769699360e-02 -5.887299963175498e-04 -1.771979071263577e-01 3.943615659134043e-03 -3.240373287592882e-03
-1.183216090890182e-02 9.137866048714430e-02 -4.402501867407866e-04 -1.772562219883630e-01 -3.796182739447419e-03 3.328033495228249e-03
2.750173381869772e-02 1.317948287741693e-01 -3.166842031855566e-03 -1.793783807480568e-01 -8.651829468295819e-03 5.680700167244984e-03
2.761720190165844e-02 1.319617741434569e-01 -3.559264605005937e-03 -1.795300467327714e-01 -4.863350751393747e-05 4.152038598472007e-05
-1.835571203155013e-01 -1.028260708464933e-01 -1.594778526316508e-04 -1.489831603532534e-01 -3.756395154187280e-04 1.953406171804725e-04
-1.833749940934032e-01 -1.029515759831076e-01 -2.172281012168405e-04 -1.490693929118933e-01 2.890860026356925e-04 -1.525819359085031e-04
-1.752451828546338e-01 -9.407317708533082e-02 1.454626895648884e-05 -1.522411726901988e-01 3.119873565412682e-04 1.446369677061386e-04
-1.754523160107535e-01 -9.392980654630628e-02 8.006616425504552e-05 -1.521487558124514e-01 -3.369667934931019e-04 -1.571034792821923e-04
-2.195435023674980e-01 -6.660388478508963e-02 5.911205582394960e-04 -1.316049324281208e-01 1.110691205370756e-04 -9.163248733405182e-05
-2.192738653257933e-01 -6.677102869361107e-02 4.892584145877001e-04 -1.318313174465732e-01 -2.754516486438656e-04 6.412751602669000e-05
-2.114204864676150e-01 -5.644295105313364e-02 2.891139218208916e-04 -1.355000285518400e-01 -1.344329120056054e-04 4.624700631941023e-04
-2.116931981187500e-01 -5.622070373774841e-02 3.415150139565990e-04 -1.352931459079737e-01 1.532189531267755e-04 -6.896028625050970e-04
-1.754523160107535e-01 -9.392980654630628e-02 8.006616425504552e-05 -1.521487558124514e-01 -3.369667934931019e-04 -1.571034792821923e-04
-1.752451828546338e-01 -9.407317708533082e-02 1.454626895648884e-05 -1.522411726901988e-01 3.119873565412682e-04 1.446369677061386e-04
-1.572822454647641e-01 -7.294816552149903e-02 4.883026866196326e-05 -1.587288407863973e-01 8.599152987414044e-05 5.812774097452480e-04
-1.574957919516252e-01 -7.291180459420496e-02 2.258075826615082e-04 -1.586126298346632e-01 -2.803889719844166e-04 -5.430342590354246e-04
-2.116931981187500e-01 -5.622070373774841e-02 3.415150139565990e-04 -1.352931459079737e-01 1.532189531267755e-04 -6.896028625050970e-04
-2.114204864676150e-01 -5.644295105313364e-02 2.891139218208916e-04 -1.355000285518400e-01 -1.344329120056054e-04 4.624700631941023e-04
-1.950924885460851e-01 -3.217393838460091e-02 4.451486340422138e-05 -1.417403150431600e-01 -1.328797383720325e-04 8.511367993794454e-04
-1.952363568716764e-01 -3.207100135847681e-02 8.880566052641293e-05 -1.416313771161880e-01 -2.384217527384915e-05 -1.043116544208554e-03
-1.574957919516252e-01 -7.291180459420496e-02 2.258075826615082e-04 -1.586126298346632e-01 -2.803889719844166e-04 -5.430342590354246e-04
-1.572822454647641e-01 -7.294816552149903e-02 4.883026866196326e-05 -1.587288407863973e-01 8.599152987414044e-05 5.812774097452480e-04
-1.352991317835833e-01 -4.710983847962583e-02 2.886447577326199e-04 -1.650221656935798e-01 -3.419842351103646e-04 9.059288998645432e-04
-1.353663505622711e-01 -4.725515409705650e-02 4.988229533672563e-04 -1.649564265727049e-01 2.714485926102818e-04 -1.090501725303631e-03
-1.952363568716764e-01 -3.207100135847681e-02 8.880566052641293e-05 -1.416313771161880e-01 -2.384217527384915e-05 -1.043116544208554e-03
-1.950924885460851e-01 -3.217393838460091e-02 4.451486340422138e-05 -1.417403150431600e-01 -1.328797383720325e-04 8.511367993794454e-04
-1.754481941879422e-01 -2.412794421502370e-03 2.626582986450755e-04 -1.472891808812348e-01 -3.507557108782780e-04 9.064046202879662e-04
-1.753558922418231e-01 -2.583349661831384e-03 3.422631201462344e-04 -1.473378327588317e-01 2.158106912302587e-04 -9.953521601738706e-04
-1.353663505622711e-01 -4.725515409705650e-02 4.988229533672563e-04 -1.649564265727049e-01 2.714485926102818e-04 -1.090501725303631e-03
-1.352991317835833e-01 -4.710983847962583e-02 2.886447577326199e-04 -1.650221656935798e-01 -3.419842351103646e-04 9.059288998645432e-04
-1.068749368891533e-01 -1.211719891463625e-02 -2.614742568881871e-04 -1.711197484479091e-01 -1.033465058545903e-03 1.220821333549521e-03
-1.068924992022968e-01 -1.235456500265403e-02 -1.122293769846680e-05 -1.711056752816837e-01 6.618703003674127e-04 -1.100330229249521e-03
-1.753558922418231e-01 -2.583349661831384e-03 3.422631201462344e-04 -1.473378327588317e-01 2.158106912302587e-04 -9.953521601738706e-04
-1.754481941879422e-01 -2.412794421502370e-03 2.626582986450755e-04 -1.472891808812348e-01 -3.507557108782780e-04 9.064046202879662e-04
-1.498199980152261e-01 3.624387705574082e-02 -2.790607892455078e-04 -1.518910336412942e-01 -9.981479636008998e-04 9.747012861204467e-04
-1.497775314336226e-01 3.597227587502567e-02 -5.341567188182737e-05 -1.519507831683640e-01 6.034070116079160e-04 -6.445732968573222e-04
-1.068924992022968e-01 -1.235456500265403e-02 -1.122293769846680e-05 -1.711056752816837e-01 6.618703003674127e-04 -1.100330229249521e-03
-1.068749368891533e-01 -1.211719891463625e-02 -2.614742568881871e-04 -1.711197484479091e-01 -1.033465058545903e-03 1.220821333549521e-03
-7.105996337548985e-02 3.138408461709151e-02 1.795735263666825e-03 -1.749751075956013e-01 -3.123728538886217e-03 2.668455958052743e-03
-7.131350943720496e-02 3.104467535398520e-02 2.387153768459198e-03 -1.750501581648248e-01 1.490439008353688e-03 -1.602351104417404e-03
-1.497775314336226e-01 3.597227587502567e-02 -5.341567188182737e-05 -1.519507831683640e-01 6.034070116079160e-04 -6.445732968573222e-04
-1.498199980152261e-01 3.624387705574082e-02 -2.790607892455078e-04 -1.518910336412942e-01 -9.981479636008998e-04 9.747012861204467e-04
-1.161551226759168e-01 7.969109955819924e-02 1.787155094264745e-03 -1.546073269819283e-01 -3.167933598455211e-03 1.964596639441468e-03
-1.163673721162884e-01 7.936677378724438e-02 2.322575072204028e-03 -1.547054219245440e-01 1.618760234682321e-03 -1.151661886257372e-03
-7.131350943720496e-02 3.104467535398520e-02 2.387153768459198e-03 -1.750501581648248e-01 1.490439008353688e-03 -1.602351104417404e-03
-7.105996337548985e-02 3.138408461709151e-02 1.795735263666825e-03 -1.749751075956013e-01 -3.123728538886217e-03 2.668455958052743e-03
-1.183216090890182e-02 9.137866048714430e-02 -4.402501867407866e-04 -1.772562219883630e-01 -3.796182739447419e-03 3.328033495228249e-03
-1.168294506456048e-02 9.131611769699360e-02 -5.887299963175498e-04 -1.771979071263577e-01 3.943615659134043e-03 -3.240373287592882e-03
-1.163673721162884e-01 7.936677378724438e-02 2.322575072204028e-03 -1.547054219245440e-01 1.618760234682321e-03 -1.151661886257372e-03
-1.161551226759168e-01 7.969109955819924e-02 1.787155094264745e-03 -1.546073269819283e-01 -3.167933598455211e-03 1.964596639441468e-03
-5.948707023889571e-02 1.351425788907361e-01 -2.712855897014613e-04 -1.575872540449604e-01 -3.724249967518780e-03 2.502492428454428e-03
-5.929847536834139e-02 1.350768453798711e-01 -4.464505261827546e-04 -1.575592668501033e-01 4.210005155431544e-03 -2.228637509499547e-03
-1.168294506456048e-02 9.131611769699360e-02 -5.887299963175498e-04 -1.771979071263577e-01 3.943615659134043e-03 -3.240373287592882e-03
-1.183216090890182e-02 9.137866048714430e-02 -4.402501867407866e-04 -1.772562219883630e-01 -3.796182739447419e-03 3.328033495228249e-03
2.750173381869772e-02 1.317948287741693e-01 -3.166842031855566e-03 -1.793783807480568e-01 -8.651829468295819e-03 5.680700167244984e-03
2.761720190165844e-02 1.319617741434569e-01 -3.559264605005937e-03 -1.795300467327714e-01 -4.863350751393747e-05 4.152038598472007e-05
-5.929847536834139e-02 1.350768453798711e-01 -4.464505261827546e-04 -1.575592668501033e-01 4.210005155431544e-03 -2.228637509499547e-03
-5.948707023889571e-02 1.351425788907361e-01 -2.712855897014613e-04 -1.575872540449604e-01 -3.724249967518780e-03 2.502492428454428e-03
-2.268830071142332e-02 1.724460491588791e-01 -3.156858889582697e-03 -1.594711698245337e-01 -8.808696823684705e-03 3.475769028239668e-03
-2.264803177499213e-02 1.726903966405356e-01 -3.534590003960122e-03 -1.595444926175443e-01 -4.601389158697837e-05 3.138472585225254e-05
-2.195435023674980e-01 -6.660388478508963e-02 5.911205582394960e-04 -1.316049324281208e-01 1.110691205370756e-04 -9.163248733405182e-05
-2.192738653257933e-01 -6.677102869361107e-02 4.892584145877001e-04 -1.318313174465732e-01 -2.754516486438656e-04 6.412751602669000e-05
-2.114204864676150e-01 -5.644295105313364e-02 2.891139218208916e-04 -1.355000285518400e-01 -1.344329120056054e-04 4.624700631941023e-04
-2.116931981187500e-01 -5.622070373774841e-02 3.415150139565990e-04 -1.352931459079737e-01 1.532189531267755e-04 -6.896028625050970e-04
-2.469257207853331e-01 -3.721354949727149e-02 1.997494814781107e-03 -1.059252400078920e-01 9.792439740864097e-04 2.549658867260286e-04
-2.467700616073800e-01 -3.728036501788601e-02 1.912193587072116e-03 -1.061168133357824e-01 -1.005297565145960e-03 1.341561471558140e-04
-2.393384804813904e-01 -2.311455398918008e-02 5.113935255709342e-04 -1.103253718021571e-01 -8.385115402702898e-04 1.703061252550270e-04
-2.394794598162877e-01 -2.293477857498444e-02 4.742864291409554e-04 -1.101721176838193e-01 1.076348504427742e-03 -2.438189794633179e-04
-2.116931981187500e-01 -5.622070373774841e-02 3.415150139565990e-04 -1.352931459079737e-01 1.532189531267755e-04 -6.896028625050970e-04
-2.114204864676150e-01 -5.644295105313364e-02 2.891139218208916e-04 -1.355000285518400e-01 -1.344329120056054e-04 4.624700631941023e-04
-1.950924885460851e-01 -3.217393838460091e-02 4.451486340422138e-05 -1.417403150431600e-01 -1.328797383720325e-04 8.511367993794454e-04
-1.952363568716764e-01 -3.207100135847681e-02 8.880566052641293e-05 -1.416313771161880e-01 -2.384217527384915e-05 -1.043116544208554e-03
-2.394794598162877e-01 -2.293477857498444e-02 4.742864291409554e-04 -1.101721176838193e-01 1.076348504427742e-03 -2.438189794633179e-04
-2.393384804813904e-01 -2.311455398918008e-02 5.113935255709342e-04 -1.103253718021571e-01 -8.385115402702898e-04 1.703061252550270e-04
-2.254029911611572e-01 6.867450312459300e-03 -2.387067926206068e-04 -1.145004545533946e-01 -5.002027085046789e-04 1.373166790322797e-04
-2.254186323626543e-01 7.055767822905795e-03 -4.053205322554433e-04 -1.144873157051331e-01 4.910552626974459e-04 -3.267406702183906e-04
-1.952363568716764e-01 -3.207100135847681e-02 8.880566052641293e-05 -1.416313771161880e-01 -2.384217527384915e-05 -1.043116544208554e-03
-1.950924885460851e-01 -3.217393838460091e-02 4.451486340422138e-05 -1.417403150431600e-01 -1.328797383720325e-04 8.511367993794454e-04
-1.754481941879422e-01 -2.412794421502370e-03 2.626582986450755e-04 -1.472891808812348e-01 -3.507557108782780e-04 9.064046202879662e-04
-1.753558922418231e-01 -2.583349661831384e-03 3.422631201462344e-04 -1.473378327588317e-01 2.158106912302587e-04 -9.953521601738706e-04
-2.254186323626543e-01 7.055767822905795e-03 -4.053205322554433e-04 -1.144873157051331e-01 4.910552626974459e-04 -3.267406702183906e-04
-2.254029911611572e-01 6.867450312459300e-03 -2.387067926206068e-04 -1.145004545533946e-01 -5.002027085046789e-04 1.373166790322797e-04
-2.090249747551879e-01 3.961990746851074e-02 2.601216721842301e-04 -1.173841535159242e-01 -3.465579872252797e-04 7.471929107040939e-05
-2.089673275045388e-01 3.962443868991253e-02 2.012932087933255e-04 -1.174383184931360e-01 1.546358888062748e-04 -6.865137394247042e-05
-1.753558922418231e-01 -2.583349661831384e-03 3.422631201462344e-04 -1.473378327588317e-01 2.158106912302587e-04 -9.953521601738706e-04
-1.754481941879422e-01 -2.412794421502370e-03 2.626582986450755e-04 -1.472891808812348e-01 -3.507557108782780e-04 9.064046202879662e-04
-1.498199980152261e-01 3.624387705574082e-02 -2.790607892455078e-04 -1.518910336412942e-01 -9.981479636008998e-04 9.747012861204467e-04
-1.497775314336226e-01 3.597227587502567e-02 -5.341567188182737e-05 -1.519507831683640e-01 6.034070116079160e-04 -6.445732968573222e-04
-2.089673275045388e-01 3.962443868991253e-02 2.012932087933255e-04 -1.174383184931360e-01 1.546358888062748e-04 -6.865137394247042e-05
-2.090249747551879e-01 3.961990746851074e-02 2.601216721842301e-04 -1.173841535159242e-01 -3.465579872252797e-04 7.471929107040939e-05
-1.862221210825815e-01 7.720286927732459e-02 1.664576298617676e-04 -1.204282551263799e-01 -8.702027035523432e-04 3.834024705046990e-04
-1.862805016904185e-01 7.704297687321907e-02 3.822798478671744e-04 -1.204340178751597e-01 4.653103877347858e-04 -1.190523330392552e-04
-1.497775314336226e-01 3.597227587502567e-02 -5.341567188182737e-05 -1.519507831683640e-01 6.034070116079160e-04 -6.445732968573222e-04
-1.498199980152261e-01 3.624387705574082e-02 -2.790607892455078e-04 -1.518910336412942e-01 -9.981479636008998e-04 9.747012861204467e-04
-1.161551226759168e-01 7.969109955819924e-02 1.787155094264745e-03 -1.546073269819283e-01 -3.167933598455211e-03 1.964596639441468e-03
-1.163673721162884e-01 7.936677378724438e-02 2.322575072204028e-03 -1.547054219245440e-01 1.618760234682321e-03 -1.151661886257372e-03
-1.862805016904185e-01 7.704297687321907e-02 3.822798478671744e-04 -1.204340178751597e-01 4.653103877347858e-04 -1.190523330392552e-04
-1.862221210825815e-01 7.720286927732459e-02 1.664576298617676e-04 -1.204282551263799e-01 -8.702027035523432e-04 3.834024705046990e-04
-1.540096762059975e-01 1.169647213799163e-01 1.970997476643214e-03 -1.238316962144941e-01 -3.075197102664255e-03 1.286634300759468e-03
-1.541817248132780e-01 1.166070790308432e-01 2.499039920537741e-03 -1.239892239885811e-01 1.677266886941741e-03 -6.631402584104815e-04
-1.163673721162884e-01 7.936677378724438e-02 2.322575072204028e-03 -1.547054219245440e-01 1.618760234682321e-03 -1.151661886257372e-03
-1.161551226759168e-01 7.969109955819924e-02 1.787155094264745e-03 -1.546073269819283e-01 -3.167933598455211e-03 1.964596639441468e-03
-5.948707023889571e-02 1.351425788907361e-01 -2.712855897014613e-04 -1.575872540449604e-01 -3.724249967518780e-03 2.502492428454428e-03
-5.929847536834139e-02 1.350768453798711e-01 -4.464505261827546e-04 -1.575592668501033e-01 4.210005155431544e-03 -2.228637509499547e-03
-1.541817248132780e-01 1.166070790308432e-01 2.499039920537741e-03 -1.239892239885811e-01 1.677266886941741e-03 -6.631402584104815e-04
-1.540096762059975e-01 1.169647213799163e-01 1.970997476643214e-03 -1.238316962144941e-01 -3.075197102664255e-03 1.286634300759468e-03
-9.979902046929000e-02 1.684315709684177e-01 -3.154626605820585e-04 -1.283884413001266e-01 -3.599286711845043e-03 1.647286483838844e-03
-9.964578514017294e-02 1.683756591970805e-01 -4.540301674171709e-04 -1.283838067271803e-01 4.348996671798363e-03 -1.203118776110842e-03
-5.929847536834139e-02 1.350768453798711e-01 -4.464505261827546e-04 -1.575592668501033e-01 4.210005155431544e-03 -2.228637509499547e-03
-5.948707023889571e-02 1.351425788907361e-01 -2.712855897014613e-04 -1.575872540449604e-01 -3.724249967518780e-03 2.502492428454428e-03
-2.268830071142332e-02 1.724460491588791e-01 -3.156858889582697e-03 -1.594711698245337e-01 -8.808696823684705e-03 3.475769028239668e-03
-2.264803177499213e-02 1.726903966405356e-01 -3.534590003960122e-03 -1.595444926175443e-01 -4.601389158697837e-05 3.138472585225254e-05
-9.964578514017294e-02 1.683756591970805e-01 -4.540301674171709e-04 -1.283838067271803e-01 4.348996671798363e-03 -1.203118776110842e-03
-9.979902046929000e-02 1.684315709684177e-01 -3.154626605820585e-04 -1.283884413001266e-01 -3.599286711845043e-03 1.647286483838844e-03
-6.544676185474525e-02 2.027839026249051e-01 -2.781014743011773e-03 -1.306382201459957e-01 -8.400678388516811e-03 2.027207407259440e-03
-6.546770894363176e-02 2.031046493108685e-01 -3.155187174236336e-03 -1.305865255958767e-01 -4.635388326701553e-05 2.073524229278525e-05
-2.469257207853331e-01 -3.721354949727149e-02 1.997494814781107e-03 -1.059252400078920e-01 9.792439740864097e-04 2.549658867260286e-04
-2.467700616073800e-01 -3.728036501788601e-02 1.912193587072116e-03 -1.061168133357824e-01 -1.005297565145960e-03 1.341561471558140e-04
-2.393384804813904e-01 -2.311455398918008e-02 5.113935255709342e-04 -1.103253718021571e-01 -8.385115402702898e-04 1.703061252550270e-04
-2.394794598162877e-01 -2.293477857498444e-02 4.742864291409554e-04 -1.101721176838193e-01 1.076348504427742e-03 -2.438189794633179e-04
-2.643501086785546e-01 -1.290032795171789e-02 1.996183834202262e-03 -7.760815566995945e-02 9.178081405251658e-04 4.961045776185861e-04
-2.644704137318573e-01 -1.270330832126470e-02 1.925615651025956e-03 -7.727171321357847e-02 -9.817476252959151e-04 1.017738206859771e-04
-2.584344971035217e-01 4.895098875891436e-03 -1.783157789058709e-04 -7.931298228309835e-02 -8.696639071927655e-04 -4.243285620987358e-04
-2.582917852616409e-01 4.804434456665471e-03 -2.327331511466238e-04 -7.968805961362456e-02 1.159576280232919e-03 1.042465596511343e-03
-2.394794598162877e-01 -2.293477857498444e-02 4.742864291409554e-04 -1.101721176838193e-01 1.076348504427742e-03 -2.438189794633179e-04
-2.393384804813904e-01 -2.311455398918008e-02 5.113935255709342e-04 -1.103253718021571e-01 -8.385115402702898e-04 1.703061252550270e-04
-2.254029911611572e-01 6.867450312459300e-03 -2.387067926206068e-04 -1.145004545533946e-01 -5.002027085046789e-04 1.373166790322797e-04
-2.254186323626543e-01 7.055767822905795e-03 -4.053205322554433e-04 -1.144873157051331e-01 4.910552626974459e-04 -3.267406702183906e-04
-2.582917852616409e-01 4.804434456665471e-03 -2.327331511466238e-04 -7.968805961362456e-02 1.159576280232919e-03 1.042465596511343e-03
-2.584344971035217e-01 4.895098875891436e-03 -1.783157789058709e-04 -7.931298228309835e-02 -8.696639071927655e-04 -4.243285620987358e-04
-2.463467757562492e-01 3.839398763314025e-02 -1.503589282674487e-03 -7.891220428085279e-02 -6.324272083481396e-04 -8.360443367064834e-04
-2.462465158031361e-01 3.844463339729561e-02 -1.653672680337471e-03 -7.910501787333880e-02 6.506224128461379e-04 1.639788254378036e-03
-2.254186323626543e-01 7.055767822905795e-03 -4.053205322554433e-04 -1.144873157051331e-01 4.910552626974459e-04 -3.267406702183906e-04
-2.254029911611572e-01 6.867450312459300e-03 -2.387067926206068e-04 -1.145004545533946e-01 -5.002027085046789e-04 1.373166790322797e-04
-2.090249747551879e-01 3.961990746851074e-02 2.601216721842301e-04 -1.173841535159242e-01 -3.465579872252797e-04 7.471929107040939e-05
-2.089673275045388e-01 3.962443868991253e-02 2.012932087933255e-04 -1.174383184931360e-01 1.546358888062748e-04 -6.865137394247042e-05
-2.462465158031361e-01 3.844463339729561e-02 -1.653672680337471e-03 -7.910501787333880e-02 6.506224128461379e-04 1.639788254378036e-03
-2.463467757562492e-01 3.839398763314025e-02 -1.503589282674487e-03 -7.891220428085279e-02 -6.324272083481396e-04 -8.360443367064834e-04
-2.320181896394730e-01 7.045323742051232e-02 -6.821643138478915e-04 -7.957703373137137e-02 -5.661373046242738e-04 -6.411018411106499e-04
-2.320539487096115e-01 7.051990168219086e-02 -7.140721219193473e-04 -7.942809942032715e-02 4.203973125473264e-04 1.356053061053464e-03
-2.089673275045388e-01 3.962443868991253e-02 2.012932087933255e-04 -1.174383184931360e-01 1.546358888062748e-04 -6.865137394247042e-05
-2.090249747551879e-01 3.961990746851074e-02 2.601216721842301e-04 -1.173841535159242e-01 -3.465579872252797e-04 7.471929107040939e-05
-1.862221210825815e-01 7.720286927732459e-02 1.664576298617676e-04 -1.204282551263799e-01 -8.702027035523432e-04 3.834024705046990e-04
-1.862805016904185e-01 7.704297687321907e-02 3.822798478671744e-04 -1.204340178751597e-01 4.653103877347858e-04 -1.190523330392552e-04
-2.320539487096115e-01 7.051990168219086e-02 -7.140721219193473e-04 -7.942809942032715e-02 4.203973125473264e-04 1.356053061053464e-03
-2.320181896394730e-01 7.045323742051232e-02 -6.821643138478915e-04 -7.957703373137137e-02 -5.661373046242738e-04 -6.411018411106499e-04
-2.113832387687671e-01 1.052891067864300e-01 -7.168166316360077e-04 -8.269190530623766e-02 -9.784727022230371e-04 -9.431210992421867e-05
-2.115271104044637e-01 1.052971557546082e-01 -5.832353051833563e-04 -8.244168849711511e-02 6.539256541099829e-04 4.967788543321940e-04
-1.862805016904185e-01 7.704297687321907e-02 3.822798478671744e-04 -1.204340178751597e-01 4.653103877347858e-04 -1.190523330392552e-04
-1.862221210825815e-01 7.720286927732459e-02 1.664576298617676e-04 -1.204282551263799e-01 -8.702027035523432e-04 3.834024705046990e-04
-1.540096762059975e-01 1.169647213799163e-01 1.970997476643214e-03 -1.238316962144941e-01 -3.075197102664255e-03 1.286634300759468e-03
-1.541817248132780e-01 1.166070790308432e-01 2.499039920537741e-03 -1.239892239885811e-01 1.677266886941741e-03 -6.631402584104815e-04
-2.115271104044637e-01 1.052971557546082e-01 -5.832353051833563e-04 -8.244168849711511e-02 6.539256541099829e-04 4.967788543321940e-04
-2.113832387687671e-01 1.052891067864300e-01 -7.168166316360077e-04 -8.269190530623766e-02 -9.784727022230371e-04 -9.431210992421867e-05
-1.818883883649821e-01 1.414798234322097e-01 1.524806850231994e-03 -8.711338437050650e-02 -3.024189031845304e-03 7.599095146410790e-04
-1.820991620530046e-01 1.412022203372333e-01 2.011560062735571e-03 -8.720263648760543e-02 1.477294729580363e-03 -2.491046451775820e-04
-1.541817248132780e-01 1.166070790308432e-01 2.499039920537741e-03 -1.239892239885811e-01 1.677266886941741e-03 -6.631402584104815e-04
-1.540096762059975e-01 1.169647213799163e-01 1.970997476643214e-03 -1.238316962144941e-01 -3.075197102664255e-03 1.286634300759468e-03
-9.979902046929000e-02 1.684315709684177e-01 -3.154626605820585e-04 -1.283884413001266e-01 -3.599286711845043e-03 1.647286483838844e-03
-9.964578514017294e-02 1.683756591970805e-01 -4.540301674171709e-04 -1.283838067271803e-01 4.348996671798363e-03 -1.203118776110842e-03
-1.820991620530046e-01 1.412022203372333e-01 2.011560062735571e-03 -8.720263648760543e-02 1.477294729580363e-03 -2.491046451775820e-04
-1.818883883649821e-01 1.414798234322097e-01 1.524806850231994e-03 -8.711338437050650e-02 -3.024189031845304e-03 7.599095146410790e-04
-1.311974806210746e-01 1.915967450596913e-01 -3.173027126724701e-04 -9.186628661312397e-02 -3.483445092441512e-03 9.174803868424828e-04
-1.311175616495793e-01 1.915346903872191e-01 -3.678876277816922e-04 -9.186238814730151e-02 4.445356972123516e-03 -6.016049835870710e-04
-9.964578514017294e-02 1.683756591970805e-01 -4.540301674171709e-04 -1.283838067271803e-01 4.348996671798363e-03 -1.203118776110842e-03
-9.979902046929000e-02 1.684315709684177e-01 -3.154626605820585e-04 -1.283884413001266e-01 -3.599286711845043e-03 1.647286483838844e-03
-6.544676185474525e-02 2.027839026249051e-01 -2.781014743011773e-03 -1.306382201459957e-01 -8.400678388516811e-03 2.027207407259440e-03
-6.546770894363176e-02 2.031046493108685e-01 -3.155187174236336e-03 -1.305865255958767e-01 -4.635388326701553e-05 2.073524229278525e-05
-1.311175616495793e-01 1.915346903872191e-01 -3.678876277816922e-04 -9.186238814730151e-02 4.445356972123516e-03 -6.016049835870710e-04
-1.311974806210746e-01 1.915967450596913e-01 -3.173027126724701e-04 -9.186628661312397e-02 -3.483445092441512e-03 9.174803868424828e-04
-9.860721074164430e-02 2.254427090667435e-01 -2.383242272443438e-03 -9.407296512845723e-02 -8.377720403066405e-03 1.408407780813714e-03
-9.860898007194373e-02 2.257790620399020e-01 -2.776683656174539e-03 -9.395720321851778e-02 -5.516464198954552e-05 1.507629040933130e-05
-2.643501086785546e-01 -1.290032795171789e-02 1.996183834202262e-03 -7.760815566995945e-02 9.178081405251658e-04 4.961045776185861e-04
-2.644704137318573e-01 -1.270330832126470e-02 1.925615651025956e-03 -7.727171321357847e-02 -9.817476252959151e-04 1.017738206859771e-04
-2.584344971035217e-01 4.895098875891436e-03 -1.783157789058709e-04 -7.931298228309835e-02 -8.696639071927655e-04 -4.243285620987358e-04
-2.582917852616409e-01 4.804434456665471e-03 -2.327331511466238e-04 -7.968805961362456e-02 1.159576280232919e-03 1.042465596511343e-03
-2.734154112785293e-01 6.837538049020269e-03 -1.257941660047485e-03 -4.514536314792958e-02 -6.233931605371107e-04 8.569356711010743e-05
-2.735108578672281e-01 6.952707552945093e-03 -1.275966863122942e-03 -4.446486988137066e-02 5.653189434966194e-04 -2.200451409184066e-04
-2.696582800752567e-01 1.890155423698734e-02 -5.098178669926453e-04 -4.279076941608709e-02 4.117662047332340e-04 -7.426601605758116e-04
-2.695938263387945e-01 1.877501978100869e-02 -4.542416813532688e-04 -4.348784598990500e-02 -4.359603953853895e-04 1.138876235512487e-03
-2.582917852616409e-01 4.804434456665471e-03 -2.327331511466238e-04 -7.968805961362456e-02 1.159576280232919e-03 1.042465596511343e-03
-2.584344971035217e-01 4.895098875891436e-03 -1.783157789058709e-04 -7.931298228309835e-02 -8.696639071927655e-04 -4.243285620987358e-04
-2.463467757562492e-01 3.839398763314025e-02 -1.503589282674487e-03 -7.891220428085279e-02 -6.324272083481396e-04 -8.360443367064834e-04
-2.462465158031361e-01 3.844463339729561e-02 -1.653672680337471e-03 -7.910501787333880e-02 6.506224128461379e-04 1.639788254378036e-03
-2.695938263387945e-01 1.877501978100869e-02 -4.542416813532688e-04 -4.348784598990500e-02 -4.359603953853895e-04 1.138876235512487e-03
-2.696582800752567e-01 1.890155423698734e-02 -5.098178669926453e-04 -4.279076941608709e-02 4.117662047332340e-04 -7.426601605758116e-04
-2.593819624125300e-01 4.590941530870945e-02 -5.088064769223653e-04 -4.089416545307771e-02 2.919007452052285e-05 -9.316675832949779e-04
-2.593880496955143e-01 4.571296955367411e-02 -3.203779985544740e-04 -4.120238746589821e-02 -1.036976047767826e-04 2.050406618874272e-03
-2.462465158031361e-01 3.844463339729561e-02 -1.653672680337471e-03 -7.910501787333880e-02 6.506224128461379e-04 1.639788254378036e-03
-2.463467757562492e-01 3.839398763314025e-02 -1.503589282674487e-03 -7.891220428085279e-02 -6.324272083481396e-04 -8.360443367064834e-04
-2.320181896394730e-01 7.045323742051232e-02 -6.821643138478915e-04 -7.957703373137137e-02 -5.661373046242738e-04 -6.411018411106499e-04
-2.320539487096115e-01 7.051990168219086e-02 -7.140721219193473e-04 -7.942809942032715e-02 4.203973125473264e-04 1.356053061053464e-03
-2.593880496955143e-01 4.571296955367411e-02 -3.203779985544740e-04 -4.120238746589821e-02 -1.036976047767826e-04 2.050406618874272e-03
-2.593819624125300e-01 4.590941530870945e-02 -5.088064769223653e-04 -4.089416545307771e-02 2.919007452052285e-05 -9.316675832949779e-04
-2.464118146557893e-01 7.600209365730626e-02 -4.362686372811045e-04 -4.121892322870815e-02 -5.929590934576280e-04 -5.641022012143606e-04
-2.464796856216643e-01 7.582732245322088e-02 -2.077671631188878e-04 -4.110077719526115e-02 6.586626410495686e-04 1.522499836451683e-03
-2.320539487096115e-01 7.051990168219086e-02 -7.140721219193473e-04 -7.942809942032715e-02 4.203973125473264e-04 1.356053061053464e-03
-2.320181896394730e-01 7.045323742051232e-02 -6.821643138478915e-04 -7.957703373137137e-02 -5.661373046242738e-04 -6.411018411106499e-04
-2.113832387687671e-01 1.052891067864300e-01 -7.168166316360077e-04 -8.269190530623766e-02 -9.784727022230371e-04 -9.431210992421867e-05
-2.115271104044637e-01 1.052971557546082e-01 -5.832353051833563e-04 -8.244168849711511e-02 6.539256541099829e-04 4.967788543321940e-04
-2.464796856216643e-01 7.582732245322088e-02 -2.077671631188878e-04 -4.110077719526115e-02 6.586626410495686e-04 1.522499836451683e-03
-2.464118146557893e-01 7.600209365730626e-02 -4.362686372811045e-04 -4.121892322870815e-02 -5.929590934576280e-04 -5.641022012143606e-04
-2.273121383909563e-01 1.111991322498412e-01 -7.168233813270601e-04 -4.306842611804893e-02 -1.330610955837675e-03 -7.549644659545521e-05
-2.274106098279565e-01 1.111130195834941e-01 -5.413072340193216e-04 -4.286331958974259e-02 1.106956081231864e-03 9.263461401925468e-04
-2.115271104044637e-01 1.052971557546082e-01 -5.832353051833563e-04 -8.244168849711511e-02 6.539256541099829e-04 4.967788543321940e-04
-2.113832387687671e-01 1.052891067864300e-01 -7.168166316360077e-04 -8.269190530623766e-02 -9.784727022230371e-04 -9.431210992421867e-05
-1.818883883649821e-01 1.414798234322097e-01 1.524806850231994e-03 -8.711338437050650e-02 -3.024189031845304e-03 7.599095146410790e-04
-1.820991620530046e-01 1.412022203372333e-01 2.011560062735571e-03 -8.720263648760543e-02 1.477294729580363e-03 -2.491046451775820e-04
-2.274106098279565e-01 1.111130195834941e-01 -5.413072340193216e-04 -4.286331958974259e-02 1.106956081231864e-03 9.263461401925468e-04
-2.273121383909563e-01 1.111991322498412e-01 -7.168233813270601e-04 -4.306842611804893e-02 -1.330610955837675e-03 -7.549644659545521e-05
-1.993374667030481e-01 1.510274049068283e-01 1.001278170954327e-03 -4.609414973302992e-02 -3.283708241926202e-03 4.941194952709109e-04
-1.995831246253076e-01 1.507798045660850e-01 1.490206893110759e-03 -4.606954869517120e-02 1.610268146325934e-03 1.898148064969210e-04
-1.820991620530046e-01 1.412022203372333e-01 2.011560062735571e-03 -8.720263648760543e-02 1.477294729580363e-03 -2.491046451775820e-04
-1.818883883649821e-01 1.414798234322097e-01 1.524806850231994e-03 -8.711338437050650e-02 -3.024189031845304e-03 7.599095146410790e-04
-1.311974806210746e-01 1.915967450596913e-01 -3.173027126724701e-04 -9.186628661312397e-02 -3.483445092441512e-03 9.174803868424828e-04
-1.311175616495793e-01 1.915346903872191e-01 -3.678876277816922e-04 -9.186238814730151e-02 4.445356972123516e-03 -6.016049835870710e-04
-1.995831246253076e-01 1.507798045660850e-01 1.490206893110759e-03 -4.606954869517120e-02 1.610268146325934e-03 1.898148064969210e-04
-1.993374667030481e-01 1.510274049068283e-01 1.001278170954327e-03 -4.609414973302992e-02 -3.283708241926202e-03 4.941194952709109e-04
-1.513167769723653e-01 2.052915073622348e-01 -6.638539647925862e-04 -4.848721455277595e-02 -3.560908930870777e-03 5.178721042523680e-04
-1.513038010698541e-01 2.052389797116419e-01 -6.494155080574572e-04 -4.845097219620041e-02 4.546070312618070e-03 -1.899624538417761e-04
-1.311175616495793e-01 1.915346903872191e-01 -3.678876277816922e-04 -9.186238814730151e-02 4.445356972123516e-03 -6.016049835870710e-04
-1.311974806210746e-01 1.915967450596913e-01 -3.173027126724701e-04 -9.186628661312397e-02 -3.483445092441512e-03 9.174803868424828e-04
-9.860721074164430e-02 2.254427090667435e-01 -2.383242272443438e-03 -9.407296512845723e-02 -8.377720403066405e-03 1.408407780813714e-03
-9.860898007194373e-02 2.257790620399020e-01 -2.776683656174539e-03 -9.395720321851778e-02 -5.516464198954552e-05 1.507629040933130e-05
-1.513038010698541e-01 2.052389797116419e-01 -6.494155080574572e-04 -4.845097219620041e-02 4.546070312618070e-03 -1.899624538417761e-04
-1.513167769723653e-01 2.052915073622348e-01 -6.638539647925862e-04 -4.848721455277595e-02 -3.560908930870777e-03 5.178721042523680e-04
-1.208888055438604e-01 2.404174958327990e-01 -1.682177881670880e-03 -4.892459009359821e-02 -8.553088542720272e-03 7.401315616154755e-04
-1.208442495457469e-01 2.407370902924178e-01 -2.096055470969419e-03 -4.880089165434087e-02 -6.789344384775279e-05 1.005922474291463e-05
-2.734154112785293e-01 6.837538049020269e-03 -1.257941660047485e-03 -4.514536314792958e-02 -6.233931605371107e-04 8.569356711010743e-05
-2.735108578672281e-01 6.952707552945093e-03 -1.275966863122942e-03 -4.446486988137066e-02 5.653189434966194e-04 -2.200451409184066e-04
-2.696582800752567e-01 1.890155423698734e-02 -5.098178669926453e-04 -4.279076941608709e-02 4.117662047332340e-04 -7.426601605758116e-04
-2.695938263387945e-01 1.877501978100869e-02 -4.542416813532688e-04 -4.348784598990500e-02 -4.359603953853895e-04 1.138876235512487e-03
-2.743186319097460e-01 1.292526397557918e-02 -3.292473966635415e-03 1.831533948937119e-02 -1.318666354202662e-03 -9.828505627001726e-06
-2.742948699977699e-01 1.285021065323939e-02 -3.244347351630761e-03 1.853132801740387e-02 1.475589797594291e-03 2.242230185248827e-04
-2.706329410738834e-01 1.762338431755954e-02 1.011591323164520e-04 1.024452539973054e-02 9.620466993939785e-04 -9.419470329752933e-04
-2.706739716150515e-01 1.753888152698274e-02 2.197719798387181e-04 9.945458496773434e-03 -1.173171651334091e-03 1.792047422894130e-06
-2.695938263387945e-01 1.877501978100869e-02 -4.542416813532688e-04 -4.348784598990500e-02 -4.359603953853895e-04 1.138876235512487e-03
-2.696582800752567e-01 1.890155423698734e-02 -5.098178669926453e-04 -4.279076941608709e-02 4.117662047332340e-04 -7.426601605758116e-04
-2.593819624125300e-01 4.590941530870945e-02 -5.088064769223653e-04 -4.089416545307771e-02 2.919007452052285e-05 -9.316675832949779e-04
-2.593880496955143e-01 4.571296955367411e-02 -3.203779985544740e-04 -4.120238746589821e-02 -1.036976047767826e-04 2.050406618874272e-03
-2.706739716150515e-01 1.753888152698274e-02 2.197719798387181e-04 9.945458496773434e-03 -1.173171651334091e-03 1.792047422894130e-06
-2.706329410738834e-01 1.762338431755954e-02 1.011591323164520e-04 1.024452539973054e-02 9.620466993939785e-04 -9.419470329752933e-04
-2.600816230380861e-01 3.600598701754334e-02 2.013425802340304e-03 -2.184830992467421e-04 1.860802361450959e-04 -2.015337098059569e-03
-2.601747537518406e-01 3.572744208559545e-02 2.362539004501721e-03 -3.981998042763930e-04 -3.343458149762035e-04 1.900695746798797e-05
-2.593880496955143e-01 4.571296955367411e-02 -3.203779985544740e-04 -4.120238746589821e-02 -1.036976047767826e-04 2.050406618874272e-03
-2.593819624125300e-01 4.590941530870945e-02 -5.088064769223653e-04 -4.089416545307771e-02 2.919007452052285e-05 -9.316675832949779e-04
-2.464118146557893e-01 7.600209365730626e-02 -4.362686372811045e-04 -4.121892322870815e-02 -5.929590934576280e-04 -5.641022012143606e-04
-2.464796856216643e-01 7.582732245322088e-02 -2.077671631188878e-04 -4.110077719526115e-02 6.586626410495686e-04 1.522499836451683e-03
-2.601747537518406e-01 3.572744208559545e-02 2.362539004501721e-03 -3.981998042763930e-04 -3.343458149762035e-04 1.900695746798797e-05
-2.600816230380861e-01 3.600598701754334e-02 2.013425802340304e-03 -2.184830992467421e-04 1.860802361450959e-04 -2.015337098059569e-03
-2.462583804053454e-01 6.321031704305129e-02 1.634784872549684e-03 -1.048465445045928e-02 -5.579414955985590e-04 -1.504130625420369e-03
-2.463560724999908e-01 6.297014419396982e-02 1.950805333552533e-03 -1.047927874022127e-02 7.766310216822624e-04 2.707506374051327e-06
-2.464796856216643e-01 7.582732245322088e-02 -2.077671631188878e-04 -4.110077719526115e-02 6.586626410495686e-04 1.522499836451683e-03
-2.464118146557893e-01 7.600209365730626e-02 -4.362686372811045e-04 -4.121892322870815e-02 -5.929590934576280e-04 -5.641022012143606e-04
-2.273121383909563e-01 1.111991322498412e-01 -7.168233813270601e-04 -4.306842611804893e-02 -1.330610955837675e-03 -7.549644659545521e-05
-2.274106098279565e-01 1.111130195834941e-01 -5.413072340193216e-04 -4.286331958974259e-02 1.106956081231864e-03 9.263461401925468e-04
-2.463560724999908e-01 6.297014419396982e-02 1.950805333552533e-03 -1.047927874022127e-02 7.766310216822624e-04 2.707506374051327e-06
-2.462583804053454e-01 6.321031704305129e-02 1.634784872549684e-03 -1.048465445045928e-02 -5.579414955985590e-04 -1.504130625420369e-03
-2.282898034518080e-01 1.000631864103825e-01 1.064403814366211e-03 -1.812015608662348e-02 -1.322730325150797e-03 -1.064923125936162e-03
-2.284089097133001e-01 9.993598141820220e-02 1.296473994753095e-03 -1.813213767957854e-02 1.099622074099714e-03 -3.137661756573144e-05
-2.274106098279565e-01 1.111130195834941e-01 -5.413072340193216e-04 -4.286331958974259e-02 1.106956081231864e-03 9.263461401925468e-04
-2.273121383909563e-01 1.111991322498412e-01 -7.168233813270601e-04 -4.306842611804893e-02 -1.330610955837675e-03 -7.549644659545521e-05
-1.993374667030481e-01 1.510274049068283e-01 1.001278170954327e-03 -4.609414973302992e-02 -3.283708241926202e-03 4.941194952709109e-04
-1.995831246253076e-01 1.507798045660850e-01 1.490206893110759e-03 -4.606954869517120e-02 1.610268146325934e-03 1.898148064969210e-04
-2.284089097133001e-01 9.993598141820220e-02 1.296473994753095e-03 -1.813213767957854e-02 1.099622074099714e-03 -3.137661756573144e-05
-2.282898034518080e-01 1.000631864103825e-01 1.064403814366211e-03 -1.812015608662348e-02 -1.322730325150797e-03 -1.064923125936162e-03
-2.016669464699040e-01 1.468918846635472e-01 1.255164681440328e-03 -2.046806967250568e-02 -3.234250840627809e-03 -2.092769969835364e-04
-2.019270882254966e-01 1.465798527857026e-01 1.820284891852501e-03 -2.052752283360089e-02 1.636008064800278e-03 -5.621788564983851e-05
-1.995831246253076e-01 1.507798045660850e-01 1.490206893110759e-03 -4.606954869517120e-02 1.610268146325934e-03 1.898148064969210e-04
-1.993374667030481e-01 1.510274049068283e-01 1.001278170954327e-03 -4.609414973302992e-02 -3.283708241926202e-03 4.941194952709109e-04
-1.513167769723653e-01 2.052915073622348e-01 -6.638539647925862e-04 -4.848721455277595e-02 -3.560908930870777e-03 5.178721042523680e-04
-1.513038010698541e-01 2.052389797116419e-01 -6.494155080574572e-04 -4.845097219620041e-02 4.546070312618070e-03 -1.899624538417761e-04
-2.019270882254966e-01 1.465798527857026e-01 1.820284891852501e-03 -2.052752283360089e-02 1.636008064800278e-03 -5.621788564983851e-05
-2.016669464699040e-01 1.468918846635472e-01 1.255164681440328e-03 -2.046806967250568e-02 -3.234250840627809e-03 -2.092769969835364e-04
-1.557183893453948e-01 2.073735453685811e-01 -1.243140199514899e-03 -1.574961931130113e-02 -3.585094022720759e-03 1.502481306381937e-04
-1.557676370855813e-01 2.073443928765407e-01 -1.184867959746255e-03 -1.577492971182245e-02 4.545232993175748e-03 -8.647009120924639e-05
-1.513038010698541e-01 2.052389797116419e-01 -6.494155080574572e-04 -4.845097219620041e-02 4.546070312618070e-03 -1.899624538417761e-04
-1.513167769723653e-01 2.052915073622348e-01 -6.638539647925862e-04 -4.848721455277595e-02 -3.560908930870777e-03 5.178721042523680e-04
-1.208888055438604e-01 2.404174958327990e-01 -1.682177881670880e-03 -4.892459009359821e-02 -8.553088542720272e-03 7.401315616154755e-04
-1.208442495457469e-01 2.407370902924178e-01 -2.096055470969419e-03 -4.880089165434087e-02 -6.789344384775279e-05 1.005922474291463e-05
-1.557676370855813e-01 2.073443928765407e-01 -1.184867959746255e-03 -1.577492971182245e-02 4.545232993175748e-03 -8.647009120924639e-05
-1.557183893453948e-01 2.073735453685811e-01 -1.243140199514899e-03 -1.574961931130113e-02 -3.585094022720759e-03 1.502481306381937e-04
-1.280501843307755e-01 2.442086851775166e-01 -1.257967614719270e-03 -9.565317597680912e-03 -8.581210710962501e-03 2.275338122696840e-04
-1.279980996910318e-01 2.445296929854266e-01 -1.676878919194580e-03 -9.543030907066340e-03 -7.442181842518079e-05 3.840681762163424e-06
        </DataArray>
        <DataArray type="Float64" Name="plastic_strain_incr" format="ascii">
2.020476222778341e-03
2.020456082259851e-03
1.172815189451828e-03
1.173079103216578e-03
1.999559912420242e-03
1.999806810387351e-03
1.135220666074184e-03
1.135290948779475e-03
1.173079103216578e-03
1.172815189451828e-03
1.401503552625824e-03
1.401342581791558e-03
1.135290948779475e-03
1.135220666074184e-03
1.331232169147444e-03
1.330849650844912e-03
1.401342581791558e-03
1.401503552625824e-03
1.680179232195360e-03
1.679388932319870e-03
1.330849650844912e-03
1.331232169147444e-03
1.587719432344322e-03
1.586560326798792e-03
1.679388932319870e-03
1.680179232195360e-03
2.018618926967724e-03
2.015669247390695e-03
1.586560326798792e-03
1.587719432344322e-03
1.953766334792458e-03
1.949865362785028e-03
2.015669247390695e-03
2.018618926967724e-03
2.634766181790655e-03
2.615026084741480e-03
1.949865362785028e-03
1.953766334792458e-03
2.665072231444438e-03
2.644426434405596e-03
2.615026084741480e-03
2.634766181790655e-03
4.237800767726549e-03
4.231546042025983e-03
2.644426434405596e-03
2.665072231444438e-03
4.325779459673072e-03
4.319097307728378e-03
4.231546042025983e-03
4.237800767726549e-03
1.262573297232882e-02
1.268160080898353e-02
4.319097307728378e-03
4.325779459673072e-03
1.265554845305176e-02
1.271223506616219e-02
1.999559912420242e-03
1.999806810387351e-03
1.135220666074184e-03
1.135290948779475e-03
1.973615720306058e-03
1.975413618770066e-03
1.051123895498950e-03
1.050408280702807e-03
1.135290948779475e-03
1.135220666074184e-03
1.331232169147444e-03
1.330849650844912e-03
1.050408280702807e-03
1.051123895498950e-03
1.173414705506150e-03
1.172543473301761e-03
1.330849650844912e-03
1.331232169147444e-03
1.587719432344322e-03
1.586560326798792e-03
1.172543473301761e-03
1.173414705506150e-03
1.409251376100580e-03
1.407431941066987e-03
1.586560326798792e-03
1.587719432344322e-03
1.953766334792458e-03
1.949865362785028e-03
1.407431941066987e-03
1.409251376100580e-03
1.863463085552141e-03
1.858314413024980e-03
1.949865362785028e-03
1.953766334792458e-03
2.665072231444438e-03
2.644426434405596e-03
1.858314413024980e-03
1.863463085552141e-03
2.768031039970267e-03
2.746089803809967e-03
2.644426434405596e-03
2.665072231444438e-03
4.325779459673072e-03
4.319097307728378e-03
2.746089803809967e-03
2.768031039970267e-03
4.503290111911296e-03
4.496020879651227e-03
4.319097307728378e-03
4.325779459673072e-03
1.265554845305176e-02
1.271223506616219e-02
4.496020879651227e-03
4.503290111911296e-03
1.267265483732168e-02
1.273129875299712e-02
1.973615720306058e-03
1.975413618770066e-03
1.051123895498950e-03
1.050408280702807e-03
2.068853217987341e-03
2.071027786538323e-03
1.026237010117450e-03
1.024706755514424e-03
1.050408280702807e-03
1.051123895498950e-03
1.173414705506150e-03
1.172543473301761e-03
1.024706755514424e-03
1.026237010117450e-03
1.106177042748857e-03
1.104147370245136e-03
1.172543473301761e-03
1.173414705506150e-03
1.409251376100580e-03
1.407431941066987e-03
1.104147370245136e-03
1.106177042748857e-03
1.371898476853674e-03
1.368686850686659e-03
1.407431941066987e-03
1.409251376100580e-03
1.863463085552141e-03
1.858314413024980e-03
1.368686850686659e-03
1.371898476853674e-03
1.920129174106028e-03
1.913681594148182e-03
1.858314413024980e-03
1.863463085552141e-03
2.768031039970267e-03
2.746089803809967e-03
1.913681594148182e-03
1.920129174106028e-03
2.915230882651713e-03
2.893528718769934e-03
2.746089803809967e-03
2.768031039970267e-03
4.503290111911296e-03
4.496020879651227e-03
2.893528718769934e-03
2.915230882651713e-03
4.603723543721711e-03
4.598301348165452e-03
4.496020879651227e-03
4.503290111911296e-03
1.267265483732168e-02
1.273129875299712e-02
4.598301348165452e-03
4.603723543721711e-03
1.256681904761940e-02
1.262718047470778e-02
2.068853217987341e-03
2.071027786538323e-03
1.026237010117450e-03
1.024706755514424e-03
2.337119251470522e-03
2.336967822594294e-03
1.201773393794577e-03
1.201207196403698e-03
1.024706755514424e-03
1.026237010117450e-03
1.106177042748857e-03
1.104147370245136e-03
1.201207196403698e-03
1.201773393794577e-03
1.343602904779309e-03
1.341604981733935e-03
1.104147370245136e-03
1.106177042748857e-03
1.371898476853674e-03
1.368686850686659e-03
1.341604981733935e-03
1.343602904779309e-03
1.655612913731172e-03
1.652188369973239e-03
1.368686850686659e-03
1.371898476853674e-03
1.920129174106028e-03
1.913681594148182e-03
1.652188369973239e-03
1.655612913731172e-03
2.167843078559128e-03
2.161529787736323e-03
1.913681594148182e-03
1.920129174106028e-03
2.915230882651713e-03
2.893528718769934e-03
2.161529787736323e-03
2.167843078559128e-03
3.016952404807732e-03
2.995864126000445e-03
2.893528718769934e-03
2.915230882651713e-03
4.603723543721711e-03
4.598301348165452e-03
2.995864126000445e-03
3.016952404807732e-03
4.529334294387945e-03
4.526310438840514e-03
4.598301348165452e-03
4.603723543721711e-03
1.256681904761940e-02
1.262718047470778e-02
4.526310438840514e-03
4.529334294387945e-03
1.233447693358837e-02
1.239571759709027e-02
2.337119251470522e-03
2.336967822594294e-03
1.201773393794577e-03
1.201207196403698e-03
2.481801426351334e-03
2.480430562742065e-03
1.479426474521658e-03
1.480486318534860e-03
1.201207196403698e-03
1.201773393794577e-03
1.343602904779309e-03
1.341604981733935e-03
1.480486318534860e-03
1.479426474521658e-03
1.788679976160091e-03
1.789131454826618e-03
1.341604981733935e-03
1.343602904779309e-03
1.655612913731172e-03
1.652188369973239e-03
1.789131454826618e-03
1.788679976160091e-03
2.120053382277689e-03
2.119277684663991e-03
1.652188369973239e-03
1.655612913731172e-03
2.167843078559128e-03
2.161529787736323e-03
2.119277684663991e-03
2.120053382277689e-03
2.479357828707975e-03
2.477166577286170e-03
2.161529787736323e-03
2.167843078559128e-03
3.016952404807732e-03
2.995864126000445e-03
2.477166577286170e-03
2.479357828707975e-03
3.033710248431437e-03
3.016323941506635e-03
2.995864126000445e-03
3.016952404807732e-03
4.529334294387945e-03
4.526310438840514e-03
3.016323941506635e-03
3.033710248431437e-03
4.335266902955576e-03
4.335966491243111e-03
4.526310438840514e-03
4.529334294387945e-03
1.233447693358837e-02
1.239571759709027e-02
4.335966491243111e-03
4.335266902955576e-03
1.206281078027360e-02
1.212488480423562e-02
2.481801426351334e-03
2.480430562742065e-03
1.479426474521658e-03
1.480486318534860e-03
4.941172483798608e-03
4.941020475184150e-03
3.152049484273404e-03
3.153869639350895e-03
1.480486318534860e-03
1.479426474521658e-03
1.788679976160091e-03
1.789131454826618e-03
3.153869639350895e-03
3.152049484273404e-03
3.884737859793369e-03
3.888588033837497e-03
1.789131454826618e-03
1.788679976160091e-03
2.120053382277689e-03
2.119277684663991e-03
3.888588033837497e-03
3.884737859793369e-03
4.470700292309761e-03
4.474923855913662e-03
2.119277684663991e-03
2.120053382277689e-03
2.479357828707975e-03
2.477166577286170e-03
4.474923855913662e-03
4.470700292309761e-03
5.033848548817532e-03
5.037136859925541e-03
2.477166577286170e-03
2.479357828707975e-03
3.033710248431437e-03
3.016323941506635e-03
5.037136859925541e-03
5.033848548817532e-03
5.971378255535965e-03
5.941549099981000e-03
3.016323941506635e-03
3.033710248431437e-03
4.335266902955576e-03
4.335966491243111e-03
5.941549099981000e-03
5.971378255535965e-03
8.434240740043331e-03
8.442091141507242e-03
4.335966491243111e-03
4.335266902955576e-03
1.206281078027360e-02
1.212488480423562e-02
8.442091141507242e-03
8.434240740043331e-03
2.379730704490197e-02
2.392665942436918e-02
        </DataArray>
        <DataArray type="Float64" Name="plastic_zone" format="ascii">
1.000000000000000e+00
1.000000000000000e+00
5.000000000000000e-01
5.000000000000000e-01
1.000000000000000e+00
1.000000000000000e+00
5.000000000000000e-01
5.000000000000000e-01
5.000000000000000e-01
5.000000000000000e-01
5.000000000000000e-01
5.000000000000000e-01
5.000000000000000e-01
5.000000000000000e-01
5.000000000000000e-01
5.000000000000000e-01
5.000000000000000e-01
5.000000000000000e-01
5.000000000000000e-01
5.000000000000000e-01
5.000000000000000e-01
5.000000000000000e-01
5.000000000000000e-01
5.000000000000000e-01
5.000000000000000e-01
5.000000000000000e-01
5.000000000000000e-01
5.000000000000000e-01
5.000000000000000e-01
5.000000000000000e-01
5.000000000000000e-01
5.000000000000000e-01
5.000000000000000e-01
5.000000000000000e-01
5.000000000000000e-01
5.000000000000000e-01
5.000000000000000e-01
5.000000000000000e-01
5.000000000000000e-01
5.000000000000000e-01
5.000000000000000e-01
5.000000000000000e-01
5.000000000000000e-01
5.000000000000000e-01
5.000000000000000e-01
5.000000000000000e-01
5.000000000000000e-01
5.000000000000000e-01
5.000000000000000e-01
5.000000000000000e-01
1.000000000000000e+00
1.000000000000000e+00
5.000000000000000e-01
5.000000000000000e-01
1.000000000000000e+00
1.000000000000000e+00
1.000000000000000e+00
1.000000000000000e+00
5.000000000000000e-01
5.000000000000000e-01
1.000000000000000e+00
1.000000000000000e+00
5.000000000000000e-01
5.000000000000000e-01
5.000000000000000e-01
5.000000000000000e-01
5.000000000000000e-01
5.000000000000000e-01
5.000000000000000e-01
5.000000000000000e-01
5.000000000000000e-01
5.000000000000000e-01
5.000000000000000e-01
5.000000000000000e-01
5.000000000000000e-01
5.000000000000000e-01
5.000000000000000e-01
5.000000000000000e-01
5.000000000000000e-01
5.000000000000000e-01
5.000000000000000e-01
5.000000000000000e-01
5.000000000000000e-01
5.000000000000000e-01
5.000000000000000e-01
5.000000000000000e-01
5.000000000000000e-01
5.000000000000000e-01
5.000000000000000e-01
5.000000000000000e-01
5.000000000000000e-01
5.000000000000000e-01
5.000000000000000e-01
5.000000000000000e-01
5.000000000000000e-01
5.000000000000000e-01
5.000000000000000e-01
5.000000000000000e-01
5.000000000000000e-01
5.000000000000000e-01
5.000000000000000e-01
5.000000000000000e-01
5.000000000000000e-01
5.000000000000000e-01
5.000000000000000e-01
5.000000000000000e-01
1.000000000000000e+00
1.000000000000000e+00
5.000000000000000e-01
5.000000000000000e-01
1.000000000000000e+00
1.000000000000000e+00
1.000000000000000e+00
1.000000000000000e+00
5.000000000000000e-01
5.000000000000000e-01
1.000000000000000e+00
1.000000000000000e+00
5.000000000000000e-01
5.000000000000000e-01
5.000000000000000e-01
5.000000000000000e-01
5.000000000000000e-01
5.000000000000000e-01
5.000000000000000e-01
5.000000000000000e-01
5.000000000000000e-01
5.000000000000000e-01
5.000000000000000e-01
5.000000000000000e-01
5.000000000000000e-01
5.000000000000000e-01
5.000000000000000e-01
5.000000000000000e-01
5.000000000000000e-01
5.000000000000000e-01
5.000000000000000e-01
5.000000000000000e-01
5.000000000000000e-01
5.000000000000000e-01
5.000000000000000e-01
5.000000000000000e-01
5.000000000000000e-01
5.000000000000000e-01
5.000000000000000e-01
5.000000000000000e-01
5.000000000000000e-01
5.000000000000000e-01
5.000000000000000e-01
5.000000000000000e-01
5.000000000000000e-01
5.000000000000000e-01
5.000000000000000e-01
5.000000000000000e-01
5.000000000000000e-01
5.000000000000000e-01
5.000000000000000e-01
5.000000000000000e-01
5.000000000000000e-01
5.000000000000000e-01
5.000000000000000e-01
5.000000000000000e-01
1.000000000000000e+00
1.000000000000000e+00
5.000000000000000e-01
5.000000000000000e-01
1.000000000000000e+00
1.000000000000000e+00
1.000000000000000e+00
1.000000000000000e+00
5.000000000000000e-01
5.000000000000000e-01
1.000000000000000e+00
1.000000000000000e+00
5.000000000000000e-01
5.000000000000000e-01
5.000000000000000e-01
5.000000000000000e-01
5.000000000000000e-01
5.000000000000000e-01
5.000000000000000e-01
5.000000000000000e-01
5.000000000000000e-01
5.000000000000000e-01
5.000000000000000e-01
5.000000000000000e-01
5.000000000000000e-01
5.000000000000000e-01
5.000000000000000e-01
5.000000000000000e-01
5.000000000000000e-01
5.000000000000000e-01
5.000000000000000e-01
5.000000000000000e-01
5.000000000000000e-01
5.000000000000000e-01
5.000000000000000e-01
5.000000000000000e-01
5.000000000000000e-01
5.000000000000000e-01
5.000000000000000e-01
5.000000000000000e-01
5.000000000000000e-01
5.000000000000000e-01
5.000000000000000e-01
5.000000000000000e-01
5.000000000000000e-01
5.000000000000000e-01
5.000000000000000e-01
5.000000000000000e-01
5.000000000000000e-01
5.000000000000000e-01
5.000000000000000e-01
5.000000000000000e-01
5.000000000000000e-01
5.000000000000000e-01
5.000000000000000e-01
5.000000000000000e-01
1.000000000000000e+00
1.000000000000000e+00
5.000000000000000e-01
5.000000000000000e-01
1.000000000000000e+00
1.000000000000000e+00
1.000000000000000e+00
1.000000000000000e+00
5.000000000000000e-01
5.000000000000000e-01
1.000000000000000e+00
1.000000000000000e+00
5.000000000000000e-01
5.000000000000000e-01
5.000000000000000e-01
5.000000000000000e-01
5.000000000000000e-01
5.000000000000000e-01
5.000000000000000e-01
5.000000000000000e-01
5.000000000000000e-01
5.000000000000000e-01
5.000000000000000e-01
5.000000000000000e-01
5.000000000000000e-01
5.000000000000000e-01
5.000000000000000e-01
5.000000000000000e-01
5.000000000000000e-01
5.000000000000000e-01
5.000000000000000e-01
5.000000000000000e-01
5.000000000000000e-01
5.000000000000000e-01
5.000000000000000e-01
5.000000000000000e-01
5.000000000000000e-01
5.000000000000000e-01
5.000000000000000e-01
5.000000000000000e-01
5.000000000000000e-01
5.000000000000000e-01
5.000000000000000e-01
5.000000000000000e-01
5.000000000000000e-01
5.000000000000000e-01
5.000000000000000e-01
5.000000000000000e-01
5.000000000000000e-01
5.000000000000000e-01
5.000000000000000e-01
5.000000000000000e-01
5.000000000000000e-01
5.000000000000000e-01
5.000000000000000e-01
5.000000000000000e-01
1.000000000000000e+00
1.000000000000000e+00
5.000000000000000e-01
5.000000000000000e-01
1.000000000000000e+00
1.000000000000000e+00
1.000000000000000e+00
1.000000000000000e+00
5.000000000000000e-01
5.000000000000000e-01
2.000000000000000e+00
2.000000000000000e+00
1.000000000000000e+00
1.000000000000000e+00
5.000000000000000e-01
5.000000000000000e-01
5.000000000000000e-01
5.000000000000000e-01
1.000000000000000e+00
1.000000000000000e+00
1.000000000000000e+00
1.000000000000000e+00
5.000000000000000e-01
5.000000000000000e-01
5.000000000000000e-01
5.000000000000000e-01
1.000000000000000e+00
1.000000000000000e+00
1.000000000000000e+00
1.000000000000000e+00
5.000000000000000e-01
5.000000000000000e-01
5.000000000000000e-01
5.000000000000000e-01
1.000000000000000e+00
1.000000000000000e+00
1.000000000000000e+00
1.000000000000000e+00
5.000000000000000e-01
5.000000000000000e-01
5.000000000000000e-01
5.000000000000000e-01
1.000000000000000e+00
1.000000000000000e+00
1.000000000000000e+00
1.000000000000000e+00
5.000000000000000e-01
5.000000000000000e-01
5.000000000000000e-01
5.000000000000000e-01
1.000000000000000e+00
1.000000000000000e+00
1.000000000000000e+00
1.000000000000000e+00
5.000000000000000e-01
5.000000000000000e-01
1.000000000000000e+00
1.000000000000000e+00
1.000000000000000e+00
1.000000000000000e+00
2.000000000000000e+00
2.000000000000000e+00
        </DataArray>
  </PointData>
  <CellData>
        <DataArray type="Float64" Name="element_cauchy_stresses_xyz" NumberOfComponents="6" format="ascii">
-1.628592482665417e-01 -1.241252987907167e-01 2.164323488383515e-04 -1.529849427584268e-01 3.890759587146318e-05 -1.234924226932129e-05
-1.463871204110153e-01 -1.055746329324251e-01 -3.704992376321298e-04 -1.597954249579829e-01 -6.165244274384248e-06 1.795609501601979e-05
-1.259802459377630e-01 -8.305108576378084e-02 3.161127437083877e-04 -1.663673759422637e-01 1.067354501091801e-04 -1.080085184168222e-04
-1.012536013342834e-01 -5.532329793233522e-02 -1.147085778582648e-03 -1.731597236073918e-01 -1.615552760005884e-04 1.813558846603054e-04
-6.837511118886035e-02 -1.826012123799657e-02 1.562934076602311e-03 -1.787077210039314e-01 1.900676328509614e-04 -2.032995907461917e-04
-2.192525859339928e-02 3.244143930405152e-02 -4.911172704447238e-03 -1.828519052493607e-01 -2.885179846842722e-04 3.027337887887184e-04
5.003200373692440e-02 1.030619359655532e-01 4.091820076473190e-03 -1.821871305923379e-01 -2.862218964195384e-03 2.471228982250814e-03
-1.997809257392057e-01 -8.653913083146529e-02 -7.651233668890254e-05 -1.430406470528346e-01 8.499781574600896e-05 4.653621023669131e-05
-1.854915815675969e-01 -6.590536187579973e-02 -2.295983622209066e-04 -1.489641573585467e-01 -2.981850685040654e-06 1.349658986279255e-04
-1.677696306124801e-01 -4.038932477976882e-02 1.528397411066393e-04 -1.547397824754775e-01 1.612022329032185e-04 2.298207836386770e-06
-1.452739553719189e-01 -7.878166373083639e-03 -9.715974327021678e-04 -1.605054529188460e-01 -1.259584830736361e-04 2.288475887867573e-04
-1.147505853612782e-01 3.341805164942040e-02 1.349050389161460e-03 -1.648266563916212e-01 2.404542203743541e-04 -1.397634022457669e-04
-7.126902160412969e-02 8.442396194074776e-02 -4.555199039822495e-03 -1.679122530887373e-01 -3.344599738758469e-04 3.838040584334880e-04
-2.160647121884821e-03 1.481936583256855e-01 3.814286384801097e-03 -1.686138160841575e-01 -2.945766832045888e-03 1.740671492714968e-03
-2.318368129669963e-01 -5.229892907532759e-02 -6.488006661573321e-04 -1.242263722895837e-01 1.010053711765437e-04 1.397801067474150e-04
-2.191015487050834e-01 -2.843765773011478e-02 1.642969476220795e-04 -1.282163319826297e-01 -7.500366767540060e-05 2.700711983803444e-04
-2.036943789866192e-01 1.705669591222479e-03 3.033214237632810e-04 -1.316542073278223e-01 2.030786370878678e-04 1.779256801359538e-05
-1.836780861791720e-01 3.783758015590140e-02 -6.665322637336058e-04 -1.348890770013086e-01 -1.184683081528288e-04 1.063899279352136e-04
-1.549120832773024e-01 7.901821415866435e-02 1.289522634168624e-03 -1.381721529327416e-01 2.191253200089267e-04 -1.849085509909922e-04
-1.135468815753125e-01 1.257419288848094e-01 -4.211546699996488e-03 -1.417583557041707e-01 -3.842838298088050e-04 3.646947830493695e-04
-4.761703531533867e-02 1.830497602538190e-01 3.634059663860980e-03 -1.449957543737645e-01 -2.775435922126525e-03 1.095239313368654e-03
-2.574742956106558e-01 -2.098106713021070e-02 -1.221399054629988e-03 -9.584757450110344e-02 2.357722065621400e-05 -2.851242962972058e-05
-2.444361906443704e-01 7.799069088030040e-03 7.887172080564289e-04 -9.727349678009727e-02 -1.743003322717889e-04 2.360364978389050e-04
-2.299701321816832e-01 3.999644544108531e-02 6.740127464490082e-05 -9.857771222599994e-02 2.404841177217515e-04 1.375558356656179e-04
-2.117213753907374e-01 7.423844430897256e-02 -8.465449456414039e-04 -1.007471929284546e-01 -1.225000925563223e-04 3.040558175873303e-04
-1.869006000227624e-01 1.108057074417750e-01 3.538635996243065e-04 -1.036903672484579e-01 2.229611696477664e-04 2.830626284875650e-05
-1.479191184502863e-01 1.543088043761527e-01 -3.703702034954871e-03 -1.082383889201829e-01 -2.882680791468742e-04 2.519476575849562e-04
-8.508385922799425e-02 2.087443091253945e-01 3.038407439526192e-03 -1.136402475203184e-01 -2.639569332569558e-03 7.413052233524308e-04
-2.727052519405196e-01 1.490590342148281e-03 -2.061176870089206e-04 -5.575036918227405e-02 2.738633341449710e-05 -6.206488908541635e-05
-2.605133796753298e-01 3.125442332190438e-02 1.092883091968317e-03 -5.600601838538818e-02 -6.327459711714980e-05 -1.733550154312432e-04
-2.470184609159419e-01 6.158068486879627e-02 1.588490501114194e-03 -5.886903287737547e-02 1.373952571055243e-04 -2.079027205781524e-04
-2.309868613136570e-01 9.369973458201443e-02 4.373589442029801e-04 -6.284575596999238e-02 -1.733867384772760e-04 -1.722169537124500e-06
-2.074592507835287e-01 1.292844552278702e-01 2.081985344830611e-03 -6.676367789573306e-02 1.057157996179811e-04 3.555521564769335e-05
-1.732572313120166e-01 1.709642343945895e-01 -3.629357157858863e-03 -6.998106521706443e-02 -6.319821866298495e-05 2.088602335048790e-04
-1.121954340940675e-01 2.286623770656311e-01 3.019315554308535e-03 -7.382923969964642e-02 -2.692851762852712e-03 5.381437952151340e-04
-2.745581630028796e-01 8.016653261781765e-03 1.426208603602997e-03 -1.571883180252086e-02 9.009326665207506e-06 1.335439829457949e-04
-2.677185112821189e-01 2.856545226265756e-02 -1.643079542623989e-03 -1.614265874673030e-02 1.420292965018884e-04 2.223997127299442e-05
-2.562258729185248e-01 5.302441872747863e-02 -4.819189528687789e-04 -1.814795235913877e-02 -2.532432073775410e-05 1.873365579878688e-05
-2.417103667746888e-01 8.394988492774025e-02 -1.659028089868228e-03 -2.084880696222913e-02 -1.345958820279165e-04 1.037628809529033e-05
-2.192741870919103e-01 1.238125993457865e-01 4.339320702097915e-04 -2.370045438484842e-02 -3.074818521443511e-05 -5.542097150139384e-05
-1.844822261409511e-01 1.752204433887527e-01 -2.661801163901332e-03 -2.547626251560908e-02 8.226427890835005e-05 -6.218826758515516e-06
-1.273398438487456e-01 2.386445070287738e-01 2.557983048905881e-03 -2.452212851116090e-02 -2.760969985406549e-03 1.472885601489521e-04
        </DataArray>
        <DataArray type="Float64" Name="element_owner" format="ascii">
1.000000000000000e+00
1.000000000000000e+00
1.000000000000000e+00
1.000000000000000e+00
1.000000000000000e+00
1.000000000000000e+00
1.000000000000000e+00
1.000000000000000e+00
1.000000000000000e+00
1.000000000000000e+00
1.000000000000000e+00
1.000000000000000e+00
1.000000000000000e+00
1.000000000000000e+00
1.000000000000000e+00
1.000000000000000e+00
1.000000000000000e+00
1.000000000000000e+00
1.000000000000000e+00
1.000000000000000e+00
1.000000000000000e+00
1.000000000000000e+00
1.000000000000000e+00
1.000000000000000e+00
1.000000000000000e+00
1.000000000000000e+00
1.000000000000000e+00
1.000000000000000e+00
1.000000000000000e+00
1.000000000000000e+00
1.000000000000000e+00
1.000000000000000e+00
1.000000000000000e+00
1.000000000000000e+00
1.000000000000000e+00
1.000000000000000e+00
1.000000000000000e+00
1.000000000000000e+00
1.000000000000000e+00
1.000000000000000e+00
1.000000000000000e+00
1.000000000000000e+00
        </DataArray>
      </CellData>

    </Piece>
  </UnstructuredGrid>
</VTKFile>
