<?xml version="1.0" ?> 
<!-- 
# vtk DataFile Version 3.0
-->
<VTKFile type="UnstructuredGrid" version="0.1" compressor="vtkZLibDataCompressor" byte_order="LittleEndian">
  <UnstructuredGrid>
    <FieldData>
      <DataArray type="Float64" Name="TIME" NumberOfTuples="1" format="ascii">
1.000000000000000e+00 
      </DataArray>
    </FieldData>

    <Piece NumberOfPoints="324" NumberOfCells="12" >
      <Points>
        <DataArray type="Float64" NumberOfComponents="3" format="ascii">
-5.000000000000000e-01 -5.000000000000000e-01 4.000000000000000e-01
0.000000000000000e+00 -5.000000000000000e-01 4.000000000000000e-01
0.000000000000000e+00 -1.666666666665000e-01 4.000000000000000e-01
-5.000000000000000e-01 -1.666666666665000e-01 4.000000000000000e-01
-5.000000000000000e-01 -5.000000000000000e-01 6.500000000000000e-01
0.000000000000000e+00 -5.000000000000000e-01 6.500000000000000e-01
0.000000000000000e+00 -1.666666666665000e-01 6.500000000000000e-01
-5.000000000000000e-01 -1.666666666665000e-01 6.500000000000000e-01
-2.500000000000000e-01 -5.000000000000000e-01 4.000000000000000e-01
0.000000000000000e+00 -3.333333333331250e-01 4.000000000000000e-01
-2.500000000000000e-01 -1.666666666665000e-01 4.000000000000000e-01
-5.000000000000000e-01 -3.333333333331250e-01 4.000000000000000e-01
-2.500000000000000e-01 -5.000000000000000e-01 6.500000000000000e-01
0.000000000000000e+00 -3.333333333331250e-01 6.499999999999999e-01
-2.500000000000000e-01 -1.666666666665000e-01 6.500000000000000e-01
-5.000000000000000e-01 -3.333333333331250e-01 6.500000000000000e-01
-5.000000000000000e-01 -5.000000000000000e-01 5.250000000000000e-01
0.000000000000000e+00 -5.000000000000000e-01 5.250000000000000e-01
0.000000000000000e+00 -1.666666666665000e-01 5.250000000000000e-01
-5.000000000000000e-01 -1.666666666665000e-01 5.250000000000000e-01
-5.000000000000000e-01 -3.333333333331250e-01 5.250000000000000e-01
0.000000000000000e+00 -3.333333333331250e-01 5.250000000000000e-01
-2.500000000000000e-01 -5.000000000000000e-01 5.250000000000000e-01
-2.500000000000000e-01 -1.666666666665000e-01 5.250000000000000e-01
-2.500000000000000e-01 -3.333333333331250e-01 4.000000000000000e-01
-2.500000000000000e-01 -3.333333333331250e-01 6.500000000000000e-01
-2.500000000000000e-01 -3.333333333331250e-01 5.250000000000000e-01
0.000000000000000e+00 -5.000000000000000e-01 4.000000000000000e-01
5.000000000000000e-01 -5.000000000000000e-01 4.000000000000000e-01
5.000000000000000e-01 -1.666666666665000e-01 4.000000000000000e-01
0.000000000000000e+00 -1.666666666665000e-01 4.000000000000000e-01
0.000000000000000e+00 -5.000000000000000e-01 6.500000000000000e-01
5.000000000000000e-01 -5.000000000000000e-01 6.500000000000000e-01
5.000000000000000e-01 -1.666666666665000e-01 6.500000000000000e-01
0.000000000000000e+00 -1.666666666665000e-01 6.500000000000000e-01
2.500000000000000e-01 -5.000000000000000e-01 4.000000000000000e-01
5.000000000000000e-01 -3.333333333331250e-01 4.000000000000000e-01
2.500000000000000e-01 -1.666666666665000e-01 4.000000000000001e-01
0.000000000000000e+00 -3.333333333331250e-01 4.000000000000000e-01
2.500000000000000e-01 -5.000000000000000e-01 6.500000000000001e-01
5.000000000000000e-01 -3.333333333331250e-01 6.500000000000000e-01
2.500000000000000e-01 -1.666666666665000e-01 6.500000000000000e-01
0.000000000000000e+00 -3.333333333331250e-01 6.499999999999999e-01
0.000000000000000e+00 -5.000000000000000e-01 5.250000000000000e-01
5.000000000000000e-01 -5.000000000000000e-01 5.250000000000000e-01
5.000000000000000e-01 -1.666666666665000e-01 5.250000000000000e-01
0.000000000000000e+00 -1.666666666665000e-01 5.250000000000000e-01
0.000000000000000e+00 -3.333333333331250e-01 5.250000000000000e-01
5.000000000000000e-01 -3.333333333331250e-01 5.250000000000000e-01
2.500000000000000e-01 -5.000000000000000e-01 5.249999999999999e-01
2.500000000000000e-01 -1.666666666665000e-01 5.249999999999999e-01
2.500000000000000e-01 -3.333333333331251e-01 4.000000000000000e-01
2.500000000000000e-01 -3.333333333331251e-01 6.500000000000000e-01
2.500000000000000e-01 -3.333333333331249e-01 5.250000000000000e-01
-5.000000000000000e-01 -1.666666666665000e-01 4.000000000000000e-01
0.000000000000000e+00 -1.666666666665000e-01 4.000000000000000e-01
0.000000000000000e+00 1.666666666665000e-01 4.000000000000000e-01
-5.000000000000000e-01 1.666666666665000e-01 4.000000000000000e-01
-5.000000000000000e-01 -1.666666666665000e-01 6.500000000000000e-01
0.000000000000000e+00 -1.666666666665000e-01 6.500000000000000e-01
0.000000000000000e+00 1.666666666665000e-01 6.499999999999999e-01
-5.000000000000000e-01 1.666666666665000e-01 6.499999999999999e-01
-2.500000000000000e-01 -1.666666666665000e-01 4.000000000000000e-01
0.000000000000000e+00 3.469446951953614e-17 4.000000000000001e-01
-2.500000000000000e-01 1.666666666665000e-01 4.000000000000000e-01
-5.000000000000001e-01 2.775557561562891e-17 4.000000000000001e-01
-2.500000000000000e-01 -1.666666666665000e-01 6.500000000000000e-01
0.000000000000000e+00 3.469446951953614e-17 6.499999999999999e-01
-2.500000000000000e-01 1.666666666665000e-01 6.500000000000000e-01
-5.000000000000001e-01 2.775557561562891e-17 6.500000000000001e-01
-5.000000000000000e-01 -1.666666666665000e-01 5.250000000000000e-01
0.000000000000000e+00 -1.666666666665000e-01 5.250000000000000e-01
0.000000000000000e+00 1.666666666665000e-01 5.249999999999999e-01
-5.000000000000000e-01 1.666666666665000e-01 5.250000000000000e-01
-5.000000000000000e-01 3.469446951953614e-17 5.250000000000000e-01
0.000000000000000e+00 3.469446951953614e-17 5.250000000000001e-01
-2.500000000000000e-01 -1.666666666665000e-01 5.250000000000000e-01
-2.500000000000000e-01 1.666666666665000e-01 5.249999999999999e-01
-2.500000000000000e-01 2.602085213965211e-17 4.000000000000000e-01
-2.500000000000000e-01 2.602085213965211e-17 6.500000000000000e-01
-2.500000000000000e-01 3.079134169858833e-17 5.250000000000000e-01
0.000000000000000e+00 -1.666666666665000e-01 4.000000000000000e-01
5.000000000000000e-01 -1.666666666665000e-01 4.000000000000000e-01
5.000000000000000e-01 1.666666666665000e-01 4.000000000000000e-01
0.000000000000000e+00 1.666666666665000e-01 4.000000000000000e-01
0.000000000000000e+00 -1.666666666665000e-01 6.500000000000000e-01
5.000000000000000e-01 -1.666666666665000e-01 6.500000000000000e-01
5.000000000000000e-01 1.666666666665000e-01 6.499999999999999e-01
0.000000000000000e+00 1.666666666665000e-01 6.499999999999999e-01
2.500000000000000e-01 -1.666666666665000e-01 4.000000000000001e-01
5.000000000000001e-01 2.775557561562891e-17 4.000000000000001e-01
2.500000000000000e-01 1.666666666665000e-01 4.000000000000000e-01
0.000000000000000e+00 3.469446951953614e-17 4.000000000000001e-01
2.500000000000000e-01 -1.666666666665000e-01 6.500000000000000e-01
5.000000000000001e-01 2.775557561562891e-17 6.500000000000001e-01
2.500000000000000e-01 1.666666666665000e-01 6.500000000000000e-01
0.000000000000000e+00 3.469446951953614e-17 6.499999999999999e-01
0.000000000000000e+00 -1.666666666665000e-01 5.250000000000000e-01
5.000000000000000e-01 -1.666666666665000e-01 5.250000000000000e-01
5.000000000000000e-01 1.666666666665000e-01 5.250000000000000e-01
0.000000000000000e+00 1.666666666665000e-01 5.249999999999999e-01
0.000000000000000e+00 3.469446951953614e-17 5.250000000000001e-01
5.000000000000000e-01 3.469446951953614e-17 5.250000000000000e-01
2.500000000000000e-01 -1.666666666665000e-01 5.249999999999999e-01
2.500000000000000e-01 1.666666666665000e-01 5.249999999999999e-01
2.500000000000000e-01 2.428612866367530e-17 4.000000000000000e-01
2.500000000000000e-01 2.428612866367530e-17 6.499999999999999e-01
2.500000000000000e-01 2.515349040166370e-17 5.250000000000000e-01
-5.000000000000000e-01 1.666666666665000e-01 4.000000000000000e-01
0.000000000000000e+00 1.666666666665000e-01 4.000000000000000e-01
0.000000000000000e+00 5.000000000000000e-01 4.000000000000000e-01
-5.000000000000000e-01 5.000000000000000e-01 4.000000000000000e-01
-5.000000000000000e-01 1.666666666665000e-01 6.499999999999999e-01
0.000000000000000e+00 1.666666666665000e-01 6.499999999999999e-01
0.000000000000000e+00 5.000000000000000e-01 6.500000000000000e-01
-5.000000000000000e-01 5.000000000000000e-01 6.500000000000000e-01
-2.500000000000000e-01 1.666666666665000e-01 4.000000000000000e-01
0.000000000000000e+00 3.333333333331250e-01 4.000000000000000e-01
-2.500000000000000e-01 5.000000000000000e-01 4.000000000000000e-01
-5.000000000000000e-01 3.333333333331250e-01 4.000000000000001e-01
-2.500000000000000e-01 1.666666666665000e-01 6.500000000000000e-01
0.000000000000000e+00 3.333333333331250e-01 6.500000000000001e-01
-2.500000000000000e-01 5.000000000000000e-01 6.500000000000000e-01
-5.000000000000000e-01 3.333333333331250e-01 6.500000000000000e-01
-5.000000000000000e-01 1.666666666665000e-01 5.250000000000000e-01
0.000000000000000e+00 1.666666666665000e-01 5.249999999999999e-01
0.000000000000000e+00 5.000000000000000e-01 5.250000000000000e-01
-5.000000000000000e-01 5.000000000000000e-01 5.250000000000000e-01
-5.000000000000000e-01 3.333333333331250e-01 5.250000000000000e-01
0.000000000000000e+00 3.333333333331250e-01 5.249999999999999e-01
-2.500000000000000e-01 1.666666666665000e-01 5.249999999999999e-01
-2.500000000000000e-01 5.000000000000000e-01 5.250000000000000e-01
-2.499999999999999e-01 3.333333333331250e-01 3.999999999999999e-01
-2.499999999999999e-01 3.333333333331250e-01 6.499999999999998e-01
-2.500000000000000e-01 3.333333333331249e-01 5.250000000000001e-01
0.000000000000000e+00 1.666666666665000e-01 4.000000000000000e-01
5.000000000000000e-01 1.666666666665000e-01 4.000000000000000e-01
5.000000000000000e-01 5.000000000000000e-01 4.000000000000000e-01
0.000000000000000e+00 5.000000000000000e-01 4.000000000000000e-01
0.000000000000000e+00 1.666666666665000e-01 6.499999999999999e-01
5.000000000000000e-01 1.666666666665000e-01 6.499999999999999e-01
5.000000000000000e-01 5.000000000000000e-01 6.500000000000000e-01
0.000000000000000e+00 5.000000000000000e-01 6.500000000000000e-01
2.500000000000000e-01 1.666666666665000e-01 4.000000000000000e-01
5.000000000000000e-01 3.333333333331250e-01 4.000000000000001e-01
2.500000000000000e-01 5.000000000000000e-01 4.000000000000000e-01
0.000000000000000e+00 3.333333333331250e-01 4.000000000000000e-01
2.500000000000000e-01 1.666666666665000e-01 6.500000000000000e-01
5.000000000000000e-01 3.333333333331250e-01 6.500000000000000e-01
2.500000000000000e-01 5.000000000000000e-01 6.500000000000001e-01
0.000000000000000e+00 3.333333333331250e-01 6.500000000000001e-01
0.000000000000000e+00 1.666666666665000e-01 5.249999999999999e-01
5.000000000000000e-01 1.666666666665000e-01 5.250000000000000e-01
5.000000000000000e-01 5.000000000000000e-01 5.250000000000000e-01
0.000000000000000e+00 5.000000000000000e-01 5.250000000000000e-01
0.000000000000000e+00 3.333333333331250e-01 5.249999999999999e-01
5.000000000000000e-01 3.333333333331250e-01 5.250000000000000e-01
2.500000000000000e-01 1.666666666665000e-01 5.249999999999999e-01
2.500000000000000e-01 5.000000000000000e-01 5.249999999999999e-01
2.499999999999999e-01 3.333333333331250e-01 4.000000000000000e-01
2.499999999999999e-01 3.333333333331250e-01 6.499999999999999e-01
2.500000000000000e-01 3.333333333331250e-01 5.250000000000001e-01
-5.000000000000000e-01 -5.000000000000000e-01 6.500000000000000e-01
0.000000000000000e+00 -5.000000000000000e-01 6.500000000000000e-01
0.000000000000000e+00 -1.666666666665000e-01 6.500000000000000e-01
-5.000000000000000e-01 -1.666666666665000e-01 6.500000000000000e-01
-5.000000000000000e-01 -5.000000000000000e-01 9.000000000000000e-01
0.000000000000000e+00 -5.000000000000000e-01 9.000000000000000e-01
0.000000000000000e+00 -1.666666666665000e-01 9.000000000000000e-01
-5.000000000000000e-01 -1.666666666665000e-01 9.000000000000000e-01
-2.500000000000000e-01 -5.000000000000000e-01 6.500000000000000e-01
0.000000000000000e+00 -3.333333333331250e-01 6.499999999999999e-01
-2.500000000000000e-01 -1.666666666665000e-01 6.500000000000000e-01
-5.000000000000000e-01 -3.333333333331250e-01 6.500000000000000e-01
-2.500000000000000e-01 -5.000000000000000e-01 9.000000000000000e-01
0.000000000000000e+00 -3.333333333331250e-01 9.000000000000000e-01
-2.500000000000000e-01 -1.666666666665000e-01 9.000000000000000e-01
-5.000000000000000e-01 -3.333333333331250e-01 9.000000000000000e-01
-5.000000000000000e-01 -5.000000000000000e-01 7.750000000000000e-01
0.000000000000000e+00 -5.000000000000000e-01 7.750000000000001e-01
0.000000000000000e+00 -1.666666666665000e-01 7.750000000000001e-01
-5.000000000000000e-01 -1.666666666665000e-01 7.750000000000001e-01
-5.000000000000000e-01 -3.333333333331250e-01 7.750000000000000e-01
0.000000000000000e+00 -3.333333333331251e-01 7.749999999999999e-01
-2.500000000000000e-01 -5.000000000000000e-01 7.750000000000000e-01
-2.500000000000000e-01 -1.666666666665000e-01 7.749999999999999e-01
-2.500000000000000e-01 -3.333333333331250e-01 6.500000000000000e-01
-2.500000000000000e-01 -3.333333333331250e-01 8.999999999999999e-01
-2.500000000000000e-01 -3.333333333331250e-01 7.750000000000001e-01
0.000000000000000e+00 -5.000000000000000e-01 6.500000000000000e-01
5.000000000000000e-01 -5.000000000000000e-01 6.500000000000000e-01
5.000000000000000e-01 -1.666666666665000e-01 6.500000000000000e-01
0.000000000000000e+00 -1.666666666665000e-01 6.500000000000000e-01
0.000000000000000e+00 -5.000000000000000e-01 9.000000000000000e-01
5.000000000000000e-01 -5.000000000000000e-01 9.000000000000000e-01
5.000000000000000e-01 -1.666666666665000e-01 9.000000000000000e-01
0.000000000000000e+00 -1.666666666665000e-01 9.000000000000000e-01
2.500000000000000e-01 -5.000000000000000e-01 6.500000000000001e-01
5.000000000000000e-01 -3.333333333331250e-01 6.500000000000000e-01
2.500000000000000e-01 -1.666666666665000e-01 6.500000000000000e-01
0.000000000000000e+00 -3.333333333331250e-01 6.499999999999999e-01
2.500000000000000e-01 -5.000000000000000e-01 9.000000000000000e-01
5.000000000000000e-01 -3.333333333331250e-01 9.000000000000000e-01
2.500000000000000e-01 -1.666666666665000e-01 9.000000000000000e-01
0.000000000000000e+00 -3.333333333331250e-01 9.000000000000000e-01
0.000000000000000e+00 -5.000000000000000e-01 7.750000000000001e-01
5.000000000000000e-01 -5.000000000000000e-01 7.750000000000000e-01
5.000000000000000e-01 -1.666666666665000e-01 7.750000000000001e-01
0.000000000000000e+00 -1.666666666665000e-01 7.750000000000001e-01
0.000000000000000e+00 -3.333333333331251e-01 7.749999999999999e-01
5.000000000000000e-01 -3.333333333331250e-01 7.750000000000000e-01
2.500000000000000e-01 -5.000000000000000e-01 7.750000000000000e-01
2.500000000000000e-01 -1.666666666665000e-01 7.749999999999999e-01
2.500000000000000e-01 -3.333333333331251e-01 6.500000000000000e-01
2.500000000000000e-01 -3.333333333331250e-01 8.999999999999999e-01
2.500000000000000e-01 -3.333333333331250e-01 7.750000000000001e-01
-5.000000000000000e-01 -1.666666666665000e-01 6.500000000000000e-01
0.000000000000000e+00 -1.666666666665000e-01 6.500000000000000e-01
0.000000000000000e+00 1.666666666665000e-01 6.499999999999999e-01
-5.000000000000000e-01 1.666666666665000e-01 6.499999999999999e-01
-5.000000000000000e-01 -1.666666666665000e-01 9.000000000000000e-01
0.000000000000000e+00 -1.666666666665000e-01 9.000000000000000e-01
0.000000000000000e+00 1.666666666665000e-01 9.000000000000000e-01
-5.000000000000000e-01 1.666666666665000e-01 8.999999999999999e-01
-2.500000000000000e-01 -1.666666666665000e-01 6.500000000000000e-01
0.000000000000000e+00 3.469446951953614e-17 6.499999999999999e-01
-2.500000000000000e-01 1.666666666665000e-01 6.500000000000000e-01
-5.000000000000001e-01 2.775557561562891e-17 6.500000000000001e-01
-2.500000000000000e-01 -1.666666666665000e-01 9.000000000000000e-01
0.000000000000000e+00 2.775557561562891e-17 9.000000000000001e-01
-2.500000000000000e-01 1.666666666665000e-01 9.000000000000000e-01
-5.000000000000001e-01 2.775557561562891e-17 9.000000000000001e-01
-5.000000000000000e-01 -1.666666666665000e-01 7.750000000000001e-01
0.000000000000000e+00 -1.666666666665000e-01 7.750000000000001e-01
0.000000000000000e+00 1.666666666665000e-01 7.750000000000000e-01
-5.000000000000000e-01 1.666666666665000e-01 7.749999999999999e-01
-5.000000000000000e-01 2.602085213965211e-17 7.750000000000000e-01
0.000000000000000e+00 2.602085213965211e-17 7.749999999999999e-01
-2.500000000000000e-01 -1.666666666665000e-01 7.749999999999999e-01
-2.500000000000000e-01 1.666666666665000e-01 7.749999999999998e-01
-2.500000000000000e-01 2.602085213965211e-17 6.500000000000000e-01
-2.500000000000000e-01 2.428612866367530e-17 9.000000000000000e-01
-2.500000000000000e-01 2.168404344971009e-17 7.750000000000002e-01
0.000000000000000e+00 -1.666666666665000e-01 6.500000000000000e-01
5.000000000000000e-01 -1.666666666665000e-01 6.500000000000000e-01
5.000000000000000e-01 1.666666666665000e-01 6.499999999999999e-01
0.000000000000000e+00 1.666666666665000e-01 6.499999999999999e-01
0.000000000000000e+00 -1.666666666665000e-01 9.000000000000000e-01
5.000000000000000e-01 -1.666666666665000e-01 9.000000000000000e-01
5.000000000000000e-01 1.666666666665000e-01 8.999999999999999e-01
0.000000000000000e+00 1.666666666665000e-01 9.000000000000000e-01
2.500000000000000e-01 -1.666666666665000e-01 6.500000000000000e-01
5.000000000000001e-01 2.775557561562891e-17 6.500000000000001e-01
2.500000000000000e-01 1.666666666665000e-01 6.500000000000000e-01
0.000000000000000e+00 3.469446951953614e-17 6.499999999999999e-01
2.500000000000000e-01 -1.666666666665000e-01 9.000000000000000e-01
5.000000000000001e-01 2.775557561562891e-17 9.000000000000001e-01
2.500000000000000e-01 1.666666666665000e-01 8.999999999999999e-01
0.000000000000000e+00 2.775557561562891e-17 9.000000000000001e-01
0.000000000000000e+00 -1.666666666665000e-01 7.750000000000001e-01
5.000000000000000e-01 -1.666666666665000e-01 7.750000000000001e-01
5.000000000000000e-01 1.666666666665000e-01 7.749999999999999e-01
0.000000000000000e+00 1.666666666665000e-01 7.750000000000000e-01
0.000000000000000e+00 2.602085213965211e-17 7.749999999999999e-01
5.000000000000000e-01 2.602085213965211e-17 7.750000000000000e-01
2.500000000000000e-01 -1.666666666665000e-01 7.749999999999999e-01
2.500000000000000e-01 1.666666666665000e-01 7.749999999999998e-01
2.500000000000000e-01 2.428612866367530e-17 6.499999999999999e-01
2.500000000000000e-01 2.081668171172169e-17 8.999999999999999e-01
2.500000000000000e-01 1.908195823574488e-17 7.750000000000002e-01
-5.000000000000000e-01 1.666666666665000e-01 6.499999999999999e-01
0.000000000000000e+00 1.666666666665000e-01 6.499999999999999e-01
0.000000000000000e+00 5.000000000000000e-01 6.500000000000000e-01
-5.000000000000000e-01 5.000000000000000e-01 6.500000000000000e-01
-5.000000000000000e-01 1.666666666665000e-01 8.999999999999999e-01
0.000000000000000e+00 1.666666666665000e-01 9.000000000000000e-01
0.000000000000000e+00 5.000000000000000e-01 9.000000000000000e-01
-5.000000000000000e-01 5.000000000000000e-01 9.000000000000000e-01
-2.500000000000000e-01 1.666666666665000e-01 6.500000000000000e-01
0.000000000000000e+00 3.333333333331250e-01 6.500000000000001e-01
-2.500000000000000e-01 5.000000000000000e-01 6.500000000000000e-01
-5.000000000000000e-01 3.333333333331250e-01 6.500000000000000e-01
-2.500000000000000e-01 1.666666666665000e-01 9.000000000000000e-01
0.000000000000000e+00 3.333333333331250e-01 9.000000000000001e-01
-2.500000000000000e-01 5.000000000000000e-01 9.000000000000000e-01
-5.000000000000000e-01 3.333333333331250e-01 9.000000000000000e-01
-5.000000000000000e-01 1.666666666665000e-01 7.749999999999999e-01
0.000000000000000e+00 1.666666666665000e-01 7.750000000000000e-01
0.000000000000000e+00 5.000000000000000e-01 7.750000000000001e-01
-5.000000000000000e-01 5.000000000000000e-01 7.750000000000000e-01
-5.000000000000000e-01 3.333333333331250e-01 7.750000000000001e-01
0.000000000000000e+00 3.333333333331250e-01 7.749999999999998e-01
-2.500000000000000e-01 1.666666666665000e-01 7.749999999999998e-01
-2.500000000000000e-01 5.000000000000000e-01 7.750000000000000e-01
-2.499999999999999e-01 3.333333333331250e-01 6.499999999999998e-01
-2.500000000000000e-01 3.333333333331250e-01 9.000000000000000e-01
-2.500000000000000e-01 3.333333333331250e-01 7.750000000000001e-01
0.000000000000000e+00 1.666666666665000e-01 6.499999999999999e-01
5.000000000000000e-01 1.666666666665000e-01 6.499999999999999e-01
5.000000000000000e-01 5.000000000000000e-01 6.500000000000000e-01
0.000000000000000e+00 5.000000000000000e-01 6.500000000000000e-01
0.000000000000000e+00 1.666666666665000e-01 9.000000000000000e-01
5.000000000000000e-01 1.666666666665000e-01 8.999999999999999e-01
5.000000000000000e-01 5.000000000000000e-01 9.000000000000000e-01
0.000000000000000e+00 5.000000000000000e-01 9.000000000000000e-01
2.500000000000000e-01 1.666666666665000e-01 6.500000000000000e-01
5.000000000000000e-01 3.333333333331250e-01 6.500000000000000e-01
2.500000000000000e-01 5.000000000000000e-01 6.500000000000001e-01
0.000000000000000e+00 3.333333333331250e-01 6.500000000000001e-01
2.500000000000000e-01 1.666666666665000e-01 8.999999999999999e-01
5.000000000000000e-01 3.333333333331250e-01 9.000000000000000e-01
2.500000000000000e-01 5.000000000000000e-01 9.000000000000000e-01
0.000000000000000e+00 3.333333333331250e-01 9.000000000000001e-01
0.000000000000000e+00 1.666666666665000e-01 7.750000000000000e-01
5.000000000000000e-01 1.666666666665000e-01 7.749999999999999e-01
5.000000000000000e-01 5.000000000000000e-01 7.750000000000000e-01
0.000000000000000e+00 5.000000000000000e-01 7.750000000000001e-01
0.000000000000000e+00 3.333333333331250e-01 7.749999999999998e-01
5.000000000000000e-01 3.333333333331250e-01 7.750000000000001e-01
2.500000000000000e-01 1.666666666665000e-01 7.749999999999998e-01
2.500000000000000e-01 5.000000000000000e-01 7.750000000000000e-01
2.499999999999999e-01 3.333333333331250e-01 6.499999999999999e-01
2.500000000000000e-01 3.333333333331250e-01 8.999999999999999e-01
2.500000000000000e-01 3.333333333331250e-01 7.750000000000001e-01
        </DataArray>
      </Points>

      <Cells>
        <DataArray type="Int32" Name="connectivity" format="ascii">
0 1 2 3 4 5 6 7 8 9 10 11 12 13 14 15 16 17 18 19 20 21 22 23 24 25 26 27 28 29 30 31 32 33 34 35 36 37 38 39 40 41 42 43 44 45 46 47 48 49 50 51 52 53 54 55 56 57 58 59 60 61 62 63 64 65 66 67 68 69 70 71 72 73 74 75 76 77 78 79 80 81 82 83 84 85 86 87 88 89 90 91 92 93 94 95 96 97 98 99 100 101 102 103 104 105 106 107 108 109 110 111 112 113 114 115 116 117 118 119 120 121 122 123 124 125 126 127 128 129 130 131 132 133 134 135 136 137 138 139 140 141 142 143 144 145 146 147 148 149 150 151 152 153 154 155 156 157 158 159 160 161 162 163 164 165 166 167 168 169 170 171 172 173 174 175 176 177 178 179 180 181 182 183 184 185 186 187 188 189 190 191 192 193 194 195 196 197 198 199 200 201 202 203 204 205 206 207 208 209 210 211 212 213 214 215 216 217 218 219 220 221 222 223 224 225 226 227 228 229 230 231 232 233 234 235 236 237 238 239 240 241 242 243 244 245 246 247 248 249 250 251 252 253 254 255 256 257 258 259 260 261 262 263 264 265 266 267 268 269 270 271 272 273 274 275 276 277 278 279 280 281 282 283 284 285 286 287 288 289 290 291 292 293 294 295 296 297 298 299 300 301 302 303 304 305 306 307 308 309 310 311 312 313 314 315 316 317 318 319 320 321 322 323 
        </DataArray>
        <DataArray type="Int32" Name="offsets" format="ascii">
27 54 81 108 135 162 189 216 243 270 297 324 
        </DataArray>
        <DataArray type="UInt8" Name="types" format="ascii">
29 29 29 29 29 29 29 29 29 29 29 29 
        </DataArray>
      </Cells>

  <PointData>
        <DataArray type="Float64" Name="displacement" NumberOfComponents="3" format="ascii">
2.457090776255629e-02 2.462224021070997e-02 7.853157122033072e-02
2.255140518769849e-17 2.556143495083020e-02 7.490720249775255e-02
4.987329993433320e-18 8.407511870415055e-03 7.195668959970244e-02
2.525436284842851e-02 8.335406626078476e-03 7.545935094470249e-02
2.658140328921307e-02 2.644545614567163e-02 1.160315792645802e-01
9.107298248878237e-18 2.675806272913937e-02 1.141238786003126e-01
1.040834085586084e-17 8.956871820690979e-03 1.126053927789349e-01
2.670231632640696e-02 8.922314835981819e-03 1.143810030723665e-01
1.244955611391917e-02 2.532663626580012e-02 7.581329467839712e-02
1.404041813368728e-17 1.689974857572638e-02 7.324570090825962e-02
1.258649951946398e-02 8.389485559330912e-03 7.283235493595246e-02
2.489808618241903e-02 1.657481833527559e-02 7.677459829504110e-02
1.338317753093018e-02 2.667991108327245e-02 1.146008037663795e-01
1.057097118173367e-17 1.788560545814857e-02 1.133601319504250e-01
1.342519382118609e-02 8.948232574513684e-03 1.130492953522928e-01
2.657321613894590e-02 1.776425758139517e-02 1.151730171602557e-01
2.598396080634168e-02 2.579475551690488e-02 9.693933505230279e-02
1.929879867024198e-17 2.639131619871053e-02 9.438881865285421e-02
9.486769009248164e-18 8.758663179743831e-03 9.233005679298922e-02
2.627374264989894e-02 8.703046738903202e-03 9.474758962152420e-02
2.601697893082341e-02 1.732749730285523e-02 9.572570521110300e-02
1.738789234123628e-17 1.754615802435743e-02 9.327491607472967e-02
1.303895972481083e-02 2.624217602825911e-02 9.502644775271639e-02
1.312387267643840e-02 8.744759069533670e-03 9.293444000012298e-02
1.243243370176852e-02 1.681851601561368e-02 7.412792525495500e-02
1.336625813581783e-02 1.785526848896022e-02 1.138133532528827e-01
1.301834373654077e-02 1.749149284398187e-02 9.388761335882302e-02
2.255140518769849e-17 2.556143495083020e-02 7.490720249775255e-02
-2.457090776255624e-02 2.462224021071004e-02 7.853157122033073e-02
-2.525436284842850e-02 8.335406626078476e-03 7.545935094470246e-02
4.987329993433320e-18 8.407511870415055e-03 7.195668959970244e-02
9.107298248878237e-18 2.675806272913937e-02 1.141238786003126e-01
-2.658140328921305e-02 2.644545614567169e-02 1.160315792645802e-01
-2.670231632640694e-02 8.922314835981814e-03 1.143810030723665e-01
1.040834085586084e-17 8.956871820690979e-03 1.126053927789349e-01
-1.244955611391913e-02 2.532663626580018e-02 7.581329467839708e-02
-2.489808618241904e-02 1.657481833527562e-02 7.677459829504110e-02
-1.258649951946397e-02 8.389485559330910e-03 7.283235493595246e-02
1.404041813368728e-17 1.689974857572638e-02 7.324570090825962e-02
-1.338317753093016e-02 2.667991108327244e-02 1.146008037663795e-01
-2.657321613894589e-02 1.776425758139519e-02 1.151730171602558e-01
-1.342519382118607e-02 8.948232574513692e-03 1.130492953522928e-01
1.057097118173367e-17 1.788560545814857e-02 1.133601319504250e-01
1.929879867024198e-17 2.639131619871053e-02 9.438881865285421e-02
-2.598396080634167e-02 2.579475551690497e-02 9.693933505230283e-02
-2.627374264989893e-02 8.703046738903198e-03 9.474758962152420e-02
9.486769009248164e-18 8.758663179743831e-03 9.233005679298922e-02
1.738789234123628e-17 1.754615802435743e-02 9.327491607472967e-02
-2.601697893082343e-02 1.732749730285526e-02 9.572570521110302e-02
-1.303895972481080e-02 2.624217602825915e-02 9.502644775271633e-02
-1.312387267643838e-02 8.744759069533675e-03 9.293444000012296e-02
-1.243243370176850e-02 1.681851601561369e-02 7.412792525495497e-02
-1.336625813581781e-02 1.785526848896023e-02 1.138133532528827e-01
-1.301834373654075e-02 1.749149284398189e-02 9.388761335882299e-02
2.525436284842851e-02 8.335406626078476e-03 7.545935094470249e-02
4.987329993433320e-18 8.407511870415055e-03 7.195668959970244e-02
5.637851296924623e-18 -8.407511870415073e-03 7.195668959970243e-02
2.525436284842851e-02 -8.335406626078498e-03 7.545935094470249e-02
2.670231632640696e-02 8.922314835981819e-03 1.143810030723665e-01
1.040834085586084e-17 8.956871820690979e-03 1.126053927789349e-01
1.019150042136374e-17 -8.956871820690996e-03 1.126053927789349e-01
2.670231632640695e-02 -8.922314835981809e-03 1.143810030723665e-01
1.258649951946398e-02 8.389485559330912e-03 7.283235493595246e-02
6.505213034913027e-19 -1.366094737331736e-17 7.140530651565780e-02
1.258649951946399e-02 -8.389485559330929e-03 7.283235493595244e-02
2.543977574296993e-02 -1.691355389077387e-17 7.491215866327097e-02
1.342519382118609e-02 8.948232574513684e-03 1.130492953522928e-01
1.067939139898222e-17 -1.398620802506301e-17 1.122302750627892e-01
1.342519382118609e-02 -8.948232574513699e-03 1.130492953522928e-01
2.680118825456956e-02 1.713039432527097e-17 1.140016330325308e-01
2.627374264989894e-02 8.703046738903202e-03 9.474758962152420e-02
9.486769009248164e-18 8.758663179743831e-03 9.233005679298922e-02
1.257674520083185e-17 -8.758663179743850e-03 9.233005679298922e-02
2.627374264989894e-02 -8.703046738903221e-03 9.474758962152421e-02
2.645806090808515e-02 -1.311884628707460e-17 9.431741038964006e-02
4.946672411965114e-18 -1.477225460011500e-17 9.189988797621505e-02
1.312387267643840e-02 8.744759069533670e-03 9.293444000012298e-02
1.312387267643841e-02 -8.744759069533687e-03 9.293444000012298e-02
1.270632948577323e-02 -1.363384231900522e-17 7.228201955256107e-02
1.347362543399037e-02 -8.348356728138384e-18 1.126731145552246e-01
1.320817337842914e-02 -1.249543003789544e-17 9.250426857957127e-02
4.987329993433320e-18 8.407511870415055e-03 7.195668959970244e-02
-2.525436284842850e-02 8.335406626078476e-03 7.545935094470246e-02
-2.525436284842851e-02 -8.335406626078495e-03 7.545935094470248e-02
5.637851296924623e-18 -8.407511870415073e-03 7.195668959970243e-02
1.040834085586084e-17 8.956871820690979e-03 1.126053927789349e-01
-2.670231632640694e-02 8.922314835981814e-03 1.143810030723665e-01
-2.670231632640693e-02 -8.922314835981831e-03 1.143810030723665e-01
1.019150042136374e-17 -8.956871820690996e-03 1.126053927789349e-01
-1.258649951946397e-02 8.389485559330910e-03 7.283235493595246e-02
-2.543977574296991e-02 -2.450296909817240e-17 7.491215866327092e-02
-1.258649951946398e-02 -8.389485559330931e-03 7.283235493595244e-02
6.505213034913027e-19 -1.366094737331736e-17 7.140530651565780e-02
-1.342519382118607e-02 8.948232574513692e-03 1.130492953522928e-01
-2.680118825456951e-02 -8.023096076392733e-18 1.140016330325307e-01
-1.342519382118606e-02 -8.948232574513708e-03 1.130492953522928e-01
1.067939139898222e-17 -1.398620802506301e-17 1.122302750627892e-01
9.486769009248164e-18 8.758663179743831e-03 9.233005679298922e-02
-2.627374264989893e-02 8.703046738903198e-03 9.474758962152420e-02
-2.627374264989893e-02 -8.703046738903226e-03 9.474758962152419e-02
1.257674520083185e-17 -8.758663179743850e-03 9.233005679298922e-02
4.946672411965114e-18 -1.477225460011500e-17 9.189988797621505e-02
-2.645806090808511e-02 -2.591243192240356e-17 9.431741038964001e-02
-1.312387267643838e-02 8.744759069533675e-03 9.293444000012296e-02
-1.312387267643839e-02 -8.744759069533696e-03 9.293444000012296e-02
-1.270632948577323e-02 -1.729302465114380e-17 7.228201955256107e-02
-1.347362543399034e-02 -1.013729031273947e-17 1.126731145552246e-01
-1.320817337842912e-02 -1.928524614308591e-17 9.250426857957128e-02
2.525436284842851e-02 -8.335406626078498e-03 7.545935094470249e-02
5.637851296924623e-18 -8.407511870415073e-03 7.195668959970243e-02
1.170938346284345e-17 -2.556143495083018e-02 7.490720249775255e-02
2.457090776255628e-02 -2.462224021070996e-02 7.853157122033076e-02
2.670231632640695e-02 -8.922314835981809e-03 1.143810030723665e-01
1.019150042136374e-17 -8.956871820690996e-03 1.126053927789349e-01
1.301042606982605e-18 -2.675806272913940e-02 1.141238786003127e-01
2.658140328921310e-02 -2.644545614567167e-02 1.160315792645803e-01
1.258649951946399e-02 -8.389485559330929e-03 7.283235493595244e-02
1.279358563532895e-17 -1.689974857572638e-02 7.324570090825962e-02
1.244955611391916e-02 -2.532663626580013e-02 7.581329467839711e-02
2.489808618241904e-02 -1.657481833527560e-02 7.677459829504113e-02
1.342519382118609e-02 -8.948232574513699e-03 1.130492953522928e-01
8.348356728138384e-18 -1.788560545814859e-02 1.133601319504250e-01
1.338317753093019e-02 -2.667991108327247e-02 1.146008037663796e-01
2.657321613894589e-02 -1.776425758139519e-02 1.151730171602558e-01
2.627374264989894e-02 -8.703046738903221e-03 9.474758962152421e-02
1.257674520083185e-17 -8.758663179743850e-03 9.233005679298922e-02
3.577867169202165e-18 -2.639131619871054e-02 9.438881865285426e-02
2.598396080634171e-02 -2.579475551690489e-02 9.693933505230284e-02
2.601697893082344e-02 -1.732749730285524e-02 9.572570521110305e-02
1.683223872783746e-17 -1.754615802435744e-02 9.327491607472968e-02
1.312387267643841e-02 -8.744759069533687e-03 9.293444000012298e-02
1.303895972481083e-02 -2.624217602825913e-02 9.502644775271638e-02
1.243243370176853e-02 -1.681851601561368e-02 7.412792525495498e-02
1.336625813581783e-02 -1.785526848896024e-02 1.138133532528827e-01
1.301834373654079e-02 -1.749149284398189e-02 9.388761335882304e-02
5.637851296924623e-18 -8.407511870415073e-03 7.195668959970243e-02
-2.525436284842851e-02 -8.335406626078495e-03 7.545935094470248e-02
-2.457090776255631e-02 -2.462224021071001e-02 7.853157122033068e-02
1.170938346284345e-17 -2.556143495083018e-02 7.490720249775255e-02
1.019150042136374e-17 -8.956871820690996e-03 1.126053927789349e-01
-2.670231632640693e-02 -8.922314835981831e-03 1.143810030723665e-01
-2.658140328921305e-02 -2.644545614567169e-02 1.160315792645801e-01
1.301042606982605e-18 -2.675806272913940e-02 1.141238786003127e-01
-1.258649951946398e-02 -8.389485559330931e-03 7.283235493595244e-02
-2.489808618241907e-02 -1.657481833527561e-02 7.677459829504112e-02
-1.244955611391915e-02 -2.532663626580013e-02 7.581329467839709e-02
1.279358563532895e-17 -1.689974857572638e-02 7.324570090825962e-02
-1.342519382118606e-02 -8.948232574513708e-03 1.130492953522928e-01
-2.657321613894588e-02 -1.776425758139522e-02 1.151730171602557e-01
-1.338317753093017e-02 -2.667991108327246e-02 1.146008037663796e-01
8.348356728138384e-18 -1.788560545814859e-02 1.133601319504250e-01
1.257674520083185e-17 -8.758663179743850e-03 9.233005679298922e-02
-2.627374264989893e-02 -8.703046738903226e-03 9.474758962152419e-02
-2.598396080634168e-02 -2.579475551690493e-02 9.693933505230271e-02
3.577867169202165e-18 -2.639131619871054e-02 9.438881865285426e-02
1.683223872783746e-17 -1.754615802435744e-02 9.327491607472968e-02
-2.601697893082345e-02 -1.732749730285525e-02 9.572570521110298e-02
-1.312387267643839e-02 -8.744759069533696e-03 9.293444000012296e-02
-1.303895972481082e-02 -2.624217602825912e-02 9.502644775271638e-02
-1.243243370176852e-02 -1.681851601561368e-02 7.412792525495497e-02
-1.336625813581781e-02 -1.785526848896024e-02 1.138133532528827e-01
-1.301834373654077e-02 -1.749149284398189e-02 9.388761335882304e-02
2.658140328921307e-02 2.644545614567163e-02 1.160315792645802e-01
9.107298248878237e-18 2.675806272913937e-02 1.141238786003126e-01
1.040834085586084e-17 8.956871820690979e-03 1.126053927789349e-01
2.670231632640696e-02 8.922314835981819e-03 1.143810030723665e-01
2.744753864110077e-02 2.719356163853895e-02 1.553974853928492e-01
1.994931997373328e-17 2.715378116167293e-02 1.539995169726857e-01
1.344410693882025e-17 9.267271717588878e-03 1.529457005363496e-01
2.731386783187743e-02 9.266345126175598e-03 1.541978243880778e-01
1.338317753093018e-02 2.667991108327245e-02 1.146008037663795e-01
1.057097118173367e-17 1.788560545814857e-02 1.133601319504250e-01
1.342519382118609e-02 8.948232574513684e-03 1.130492953522928e-01
2.657321613894590e-02 1.776425758139517e-02 1.151730171602557e-01
1.382180367986621e-02 2.716372628088944e-02 1.543490090777266e-01
2.461138931542095e-17 1.837253493740432e-02 1.535176367877371e-01
1.381275231041018e-02 9.267040069735565e-03 1.532587314992818e-01
2.733863191135276e-02 1.838132181735428e-02 1.548193423958721e-01
2.689275572839220e-02 2.682737916391479e-02 1.355902979978625e-01
4.119968255444917e-18 2.692458192312431e-02 1.340236791152243e-01
1.116728237660070e-17 9.095340448293623e-03 1.328036299094262e-01
2.692178950978799e-02 9.080863453133046e-03 1.342382088202207e-01
2.690202480103838e-02 1.805792410739499e-02 1.349323057020089e-01
7.887570804832045e-18 1.810032104114811e-02 1.334561162749070e-01
1.360364652003079e-02 2.690028123332194e-02 1.344153338358839e-01
1.361373101280927e-02 9.091721199503475e-03 1.331622746371248e-01
1.336625813581783e-02 1.785526848896022e-02 1.138133532528827e-01
1.381090178058295e-02 1.837473165739181e-02 1.538430631897710e-01
1.359187733777383e-02 1.808972180770983e-02 1.338251636316825e-01
9.107298248878237e-18 2.675806272913937e-02 1.141238786003126e-01
-2.658140328921305e-02 2.644545614567169e-02 1.160315792645802e-01
-2.670231632640694e-02 8.922314835981814e-03 1.143810030723665e-01
1.040834085586084e-17 8.956871820690979e-03 1.126053927789349e-01
1.994931997373328e-17 2.715378116167293e-02 1.539995169726857e-01
-2.744753864110089e-02 2.719356163853902e-02 1.553974853928490e-01
-2.731386783187748e-02 9.266345126175532e-03 1.541978243880779e-01
1.344410693882025e-17 9.267271717588878e-03 1.529457005363496e-01
-1.338317753093016e-02 2.667991108327244e-02 1.146008037663795e-01
-2.657321613894589e-02 1.776425758139519e-02 1.151730171602558e-01
-1.342519382118607e-02 8.948232574513692e-03 1.130492953522928e-01
1.057097118173367e-17 1.788560545814857e-02 1.133601319504250e-01
-1.382180367986621e-02 2.716372628088945e-02 1.543490090777265e-01
-2.733863191135284e-02 1.838132181735415e-02 1.548193423958722e-01
-1.381275231041017e-02 9.267040069735536e-03 1.532587314992816e-01
2.461138931542095e-17 1.837253493740432e-02 1.535176367877371e-01
4.119968255444917e-18 2.692458192312431e-02 1.340236791152243e-01
-2.689275572839219e-02 2.682737916391482e-02 1.355902979978625e-01
-2.692178950978797e-02 9.080863453133026e-03 1.342382088202207e-01
1.116728237660070e-17 9.095340448293623e-03 1.328036299094262e-01
7.887570804832045e-18 1.810032104114811e-02 1.334561162749070e-01
-2.690202480103837e-02 1.805792410739497e-02 1.349323057020089e-01
-1.360364652003078e-02 2.690028123332192e-02 1.344153338358838e-01
-1.361373101280925e-02 9.091721199503478e-03 1.331622746371248e-01
-1.336625813581781e-02 1.785526848896023e-02 1.138133532528827e-01
-1.381090178058293e-02 1.837473165739177e-02 1.538430631897708e-01
-1.359187733777383e-02 1.808972180770982e-02 1.338251636316825e-01
2.670231632640696e-02 8.922314835981819e-03 1.143810030723665e-01
1.040834085586084e-17 8.956871820690979e-03 1.126053927789349e-01
1.019150042136374e-17 -8.956871820690996e-03 1.126053927789349e-01
2.670231632640695e-02 -8.922314835981809e-03 1.143810030723665e-01
2.731386783187743e-02 9.266345126175598e-03 1.541978243880778e-01
1.344410693882025e-17 9.267271717588878e-03 1.529457005363496e-01
6.505213034913027e-18 -9.267271717588883e-03 1.529457005363496e-01
2.731386783187748e-02 -9.266345126175609e-03 1.541978243880781e-01
1.342519382118609e-02 8.948232574513684e-03 1.130492953522928e-01
1.067939139898222e-17 -1.398620802506301e-17 1.122302750627892e-01
1.342519382118609e-02 -8.948232574513699e-03 1.130492953522928e-01
2.680118825456956e-02 1.713039432527097e-17 1.140016330325308e-01
1.381275231041018e-02 9.267040069735565e-03 1.532587314992818e-01
2.168404344971009e-18 3.252606517456513e-18 1.526372183940462e-01
1.381275231041022e-02 -9.267040069735560e-03 1.532587314992817e-01
2.732252145470795e-02 -4.683753385137379e-17 1.538762216314764e-01
2.692178950978799e-02 9.080863453133046e-03 1.342382088202207e-01
1.116728237660070e-17 9.095340448293623e-03 1.328036299094262e-01
5.963111948670274e-18 -9.095340448293635e-03 1.328036299094261e-01
2.692178950978798e-02 -9.080863453133019e-03 1.342382088202207e-01
2.693429577318866e-02 2.244298497044994e-17 1.338821342328429e-01
1.073360150760649e-17 -8.836247705756861e-18 1.324561558453949e-01
1.361373101280927e-02 9.091721199503475e-03 1.331622746371248e-01
1.361373101280927e-02 -9.091721199503480e-03 1.331622746371248e-01
1.347362543399037e-02 -8.348356728138384e-18 1.126731145552246e-01
1.381686568260143e-02 2.547875105340935e-18 1.529469692034038e-01
1.363306356465008e-02 -2.940898392866931e-18 1.328126504422568e-01
1.040834085586084e-17 8.956871820690979e-03 1.126053927789349e-01
-2.670231632640694e-02 8.922314835981814e-03 1.143810030723665e-01
-2.670231632640693e-02 -8.922314835981831e-03 1.143810030723665e-01
1.019150042136374e-17 -8.956871820690996e-03 1.126053927789349e-01
1.344410693882025e-17 9.267271717588878e-03 1.529457005363496e-01
-2.731386783187748e-02 9.266345126175532e-03 1.541978243880779e-01
-2.731386783187749e-02 -9.266345126175598e-03 1.541978243880779e-01
6.505213034913027e-18 -9.267271717588883e-03 1.529457005363496e-01
-1.342519382118607e-02 8.948232574513692e-03 1.130492953522928e-01
-2.680118825456951e-02 -8.023096076392733e-18 1.140016330325307e-01
-1.342519382118606e-02 -8.948232574513708e-03 1.130492953522928e-01
1.067939139898222e-17 -1.398620802506301e-17 1.122302750627892e-01
-1.381275231041017e-02 9.267040069735536e-03 1.532587314992816e-01
-2.732252145470797e-02 -8.673617379884035e-19 1.538762216314764e-01
-1.381275231041021e-02 -9.267040069735567e-03 1.532587314992817e-01
2.168404344971009e-18 3.252606517456513e-18 1.526372183940462e-01
1.116728237660070e-17 9.095340448293623e-03 1.328036299094262e-01
-2.692178950978797e-02 9.080863453133026e-03 1.342382088202207e-01
-2.692178950978795e-02 -9.080863453133046e-03 1.342382088202206e-01
5.963111948670274e-18 -9.095340448293635e-03 1.328036299094261e-01
1.073360150760649e-17 -8.836247705756861e-18 1.324561558453949e-01
-2.693429577318863e-02 6.830473686658678e-18 1.338821342328428e-01
-1.361373101280925e-02 9.091721199503478e-03 1.331622746371248e-01
-1.361373101280925e-02 -9.091721199503489e-03 1.331622746371248e-01
-1.347362543399034e-02 -1.013729031273947e-17 1.126731145552246e-01
-1.381686568260143e-02 -1.019150042136374e-17 1.529469692034037e-01
-1.363306356465007e-02 -2.764715539838036e-18 1.328126504422568e-01
2.670231632640695e-02 -8.922314835981809e-03 1.143810030723665e-01
1.019150042136374e-17 -8.956871820690996e-03 1.126053927789349e-01
1.301042606982605e-18 -2.675806272913940e-02 1.141238786003127e-01
2.658140328921310e-02 -2.644545614567167e-02 1.160315792645803e-01
2.731386783187748e-02 -9.266345126175609e-03 1.541978243880781e-01
6.505213034913027e-18 -9.267271717588883e-03 1.529457005363496e-01
2.775557561562891e-17 -2.715378116167291e-02 1.539995169726854e-01
2.744753864110078e-02 -2.719356163853912e-02 1.553974853928490e-01
1.342519382118609e-02 -8.948232574513699e-03 1.130492953522928e-01
8.348356728138384e-18 -1.788560545814859e-02 1.133601319504250e-01
1.338317753093019e-02 -2.667991108327247e-02 1.146008037663796e-01
2.657321613894589e-02 -1.776425758139519e-02 1.151730171602558e-01
1.381275231041022e-02 -9.267040069735560e-03 1.532587314992817e-01
1.734723475976807e-17 -1.837253493740434e-02 1.535176367877369e-01
1.382180367986619e-02 -2.716372628088944e-02 1.543490090777263e-01
2.733863191135283e-02 -1.838132181735425e-02 1.548193423958724e-01
2.692178950978798e-02 -9.080863453133019e-03 1.342382088202207e-01
5.963111948670274e-18 -9.095340448293635e-03 1.328036299094261e-01
6.938893903907228e-18 -2.692458192312433e-02 1.340236791152243e-01
2.689275572839221e-02 -2.682737916391489e-02 1.355902979978625e-01
2.690202480103837e-02 -1.805792410739501e-02 1.349323057020090e-01
2.818925648462312e-18 -1.810032104114812e-02 1.334561162749070e-01
1.361373101280927e-02 -9.091721199503480e-03 1.331622746371248e-01
1.360364652003079e-02 -2.690028123332198e-02 1.344153338358839e-01
1.336625813581783e-02 -1.785526848896024e-02 1.138133532528827e-01
1.381090178058300e-02 -1.837473165739181e-02 1.538430631897708e-01
1.359187733777384e-02 -1.808972180770984e-02 1.338251636316825e-01
1.019150042136374e-17 -8.956871820690996e-03 1.126053927789349e-01
-2.670231632640693e-02 -8.922314835981831e-03 1.143810030723665e-01
-2.658140328921305e-02 -2.644545614567169e-02 1.160315792645801e-01
1.301042606982605e-18 -2.675806272913940e-02 1.141238786003127e-01
6.505213034913027e-18 -9.267271717588883e-03 1.529457005363496e-01
-2.731386783187749e-02 -9.266345126175598e-03 1.541978243880779e-01
-2.744753864110079e-02 -2.719356163853908e-02 1.553974853928492e-01
2.775557561562891e-17 -2.715378116167291e-02 1.539995169726854e-01
-1.342519382118606e-02 -8.948232574513708e-03 1.130492953522928e-01
-2.657321613894588e-02 -1.776425758139522e-02 1.151730171602557e-01
-1.338317753093017e-02 -2.667991108327246e-02 1.146008037663796e-01
8.348356728138384e-18 -1.788560545814859e-02 1.133601319504250e-01
-1.381275231041021e-02 -9.267040069735567e-03 1.532587314992817e-01
-2.733863191135283e-02 -1.838132181735429e-02 1.548193423958723e-01
-1.382180367986615e-02 -2.716372628088947e-02 1.543490090777263e-01
1.734723475976807e-17 -1.837253493740434e-02 1.535176367877369e-01
5.963111948670274e-18 -9.095340448293635e-03 1.328036299094261e-01
-2.692178950978795e-02 -9.080863453133046e-03 1.342382088202206e-01
-2.689275572839216e-02 -2.682737916391488e-02 1.355902979978624e-01
6.938893903907228e-18 -2.692458192312433e-02 1.340236791152243e-01
2.818925648462312e-18 -1.810032104114812e-02 1.334561162749070e-01
-2.690202480103834e-02 -1.805792410739504e-02 1.349323057020089e-01
-1.361373101280925e-02 -9.091721199503489e-03 1.331622746371248e-01
-1.360364652003077e-02 -2.690028123332196e-02 1.344153338358839e-01
-1.336625813581781e-02 -1.785526848896024e-02 1.138133532528827e-01
-1.381090178058297e-02 -1.837473165739183e-02 1.538430631897708e-01
-1.359187733777382e-02 -1.808972180770985e-02 1.338251636316825e-01
        </DataArray>
        <DataArray type="Float64" Name="nodal_GL_strains_xyz" NumberOfComponents="6" format="ascii">
-4.289641996505984e-02 -4.401982483314223e-02 1.507872371319289e-01 4.437890808577634e-03 -9.058679383181839e-03 -1.069652020192475e-02
-4.805562223351820e-02 -4.980727193834537e-02 1.627142440128293e-01 4.393451173961706e-04 -9.712912036614930e-03 -8.661463862062542e-03
-4.850278248416698e-02 -4.723933024353886e-02 1.753541808403007e-01 -4.316714403082915e-04 -1.021174186102239e-03 -8.889969562351779e-03
-4.710944216468150e-02 -4.766573742059780e-02 1.625445831678679e-01 -2.593454656884927e-04 -1.031595229244152e-03 -1.206176987486173e-02
-5.042463287189936e-02 -5.083193090677923e-02 1.718698026341608e-01 4.700938758183216e-04 -1.467353641560245e-03 -3.790449090274721e-03
-5.376785854599657e-02 -5.103757346118261e-02 1.730437385515964e-01 2.343238899495903e-04 -1.802296698233015e-03 7.967118121445082e-04
-5.387093909214105e-02 -5.330759140334307e-02 1.741176268321803e-01 -8.264254186432203e-05 -2.290072797343685e-04 8.551968849163541e-04
-5.042466392605495e-02 -5.326844105557950e-02 1.729527040883064e-01 -9.162754142804950e-05 -2.047601962249910e-04 -4.049397575780211e-03
-4.675832798776659e-02 -4.981246506023611e-02 1.629432655384567e-01 -2.196725586978465e-04 -9.737382974418547e-03 4.330731931031018e-03
-4.664323872039615e-02 -4.811026027470870e-02 1.847141714005984e-01 -6.447738292150977e-04 2.493671413556006e-03 -8.791466957297168e-03
-4.814934498545224e-02 -4.723742338478885e-02 1.755921732008403e-01 2.158357201540808e-04 -1.011070855802470e-03 4.444984781175740e-03
-4.757356869155383e-02 -4.629993590827562e-02 1.713910943556394e-01 1.489010713649932e-03 2.499192885039439e-03 -1.077072125586530e-02
-5.293803953073073e-02 -5.103768997020641e-02 1.730447346160925e-01 -1.171619449748503e-04 -1.804205591630059e-03 -3.983559060721746e-04
-5.352510659145401e-02 -5.249354260285920e-02 1.742357448623648e-01 -1.152451922448529e-04 -1.882661267492650e-03 9.286931607588476e-04
-5.301449629327657e-02 -5.330729176296500e-02 1.741179860721611e-01 4.132127093218173e-05 -2.287495847472797e-04 -4.275984424582249e-04
-5.102516181799464e-02 -5.239435801346203e-02 1.731650515698219e-01 8.652267285892039e-06 -1.893672921652223e-03 -2.963351241806760e-03
-5.161963781353034e-02 -4.967017926879795e-02 1.594795363024901e-01 3.108141495196096e-04 -1.638366750986215e-03 -2.381887551311244e-03
-5.108939388948218e-02 -5.223458103566739e-02 1.701859337115481e-01 -4.362350901919522e-04 -2.802951286661206e-03 4.087725272867220e-03
-5.164215111333286e-02 -5.145465952837523e-02 1.804963678480946e-01 -5.324537814900431e-05 2.870305307566232e-04 4.108431147113425e-03
-5.288141108729757e-02 -5.149701678222993e-02 1.697087016545111e-01 3.068973889240186e-04 3.410680762532267e-04 -3.755111868245136e-03
-5.137104575819790e-02 -5.087397735749032e-02 1.652814180947365e-01 9.513326104474517e-04 -3.488550624758409e-03 -3.395428557310037e-03
-5.115381024896989e-02 -5.176267281228950e-02 1.758358045422481e-01 -2.992542585954489e-04 -3.543135605533944e-03 3.406853903860683e-03
-5.125094909524616e-02 -5.223404653231681e-02 1.701539237487323e-01 2.181175450958161e-04 -2.800170878520512e-03 -2.043862636433468e-03
-5.198133670182845e-02 -5.145502950087846e-02 1.804696680752424e-01 2.662268907460669e-05 2.853927366513993e-04 -2.054215573556756e-03
-4.688350019275146e-02 -4.811118870262820e-02 1.849590295972030e-01 3.223869146074901e-04 2.514256480956190e-03 4.395733478648614e-03
-5.290505007578797e-02 -5.249351399041147e-02 1.742365446990782e-01 5.762259612256799e-05 -1.882328712987615e-03 -4.643465803790328e-04
-5.123476408758756e-02 -5.176284646601877e-02 1.758117794384205e-01 1.496271292976713e-04 -3.545380070860984e-03 -1.703426951930581e-03
-4.675832798776659e-02 -4.981246506023611e-02 1.629432655384567e-01 -2.196725586978465e-04 -9.737382974418547e-03 4.330731931031018e-03
-4.033180618810651e-02 -3.822199148416225e-02 1.384021871997738e-01 -9.317370625124041e-03 -8.355504854146817e-03 3.012610379911153e-02
-4.642297684261779e-02 -4.809595831518154e-02 1.492590007743448e-01 9.516996117154597e-04 -1.062222932992228e-03 3.310123427169085e-02
-4.814934498545224e-02 -4.723742338478885e-02 1.755921732008403e-01 2.158357201540808e-04 -1.011070855802470e-03 4.444984781175740e-03
-5.293803953073073e-02 -5.103768997020641e-02 1.730447346160925e-01 -1.171619449748503e-04 -1.804205591630059e-03 -3.983559060721746e-04
-4.874104522834571e-02 -5.062605533430764e-02 1.706938745877543e-01 -1.174274944441413e-03 -1.128592798100836e-03 6.784262973889192e-03
-4.869127435771901e-02 -5.322988998855915e-02 1.717870628644824e-01 2.659046556004886e-04 -1.810285027123374e-04 7.243516366392557e-03
-5.301449629327657e-02 -5.330729176296500e-02 1.741179860721611e-01 4.132127093218173e-05 -2.287495847472797e-04 -4.275984424582249e-04
-4.805562223351820e-02 -4.980727193834537e-02 1.627142440128293e-01 4.393451173961706e-04 -9.712912036614930e-03 -8.661463862062542e-03
-4.802337571800404e-02 -4.448775468599049e-02 1.575783009174765e-01 -2.333180315093186e-03 2.463544221729121e-03 3.041424983875412e-02
-4.850278248416698e-02 -4.723933024353886e-02 1.753541808403007e-01 -4.316714403082915e-04 -1.021174186102239e-03 -8.889969562351779e-03
-4.688350019275146e-02 -4.811118870262820e-02 1.849590295972030e-01 3.223869146074901e-04 2.514256480956190e-03 4.395733478648614e-03
-5.376785854599657e-02 -5.103757346118261e-02 1.730437385515964e-01 2.343238899495903e-04 -1.802296698233015e-03 7.967118121445082e-04
-4.976533007585716e-02 -5.229523064897459e-02 1.720927586038615e-01 9.793200038083570e-05 -1.905349684818605e-03 4.997968033858138e-03
-5.387093909214105e-02 -5.330759140334307e-02 1.741176268321803e-01 -8.264254186432203e-05 -2.290072797343685e-04 8.551968849163541e-04
-5.290505007578797e-02 -5.249351399041147e-02 1.742365446990782e-01 5.762259612256799e-05 -1.882328712987615e-03 -4.643465803790328e-04
-5.125094909524616e-02 -5.223404653231681e-02 1.701539237487323e-01 2.181175450958161e-04 -2.800170878520512e-03 -2.043862636433468e-03
-5.182677132604884e-02 -4.710684650863865e-02 1.488371588190337e-01 -1.850646446778762e-04 -4.793430315925400e-04 6.871600599568767e-04
-5.344229988426640e-02 -5.153863409107455e-02 1.589744350066353e-01 -5.608148045404360e-04 3.983812099657969e-04 3.411333364486975e-03
-5.198133670182845e-02 -5.145502950087846e-02 1.804696680752424e-01 2.662268907460669e-05 2.853927366513993e-04 -2.054215573556756e-03
-5.123476408758756e-02 -5.176284646601877e-02 1.758117794384205e-01 1.496271292976713e-04 -3.545380070860984e-03 -1.703426951930581e-03
-5.142637359019382e-02 -4.998493459523468e-02 1.547750818548572e-01 -1.603440742778904e-03 -3.429476713326177e-03 3.391063078994351e-03
-5.108939388948218e-02 -5.223458103566739e-02 1.701859337115481e-01 -4.362350901919522e-04 -2.802951286661206e-03 4.087725272867220e-03
-5.164215111333286e-02 -5.145465952837523e-02 1.804963678480946e-01 -5.324537814900431e-05 2.870305307566232e-04 4.108431147113425e-03
-4.664323872039615e-02 -4.811026027470870e-02 1.847141714005984e-01 -6.447738292150977e-04 2.493671413556006e-03 -8.791466957297168e-03
-5.352510659145401e-02 -5.249354260285920e-02 1.742357448623648e-01 -1.152451922448529e-04 -1.882661267492650e-03 9.286931607588476e-04
-5.115381024896989e-02 -5.176267281228950e-02 1.758358045422481e-01 -2.992542585954489e-04 -3.543135605533944e-03 3.406853903860683e-03
-4.757356869155383e-02 -4.629993590827562e-02 1.713910943556394e-01 1.489010713649932e-03 2.499192885039439e-03 -1.077072125586530e-02
-4.664323872039615e-02 -4.811026027470870e-02 1.847141714005984e-01 -6.447738292150977e-04 2.493671413556006e-03 -8.791466957297168e-03
-4.584675973158742e-02 -4.809954580679512e-02 1.887324349437028e-01 1.290992172302411e-03 -2.956912749564348e-03 -8.743655289712845e-03
-4.776866575613948e-02 -4.628508578936552e-02 1.751889644452380e-01 -2.039169789244625e-03 -2.959823004991103e-03 -1.023075125233615e-02
-5.102516181799464e-02 -5.239435801346203e-02 1.731650515698219e-01 8.652267285892039e-06 -1.893672921652223e-03 -2.963351241806760e-03
-5.352510659145401e-02 -5.249354260285920e-02 1.742357448623648e-01 -1.152451922448529e-04 -1.882661267492650e-03 9.286931607588476e-04
-5.337693449506234e-02 -5.248426456541953e-02 1.742862816223830e-01 2.348518591515568e-04 2.995718977186925e-03 9.602494780261406e-04
-5.128217193709090e-02 -5.238573463250929e-02 1.732548631648848e-01 5.569970746274696e-05 2.994123294605342e-03 -2.497759800199100e-03
-4.688350019275146e-02 -4.811118870262820e-02 1.849590295972030e-01 3.223869146074901e-04 2.514256480956190e-03 4.395733478648614e-03
-4.850278248416698e-02 -4.723933024353886e-02 1.753541808403007e-01 -4.316714403082915e-04 -1.021174186102239e-03 -8.889969562351779e-03
-4.634162681850717e-02 -4.809914231998533e-02 1.889807961567310e-01 -6.454960861508585e-04 -2.995477705405556e-03 4.371827644856652e-03
-4.710944216468150e-02 -4.766573742059780e-02 1.625445831678679e-01 -2.593454656884927e-04 -1.031595229244152e-03 -1.206176987486173e-02
-5.290505007578797e-02 -5.249351399041147e-02 1.742365446990782e-01 5.762259612256799e-05 -1.882328712987615e-03 -4.643465803790328e-04
-5.387093909214105e-02 -5.330759140334307e-02 1.741176268321803e-01 -8.264254186432203e-05 -2.290072797343685e-04 8.551968849163541e-04
-5.285814347188391e-02 -5.248391994807962e-02 1.742874879339084e-01 -1.174259295759072e-04 2.995004358735841e-03 -4.801247390129816e-04
-5.042466392605495e-02 -5.326844105557950e-02 1.729527040883064e-01 -9.162754142804950e-05 -2.047601962249910e-04 -4.049397575780211e-03
-5.137104575819790e-02 -5.087397735749032e-02 1.652814180947365e-01 9.513326104474517e-04 -3.488550624758409e-03 -3.395428557310037e-03
-5.115381024896989e-02 -5.176267281228950e-02 1.758358045422481e-01 -2.992542585954489e-04 -3.543135605533944e-03 3.406853903860683e-03
-5.094453321358582e-02 -5.174879053391507e-02 1.738398767334338e-01 4.887580728267767e-04 5.101076922951628e-03 3.106031576552029e-03
-5.072443097213437e-02 -5.085759000064489e-02 1.633883375725840e-01 -1.657122860335268e-03 4.978952330255028e-03 -3.239423906594617e-03
-5.288141108729757e-02 -5.149701678222993e-02 1.697087016545111e-01 3.068973889240186e-04 3.410680762532267e-04 -3.755111868245136e-03
-5.164215111333286e-02 -5.145465952837523e-02 1.804963678480946e-01 -5.324537814900431e-05 2.870305307566232e-04 4.108431147113425e-03
-5.123476408758756e-02 -5.176284646601877e-02 1.758117794384205e-01 1.496271292976713e-04 -3.545380070860984e-03 -1.703426951930581e-03
-5.091485376278766e-02 -5.174943184184102e-02 1.738165363133988e-01 -2.443790364133189e-04 5.105679705377392e-03 -1.553015788276076e-03
-4.814934498545224e-02 -4.723742338478885e-02 1.755921732008403e-01 2.158357201540808e-04 -1.011070855802470e-03 4.444984781175740e-03
-5.301449629327657e-02 -5.330729176296500e-02 1.741179860721611e-01 4.132127093218173e-05 -2.287495847472797e-04 -4.275984424582249e-04
-5.198133670182845e-02 -5.145502950087846e-02 1.804696680752424e-01 2.662268907460669e-05 2.853927366513993e-04 -2.054215573556756e-03
-4.688350019275146e-02 -4.811118870262820e-02 1.849590295972030e-01 3.223869146074901e-04 2.514256480956190e-03 4.395733478648614e-03
-4.802337571800404e-02 -4.448775468599049e-02 1.575783009174765e-01 -2.333180315093186e-03 2.463544221729121e-03 3.041424983875412e-02
-4.870083760686159e-02 -4.447143274552900e-02 1.611487715207067e-01 2.786276004073331e-03 -2.885603348728795e-03 2.928373894466908e-02
-4.634162681850717e-02 -4.809914231998533e-02 1.889807961567310e-01 -6.454960861508585e-04 -2.995477705405556e-03 4.371827644856652e-03
-5.290505007578797e-02 -5.249351399041147e-02 1.742365446990782e-01 5.762259612256799e-05 -1.882328712987615e-03 -4.643465803790328e-04
-4.976533007585716e-02 -5.229523064897459e-02 1.720927586038615e-01 9.793200038083570e-05 -1.905349684818605e-03 4.997968033858138e-03
-5.022499142548165e-02 -5.228789393428118e-02 1.722210320843029e-01 -3.462389942109154e-04 2.993956848920907e-03 4.035254403665264e-03
-5.285814347188391e-02 -5.248391994807962e-02 1.742874879339084e-01 -1.174259295759072e-04 2.995004358735841e-03 -4.801247390129816e-04
-4.664323872039615e-02 -4.811026027470870e-02 1.847141714005984e-01 -6.447738292150977e-04 2.493671413556006e-03 -8.791466957297168e-03
-4.642297684261779e-02 -4.809595831518154e-02 1.492590007743448e-01 9.516996117154597e-04 -1.062222932992228e-03 3.310123427169085e-02
-4.584675973158742e-02 -4.809954580679512e-02 1.887324349437028e-01 1.290992172302411e-03 -2.956912749564348e-03 -8.743655289712845e-03
-4.814934498545224e-02 -4.723742338478885e-02 1.755921732008403e-01 2.158357201540808e-04 -1.011070855802470e-03 4.444984781175740e-03
-5.352510659145401e-02 -5.249354260285920e-02 1.742357448623648e-01 -1.152451922448529e-04 -1.882661267492650e-03 9.286931607588476e-04
-4.869127435771901e-02 -5.322988998855915e-02 1.717870628644824e-01 2.659046556004886e-04 -1.810285027123374e-04 7.243516366392557e-03
-5.337693449506234e-02 -5.248426456541953e-02 1.742862816223830e-01 2.348518591515568e-04 2.995718977186925e-03 9.602494780261406e-04
-5.301449629327657e-02 -5.330729176296500e-02 1.741179860721611e-01 4.132127093218173e-05 -2.287495847472797e-04 -4.275984424582249e-04
-5.123476408758756e-02 -5.176284646601877e-02 1.758117794384205e-01 1.496271292976713e-04 -3.545380070860984e-03 -1.703426951930581e-03
-5.142637359019382e-02 -4.998493459523468e-02 1.547750818548572e-01 -1.603440742778904e-03 -3.429476713326177e-03 3.391063078994351e-03
-5.056368763228306e-02 -4.996510685151833e-02 1.529834792518245e-01 2.825715767811281e-03 4.847622172701946e-03 3.378840662517136e-03
-5.091485376278766e-02 -5.174943184184102e-02 1.738165363133988e-01 -2.443790364133189e-04 5.105679705377392e-03 -1.553015788276076e-03
-5.198133670182845e-02 -5.145502950087846e-02 1.804696680752424e-01 2.662268907460669e-05 2.853927366513993e-04 -2.054215573556756e-03
-5.344229988426640e-02 -5.153863409107455e-02 1.589744350066353e-01 -5.608148045404360e-04 3.983812099657969e-04 3.411333364486975e-03
-5.115381024896989e-02 -5.176267281228950e-02 1.758358045422481e-01 -2.992542585954489e-04 -3.543135605533944e-03 3.406853903860683e-03
-5.094453321358582e-02 -5.174879053391507e-02 1.738398767334338e-01 4.887580728267767e-04 5.101076922951628e-03 3.106031576552029e-03
-4.850278248416698e-02 -4.723933024353886e-02 1.753541808403007e-01 -4.316714403082915e-04 -1.021174186102239e-03 -8.889969562351779e-03
-5.387093909214105e-02 -5.330759140334307e-02 1.741176268321803e-01 -8.264254186432203e-05 -2.290072797343685e-04 8.551968849163541e-04
-5.164215111333286e-02 -5.145465952837523e-02 1.804963678480946e-01 -5.324537814900431e-05 2.870305307566232e-04 4.108431147113425e-03
-4.710944216468150e-02 -4.766573742059780e-02 1.625445831678679e-01 -2.593454656884927e-04 -1.031595229244152e-03 -1.206176987486173e-02
-4.850278248416698e-02 -4.723933024353886e-02 1.753541808403007e-01 -4.316714403082915e-04 -1.021174186102239e-03 -8.889969562351779e-03
-5.026518156207468e-02 -5.097743979611610e-02 1.366946455489199e-01 -8.758012070459208e-04 2.348668422834390e-02 -8.573209105338589e-03
-3.801978742537196e-02 -4.255325461784387e-02 1.263839989658614e-01 -6.998078341038774e-03 2.219448429654301e-02 -1.117748201156970e-02
-5.042466392605495e-02 -5.326844105557950e-02 1.729527040883064e-01 -9.162754142804950e-05 -2.047601962249910e-04 -4.049397575780211e-03
-5.387093909214105e-02 -5.330759140334307e-02 1.741176268321803e-01 -8.264254186432203e-05 -2.290072797343685e-04 8.551968849163541e-04
-5.415884531815063e-02 -5.006632238481545e-02 1.718010823522313e-01 -4.599248305647810e-04 2.065386280866333e-03 6.332071588963711e-04
-4.956666580862384e-02 -4.979050427298423e-02 1.704831551789912e-01 -7.941792675569199e-04 1.348262185706441e-03 -5.083003065028757e-03
-4.814934498545224e-02 -4.723742338478885e-02 1.755921732008403e-01 2.158357201540808e-04 -1.011070855802470e-03 4.444984781175740e-03
-4.584675973158742e-02 -4.809954580679512e-02 1.887324349437028e-01 1.290992172302411e-03 -2.956912749564348e-03 -8.743655289712845e-03
-4.717584074753525e-02 -5.098466367408025e-02 1.369051481138187e-01 4.379006035222253e-04 2.354083646183765e-02 4.286604552669420e-03
-4.776866575613948e-02 -4.628508578936552e-02 1.751889644452380e-01 -2.039169789244625e-03 -2.959823004991103e-03 -1.023075125233615e-02
-5.301449629327657e-02 -5.330729176296500e-02 1.741179860721611e-01 4.132127093218173e-05 -2.287495847472797e-04 -4.275984424582249e-04
-5.337693449506234e-02 -5.248426456541953e-02 1.742862816223830e-01 2.348518591515568e-04 2.995718977186925e-03 9.602494780261406e-04
-5.301792915914670e-02 -5.006629499660639e-02 1.718021798351732e-01 2.299624152829719e-04 2.069105048790993e-03 -3.166035794477818e-04
-5.128217193709090e-02 -5.238573463250929e-02 1.732548631648848e-01 5.569970746274696e-05 2.994123294605342e-03 -2.497759800199100e-03
-5.288141108729757e-02 -5.149701678222993e-02 1.697087016545111e-01 3.068973889240186e-04 3.410680762532267e-04 -3.755111868245136e-03
-5.164215111333286e-02 -5.145465952837523e-02 1.804963678480946e-01 -5.324537814900431e-05 2.870305307566232e-04 4.108431147113425e-03
-5.123425480879273e-02 -5.251612837733399e-02 1.665328758952422e-01 6.529692916507973e-04 1.635513997084583e-03 5.069243174875026e-03
-5.251565944701495e-02 -4.883364989220804e-02 1.555746935428244e-01 -1.305435779256948e-04 -7.195643365333127e-04 -1.522364503638858e-03
-5.072443097213437e-02 -5.085759000064489e-02 1.633883375725840e-01 -1.657122860335268e-03 4.978952330255028e-03 -3.239423906594617e-03
-5.094453321358582e-02 -5.174879053391507e-02 1.738398767334338e-01 4.887580728267767e-04 5.101076922951628e-03 3.106031576552029e-03
-5.198133670182845e-02 -5.145502950087846e-02 1.804696680752424e-01 2.662268907460669e-05 2.853927366513993e-04 -2.054215573556756e-03
-5.158712891013711e-02 -5.251519056986206e-02 1.664916998038334e-01 -3.264846458253490e-04 1.630180884348286e-03 -2.534621587437390e-03
-4.634162681850717e-02 -4.809914231998533e-02 1.889807961567310e-01 -6.454960861508585e-04 -2.995477705405556e-03 4.371827644856652e-03
-5.285814347188391e-02 -5.248391994807962e-02 1.742874879339084e-01 -1.174259295759072e-04 2.995004358735841e-03 -4.801247390129816e-04
-5.091485376278766e-02 -5.174943184184102e-02 1.738165363133988e-01 -2.443790364133189e-04 5.105679705377392e-03 -1.553015788276076e-03
-4.814934498545224e-02 -4.723742338478885e-02 1.755921732008403e-01 2.158357201540808e-04 -1.011070855802470e-03 4.444984781175740e-03
-4.642297684261779e-02 -4.809595831518154e-02 1.492590007743448e-01 9.516996117154597e-04 -1.062222932992228e-03 3.310123427169085e-02
-3.195307491772544e-02 -3.411462168366201e-02 1.156523472529898e-01 1.487457199802860e-02 2.079397989771686e-02 3.099275737808189e-02
-4.717584074753525e-02 -5.098466367408025e-02 1.369051481138187e-01 4.379006035222253e-04 2.354083646183765e-02 4.286604552669420e-03
-5.301449629327657e-02 -5.330729176296500e-02 1.741179860721611e-01 4.132127093218173e-05 -2.287495847472797e-04 -4.275984424582249e-04
-4.869127435771901e-02 -5.322988998855915e-02 1.717870628644824e-01 2.659046556004886e-04 -1.810285027123374e-04 7.243516366392557e-03
-4.725631861710733e-02 -4.951474093755026e-02 1.691630330399163e-01 2.047799901984599e-03 6.237005547073057e-04 9.532970135256849e-03
-5.301792915914670e-02 -5.006629499660639e-02 1.718021798351732e-01 2.299624152829719e-04 2.069105048790993e-03 -3.166035794477818e-04
-4.850278248416698e-02 -4.723933024353886e-02 1.753541808403007e-01 -4.316714403082915e-04 -1.021174186102239e-03 -8.889969562351779e-03
-4.870083760686159e-02 -4.447143274552900e-02 1.611487715207067e-01 2.786276004073331e-03 -2.885603348728795e-03 2.928373894466908e-02
-5.026518156207468e-02 -5.097743979611610e-02 1.366946455489199e-01 -8.758012070459208e-04 2.348668422834390e-02 -8.573209105338589e-03
-4.634162681850717e-02 -4.809914231998533e-02 1.889807961567310e-01 -6.454960861508585e-04 -2.995477705405556e-03 4.371827644856652e-03
-5.387093909214105e-02 -5.330759140334307e-02 1.741176268321803e-01 -8.264254186432203e-05 -2.290072797343685e-04 8.551968849163541e-04
-5.022499142548165e-02 -5.228789393428118e-02 1.722210320843029e-01 -3.462389942109154e-04 2.993956848920907e-03 4.035254403665264e-03
-5.415884531815063e-02 -5.006632238481545e-02 1.718010823522313e-01 -4.599248305647810e-04 2.065386280866333e-03 6.332071588963711e-04
-5.285814347188391e-02 -5.248391994807962e-02 1.742874879339084e-01 -1.174259295759072e-04 2.995004358735841e-03 -4.801247390129816e-04
-5.198133670182845e-02 -5.145502950087846e-02 1.804696680752424e-01 2.662268907460669e-05 2.853927366513993e-04 -2.054215573556756e-03
-5.344229988426640e-02 -5.153863409107455e-02 1.589744350066353e-01 -5.608148045404360e-04 3.983812099657969e-04 3.411333364486975e-03
-5.309131588252776e-02 -4.515304702205884e-02 1.446988633731934e-01 -3.922021461432934e-04 -3.063976444652884e-03 -2.008304365938897e-03
-5.158712891013711e-02 -5.251519056986206e-02 1.664916998038334e-01 -3.264846458253490e-04 1.630180884348286e-03 -2.534621587437390e-03
-5.091485376278766e-02 -5.174943184184102e-02 1.738165363133988e-01 -2.443790364133189e-04 5.105679705377392e-03 -1.553015788276076e-03
-5.056368763228306e-02 -4.996510685151833e-02 1.529834792518245e-01 2.825715767811281e-03 4.847622172701946e-03 3.378840662517136e-03
-5.164215111333286e-02 -5.145465952837523e-02 1.804963678480946e-01 -5.324537814900431e-05 2.870305307566232e-04 4.108431147113425e-03
-5.123425480879273e-02 -5.251612837733399e-02 1.665328758952422e-01 6.529692916507973e-04 1.635513997084583e-03 5.069243174875026e-03
-4.584675973158742e-02 -4.809954580679512e-02 1.887324349437028e-01 1.290992172302411e-03 -2.956912749564348e-03 -8.743655289712845e-03
-5.337693449506234e-02 -5.248426456541953e-02 1.742862816223830e-01 2.348518591515568e-04 2.995718977186925e-03 9.602494780261406e-04
-5.094453321358582e-02 -5.174879053391507e-02 1.738398767334338e-01 4.887580728267767e-04 5.101076922951628e-03 3.106031576552029e-03
-5.161963781353034e-02 -4.967017926879795e-02 1.594795363024901e-01 3.108141495196096e-04 -1.638366750986215e-03 -2.381887551311244e-03
-5.108939388948218e-02 -5.223458103566739e-02 1.701859337115481e-01 -4.362350901919522e-04 -2.802951286661206e-03 4.087725272867220e-03
-5.164215111333286e-02 -5.145465952837523e-02 1.804963678480946e-01 -5.324537814900431e-05 2.870305307566232e-04 4.108431147113425e-03
-5.288141108729757e-02 -5.149701678222993e-02 1.697087016545111e-01 3.068973889240186e-04 3.410680762532267e-04 -3.755111868245136e-03
-5.483185187690341e-02 -5.038275630135244e-02 1.744938437434423e-01 -1.454498547025880e-03 -6.452985832697336e-04 4.202748584497414e-04
-5.449041159785808e-02 -4.970939275087197e-02 1.736393188613516e-01 -3.984324502125610e-04 -2.567625819123809e-04 1.644638984710239e-03
-5.479453099601532e-02 -5.602513252405968e-02 1.740299769874100e-01 1.144396866639290e-04 -3.400934854175390e-04 1.162135557788187e-03
-5.350762696551064e-02 -5.597452603757538e-02 1.745009983012731e-01 2.498600895698617e-04 -2.888706457025861e-04 4.542397776142631e-04
-5.125094909524616e-02 -5.223404653231681e-02 1.701539237487323e-01 2.181175450958161e-04 -2.800170878520512e-03 -2.043862636433468e-03
-5.115381024896989e-02 -5.176267281228950e-02 1.758358045422481e-01 -2.992542585954489e-04 -3.543135605533944e-03 3.406853903860683e-03
-5.198133670182845e-02 -5.145502950087846e-02 1.804696680752424e-01 2.662268907460669e-05 2.853927366513993e-04 -2.054215573556756e-03
-5.137104575819790e-02 -5.087397735749032e-02 1.652814180947365e-01 9.513326104474517e-04 -3.488550624758409e-03 -3.395428557310037e-03
-5.457867617279246e-02 -4.970975282447999e-02 1.736342229627948e-01 1.992162251065075e-04 -2.551260342793051e-04 -8.223194923554007e-04
-5.507098030519071e-02 -5.377273883773219e-02 1.728205367811692e-01 1.191339580184433e-05 -4.885664586681052e-04 7.780438530891017e-04
-5.447575612863692e-02 -5.602518948508566e-02 1.740265270703447e-01 -5.721984333212049e-05 -3.402415157416835e-04 -5.810677788945736e-04
-5.282247804691888e-02 -5.397946785271339e-02 1.733870428178677e-01 -1.231159726384325e-04 -6.757703102985440e-04 -6.980159176665677e-04
-5.042463287189936e-02 -5.083193090677923e-02 1.718698026341608e-01 4.700938758183216e-04 -1.467353641560245e-03 -3.790449090274721e-03
-5.376785854599657e-02 -5.103757346118261e-02 1.730437385515964e-01 2.343238899495903e-04 -1.802296698233015e-03 7.967118121445082e-04
-5.387093909214105e-02 -5.330759140334307e-02 1.741176268321803e-01 -8.264254186432203e-05 -2.290072797343685e-04 8.551968849163541e-04
-5.042466392605495e-02 -5.326844105557950e-02 1.729527040883064e-01 -9.162754142804950e-05 -2.047601962249910e-04 -4.049397575780211e-03
-5.102516181799464e-02 -5.239435801346203e-02 1.731650515698219e-01 8.652267285892039e-06 -1.893672921652223e-03 -2.963351241806760e-03
-5.352510659145401e-02 -5.249354260285920e-02 1.742357448623648e-01 -1.152451922448529e-04 -1.882661267492650e-03 9.286931607588476e-04
-5.293803953073073e-02 -5.103768997020641e-02 1.730447346160925e-01 -1.171619449748503e-04 -1.804205591630059e-03 -3.983559060721746e-04
-5.301449629327657e-02 -5.330729176296500e-02 1.741179860721611e-01 4.132127093218173e-05 -2.287495847472797e-04 -4.275984424582249e-04
-5.123476408758756e-02 -5.176284646601877e-02 1.758117794384205e-01 1.496271292976713e-04 -3.545380070860984e-03 -1.703426951930581e-03
-5.451251998009585e-02 -5.377277415163843e-02 1.728199142533339e-01 -5.956697901273713e-06 -4.884505496349038e-04 -3.890219265450655e-04
-5.290505007578797e-02 -5.249351399041147e-02 1.742365446990782e-01 5.762259612256799e-05 -1.882328712987615e-03 -4.643465803790328e-04
-5.125094909524616e-02 -5.223404653231681e-02 1.701539237487323e-01 2.181175450958161e-04 -2.800170878520512e-03 -2.043862636433468e-03
-5.182677132604884e-02 -4.710684650863865e-02 1.488371588190337e-01 -1.850646446778762e-04 -4.793430315925400e-04 6.871600599568767e-04
-5.344229988426640e-02 -5.153863409107455e-02 1.589744350066353e-01 -5.608148045404360e-04 3.983812099657969e-04 3.411333364486975e-03
-5.198133670182845e-02 -5.145502950087846e-02 1.804696680752424e-01 2.662268907460669e-05 2.853927366513993e-04 -2.054215573556756e-03
-5.457867617279246e-02 -4.970975282447999e-02 1.736342229627948e-01 1.992162251065075e-04 -2.551260342793051e-04 -8.223194923554007e-04
-5.499676300608602e-02 -5.105539970465112e-02 1.753585604225580e-01 3.307285730346654e-03 -1.037107679896898e-03 -2.484833899872896e-03
-5.285827266977049e-02 -5.592380562904264e-02 1.749789194493304e-01 -6.141053348696049e-04 -2.373517453285578e-04 -2.070169357317294e-03
-5.447575612863692e-02 -5.602518948508566e-02 1.740265270703447e-01 -5.721984333212049e-05 -3.402415157416835e-04 -5.810677788945736e-04
-5.108939388948218e-02 -5.223458103566739e-02 1.701859337115481e-01 -4.362350901919522e-04 -2.802951286661206e-03 4.087725272867220e-03
-5.142637359019382e-02 -4.998493459523468e-02 1.547750818548572e-01 -1.603440742778904e-03 -3.429476713326177e-03 3.391063078994351e-03
-5.164215111333286e-02 -5.145465952837523e-02 1.804963678480946e-01 -5.324537814900431e-05 2.870305307566232e-04 4.108431147113425e-03
-5.123476408758756e-02 -5.176284646601877e-02 1.758117794384205e-01 1.496271292976713e-04 -3.545380070860984e-03 -1.703426951930581e-03
-5.449041159785808e-02 -4.970939275087197e-02 1.736393188613516e-01 -3.984324502125610e-04 -2.567625819123809e-04 1.644638984710239e-03
-5.169089643883262e-02 -5.418612623987357e-02 1.739547939100879e-01 2.343432249738779e-04 -8.632059799971669e-04 6.181393044910723e-04
-5.479453099601532e-02 -5.602513252405968e-02 1.740299769874100e-01 1.144396866639290e-04 -3.400934854175390e-04 1.162135557788187e-03
-5.451251998009585e-02 -5.377277415163843e-02 1.728199142533339e-01 -5.956697901273713e-06 -4.884505496349038e-04 -3.890219265450655e-04
-5.293803953073073e-02 -5.103768997020641e-02 1.730447346160925e-01 -1.171619449748503e-04 -1.804205591630059e-03 -3.983559060721746e-04
-4.874104522834571e-02 -5.062605533430764e-02 1.706938745877543e-01 -1.174274944441413e-03 -1.128592798100836e-03 6.784262973889192e-03
-4.869127435771901e-02 -5.322988998855915e-02 1.717870628644824e-01 2.659046556004886e-04 -1.810285027123374e-04 7.243516366392557e-03
-5.301449629327657e-02 -5.330729176296500e-02 1.741179860721611e-01 4.132127093218173e-05 -2.287495847472797e-04 -4.275984424582249e-04
-5.290505007578797e-02 -5.249351399041147e-02 1.742365446990782e-01 5.762259612256799e-05 -1.882328712987615e-03 -4.643465803790328e-04
-4.976533007585716e-02 -5.229523064897459e-02 1.720927586038615e-01 9.793200038083570e-05 -1.905349684818605e-03 4.997968033858138e-03
-5.376785854599657e-02 -5.103757346118261e-02 1.730437385515964e-01 2.343238899495903e-04 -1.802296698233015e-03 7.967118121445082e-04
-5.387093909214105e-02 -5.330759140334307e-02 1.741176268321803e-01 -8.264254186432203e-05 -2.290072797343685e-04 8.551968849163541e-04
-5.115381024896989e-02 -5.176267281228950e-02 1.758358045422481e-01 -2.992542585954489e-04 -3.543135605533944e-03 3.406853903860683e-03
-5.507098030519071e-02 -5.377273883773219e-02 1.728205367811692e-01 1.191339580184433e-05 -4.885664586681052e-04 7.780438530891017e-04
-5.352510659145401e-02 -5.249354260285920e-02 1.742357448623648e-01 -1.152451922448529e-04 -1.882661267492650e-03 9.286931607588476e-04
-5.137104575819790e-02 -5.087397735749032e-02 1.652814180947365e-01 9.513326104474517e-04 -3.488550624758409e-03 -3.395428557310037e-03
-5.115381024896989e-02 -5.176267281228950e-02 1.758358045422481e-01 -2.992542585954489e-04 -3.543135605533944e-03 3.406853903860683e-03
-5.094453321358582e-02 -5.174879053391507e-02 1.738398767334338e-01 4.887580728267767e-04 5.101076922951628e-03 3.106031576552029e-03
-5.072443097213437e-02 -5.085759000064489e-02 1.633883375725840e-01 -1.657122860335268e-03 4.978952330255028e-03 -3.239423906594617e-03
-5.282247804691888e-02 -5.397946785271339e-02 1.733870428178677e-01 -1.231159726384325e-04 -6.757703102985440e-04 -6.980159176665677e-04
-5.507098030519071e-02 -5.377273883773219e-02 1.728205367811692e-01 1.191339580184433e-05 -4.885664586681052e-04 7.780438530891017e-04
-5.518943787279079e-02 -5.376793129909813e-02 1.723014667859308e-01 -1.037023488884078e-04 9.879273242722512e-04 6.132040454634082e-04
-5.252871792337468e-02 -5.397353091274451e-02 1.729090421990979e-01 -2.702913877297881e-06 1.230356873786729e-03 -1.192386812846226e-03
-5.123476408758756e-02 -5.176284646601877e-02 1.758117794384205e-01 1.496271292976713e-04 -3.545380070860984e-03 -1.703426951930581e-03
-5.164215111333286e-02 -5.145465952837523e-02 1.804963678480946e-01 -5.324537814900431e-05 2.870305307566232e-04 4.108431147113425e-03
-5.091485376278766e-02 -5.174943184184102e-02 1.738165363133988e-01 -2.443790364133189e-04 5.105679705377392e-03 -1.553015788276076e-03
-5.288141108729757e-02 -5.149701678222993e-02 1.697087016545111e-01 3.068973889240186e-04 3.410680762532267e-04 -3.755111868245136e-03
-5.451251998009585e-02 -5.377277415163843e-02 1.728199142533339e-01 -5.956697901273713e-06 -4.884505496349038e-04 -3.890219265450655e-04
-5.479453099601532e-02 -5.602513252405968e-02 1.740299769874100e-01 1.144396866639290e-04 -3.400934854175390e-04 1.162135557788187e-03
-5.452830140306032e-02 -5.376804549024428e-02 1.723020258175493e-01 5.185117444506372e-05 9.878568758282884e-04 -3.066020227308164e-04
-5.350762696551064e-02 -5.597452603757538e-02 1.745009983012731e-01 2.498600895698617e-04 -2.888706457025861e-04 4.542397776142631e-04
-5.102516181799464e-02 -5.239435801346203e-02 1.731650515698219e-01 8.652267285892039e-06 -1.893672921652223e-03 -2.963351241806760e-03
-5.352510659145401e-02 -5.249354260285920e-02 1.742357448623648e-01 -1.152451922448529e-04 -1.882661267492650e-03 9.286931607588476e-04
-5.337693449506234e-02 -5.248426456541953e-02 1.742862816223830e-01 2.348518591515568e-04 2.995718977186925e-03 9.602494780261406e-04
-5.128217193709090e-02 -5.238573463250929e-02 1.732548631648848e-01 5.569970746274696e-05 2.994123294605342e-03 -2.497759800199100e-03
-5.042466392605495e-02 -5.326844105557950e-02 1.729527040883064e-01 -9.162754142804950e-05 -2.047601962249910e-04 -4.049397575780211e-03
-5.387093909214105e-02 -5.330759140334307e-02 1.741176268321803e-01 -8.264254186432203e-05 -2.290072797343685e-04 8.551968849163541e-04
-5.290505007578797e-02 -5.249351399041147e-02 1.742365446990782e-01 5.762259612256799e-05 -1.882328712987615e-03 -4.643465803790328e-04
-5.285814347188391e-02 -5.248391994807962e-02 1.742874879339084e-01 -1.174259295759072e-04 2.995004358735841e-03 -4.801247390129816e-04
-5.198133670182845e-02 -5.145502950087846e-02 1.804696680752424e-01 2.662268907460669e-05 2.853927366513993e-04 -2.054215573556756e-03
-5.447575612863692e-02 -5.602518948508566e-02 1.740265270703447e-01 -5.721984333212049e-05 -3.402415157416835e-04 -5.810677788945736e-04
-5.301449629327657e-02 -5.330729176296500e-02 1.741179860721611e-01 4.132127093218173e-05 -2.287495847472797e-04 -4.275984424582249e-04
-5.123476408758756e-02 -5.176284646601877e-02 1.758117794384205e-01 1.496271292976713e-04 -3.545380070860984e-03 -1.703426951930581e-03
-5.142637359019382e-02 -4.998493459523468e-02 1.547750818548572e-01 -1.603440742778904e-03 -3.429476713326177e-03 3.391063078994351e-03
-5.056368763228306e-02 -4.996510685151833e-02 1.529834792518245e-01 2.825715767811281e-03 4.847622172701946e-03 3.378840662517136e-03
-5.091485376278766e-02 -5.174943184184102e-02 1.738165363133988e-01 -2.443790364133189e-04 5.105679705377392e-03 -1.553015788276076e-03
-5.451251998009585e-02 -5.377277415163843e-02 1.728199142533339e-01 -5.956697901273713e-06 -4.884505496349038e-04 -3.890219265450655e-04
-5.169089643883262e-02 -5.418612623987357e-02 1.739547939100879e-01 2.343432249738779e-04 -8.632059799971669e-04 6.181393044910723e-04
-5.119027091344197e-02 -5.417890214405441e-02 1.735154995490165e-01 1.090283132742987e-04 1.472927320189115e-03 1.771552487042236e-03
-5.452830140306032e-02 -5.376804549024428e-02 1.723020258175493e-01 5.185117444506372e-05 9.878568758282884e-04 -3.066020227308164e-04
-5.115381024896989e-02 -5.176267281228950e-02 1.758358045422481e-01 -2.992542585954489e-04 -3.543135605533944e-03 3.406853903860683e-03
-5.344229988426640e-02 -5.153863409107455e-02 1.589744350066353e-01 -5.608148045404360e-04 3.983812099657969e-04 3.411333364486975e-03
-5.094453321358582e-02 -5.174879053391507e-02 1.738398767334338e-01 4.887580728267767e-04 5.101076922951628e-03 3.106031576552029e-03
-5.198133670182845e-02 -5.145502950087846e-02 1.804696680752424e-01 2.662268907460669e-05 2.853927366513993e-04 -2.054215573556756e-03
-5.507098030519071e-02 -5.377273883773219e-02 1.728205367811692e-01 1.191339580184433e-05 -4.885664586681052e-04 7.780438530891017e-04
-5.285827266977049e-02 -5.592380562904264e-02 1.749789194493304e-01 -6.141053348696049e-04 -2.373517453285578e-04 -2.070169357317294e-03
-5.518943787279079e-02 -5.376793129909813e-02 1.723014667859308e-01 -1.037023488884078e-04 9.879273242722512e-04 6.132040454634082e-04
-5.447575612863692e-02 -5.602518948508566e-02 1.740265270703447e-01 -5.721984333212049e-05 -3.402415157416835e-04 -5.810677788945736e-04
-5.290505007578797e-02 -5.249351399041147e-02 1.742365446990782e-01 5.762259612256799e-05 -1.882328712987615e-03 -4.643465803790328e-04
-4.976533007585716e-02 -5.229523064897459e-02 1.720927586038615e-01 9.793200038083570e-05 -1.905349684818605e-03 4.997968033858138e-03
-5.022499142548165e-02 -5.228789393428118e-02 1.722210320843029e-01 -3.462389942109154e-04 2.993956848920907e-03 4.035254403665264e-03
-5.285814347188391e-02 -5.248391994807962e-02 1.742874879339084e-01 -1.174259295759072e-04 2.995004358735841e-03 -4.801247390129816e-04
-5.301449629327657e-02 -5.330729176296500e-02 1.741179860721611e-01 4.132127093218173e-05 -2.287495847472797e-04 -4.275984424582249e-04
-4.869127435771901e-02 -5.322988998855915e-02 1.717870628644824e-01 2.659046556004886e-04 -1.810285027123374e-04 7.243516366392557e-03
-5.352510659145401e-02 -5.249354260285920e-02 1.742357448623648e-01 -1.152451922448529e-04 -1.882661267492650e-03 9.286931607588476e-04
-5.337693449506234e-02 -5.248426456541953e-02 1.742862816223830e-01 2.348518591515568e-04 2.995718977186925e-03 9.602494780261406e-04
-5.164215111333286e-02 -5.145465952837523e-02 1.804963678480946e-01 -5.324537814900431e-05 2.870305307566232e-04 4.108431147113425e-03
-5.479453099601532e-02 -5.602513252405968e-02 1.740299769874100e-01 1.144396866639290e-04 -3.400934854175390e-04 1.162135557788187e-03
-5.387093909214105e-02 -5.330759140334307e-02 1.741176268321803e-01 -8.264254186432203e-05 -2.290072797343685e-04 8.551968849163541e-04
-5.288141108729757e-02 -5.149701678222993e-02 1.697087016545111e-01 3.068973889240186e-04 3.410680762532267e-04 -3.755111868245136e-03
-5.164215111333286e-02 -5.145465952837523e-02 1.804963678480946e-01 -5.324537814900431e-05 2.870305307566232e-04 4.108431147113425e-03
-5.123425480879273e-02 -5.251612837733399e-02 1.665328758952422e-01 6.529692916507973e-04 1.635513997084583e-03 5.069243174875026e-03
-5.251565944701495e-02 -4.883364989220804e-02 1.555746935428244e-01 -1.305435779256948e-04 -7.195643365333127e-04 -1.522364503638858e-03
-5.350762696551064e-02 -5.597452603757538e-02 1.745009983012731e-01 2.498600895698617e-04 -2.888706457025861e-04 4.542397776142631e-04
-5.479453099601532e-02 -5.602513252405968e-02 1.740299769874100e-01 1.144396866639290e-04 -3.400934854175390e-04 1.162135557788187e-03
-5.379135647034916e-02 -4.699555986031312e-02 1.749762607001073e-01 6.371137858193252e-04 5.351139777192496e-04 2.675804107167511e-03
-5.713484489063803e-02 -4.798070488491779e-02 1.760778248096870e-01 2.411127375728150e-03 1.048229672964241e-03 2.032252021075287e-03
-5.198133670182845e-02 -5.145502950087846e-02 1.804696680752424e-01 2.662268907460669e-05 2.853927366513993e-04 -2.054215573556756e-03
-5.094453321358582e-02 -5.174879053391507e-02 1.738398767334338e-01 4.887580728267767e-04 5.101076922951628e-03 3.106031576552029e-03
-5.158712891013711e-02 -5.251519056986206e-02 1.664916998038334e-01 -3.264846458253490e-04 1.630180884348286e-03 -2.534621587437390e-03
-5.072443097213437e-02 -5.085759000064489e-02 1.633883375725840e-01 -1.657122860335268e-03 4.978952330255028e-03 -3.239423906594617e-03
-5.447575612863692e-02 -5.602518948508566e-02 1.740265270703447e-01 -5.721984333212049e-05 -3.402415157416835e-04 -5.810677788945736e-04
-5.518943787279079e-02 -5.376793129909813e-02 1.723014667859308e-01 -1.037023488884078e-04 9.879273242722512e-04 6.132040454634082e-04
-5.462908490359886e-02 -4.699628923285271e-02 1.749655162884243e-01 -3.185568929104902e-04 5.321636216417992e-04 -1.337902053580987e-03
-5.252871792337468e-02 -5.397353091274451e-02 1.729090421990979e-01 -2.702913877297881e-06 1.230356873786729e-03 -1.192386812846226e-03
-5.042466392605495e-02 -5.326844105557950e-02 1.729527040883064e-01 -9.162754142804950e-05 -2.047601962249910e-04 -4.049397575780211e-03
-5.387093909214105e-02 -5.330759140334307e-02 1.741176268321803e-01 -8.264254186432203e-05 -2.290072797343685e-04 8.551968849163541e-04
-5.415884531815063e-02 -5.006632238481545e-02 1.718010823522313e-01 -4.599248305647810e-04 2.065386280866333e-03 6.332071588963711e-04
-4.956666580862384e-02 -4.979050427298423e-02 1.704831551789912e-01 -7.941792675569199e-04 1.348262185706441e-03 -5.083003065028757e-03
-5.128217193709090e-02 -5.238573463250929e-02 1.732548631648848e-01 5.569970746274696e-05 2.994123294605342e-03 -2.497759800199100e-03
-5.337693449506234e-02 -5.248426456541953e-02 1.742862816223830e-01 2.348518591515568e-04 2.995718977186925e-03 9.602494780261406e-04
-5.301449629327657e-02 -5.330729176296500e-02 1.741179860721611e-01 4.132127093218173e-05 -2.287495847472797e-04 -4.275984424582249e-04
-5.301792915914670e-02 -5.006629499660639e-02 1.718021798351732e-01 2.299624152829719e-04 2.069105048790993e-03 -3.166035794477818e-04
-5.091485376278766e-02 -5.174943184184102e-02 1.738165363133988e-01 -2.443790364133189e-04 5.105679705377392e-03 -1.553015788276076e-03
-5.452830140306032e-02 -5.376804549024428e-02 1.723020258175493e-01 5.185117444506372e-05 9.878568758282884e-04 -3.066020227308164e-04
-5.285814347188391e-02 -5.248391994807962e-02 1.742874879339084e-01 -1.174259295759072e-04 2.995004358735841e-03 -4.801247390129816e-04
-5.198133670182845e-02 -5.145502950087846e-02 1.804696680752424e-01 2.662268907460669e-05 2.853927366513993e-04 -2.054215573556756e-03
-5.344229988426640e-02 -5.153863409107455e-02 1.589744350066353e-01 -5.608148045404360e-04 3.983812099657969e-04 3.411333364486975e-03
-5.309131588252776e-02 -4.515304702205884e-02 1.446988633731934e-01 -3.922021461432934e-04 -3.063976444652884e-03 -2.008304365938897e-03
-5.158712891013711e-02 -5.251519056986206e-02 1.664916998038334e-01 -3.264846458253490e-04 1.630180884348286e-03 -2.534621587437390e-03
-5.447575612863692e-02 -5.602518948508566e-02 1.740265270703447e-01 -5.721984333212049e-05 -3.402415157416835e-04 -5.810677788945736e-04
-5.285827266977049e-02 -5.592380562904264e-02 1.749789194493304e-01 -6.141053348696049e-04 -2.373517453285578e-04 -2.070169357317294e-03
-5.880287644437576e-02 -4.896439116457652e-02 1.772008777426066e-01 -5.459141934218499e-03 1.567246080433557e-03 -6.739630360891036e-03
-5.462908490359886e-02 -4.699628923285271e-02 1.749655162884243e-01 -3.185568929104902e-04 5.321636216417992e-04 -1.337902053580987e-03
-5.164215111333286e-02 -5.145465952837523e-02 1.804963678480946e-01 -5.324537814900431e-05 2.870305307566232e-04 4.108431147113425e-03
-5.056368763228306e-02 -4.996510685151833e-02 1.529834792518245e-01 2.825715767811281e-03 4.847622172701946e-03 3.378840662517136e-03
-5.123425480879273e-02 -5.251612837733399e-02 1.665328758952422e-01 6.529692916507973e-04 1.635513997084583e-03 5.069243174875026e-03
-5.091485376278766e-02 -5.174943184184102e-02 1.738165363133988e-01 -2.443790364133189e-04 5.105679705377392e-03 -1.553015788276076e-03
-5.479453099601532e-02 -5.602513252405968e-02 1.740299769874100e-01 1.144396866639290e-04 -3.400934854175390e-04 1.162135557788187e-03
-5.119027091344197e-02 -5.417890214405441e-02 1.735154995490165e-01 1.090283132742987e-04 1.472927320189115e-03 1.771552487042236e-03
-5.379135647034916e-02 -4.699555986031312e-02 1.749762607001073e-01 6.371137858193252e-04 5.351139777192496e-04 2.675804107167511e-03
-5.452830140306032e-02 -5.376804549024428e-02 1.723020258175493e-01 5.185117444506372e-05 9.878568758282884e-04 -3.066020227308164e-04
-5.301449629327657e-02 -5.330729176296500e-02 1.741179860721611e-01 4.132127093218173e-05 -2.287495847472797e-04 -4.275984424582249e-04
-4.869127435771901e-02 -5.322988998855915e-02 1.717870628644824e-01 2.659046556004886e-04 -1.810285027123374e-04 7.243516366392557e-03
-4.725631861710733e-02 -4.951474093755026e-02 1.691630330399163e-01 2.047799901984599e-03 6.237005547073057e-04 9.532970135256849e-03
-5.301792915914670e-02 -5.006629499660639e-02 1.718021798351732e-01 2.299624152829719e-04 2.069105048790993e-03 -3.166035794477818e-04
-5.285814347188391e-02 -5.248391994807962e-02 1.742874879339084e-01 -1.174259295759072e-04 2.995004358735841e-03 -4.801247390129816e-04
-5.022499142548165e-02 -5.228789393428118e-02 1.722210320843029e-01 -3.462389942109154e-04 2.993956848920907e-03 4.035254403665264e-03
-5.387093909214105e-02 -5.330759140334307e-02 1.741176268321803e-01 -8.264254186432203e-05 -2.290072797343685e-04 8.551968849163541e-04
-5.415884531815063e-02 -5.006632238481545e-02 1.718010823522313e-01 -4.599248305647810e-04 2.065386280866333e-03 6.332071588963711e-04
-5.094453321358582e-02 -5.174879053391507e-02 1.738398767334338e-01 4.887580728267767e-04 5.101076922951628e-03 3.106031576552029e-03
-5.518943787279079e-02 -5.376793129909813e-02 1.723014667859308e-01 -1.037023488884078e-04 9.879273242722512e-04 6.132040454634082e-04
-5.337693449506234e-02 -5.248426456541953e-02 1.742862816223830e-01 2.348518591515568e-04 2.995718977186925e-03 9.602494780261406e-04
        </DataArray>
        <DataArray type="Float64" Name="nodal_cauchy_stresses_xyz" NumberOfComponents="6" format="ascii">
2.647518626229423e-03 2.600302397898453e-03 1.899488520989304e-01 3.108986993137391e-03 -7.316311994572472e-03 -8.671954080334705e-03
-5.844744030670476e-04 4.431071279229725e-04 2.081461371439356e-01 8.027223695019679e-04 -7.764969756154805e-03 -1.210793032965347e-02
6.827199491445861e-03 8.139281975707192e-03 2.318569119274214e-01 -2.273524484178155e-04 -1.604228372156683e-03 -1.277301222615001e-02
2.789969306837489e-03 1.410360574095740e-03 2.087102353741010e-01 -2.002152700953796e-04 -1.569391982134226e-03 -9.912507160968352e-03
1.695324518854091e-03 1.424670770193105e-03 2.231158944891082e-01 3.130453803169168e-04 -1.004642236250571e-03 -3.228611932997079e-03
-1.709684327407660e-03 9.288411123781177e-05 2.235517725318910e-01 1.596111728303110e-04 -1.567298326442240e-03 2.672821830267893e-04
-2.425870944182147e-03 -2.055065158430088e-03 2.244210047960025e-01 -5.448969691584020e-05 -2.160909552175353e-04 4.089020077282491e-04
1.014003476225797e-03 -8.711723318148184e-04 2.239747092668231e-01 -5.976071166593819e-05 -2.071117328664681e-04 -3.680338259342187e-03
1.566294150668851e-03 1.037363011696021e-03 2.088996322263881e-01 -4.013611847508275e-04 -7.765823144388471e-03 6.053965164826487e-03
1.340594668594251e-02 1.283467427585810e-02 2.500968781599354e-01 -8.156818101758309e-04 5.555802315876039e-03 -1.325898294438468e-02
7.910145956711545e-03 8.441295178016390e-03 2.323438504928481e-01 1.136762242088530e-04 -1.599606662681784e-03 6.386506113074825e-03
7.313504885387117e-03 7.672328730422203e-03 2.258270010664842e-01 6.008418277702143e-04 5.177582612198871e-03 -8.612151390832736e-03
-7.505181514423094e-04 5.046170183940369e-04 2.239638948775112e-01 -7.980558641519001e-05 -1.567546983239068e-03 -1.336410915132477e-04
-1.563284507863983e-03 -8.848199712359511e-04 2.252294576252865e-01 -7.331473220597879e-05 -1.386839552298616e-03 4.867458287624197e-04
-1.437997325927139e-03 -1.631098268007744e-03 2.248417889614974e-01 2.724484845793305e-05 -2.161687983330820e-04 -2.044510038642047e-04
8.472235441538400e-04 -5.613905722880001e-05 2.245058841916054e-01 2.441111548964875e-06 -1.340179974997443e-03 -2.329977777584957e-03
-5.350332047395394e-03 -4.035317332941239e-03 1.997582669718619e-01 1.701167333925551e-04 -3.027211874800937e-04 -7.598171778288856e-04
-5.080595163178360e-04 -1.385434570300016e-03 2.189010765455989e-01 -2.623502109527287e-04 -1.828817698862342e-03 3.780980561838091e-03
4.273074451385496e-03 4.393023149725363e-03 2.386362074896131e-01 -4.251365403841982e-05 2.913523333391248e-04 3.959640757814414e-03
-2.583117326762740e-03 -1.548980251393361e-03 2.174335909264848e-01 2.136324089917149e-04 3.175496207726834e-04 -2.473377701348263e-03
-2.709999248227226e-03 -2.387487554008473e-03 2.102296519375183e-01 6.152107000101891e-04 -2.946750017442631e-03 -2.080258478357294e-03
2.417593466549507e-03 1.882433786272347e-03 2.298231224494760e-01 -1.971759440837734e-04 -3.092240985294233e-03 3.097509948383765e-03
-8.037818177560982e-04 -1.467874524909908e-03 2.187361925345336e-01 1.311751054762577e-04 -1.822174754040951e-03 -1.890490280918961e-03
3.806494804394429e-03 4.248470148106027e-03 2.384319902281993e-01 2.125682701928037e-05 2.904849540186056e-04 -1.979820378907270e-03
1.383752279844587e-02 1.293704104590353e-02 2.504590420425253e-01 4.078409050878848e-04 5.588339853894805e-03 6.629491472192349e-03
-8.470552307357159e-04 -5.772132966235933e-04 2.255372762962264e-01 3.665736610308158e-05 -1.386704710364258e-03 -2.433729143808462e-04
2.253366855616036e-03 1.866270890402946e-03 2.297475601868907e-01 9.858797204185072e-05 -3.092405914548257e-03 -1.548754974192115e-03
1.566294150668851e-03 1.037363011696021e-03 2.088996322263881e-01 -4.013611847508275e-04 -7.765823144388471e-03 6.053965164826487e-03
1.577974548047882e-03 3.568985900320991e-03 1.702445768890144e-01 -7.016274410543638e-03 -6.865947456527221e-03 2.956946401601742e-02
-3.413153808309535e-03 -5.922587232165325e-03 1.845896816899014e-01 6.289509835597936e-04 -1.543799011068742e-03 3.274454130940600e-02
7.910145956711545e-03 8.441295178016390e-03 2.323438504928481e-01 1.136762242088530e-04 -1.599606662681784e-03 6.386506113074825e-03
-7.505181514423094e-04 5.046170183940369e-04 2.239638948775112e-01 -7.980558641519001e-05 -1.567546983239068e-03 -1.336410915132477e-04
3.182001013192404e-03 1.932991614864191e-03 2.218557717551286e-01 -7.855576194895793e-04 -4.414888324710156e-04 6.190998430699287e-03
2.478130660112031e-03 -5.352132860348935e-04 2.226868454066726e-01 1.741096796123286e-04 -1.979768243050892e-04 6.952457566183790e-03
-1.437997325927139e-03 -1.631098268007744e-03 2.248417889614974e-01 2.724484845793305e-05 -2.161687983330820e-04 -2.044510038642047e-04
-5.844744030670476e-04 4.431071279229725e-04 2.081461371439356e-01 8.027223695019679e-04 -7.764969756154805e-03 -1.210793032965347e-02
3.579108598300597e-04 2.305249644912386e-03 2.008327962078690e-01 -3.850344345498846e-04 4.734287832491565e-03 3.061406420993435e-02
6.827199491445861e-03 8.139281975707192e-03 2.318569119274214e-01 -2.273524484178155e-04 -1.604228372156683e-03 -1.277301222615001e-02
1.383752279844587e-02 1.293704104590353e-02 2.504590420425253e-01 4.078409050878848e-04 5.588339853894805e-03 6.629491472192349e-03
-1.709684327407660e-03 9.288411123781177e-05 2.235517725318910e-01 1.596111728303110e-04 -1.567298326442240e-03 2.672821830267893e-04
1.825273041924004e-03 1.573285075468338e-04 2.231666734160597e-01 6.838169189615291e-05 -1.293790081560233e-03 4.173543843179081e-03
-2.425870944182147e-03 -2.055065158430088e-03 2.244210047960025e-01 -5.448969691584020e-05 -2.160909552175353e-04 4.089020077282491e-04
-8.470552307357159e-04 -5.772132966235933e-04 2.255372762962264e-01 3.665736610308158e-05 -1.386704710364258e-03 -2.433729143808462e-04
-8.037818177560982e-04 -1.467874524909908e-03 2.187361925345336e-01 1.311751054762577e-04 -1.822174754040951e-03 -1.890490280918961e-03
-9.601159975615080e-03 -6.520320186387115e-03 1.809452254201983e-01 -7.792456309997837e-05 1.210089434257570e-03 -2.255249103026335e-03
-8.506149810920327e-03 -7.201877649264961e-03 1.966394088861955e-01 -3.851636872495466e-04 3.454816668538854e-04 9.939349101893914e-04
3.806494804394429e-03 4.248470148106027e-03 2.384319902281993e-01 2.125682701928037e-05 2.904849540186056e-04 -1.979820378907270e-03
2.253366855616036e-03 1.866270890402946e-03 2.297475601868907e-01 9.858797204185072e-05 -3.092405914548257e-03 -1.548754974192115e-03
-7.509138741153827e-03 -6.625083102567047e-03 1.907873059506790e-01 -1.033462619772134e-03 -2.800929191082767e-03 1.067573422865364e-03
-5.080595163178360e-04 -1.385434570300016e-03 2.189010765455989e-01 -2.623502109527287e-04 -1.828817698862342e-03 3.780980561838091e-03
4.273074451385496e-03 4.393023149725363e-03 2.386362074896131e-01 -4.251365403841982e-05 2.913523333391248e-04 3.959640757814414e-03
1.340594668594251e-02 1.283467427585810e-02 2.500968781599354e-01 -8.156818101758309e-04 5.555802315876039e-03 -1.325898294438468e-02
-1.563284507863983e-03 -8.848199712359511e-04 2.252294576252865e-01 -7.331473220597879e-05 -1.386839552298616e-03 4.867458287624197e-04
2.417593466549507e-03 1.882433786272347e-03 2.298231224494760e-01 -1.971759440837734e-04 -3.092240985294233e-03 3.097509948383765e-03
7.313504885387117e-03 7.672328730422203e-03 2.258270010664842e-01 6.008418277702143e-04 5.177582612198871e-03 -8.612151390832736e-03
1.340594668594251e-02 1.283467427585810e-02 2.500968781599354e-01 -8.156818101758309e-04 5.555802315876039e-03 -1.325898294438468e-02
1.627976537038761e-02 1.518950489784372e-02 2.579063611665298e-01 1.394263869635863e-03 -7.083561616616001e-03 -1.347263855736412e-02
8.971211806687323e-03 9.621751136310719e-03 2.328730754902311e-01 -7.458729242245440e-04 -6.546728114409953e-03 -8.094251679369715e-03
8.472235441538400e-04 -5.613905722880001e-05 2.245058841916054e-01 2.441111548964875e-06 -1.340179974997443e-03 -2.329977777584957e-03
-1.563284507863983e-03 -8.848199712359511e-04 2.252294576252865e-01 -7.331473220597879e-05 -1.386839552298616e-03 4.867458287624197e-04
-1.362612245915719e-03 -7.778098264882717e-04 2.254228404156808e-01 1.508382545633460e-04 2.242361917829661e-03 5.225690982860569e-04
5.915516049875963e-04 -1.316951944552172e-04 2.245667825583204e-01 4.097408353732261e-05 2.165690122733168e-03 -1.749584326211486e-03
1.383752279844587e-02 1.293704104590353e-02 2.504590420425253e-01 4.078409050878848e-04 5.588339853894805e-03 6.629491472192349e-03
6.827199491445861e-03 8.139281975707192e-03 2.318569119274214e-01 -2.273524484178155e-04 -1.604228372156683e-03 -1.277301222615001e-02
1.643411777724611e-02 1.520945343969931e-02 2.582120800491297e-01 -6.971319348176831e-04 -7.135676150928602e-03 6.736319278682336e-03
2.789969306837489e-03 1.410360574095740e-03 2.087102353741010e-01 -2.002152700953796e-04 -1.569391982134226e-03 -9.912507160968352e-03
-8.470552307357159e-04 -5.772132966235933e-04 2.255372762962264e-01 3.665736610308158e-05 -1.386704710364258e-03 -2.433729143808462e-04
-2.425870944182147e-03 -2.055065158430088e-03 2.244210047960025e-01 -5.448969691584020e-05 -2.160909552175353e-04 4.089020077282491e-04
-7.612165413926676e-04 -5.190421059747104e-04 2.256837574688922e-01 -7.541912728175899e-05 2.242201186516254e-03 -2.612845491430083e-04
1.014003476225797e-03 -8.711723318148184e-04 2.239747092668231e-01 -5.976071166593819e-05 -2.071117328664681e-04 -3.680338259342187e-03
-2.709999248227226e-03 -2.387487554008473e-03 2.102296519375183e-01 6.152107000101891e-04 -2.946750017442631e-03 -2.080258478357294e-03
2.417593466549507e-03 1.882433786272347e-03 2.298231224494760e-01 -1.971759440837734e-04 -3.092240985294233e-03 3.097509948383765e-03
1.669605315004352e-03 1.015146393839681e-03 2.261230118065851e-01 3.281870400021354e-04 4.421970416648021e-03 2.728247410517273e-03
-2.902731354516731e-03 -2.975464243634556e-03 2.070431191185812e-01 -1.082481054424610e-03 4.184279913057252e-03 -1.919789451919770e-03
-2.583117326762740e-03 -1.548980251393361e-03 2.174335909264848e-01 2.136324089917149e-04 3.175496207726834e-04 -2.473377701348263e-03
4.273074451385496e-03 4.393023149725363e-03 2.386362074896131e-01 -4.251365403841982e-05 2.913523333391248e-04 3.959640757814414e-03
2.253366855616036e-03 1.866270890402946e-03 2.297475601868907e-01 9.858797204185072e-05 -3.092405914548257e-03 -1.548754974192115e-03
1.638305889309258e-03 1.058086047971905e-03 2.261102116122208e-01 -1.640935200010275e-04 4.422890237455921e-03 -1.364123705258756e-03
7.910145956711545e-03 8.441295178016390e-03 2.323438504928481e-01 1.136762242088530e-04 -1.599606662681784e-03 6.386506113074825e-03
-1.437997325927139e-03 -1.631098268007744e-03 2.248417889614974e-01 2.724484845793305e-05 -2.161687983330820e-04 -2.044510038642047e-04
3.806494804394429e-03 4.248470148106027e-03 2.384319902281993e-01 2.125682701928037e-05 2.904849540186056e-04 -1.979820378907270e-03
1.383752279844587e-02 1.293704104590353e-02 2.504590420425253e-01 4.078409050878848e-04 5.588339853894805e-03 6.629491472192349e-03
3.579108598300597e-04 2.305249644912386e-03 2.008327962078690e-01 -3.850344345498846e-04 4.734287832491565e-03 3.061406420993435e-02
1.353953429266502e-03 4.014100291088564e-03 2.072283520487214e-01 9.518366797216780e-05 -5.905665543570700e-03 2.978416999750893e-02
1.643411777724611e-02 1.520945343969931e-02 2.582120800491297e-01 -6.971319348176831e-04 -7.135676150928602e-03 6.736319278682336e-03
-8.470552307357159e-04 -5.772132966235933e-04 2.255372762962264e-01 3.665736610308158e-05 -1.386704710364258e-03 -2.433729143808462e-04
1.825273041924004e-03 1.573285075468338e-04 2.231666734160597e-01 6.838169189615291e-05 -1.293790081560233e-03 4.173543843179081e-03
1.342924046820118e-03 -3.116003471358673e-06 2.231888905944690e-01 -2.327786765829890e-04 2.089339790258013e-03 2.976795715802678e-03
-7.612165413926676e-04 -5.190421059747104e-04 2.256837574688922e-01 -7.541912728175899e-05 2.242201186516254e-03 -2.612845491430083e-04
1.340594668594251e-02 1.283467427585810e-02 2.500968781599354e-01 -8.156818101758309e-04 5.555802315876039e-03 -1.325898294438468e-02
-3.413153808309535e-03 -5.922587232165325e-03 1.845896816899014e-01 6.289509835597936e-04 -1.543799011068742e-03 3.274454130940600e-02
1.627976537038761e-02 1.518950489784372e-02 2.579063611665298e-01 1.394263869635863e-03 -7.083561616616001e-03 -1.347263855736412e-02
7.910145956711545e-03 8.441295178016390e-03 2.323438504928481e-01 1.136762242088530e-04 -1.599606662681784e-03 6.386506113074825e-03
-1.563284507863983e-03 -8.848199712359511e-04 2.252294576252865e-01 -7.331473220597879e-05 -1.386839552298616e-03 4.867458287624197e-04
2.478130660112031e-03 -5.352132860348935e-04 2.226868454066726e-01 1.741096796123286e-04 -1.979768243050892e-04 6.952457566183790e-03
-1.362612245915719e-03 -7.778098264882717e-04 2.254228404156808e-01 1.508382545633460e-04 2.242361917829661e-03 5.225690982860569e-04
-1.437997325927139e-03 -1.631098268007744e-03 2.248417889614974e-01 2.724484845793305e-05 -2.161687983330820e-04 -2.044510038642047e-04
2.253366855616036e-03 1.866270890402946e-03 2.297475601868907e-01 9.858797204185072e-05 -3.092405914548257e-03 -1.548754974192115e-03
-7.509138741153827e-03 -6.625083102567047e-03 1.907873059506790e-01 -1.033462619772134e-03 -2.800929191082767e-03 1.067573422865364e-03
-7.412469172639427e-03 -7.051954189359266e-03 1.879888268193390e-01 1.837395613578893e-03 3.944749767846204e-03 1.114877917399033e-03
1.638305889309258e-03 1.058086047971905e-03 2.261102116122208e-01 -1.640935200010275e-04 4.422890237455921e-03 -1.364123705258756e-03
3.806494804394429e-03 4.248470148106027e-03 2.384319902281993e-01 2.125682701928037e-05 2.904849540186056e-04 -1.979820378907270e-03
-8.506149810920327e-03 -7.201877649264961e-03 1.966394088861955e-01 -3.851636872495466e-04 3.454816668538854e-04 9.939349101893914e-04
2.417593466549507e-03 1.882433786272347e-03 2.298231224494760e-01 -1.971759440837734e-04 -3.092240985294233e-03 3.097509948383765e-03
1.669605315004352e-03 1.015146393839681e-03 2.261230118065851e-01 3.281870400021354e-04 4.421970416648021e-03 2.728247410517273e-03
6.827199491445861e-03 8.139281975707192e-03 2.318569119274214e-01 -2.273524484178155e-04 -1.604228372156683e-03 -1.277301222615001e-02
-2.425870944182147e-03 -2.055065158430088e-03 2.244210047960025e-01 -5.448969691584020e-05 -2.160909552175353e-04 4.089020077282491e-04
4.273074451385496e-03 4.393023149725363e-03 2.386362074896131e-01 -4.251365403841982e-05 2.913523333391248e-04 3.959640757814414e-03
2.789969306837489e-03 1.410360574095740e-03 2.087102353741010e-01 -2.002152700953796e-04 -1.569391982134226e-03 -9.912507160968352e-03
6.827199491445861e-03 8.139281975707192e-03 2.318569119274214e-01 -2.273524484178155e-04 -1.604228372156683e-03 -1.277301222615001e-02
-1.732934117844091e-02 -1.386271008419110e-02 1.583721766699048e-01 -2.079644240434324e-03 2.358602554260193e-02 -1.075304019243810e-02
-4.042797682063778e-03 -5.497590732279995e-03 1.465974148497904e-01 -5.306352523638455e-03 2.224949820912474e-02 -9.312190091084915e-03
1.014003476225797e-03 -8.711723318148184e-04 2.239747092668231e-01 -5.976071166593819e-05 -2.071117328664681e-04 -3.680338259342187e-03
-2.425870944182147e-03 -2.055065158430088e-03 2.244210047960025e-01 -5.448969691584020e-05 -2.160909552175353e-04 4.089020077282491e-04
-2.293535905245893e-03 4.112488621045188e-04 2.214664696138990e-01 -3.108047653507640e-04 2.071962279345568e-03 1.528464365446085e-05
2.540827157039969e-03 2.386131676210296e-03 2.214313825787224e-01 -5.343781473562397e-04 9.799448179614299e-04 -4.705635628742904e-03
7.910145956711545e-03 8.441295178016390e-03 2.323438504928481e-01 1.136762242088530e-04 -1.599606662681784e-03 6.386506113074825e-03
1.627976537038761e-02 1.518950489784372e-02 2.579063611665298e-01 1.394263869635863e-03 -7.083561616616001e-03 -1.347263855736412e-02
-1.318025958855319e-02 -1.269157012989243e-02 1.595668161043784e-01 1.039822120216533e-03 2.361365340248443e-02 5.376520096219145e-03
8.971211806687323e-03 9.621751136310719e-03 2.328730754902311e-01 -7.458729242245440e-04 -6.546728114409953e-03 -8.094251679369715e-03
-1.437997325927139e-03 -1.631098268007744e-03 2.248417889614974e-01 2.724484845793305e-05 -2.161687983330820e-04 -2.044510038642047e-04
-1.362612245915719e-03 -7.778098264882717e-04 2.254228404156808e-01 1.508382545633460e-04 2.242361917829661e-03 5.225690982860569e-04
-9.743581766880625e-04 9.773251706396082e-04 2.220317819222353e-01 1.554023826757653e-04 2.072677498062319e-03 -7.642321826890528e-06
5.915516049875963e-04 -1.316951944552172e-04 2.245667825583204e-01 4.097408353732261e-05 2.165690122733168e-03 -1.749584326211486e-03
-2.583117326762740e-03 -1.548980251393361e-03 2.174335909264848e-01 2.136324089917149e-04 3.175496207726834e-04 -2.473377701348263e-03
4.273074451385496e-03 4.393023149725363e-03 2.386362074896131e-01 -4.251365403841982e-05 2.913523333391248e-04 3.959640757814414e-03
-2.618338263066725e-03 -3.496404865742013e-03 2.117855462217179e-01 3.923707255715691e-04 1.326122898378066e-04 4.833988065660978e-03
-7.989566354117933e-03 -5.418289396349157e-03 1.923337295199498e-01 -4.435277559725131e-05 -2.812997868679210e-03 3.889786476594425e-04
-2.902731354516731e-03 -2.975464243634556e-03 2.070431191185812e-01 -1.082481054424610e-03 4.184279913057252e-03 -1.919789451919770e-03
1.669605315004352e-03 1.015146393839681e-03 2.261230118065851e-01 3.281870400021354e-04 4.421970416648021e-03 2.728247410517273e-03
3.806494804394429e-03 4.248470148106027e-03 2.384319902281993e-01 2.125682701928037e-05 2.904849540186056e-04 -1.979820378907270e-03
-3.173483808027074e-03 -3.698102365343372e-03 2.114800101473464e-01 -1.961853627857395e-04 1.205063247989587e-04 -2.416994032830416e-03
1.643411777724611e-02 1.520945343969931e-02 2.582120800491297e-01 -6.971319348176831e-04 -7.135676150928602e-03 6.736319278682336e-03
-7.612165413926676e-04 -5.190421059747104e-04 2.256837574688922e-01 -7.541912728175899e-05 2.242201186516254e-03 -2.612845491430083e-04
1.638305889309258e-03 1.058086047971905e-03 2.261102116122208e-01 -1.640935200010275e-04 4.422890237455921e-03 -1.364123705258756e-03
7.910145956711545e-03 8.441295178016390e-03 2.323438504928481e-01 1.136762242088530e-04 -1.599606662681784e-03 6.386506113074825e-03
-3.413153808309535e-03 -5.922587232165325e-03 1.845896816899014e-01 6.289509835597936e-04 -1.543799011068742e-03 3.274454130940600e-02
9.455826345472342e-04 5.252487110177896e-04 1.324333741607032e-01 1.268277841883964e-02 2.085771515584057e-02 2.948830795399062e-02
-1.318025958855319e-02 -1.269157012989243e-02 1.595668161043784e-01 1.039822120216533e-03 2.361365340248443e-02 5.376520096219145e-03
-1.437997325927139e-03 -1.631098268007744e-03 2.248417889614974e-01 2.724484845793305e-05 -2.161687983330820e-04 -2.044510038642047e-04
2.478130660112031e-03 -5.352132860348935e-04 2.226868454066726e-01 1.741096796123286e-04 -1.979768243050892e-04 6.952457566183790e-03
4.736834762241208e-03 3.228861873294990e-03 2.202656709269908e-01 1.379084653397876e-03 -1.135030808473905e-04 9.397900333256472e-03
-9.743581766880625e-04 9.773251706396082e-04 2.220317819222353e-01 1.554023826757653e-04 2.072677498062319e-03 -7.642321826890528e-06
6.827199491445861e-03 8.139281975707192e-03 2.318569119274214e-01 -2.273524484178155e-04 -1.604228372156683e-03 -1.277301222615001e-02
1.353953429266502e-03 4.014100291088564e-03 2.072283520487214e-01 9.518366797216780e-05 -5.905665543570700e-03 2.978416999750893e-02
-1.732934117844091e-02 -1.386271008419110e-02 1.583721766699048e-01 -2.079644240434324e-03 2.358602554260193e-02 -1.075304019243810e-02
1.643411777724611e-02 1.520945343969931e-02 2.582120800491297e-01 -6.971319348176831e-04 -7.135676150928602e-03 6.736319278682336e-03
-2.425870944182147e-03 -2.055065158430088e-03 2.244210047960025e-01 -5.448969691584020e-05 -2.160909552175353e-04 4.089020077282491e-04
1.342924046820118e-03 -3.116003471358673e-06 2.231888905944690e-01 -2.327786765829890e-04 2.089339790258013e-03 2.976795715802678e-03
-2.293535905245893e-03 4.112488621045188e-04 2.214664696138990e-01 -3.108047653507640e-04 2.071962279345568e-03 1.528464365446085e-05
-7.612165413926676e-04 -5.190421059747104e-04 2.256837574688922e-01 -7.541912728175899e-05 2.242201186516254e-03 -2.612845491430083e-04
3.806494804394429e-03 4.248470148106027e-03 2.384319902281993e-01 2.125682701928037e-05 2.904849540186056e-04 -1.979820378907270e-03
-8.506149810920327e-03 -7.201877649264961e-03 1.966394088861955e-01 -3.851636872495466e-04 3.454816668538854e-04 9.939349101893914e-04
-1.225050335525677e-02 -6.936778927799471e-03 1.734929849668507e-01 -3.032101257348526e-04 -5.734396097094154e-03 -5.603420372409486e-03
-3.173483808027074e-03 -3.698102365343372e-03 2.114800101473464e-01 -1.961853627857395e-04 1.205063247989587e-04 -2.416994032830416e-03
1.638305889309258e-03 1.058086047971905e-03 2.261102116122208e-01 -1.640935200010275e-04 4.422890237455921e-03 -1.364123705258756e-03
-7.412469172639427e-03 -7.051954189359266e-03 1.879888268193390e-01 1.837395613578893e-03 3.944749767846204e-03 1.114877917399033e-03
4.273074451385496e-03 4.393023149725363e-03 2.386362074896131e-01 -4.251365403841982e-05 2.913523333391248e-04 3.959640757814414e-03
-2.618338263066725e-03 -3.496404865742013e-03 2.117855462217179e-01 3.923707255715691e-04 1.326122898378066e-04 4.833988065660978e-03
1.627976537038761e-02 1.518950489784372e-02 2.579063611665298e-01 1.394263869635863e-03 -7.083561616616001e-03 -1.347263855736412e-02
-1.362612245915719e-03 -7.778098264882717e-04 2.254228404156808e-01 1.508382545633460e-04 2.242361917829661e-03 5.225690982860569e-04
1.669605315004352e-03 1.015146393839681e-03 2.261230118065851e-01 3.281870400021354e-04 4.421970416648021e-03 2.728247410517273e-03
-5.350332047395394e-03 -4.035317332941239e-03 1.997582669718619e-01 1.701167333925551e-04 -3.027211874800937e-04 -7.598171778288856e-04
-5.080595163178360e-04 -1.385434570300016e-03 2.189010765455989e-01 -2.623502109527287e-04 -1.828817698862342e-03 3.780980561838091e-03
4.273074451385496e-03 4.393023149725363e-03 2.386362074896131e-01 -4.251365403841982e-05 2.913523333391248e-04 3.959640757814414e-03
-2.583117326762740e-03 -1.548980251393361e-03 2.174335909264848e-01 2.136324089917149e-04 3.175496207726834e-04 -2.473377701348263e-03
-1.897701142084884e-03 1.046764252058394e-03 2.260957041942820e-01 -9.649714120455984e-04 9.954332860451611e-06 1.786448085253485e-03
-1.584896999131133e-03 1.579388849278732e-03 2.249840064173225e-01 -2.633604027792388e-04 2.892671803962511e-04 1.379597528803479e-03
-4.898009436598398e-03 -5.708195533827689e-03 2.224195562084045e-01 7.567271260159889e-05 -3.857963261701457e-04 8.782415136400212e-04
-3.147369459439555e-03 -4.765851622382340e-03 2.239922600452920e-01 1.638745440257171e-04 -3.477731173789635e-04 1.635808010414902e-03
-8.037818177560982e-04 -1.467874524909908e-03 2.187361925345336e-01 1.311751054762577e-04 -1.822174754040951e-03 -1.890490280918961e-03
2.417593466549507e-03 1.882433786272347e-03 2.298231224494760e-01 -1.971759440837734e-04 -3.092240985294233e-03 3.097509948383765e-03
3.806494804394429e-03 4.248470148106027e-03 2.384319902281993e-01 2.125682701928037e-05 2.904849540186056e-04 -1.979820378907270e-03
-2.709999248227226e-03 -2.387487554008473e-03 2.102296519375183e-01 6.152107000101891e-04 -2.946750017442631e-03 -2.080258478357294e-03
-1.695914694594947e-03 1.532154337900536e-03 2.249366351961541e-01 1.316802013897707e-04 2.890449535959066e-04 -6.897987644021104e-04
-4.690655452703025e-03 -3.847356423586474e-03 2.210965087848749e-01 8.697533058843422e-06 1.222806500934814e-04 3.907865116513280e-04
-4.534677956579573e-03 -5.547251439967325e-03 2.225825609119161e-01 -3.783635630090072e-05 -3.856207010047054e-04 -4.391207568204026e-04
-1.916935400012684e-03 -2.677848467761902e-03 2.232090658277096e-01 -8.222915337160970e-05 -1.946875246458524e-05 2.584329959458281e-04
1.695324518854091e-03 1.424670770193105e-03 2.231158944891082e-01 3.130453803169168e-04 -1.004642236250571e-03 -3.228611932997079e-03
-1.709684327407660e-03 9.288411123781177e-05 2.235517725318910e-01 1.596111728303110e-04 -1.567298326442240e-03 2.672821830267893e-04
-2.425870944182147e-03 -2.055065158430088e-03 2.244210047960025e-01 -5.448969691584020e-05 -2.160909552175353e-04 4.089020077282491e-04
1.014003476225797e-03 -8.711723318148184e-04 2.239747092668231e-01 -5.976071166593819e-05 -2.071117328664681e-04 -3.680338259342187e-03
8.472235441538400e-04 -5.613905722880001e-05 2.245058841916054e-01 2.441111548964875e-06 -1.340179974997443e-03 -2.329977777584957e-03
-1.563284507863983e-03 -8.848199712359511e-04 2.252294576252865e-01 -7.331473220597879e-05 -1.386839552298616e-03 4.867458287624197e-04
-7.505181514423094e-04 5.046170183940369e-04 2.239638948775112e-01 -7.980558641519001e-05 -1.567546983239068e-03 -1.336410915132477e-04
-1.437997325927139e-03 -1.631098268007744e-03 2.248417889614974e-01 2.724484845793305e-05 -2.161687983330820e-04 -2.044510038642047e-04
2.253366855616036e-03 1.866270890402946e-03 2.297475601868907e-01 9.858797204185072e-05 -3.092405914548257e-03 -1.548754974192115e-03
-4.048112212854416e-03 -3.566530915784699e-03 2.213786025880916e-01 -4.348766529654312e-06 1.222959349664776e-04 -1.953932558259873e-04
-8.470552307357159e-04 -5.772132966235933e-04 2.255372762962264e-01 3.665736610308158e-05 -1.386704710364258e-03 -2.433729143808462e-04
-8.037818177560982e-04 -1.467874524909908e-03 2.187361925345336e-01 1.311751054762577e-04 -1.822174754040951e-03 -1.890490280918961e-03
-9.601159975615080e-03 -6.520320186387115e-03 1.809452254201983e-01 -7.792456309997837e-05 1.210089434257570e-03 -2.255249103026335e-03
-8.506149810920327e-03 -7.201877649264961e-03 1.966394088861955e-01 -3.851636872495466e-04 3.454816668538854e-04 9.939349101893914e-04
3.806494804394429e-03 4.248470148106027e-03 2.384319902281993e-01 2.125682701928037e-05 2.904849540186056e-04 -1.979820378907270e-03
-1.695914694594947e-03 1.532154337900536e-03 2.249366351961541e-01 1.316802013897707e-04 2.890449535959066e-04 -6.897987644021104e-04
-1.988469894179396e-03 6.086086775081287e-04 2.273021444133967e-01 2.193028644202034e-03 -2.689140610814371e-04 -4.951675567599859e-03
-2.123392442298714e-03 -4.145395898635097e-03 2.252389544752709e-01 -4.033470754903160e-04 -3.101011589004692e-04 -4.149250053284349e-03
-4.534677956579573e-03 -5.547251439967325e-03 2.225825609119161e-01 -3.783635630090072e-05 -3.856207010047054e-04 -4.391207568204026e-04
-5.080595163178360e-04 -1.385434570300016e-03 2.189010765455989e-01 -2.623502109527287e-04 -1.828817698862342e-03 3.780980561838091e-03
-7.509138741153827e-03 -6.625083102567047e-03 1.907873059506790e-01 -1.033462619772134e-03 -2.800929191082767e-03 1.067573422865364e-03
4.273074451385496e-03 4.393023149725363e-03 2.386362074896131e-01 -4.251365403841982e-05 2.913523333391248e-04 3.959640757814414e-03
2.253366855616036e-03 1.866270890402946e-03 2.297475601868907e-01 9.858797204185072e-05 -3.092405914548257e-03 -1.548754974192115e-03
-1.584896999131133e-03 1.579388849278732e-03 2.249840064173225e-01 -2.633604027792388e-04 2.892671803962511e-04 1.379597528803479e-03
-4.283018270849624e-04 -2.069991527602975e-03 2.247574352638220e-01 1.557353871363380e-04 -1.612487247770730e-04 -9.073808937524975e-04
-4.898009436598398e-03 -5.708195533827689e-03 2.224195562084045e-01 7.567271260159889e-05 -3.857963261701457e-04 8.782415136400212e-04
-4.048112212854416e-03 -3.566530915784699e-03 2.213786025880916e-01 -4.348766529654312e-06 1.222959349664776e-04 -1.953932558259873e-04
-7.505181514423094e-04 5.046170183940369e-04 2.239638948775112e-01 -7.980558641519001e-05 -1.567546983239068e-03 -1.336410915132477e-04
3.182001013192404e-03 1.932991614864191e-03 2.218557717551286e-01 -7.855576194895793e-04 -4.414888324710156e-04 6.190998430699287e-03
2.478130660112031e-03 -5.352132860348935e-04 2.226868454066726e-01 1.741096796123286e-04 -1.979768243050892e-04 6.952457566183790e-03
-1.437997325927139e-03 -1.631098268007744e-03 2.248417889614974e-01 2.724484845793305e-05 -2.161687983330820e-04 -2.044510038642047e-04
-8.470552307357159e-04 -5.772132966235933e-04 2.255372762962264e-01 3.665736610308158e-05 -1.386704710364258e-03 -2.433729143808462e-04
1.825273041924004e-03 1.573285075468338e-04 2.231666734160597e-01 6.838169189615291e-05 -1.293790081560233e-03 4.173543843179081e-03
-1.709684327407660e-03 9.288411123781177e-05 2.235517725318910e-01 1.596111728303110e-04 -1.567298326442240e-03 2.672821830267893e-04
-2.425870944182147e-03 -2.055065158430088e-03 2.244210047960025e-01 -5.448969691584020e-05 -2.160909552175353e-04 4.089020077282491e-04
2.417593466549507e-03 1.882433786272347e-03 2.298231224494760e-01 -1.971759440837734e-04 -3.092240985294233e-03 3.097509948383765e-03
-4.690655452703025e-03 -3.847356423586474e-03 2.210965087848749e-01 8.697533058843422e-06 1.222806500934814e-04 3.907865116513280e-04
-1.563284507863983e-03 -8.848199712359511e-04 2.252294576252865e-01 -7.331473220597879e-05 -1.386839552298616e-03 4.867458287624197e-04
-2.709999248227226e-03 -2.387487554008473e-03 2.102296519375183e-01 6.152107000101891e-04 -2.946750017442631e-03 -2.080258478357294e-03
2.417593466549507e-03 1.882433786272347e-03 2.298231224494760e-01 -1.971759440837734e-04 -3.092240985294233e-03 3.097509948383765e-03
1.669605315004352e-03 1.015146393839681e-03 2.261230118065851e-01 3.281870400021354e-04 4.421970416648021e-03 2.728247410517273e-03
-2.902731354516731e-03 -2.975464243634556e-03 2.070431191185812e-01 -1.082481054424610e-03 4.184279913057252e-03 -1.919789451919770e-03
-1.916935400012684e-03 -2.677848467761902e-03 2.232090658277096e-01 -8.222915337160970e-05 -1.946875246458524e-05 2.584329959458281e-04
-4.690655452703025e-03 -3.847356423586474e-03 2.210965087848749e-01 8.697533058843422e-06 1.222806500934814e-04 3.907865116513280e-04
-5.085109274660479e-03 -4.162739954918107e-03 2.200482138646354e-01 -6.975463908517155e-05 1.059189627381757e-04 1.796231488637688e-04
-1.813881059712359e-03 -2.765192733115127e-03 2.224527462858497e-01 5.948704514691246e-07 2.900896891485054e-04 -3.362029580504541e-04
2.253366855616036e-03 1.866270890402946e-03 2.297475601868907e-01 9.858797204185072e-05 -3.092405914548257e-03 -1.548754974192115e-03
4.273074451385496e-03 4.393023149725363e-03 2.386362074896131e-01 -4.251365403841982e-05 2.913523333391248e-04 3.959640757814414e-03
1.638305889309258e-03 1.058086047971905e-03 2.261102116122208e-01 -1.640935200010275e-04 4.422890237455921e-03 -1.364123705258756e-03
-2.583117326762740e-03 -1.548980251393361e-03 2.174335909264848e-01 2.136324089917149e-04 3.175496207726834e-04 -2.473377701348263e-03
-4.048112212854416e-03 -3.566530915784699e-03 2.213786025880916e-01 -4.348766529654312e-06 1.222959349664776e-04 -1.953932558259873e-04
-4.898009436598398e-03 -5.708195533827689e-03 2.224195562084045e-01 7.567271260159889e-05 -3.857963261701457e-04 8.782415136400212e-04
-4.322574273602522e-03 -3.830077681950603e-03 2.203824189302722e-01 3.487731954314986e-05 1.057605331691962e-04 -8.981157443089713e-05
-3.147369459439555e-03 -4.765851622382340e-03 2.239922600452920e-01 1.638745440257171e-04 -3.477731173789635e-04 1.635808010414902e-03
8.472235441538400e-04 -5.613905722880001e-05 2.245058841916054e-01 2.441111548964875e-06 -1.340179974997443e-03 -2.329977777584957e-03
-1.563284507863983e-03 -8.848199712359511e-04 2.252294576252865e-01 -7.331473220597879e-05 -1.386839552298616e-03 4.867458287624197e-04
-1.362612245915719e-03 -7.778098264882717e-04 2.254228404156808e-01 1.508382545633460e-04 2.242361917829661e-03 5.225690982860569e-04
5.915516049875963e-04 -1.316951944552172e-04 2.245667825583204e-01 4.097408353732261e-05 2.165690122733168e-03 -1.749584326211486e-03
1.014003476225797e-03 -8.711723318148184e-04 2.239747092668231e-01 -5.976071166593819e-05 -2.071117328664681e-04 -3.680338259342187e-03
-2.425870944182147e-03 -2.055065158430088e-03 2.244210047960025e-01 -5.448969691584020e-05 -2.160909552175353e-04 4.089020077282491e-04
-8.470552307357159e-04 -5.772132966235933e-04 2.255372762962264e-01 3.665736610308158e-05 -1.386704710364258e-03 -2.433729143808462e-04
-7.612165413926676e-04 -5.190421059747104e-04 2.256837574688922e-01 -7.541912728175899e-05 2.242201186516254e-03 -2.612845491430083e-04
3.806494804394429e-03 4.248470148106027e-03 2.384319902281993e-01 2.125682701928037e-05 2.904849540186056e-04 -1.979820378907270e-03
-4.534677956579573e-03 -5.547251439967325e-03 2.225825609119161e-01 -3.783635630090072e-05 -3.856207010047054e-04 -4.391207568204026e-04
-1.437997325927139e-03 -1.631098268007744e-03 2.248417889614974e-01 2.724484845793305e-05 -2.161687983330820e-04 -2.044510038642047e-04
2.253366855616036e-03 1.866270890402946e-03 2.297475601868907e-01 9.858797204185072e-05 -3.092405914548257e-03 -1.548754974192115e-03
-7.509138741153827e-03 -6.625083102567047e-03 1.907873059506790e-01 -1.033462619772134e-03 -2.800929191082767e-03 1.067573422865364e-03
-7.412469172639427e-03 -7.051954189359266e-03 1.879888268193390e-01 1.837395613578893e-03 3.944749767846204e-03 1.114877917399033e-03
1.638305889309258e-03 1.058086047971905e-03 2.261102116122208e-01 -1.640935200010275e-04 4.422890237455921e-03 -1.364123705258756e-03
-4.048112212854416e-03 -3.566530915784699e-03 2.213786025880916e-01 -4.348766529654312e-06 1.222959349664776e-04 -1.953932558259873e-04
-4.283018270849624e-04 -2.069991527602975e-03 2.247574352638220e-01 1.557353871363380e-04 -1.612487247770730e-04 -9.073808937524975e-04
-6.772284688972424e-05 -2.032970057211115e-03 2.241888685757827e-01 6.854426175174612e-05 4.745772746934177e-04 4.928629269974763e-04
-4.322574273602522e-03 -3.830077681950603e-03 2.203824189302722e-01 3.487731954314986e-05 1.057605331691962e-04 -8.981157443089713e-05
2.417593466549507e-03 1.882433786272347e-03 2.298231224494760e-01 -1.971759440837734e-04 -3.092240985294233e-03 3.097509948383765e-03
-8.506149810920327e-03 -7.201877649264961e-03 1.966394088861955e-01 -3.851636872495466e-04 3.454816668538854e-04 9.939349101893914e-04
1.669605315004352e-03 1.015146393839681e-03 2.261230118065851e-01 3.281870400021354e-04 4.421970416648021e-03 2.728247410517273e-03
3.806494804394429e-03 4.248470148106027e-03 2.384319902281993e-01 2.125682701928037e-05 2.904849540186056e-04 -1.979820378907270e-03
-4.690655452703025e-03 -3.847356423586474e-03 2.210965087848749e-01 8.697533058843422e-06 1.222806500934814e-04 3.907865116513280e-04
-2.123392442298714e-03 -4.145395898635097e-03 2.252389544752709e-01 -4.033470754903160e-04 -3.101011589004692e-04 -4.149250053284349e-03
-5.085109274660479e-03 -4.162739954918107e-03 2.200482138646354e-01 -6.975463908517155e-05 1.059189627381757e-04 1.796231488637688e-04
-4.534677956579573e-03 -5.547251439967325e-03 2.225825609119161e-01 -3.783635630090072e-05 -3.856207010047054e-04 -4.391207568204026e-04
-8.470552307357159e-04 -5.772132966235933e-04 2.255372762962264e-01 3.665736610308158e-05 -1.386704710364258e-03 -2.433729143808462e-04
1.825273041924004e-03 1.573285075468338e-04 2.231666734160597e-01 6.838169189615291e-05 -1.293790081560233e-03 4.173543843179081e-03
1.342924046820118e-03 -3.116003471358673e-06 2.231888905944690e-01 -2.327786765829890e-04 2.089339790258013e-03 2.976795715802678e-03
-7.612165413926676e-04 -5.190421059747104e-04 2.256837574688922e-01 -7.541912728175899e-05 2.242201186516254e-03 -2.612845491430083e-04
-1.437997325927139e-03 -1.631098268007744e-03 2.248417889614974e-01 2.724484845793305e-05 -2.161687983330820e-04 -2.044510038642047e-04
2.478130660112031e-03 -5.352132860348935e-04 2.226868454066726e-01 1.741096796123286e-04 -1.979768243050892e-04 6.952457566183790e-03
-1.563284507863983e-03 -8.848199712359511e-04 2.252294576252865e-01 -7.331473220597879e-05 -1.386839552298616e-03 4.867458287624197e-04
-1.362612245915719e-03 -7.778098264882717e-04 2.254228404156808e-01 1.508382545633460e-04 2.242361917829661e-03 5.225690982860569e-04
4.273074451385496e-03 4.393023149725363e-03 2.386362074896131e-01 -4.251365403841982e-05 2.913523333391248e-04 3.959640757814414e-03
-4.898009436598398e-03 -5.708195533827689e-03 2.224195562084045e-01 7.567271260159889e-05 -3.857963261701457e-04 8.782415136400212e-04
-2.425870944182147e-03 -2.055065158430088e-03 2.244210047960025e-01 -5.448969691584020e-05 -2.160909552175353e-04 4.089020077282491e-04
-2.583117326762740e-03 -1.548980251393361e-03 2.174335909264848e-01 2.136324089917149e-04 3.175496207726834e-04 -2.473377701348263e-03
4.273074451385496e-03 4.393023149725363e-03 2.386362074896131e-01 -4.251365403841982e-05 2.913523333391248e-04 3.959640757814414e-03
-2.618338263066725e-03 -3.496404865742013e-03 2.117855462217179e-01 3.923707255715691e-04 1.326122898378066e-04 4.833988065660978e-03
-7.989566354117933e-03 -5.418289396349157e-03 1.923337295199498e-01 -4.435277559725131e-05 -2.812997868679210e-03 3.889786476594425e-04
-3.147369459439555e-03 -4.765851622382340e-03 2.239922600452920e-01 1.638745440257171e-04 -3.477731173789635e-04 1.635808010414902e-03
-4.898009436598398e-03 -5.708195533827689e-03 2.224195562084045e-01 7.567271260159889e-05 -3.857963261701457e-04 8.782415136400212e-04
1.238988777689251e-03 5.763883850749579e-03 2.292468992846226e-01 4.220016595996598e-04 1.224261650607343e-04 2.576402822345988e-03
-2.575674477704877e-03 3.483845895220825e-03 2.291501061302679e-01 1.602215951497564e-03 4.823957027598347e-04 3.902987789615824e-03
3.806494804394429e-03 4.248470148106027e-03 2.384319902281993e-01 2.125682701928037e-05 2.904849540186056e-04 -1.979820378907270e-03
1.669605315004352e-03 1.015146393839681e-03 2.261230118065851e-01 3.281870400021354e-04 4.421970416648021e-03 2.728247410517273e-03
-3.173483808027074e-03 -3.698102365343372e-03 2.114800101473464e-01 -1.961853627857395e-04 1.205063247989587e-04 -2.416994032830416e-03
-2.902731354516731e-03 -2.975464243634556e-03 2.070431191185812e-01 -1.082481054424610e-03 4.184279913057252e-03 -1.919789451919770e-03
-4.534677956579573e-03 -5.547251439967325e-03 2.225825609119161e-01 -3.783635630090072e-05 -3.856207010047054e-04 -4.391207568204026e-04
-5.085109274660479e-03 -4.162739954918107e-03 2.200482138646354e-01 -6.975463908517155e-05 1.059189627381757e-04 1.796231488637688e-04
2.549272092677176e-04 5.337387617416869e-03 2.288194579097982e-01 -2.110008298003653e-04 1.226148989929244e-04 -1.288201411169794e-03
-1.813881059712359e-03 -2.765192733115127e-03 2.224527462858497e-01 5.948704514691246e-07 2.900896891485054e-04 -3.362029580504541e-04
1.014003476225797e-03 -8.711723318148184e-04 2.239747092668231e-01 -5.976071166593819e-05 -2.071117328664681e-04 -3.680338259342187e-03
-2.425870944182147e-03 -2.055065158430088e-03 2.244210047960025e-01 -5.448969691584020e-05 -2.160909552175353e-04 4.089020077282491e-04
-2.293535905245893e-03 4.112488621045188e-04 2.214664696138990e-01 -3.108047653507640e-04 2.071962279345568e-03 1.528464365446085e-05
2.540827157039969e-03 2.386131676210296e-03 2.214313825787224e-01 -5.343781473562397e-04 9.799448179614299e-04 -4.705635628742904e-03
5.915516049875963e-04 -1.316951944552172e-04 2.245667825583204e-01 4.097408353732261e-05 2.165690122733168e-03 -1.749584326211486e-03
-1.362612245915719e-03 -7.778098264882717e-04 2.254228404156808e-01 1.508382545633460e-04 2.242361917829661e-03 5.225690982860569e-04
-1.437997325927139e-03 -1.631098268007744e-03 2.248417889614974e-01 2.724484845793305e-05 -2.161687983330820e-04 -2.044510038642047e-04
-9.743581766880625e-04 9.773251706396082e-04 2.220317819222353e-01 1.554023826757653e-04 2.072677498062319e-03 -7.642321826890528e-06
1.638305889309258e-03 1.058086047971905e-03 2.261102116122208e-01 -1.640935200010275e-04 4.422890237455921e-03 -1.364123705258756e-03
-4.322574273602522e-03 -3.830077681950603e-03 2.203824189302722e-01 3.487731954314986e-05 1.057605331691962e-04 -8.981157443089713e-05
-7.612165413926676e-04 -5.190421059747104e-04 2.256837574688922e-01 -7.541912728175899e-05 2.242201186516254e-03 -2.612845491430083e-04
3.806494804394429e-03 4.248470148106027e-03 2.384319902281993e-01 2.125682701928037e-05 2.904849540186056e-04 -1.979820378907270e-03
-8.506149810920327e-03 -7.201877649264961e-03 1.966394088861955e-01 -3.851636872495466e-04 3.454816668538854e-04 9.939349101893914e-04
-1.225050335525677e-02 -6.936778927799471e-03 1.734929849668507e-01 -3.032101257348526e-04 -5.734396097094154e-03 -5.603420372409486e-03
-3.173483808027074e-03 -3.698102365343372e-03 2.114800101473464e-01 -1.961853627857395e-04 1.205063247989587e-04 -2.416994032830416e-03
-4.534677956579573e-03 -5.547251439967325e-03 2.225825609119161e-01 -3.783635630090072e-05 -3.856207010047054e-04 -4.391207568204026e-04
-2.123392442298714e-03 -4.145395898635097e-03 2.252389544752709e-01 -4.033470754903160e-04 -3.101011589004692e-04 -4.149250053284349e-03
-4.422214596272178e-03 2.056800406218407e-03 2.299081957254820e-01 -3.626027216335269e-03 8.419877726802208e-04 -1.038087407296919e-02
2.549272092677176e-04 5.337387617416869e-03 2.288194579097982e-01 -2.110008298003653e-04 1.226148989929244e-04 -1.288201411169794e-03
4.273074451385496e-03 4.393023149725363e-03 2.386362074896131e-01 -4.251365403841982e-05 2.913523333391248e-04 3.959640757814414e-03
-7.412469172639427e-03 -7.051954189359266e-03 1.879888268193390e-01 1.837395613578893e-03 3.944749767846204e-03 1.114877917399033e-03
-2.618338263066725e-03 -3.496404865742013e-03 2.117855462217179e-01 3.923707255715691e-04 1.326122898378066e-04 4.833988065660978e-03
1.638305889309258e-03 1.058086047971905e-03 2.261102116122208e-01 -1.640935200010275e-04 4.422890237455921e-03 -1.364123705258756e-03
-4.898009436598398e-03 -5.708195533827689e-03 2.224195562084045e-01 7.567271260159889e-05 -3.857963261701457e-04 8.782415136400212e-04
-6.772284688972424e-05 -2.032970057211115e-03 2.241888685757827e-01 6.854426175174612e-05 4.745772746934177e-04 4.928629269974763e-04
1.238988777689251e-03 5.763883850749579e-03 2.292468992846226e-01 4.220016595996598e-04 1.224261650607343e-04 2.576402822345988e-03
-4.322574273602522e-03 -3.830077681950603e-03 2.203824189302722e-01 3.487731954314986e-05 1.057605331691962e-04 -8.981157443089713e-05
-1.437997325927139e-03 -1.631098268007744e-03 2.248417889614974e-01 2.724484845793305e-05 -2.161687983330820e-04 -2.044510038642047e-04
2.478130660112031e-03 -5.352132860348935e-04 2.226868454066726e-01 1.741096796123286e-04 -1.979768243050892e-04 6.952457566183790e-03
4.736834762241208e-03 3.228861873294990e-03 2.202656709269908e-01 1.379084653397876e-03 -1.135030808473905e-04 9.397900333256472e-03
-9.743581766880625e-04 9.773251706396082e-04 2.220317819222353e-01 1.554023826757653e-04 2.072677498062319e-03 -7.642321826890528e-06
-7.612165413926676e-04 -5.190421059747104e-04 2.256837574688922e-01 -7.541912728175899e-05 2.242201186516254e-03 -2.612845491430083e-04
1.342924046820118e-03 -3.116003471358673e-06 2.231888905944690e-01 -2.327786765829890e-04 2.089339790258013e-03 2.976795715802678e-03
-2.425870944182147e-03 -2.055065158430088e-03 2.244210047960025e-01 -5.448969691584020e-05 -2.160909552175353e-04 4.089020077282491e-04
-2.293535905245893e-03 4.112488621045188e-04 2.214664696138990e-01 -3.108047653507640e-04 2.071962279345568e-03 1.528464365446085e-05
1.669605315004352e-03 1.015146393839681e-03 2.261230118065851e-01 3.281870400021354e-04 4.421970416648021e-03 2.728247410517273e-03
-5.085109274660479e-03 -4.162739954918107e-03 2.200482138646354e-01 -6.975463908517155e-05 1.059189627381757e-04 1.796231488637688e-04
-1.362612245915719e-03 -7.778098264882717e-04 2.254228404156808e-01 1.508382545633460e-04 2.242361917829661e-03 5.225690982860569e-04
        </DataArray>
  </PointData>
  <CellData>
        <DataArray type="Float64" Name="element_GL_strains_xyz" NumberOfComponents="6" format="ascii">
-5.051030938844110e-02 -5.074834710995733e-02 1.702313554350193e-01 4.381638639555779e-04 -1.820669747196485e-03 -1.263388192850082e-03
-5.051030938844114e-02 -5.074834710995724e-02 1.702313554350195e-01 -4.381638639555427e-04 -1.820669747196516e-03 1.263388192850061e-03
-5.111447398041465e-02 -5.088172241675883e-02 1.734994829442658e-01 7.616389802624741e-18 -1.059652682083547e-17 -1.470328262088128e-03
-5.111447398041462e-02 -5.088172241675879e-02 1.734994829442658e-01 -1.521079055783892e-17 -2.752753672690929e-17 1.470328262088093e-03
-5.051030938844108e-02 -5.074834710995729e-02 1.702313554350196e-01 -4.381638639555562e-04 1.820669747196573e-03 -1.263388192850056e-03
-5.051030938844114e-02 -5.074834710995720e-02 1.702313554350195e-01 4.381638639555230e-04 1.820669747196511e-03 1.263388192850005e-03
-5.240965158747109e-02 -5.196931370632584e-02 1.726095561200193e-01 7.271175410724391e-05 -1.327153552576036e-03 -9.841207943760441e-04
-5.240965158747117e-02 -5.196931370632587e-02 1.726095561200191e-01 -7.271175410721124e-05 -1.327153552576047e-03 9.841207943760337e-04
-5.248587703578928e-02 -5.308590314797614e-02 1.737079010861896e-01 -5.435523593984898e-18 -1.221645597032726e-17 -1.074413561297629e-03
-5.248587703578923e-02 -5.308590314797610e-02 1.737079010861897e-01 -8.554177484053422e-20 -9.194981039942554e-17 1.074413561297523e-03
-5.240965158747111e-02 -5.196931370632586e-02 1.726095561200189e-01 -7.271175410720054e-05 1.327153552575899e-03 -9.841207943760573e-04
-5.240965158747116e-02 -5.196931370632588e-02 1.726095561200191e-01 7.271175410720611e-05 1.327153552576104e-03 9.841207943759775e-04
        </DataArray>
        <DataArray type="Float64" Name="element_cauchy_stresses_xyz" NumberOfComponents="6" format="ascii">
8.035110667863960e-04 6.428546490240183e-04 2.200041456645064e-01 2.868589620429254e-04 -7.089013901819828e-04 -3.656240325297936e-04
8.035110667864659e-04 6.428546490241497e-04 2.200041456645066e-01 -2.868589620429019e-04 -7.089013901819988e-04 3.656240325297698e-04
1.656910105366838e-03 1.815826463538991e-03 2.258358049893663e-01 5.000077128401446e-18 -3.348605397437483e-19 -6.189172912486177e-04
1.656910105366875e-03 1.815826463539029e-03 2.258358049893663e-01 -1.004971295645796e-17 -2.126149044825977e-17 6.189172912486140e-04
8.035110667865660e-04 6.428546490242046e-04 2.200041456645069e-01 -2.868589620429110e-04 7.089013901820327e-04 -3.656240325297626e-04
8.035110667865026e-04 6.428546490242236e-04 2.200041456645067e-01 2.868589620428892e-04 7.089013901819774e-04 3.656240325297254e-04
-8.215784826556434e-04 -5.305686460318953e-04 2.229424875808688e-01 4.587112130616338e-05 -7.024527683881292e-04 -4.835610938583227e-04
-8.215784826558175e-04 -5.305686460320236e-04 2.229424875808685e-01 -4.587112130614190e-05 -7.024527683881571e-04 4.835610938583085e-04
-9.192199235927945e-04 -1.314770862304140e-03 2.244433902006197e-01 -3.630143747596637e-18 -1.158291691609552e-17 -6.192224138102142e-04
-9.192199235926353e-04 -1.314770862303978e-03 2.244433902006201e-01 6.936121347588060e-20 -6.531050863889327e-17 6.192224138101151e-04
-8.215784826558576e-04 -5.305686460321138e-04 2.229424875808681e-01 -4.587112130613490e-05 7.024527683880038e-04 -4.835610938583106e-04
-8.215784826557795e-04 -5.305686460320183e-04 2.229424875808685e-01 4.587112130613852e-05 7.024527683881853e-04 4.835610938582519e-04
        </DataArray>
        <DataArray type="Float64" Name="element_owner" format="ascii">
1.000000000000000e+00
1.000000000000000e+00
1.000000000000000e+00
1.000000000000000e+00
1.000000000000000e+00
1.000000000000000e+00
1.000000000000000e+00
1.000000000000000e+00
1.000000000000000e+00
1.000000000000000e+00
1.000000000000000e+00
1.000000000000000e+00
        </DataArray>
      </CellData>

    </Piece>
  </UnstructuredGrid>
</VTKFile>
