<?xml version="1.0" ?> 
<!-- 
# vtk DataFile Version 3.0
-->
<VTKFile type="UnstructuredGrid" version="0.1" compressor="vtkZLibDataCompressor" byte_order="LittleEndian">
  <UnstructuredGrid>
    <FieldData>
      <DataArray type="Float64" Name="TIME" NumberOfTuples="1" format="ascii">
0.000000000000000e+00 
      </DataArray>
    </FieldData>

    <Piece NumberOfPoints="324" NumberOfCells="12" >
      <Points>
        <DataArray type="Float64" NumberOfComponents="3" format="ascii">
-5.000000000000000e-01 -5.000000000000000e-01 -1.000000000000000e-01
0.000000000000000e+00 -5.000000000000000e-01 -1.000000000000000e-01
0.000000000000000e+00 -1.666666666665000e-01 -1.000000000000000e-01
-5.000000000000000e-01 -1.666666666665000e-01 -1.000000000000000e-01
-5.000000000000000e-01 -5.000000000000000e-01 1.500000000000000e-01
0.000000000000000e+00 -5.000000000000000e-01 1.500000000000000e-01
0.000000000000000e+00 -1.666666666665000e-01 1.500000000000000e-01
-5.000000000000000e-01 -1.666666666665000e-01 1.500000000000000e-01
-2.500000000000000e-01 -5.000000000000000e-01 -9.999999999999999e-02
0.000000000000000e+00 -3.333333333331250e-01 -1.000000000000000e-01
-2.500000000000000e-01 -1.666666666665000e-01 -1.000000000000000e-01
-5.000000000000000e-01 -3.333333333331250e-01 -9.999999999999999e-02
-2.500000000000000e-01 -5.000000000000000e-01 1.500000000000000e-01
0.000000000000000e+00 -3.333333333331250e-01 1.500000000000000e-01
-2.500000000000000e-01 -1.666666666665000e-01 1.500000000000000e-01
-5.000000000000000e-01 -3.333333333331250e-01 1.500000000000000e-01
-5.000000000000000e-01 -5.000000000000000e-01 2.500000000000000e-02
0.000000000000000e+00 -5.000000000000000e-01 2.500000000000000e-02
0.000000000000000e+00 -1.666666666665000e-01 2.500000000000000e-02
-5.000000000000000e-01 -1.666666666665000e-01 2.500000000000000e-02
-5.000000000000000e-01 -3.333333333331250e-01 2.500000000000000e-02
0.000000000000000e+00 -3.333333333331250e-01 2.500000000000000e-02
-2.500000000000000e-01 -5.000000000000000e-01 2.500000000000000e-02
-2.500000000000000e-01 -1.666666666665001e-01 2.500000000000000e-02
-2.500000000000000e-01 -3.333333333331250e-01 -9.999999999999999e-02
-2.500000000000000e-01 -3.333333333331250e-01 1.500000000000000e-01
-2.500000000000000e-01 -3.333333333331250e-01 2.500000000000000e-02
0.000000000000000e+00 -5.000000000000000e-01 -1.000000000000000e-01
5.000000000000000e-01 -5.000000000000000e-01 -1.000000000000000e-01
5.000000000000000e-01 -1.666666666665000e-01 -1.000000000000000e-01
0.000000000000000e+00 -1.666666666665000e-01 -1.000000000000000e-01
0.000000000000000e+00 -5.000000000000000e-01 1.500000000000000e-01
5.000000000000000e-01 -5.000000000000000e-01 1.500000000000000e-01
5.000000000000000e-01 -1.666666666665000e-01 1.500000000000000e-01
0.000000000000000e+00 -1.666666666665000e-01 1.500000000000000e-01
2.500000000000000e-01 -5.000000000000000e-01 -1.000000000000000e-01
5.000000000000000e-01 -3.333333333331250e-01 -9.999999999999999e-02
2.500000000000000e-01 -1.666666666665000e-01 -9.999999999999999e-02
0.000000000000000e+00 -3.333333333331250e-01 -1.000000000000000e-01
2.500000000000000e-01 -5.000000000000000e-01 1.500000000000000e-01
5.000000000000000e-01 -3.333333333331250e-01 1.500000000000000e-01
2.500000000000000e-01 -1.666666666665000e-01 1.500000000000000e-01
0.000000000000000e+00 -3.333333333331250e-01 1.500000000000000e-01
0.000000000000000e+00 -5.000000000000000e-01 2.500000000000000e-02
5.000000000000000e-01 -5.000000000000000e-01 2.500000000000000e-02
5.000000000000000e-01 -1.666666666665000e-01 2.500000000000000e-02
0.000000000000000e+00 -1.666666666665000e-01 2.500000000000000e-02
0.000000000000000e+00 -3.333333333331250e-01 2.500000000000000e-02
5.000000000000000e-01 -3.333333333331250e-01 2.500000000000000e-02
2.500000000000000e-01 -5.000000000000000e-01 2.500000000000000e-02
2.500000000000000e-01 -1.666666666665000e-01 2.500000000000000e-02
2.500000000000000e-01 -3.333333333331250e-01 -9.999999999999999e-02
2.500000000000000e-01 -3.333333333331251e-01 1.500000000000000e-01
2.500000000000000e-01 -3.333333333331250e-01 2.500000000000000e-02
-5.000000000000000e-01 -1.666666666665000e-01 -1.000000000000000e-01
0.000000000000000e+00 -1.666666666665000e-01 -1.000000000000000e-01
0.000000000000000e+00 1.666666666665000e-01 -9.999999999999999e-02
-5.000000000000000e-01 1.666666666665000e-01 -1.000000000000000e-01
-5.000000000000000e-01 -1.666666666665000e-01 1.500000000000000e-01
0.000000000000000e+00 -1.666666666665000e-01 1.500000000000000e-01
0.000000000000000e+00 1.666666666665000e-01 1.500000000000000e-01
-5.000000000000000e-01 1.666666666665000e-01 1.500000000000000e-01
-2.500000000000000e-01 -1.666666666665000e-01 -1.000000000000000e-01
0.000000000000000e+00 2.775557561562891e-17 -1.000000000000000e-01
-2.500000000000000e-01 1.666666666665000e-01 -9.999999999999999e-02
-5.000000000000001e-01 2.775557561562891e-17 -1.000000000000000e-01
-2.500000000000000e-01 -1.666666666665000e-01 1.500000000000000e-01
0.000000000000000e+00 3.469446951953614e-17 1.500000000000000e-01
-2.500000000000000e-01 1.666666666665000e-01 1.500000000000000e-01
-5.000000000000001e-01 2.775557561562891e-17 1.500000000000000e-01
-5.000000000000000e-01 -1.666666666665000e-01 2.500000000000000e-02
0.000000000000000e+00 -1.666666666665000e-01 2.500000000000000e-02
0.000000000000000e+00 1.666666666665000e-01 2.500000000000000e-02
-5.000000000000000e-01 1.666666666665000e-01 2.500000000000000e-02
-5.000000000000001e-01 2.428612866367530e-17 2.500000000000000e-02
0.000000000000000e+00 2.515349040166370e-17 2.500000000000000e-02
-2.500000000000000e-01 -1.666666666665001e-01 2.500000000000000e-02
-2.500000000000000e-01 1.666666666665000e-01 2.500000000000000e-02
-2.500000000000000e-01 2.428612866367530e-17 -9.999999999999999e-02
-2.500000000000000e-01 2.602085213965211e-17 1.500000000000000e-01
-2.500000000000000e-01 2.211772431870429e-17 2.500000000000000e-02
0.000000000000000e+00 -1.666666666665000e-01 -1.000000000000000e-01
5.000000000000000e-01 -1.666666666665000e-01 -1.000000000000000e-01
5.000000000000000e-01 1.666666666665000e-01 -1.000000000000000e-01
0.000000000000000e+00 1.666666666665000e-01 -9.999999999999999e-02
0.000000000000000e+00 -1.666666666665000e-01 1.500000000000000e-01
5.000000000000000e-01 -1.666666666665000e-01 1.500000000000000e-01
5.000000000000000e-01 1.666666666665000e-01 1.500000000000000e-01
0.000000000000000e+00 1.666666666665000e-01 1.500000000000000e-01
2.500000000000000e-01 -1.666666666665000e-01 -9.999999999999999e-02
5.000000000000001e-01 2.775557561562891e-17 -1.000000000000000e-01
2.500000000000000e-01 1.666666666665000e-01 -9.999999999999999e-02
0.000000000000000e+00 2.775557561562891e-17 -1.000000000000000e-01
2.500000000000000e-01 -1.666666666665000e-01 1.500000000000000e-01
5.000000000000001e-01 2.775557561562891e-17 1.500000000000000e-01
2.500000000000000e-01 1.666666666665000e-01 1.500000000000000e-01
0.000000000000000e+00 3.469446951953614e-17 1.500000000000000e-01
0.000000000000000e+00 -1.666666666665000e-01 2.500000000000000e-02
5.000000000000000e-01 -1.666666666665000e-01 2.500000000000000e-02
5.000000000000000e-01 1.666666666665000e-01 2.500000000000000e-02
0.000000000000000e+00 1.666666666665000e-01 2.500000000000000e-02
0.000000000000000e+00 2.515349040166370e-17 2.500000000000000e-02
5.000000000000001e-01 2.428612866367530e-17 2.500000000000000e-02
2.500000000000000e-01 -1.666666666665000e-01 2.500000000000000e-02
2.500000000000000e-01 1.666666666665000e-01 2.500000000000000e-02
2.500000000000000e-01 2.081668171172169e-17 -1.000000000000000e-01
2.500000000000000e-01 2.428612866367530e-17 1.500000000000000e-01
2.500000000000000e-01 2.341876692568690e-17 2.500000000000000e-02
-5.000000000000000e-01 1.666666666665000e-01 -1.000000000000000e-01
0.000000000000000e+00 1.666666666665000e-01 -9.999999999999999e-02
0.000000000000000e+00 5.000000000000000e-01 -1.000000000000000e-01
-5.000000000000000e-01 5.000000000000000e-01 -1.000000000000000e-01
-5.000000000000000e-01 1.666666666665000e-01 1.500000000000000e-01
0.000000000000000e+00 1.666666666665000e-01 1.500000000000000e-01
0.000000000000000e+00 5.000000000000000e-01 1.500000000000000e-01
-5.000000000000000e-01 5.000000000000000e-01 1.500000000000000e-01
-2.500000000000000e-01 1.666666666665000e-01 -9.999999999999999e-02
0.000000000000000e+00 3.333333333331250e-01 -1.000000000000000e-01
-2.500000000000000e-01 5.000000000000000e-01 -9.999999999999999e-02
-5.000000000000000e-01 3.333333333331250e-01 -1.000000000000000e-01
-2.500000000000000e-01 1.666666666665000e-01 1.500000000000000e-01
0.000000000000000e+00 3.333333333331250e-01 1.500000000000000e-01
-2.500000000000000e-01 5.000000000000000e-01 1.500000000000000e-01
-5.000000000000000e-01 3.333333333331250e-01 1.500000000000000e-01
-5.000000000000000e-01 1.666666666665000e-01 2.500000000000000e-02
0.000000000000000e+00 1.666666666665000e-01 2.500000000000000e-02
0.000000000000000e+00 5.000000000000000e-01 2.500000000000000e-02
-5.000000000000000e-01 5.000000000000000e-01 2.500000000000000e-02
-5.000000000000000e-01 3.333333333331250e-01 2.500000000000000e-02
0.000000000000000e+00 3.333333333331250e-01 2.499999999999999e-02
-2.500000000000000e-01 1.666666666665000e-01 2.500000000000000e-02
-2.500000000000000e-01 5.000000000000000e-01 2.500000000000000e-02
-2.500000000000000e-01 3.333333333331250e-01 -9.999999999999999e-02
-2.499999999999999e-01 3.333333333331250e-01 1.500000000000000e-01
-2.500000000000000e-01 3.333333333331249e-01 2.500000000000000e-02
0.000000000000000e+00 1.666666666665000e-01 -9.999999999999999e-02
5.000000000000000e-01 1.666666666665000e-01 -1.000000000000000e-01
5.000000000000000e-01 5.000000000000000e-01 -1.000000000000000e-01
0.000000000000000e+00 5.000000000000000e-01 -1.000000000000000e-01
0.000000000000000e+00 1.666666666665000e-01 1.500000000000000e-01
5.000000000000000e-01 1.666666666665000e-01 1.500000000000000e-01
5.000000000000000e-01 5.000000000000000e-01 1.500000000000000e-01
0.000000000000000e+00 5.000000000000000e-01 1.500000000000000e-01
2.500000000000000e-01 1.666666666665000e-01 -9.999999999999999e-02
5.000000000000000e-01 3.333333333331250e-01 -1.000000000000000e-01
2.500000000000000e-01 5.000000000000000e-01 -1.000000000000000e-01
0.000000000000000e+00 3.333333333331250e-01 -1.000000000000000e-01
2.500000000000000e-01 1.666666666665000e-01 1.500000000000000e-01
5.000000000000000e-01 3.333333333331250e-01 1.500000000000000e-01
2.500000000000000e-01 5.000000000000000e-01 1.500000000000000e-01
0.000000000000000e+00 3.333333333331250e-01 1.500000000000000e-01
0.000000000000000e+00 1.666666666665000e-01 2.500000000000000e-02
5.000000000000000e-01 1.666666666665000e-01 2.500000000000000e-02
5.000000000000000e-01 5.000000000000000e-01 2.500000000000000e-02
0.000000000000000e+00 5.000000000000000e-01 2.500000000000000e-02
0.000000000000000e+00 3.333333333331250e-01 2.499999999999999e-02
5.000000000000000e-01 3.333333333331250e-01 2.500000000000000e-02
2.500000000000000e-01 1.666666666665000e-01 2.500000000000000e-02
2.500000000000000e-01 5.000000000000000e-01 2.500000000000000e-02
2.500000000000000e-01 3.333333333331250e-01 -1.000000000000000e-01
2.499999999999999e-01 3.333333333331250e-01 1.500000000000000e-01
2.500000000000000e-01 3.333333333331249e-01 2.500000000000000e-02
-5.000000000000000e-01 -5.000000000000000e-01 1.500000000000000e-01
0.000000000000000e+00 -5.000000000000000e-01 1.500000000000000e-01
0.000000000000000e+00 -1.666666666665000e-01 1.500000000000000e-01
-5.000000000000000e-01 -1.666666666665000e-01 1.500000000000000e-01
-5.000000000000000e-01 -5.000000000000000e-01 4.000000000000000e-01
0.000000000000000e+00 -5.000000000000000e-01 4.000000000000000e-01
0.000000000000000e+00 -1.666666666665000e-01 4.000000000000000e-01
-5.000000000000000e-01 -1.666666666665000e-01 4.000000000000000e-01
-2.500000000000000e-01 -5.000000000000000e-01 1.500000000000000e-01
0.000000000000000e+00 -3.333333333331250e-01 1.500000000000000e-01
-2.500000000000000e-01 -1.666666666665000e-01 1.500000000000000e-01
-5.000000000000000e-01 -3.333333333331250e-01 1.500000000000000e-01
-2.500000000000000e-01 -5.000000000000000e-01 4.000000000000000e-01
0.000000000000000e+00 -3.333333333331250e-01 4.000000000000000e-01
-2.500000000000000e-01 -1.666666666665000e-01 4.000000000000000e-01
-5.000000000000000e-01 -3.333333333331250e-01 4.000000000000000e-01
-5.000000000000000e-01 -5.000000000000000e-01 2.750000000000000e-01
0.000000000000000e+00 -5.000000000000000e-01 2.750000000000000e-01
0.000000000000000e+00 -1.666666666665000e-01 2.750000000000001e-01
-5.000000000000000e-01 -1.666666666665000e-01 2.750000000000000e-01
-5.000000000000000e-01 -3.333333333331250e-01 2.750000000000000e-01
0.000000000000000e+00 -3.333333333331250e-01 2.750000000000000e-01
-2.500000000000000e-01 -5.000000000000000e-01 2.750000000000000e-01
-2.500000000000000e-01 -1.666666666665000e-01 2.750000000000000e-01
-2.500000000000000e-01 -3.333333333331250e-01 1.500000000000000e-01
-2.500000000000000e-01 -3.333333333331250e-01 4.000000000000000e-01
-2.500000000000000e-01 -3.333333333331250e-01 2.750000000000000e-01
0.000000000000000e+00 -5.000000000000000e-01 1.500000000000000e-01
5.000000000000000e-01 -5.000000000000000e-01 1.500000000000000e-01
5.000000000000000e-01 -1.666666666665000e-01 1.500000000000000e-01
0.000000000000000e+00 -1.666666666665000e-01 1.500000000000000e-01
0.000000000000000e+00 -5.000000000000000e-01 4.000000000000000e-01
5.000000000000000e-01 -5.000000000000000e-01 4.000000000000000e-01
5.000000000000000e-01 -1.666666666665000e-01 4.000000000000000e-01
0.000000000000000e+00 -1.666666666665000e-01 4.000000000000000e-01
2.500000000000000e-01 -5.000000000000000e-01 1.500000000000000e-01
5.000000000000000e-01 -3.333333333331250e-01 1.500000000000000e-01
2.500000000000000e-01 -1.666666666665000e-01 1.500000000000000e-01
0.000000000000000e+00 -3.333333333331250e-01 1.500000000000000e-01
2.500000000000000e-01 -5.000000000000000e-01 4.000000000000000e-01
5.000000000000000e-01 -3.333333333331250e-01 4.000000000000000e-01
2.500000000000000e-01 -1.666666666665000e-01 4.000000000000001e-01
0.000000000000000e+00 -3.333333333331250e-01 4.000000000000000e-01
0.000000000000000e+00 -5.000000000000000e-01 2.750000000000000e-01
5.000000000000000e-01 -5.000000000000000e-01 2.750000000000000e-01
5.000000000000000e-01 -1.666666666665000e-01 2.750000000000000e-01
0.000000000000000e+00 -1.666666666665000e-01 2.750000000000001e-01
0.000000000000000e+00 -3.333333333331250e-01 2.750000000000000e-01
5.000000000000000e-01 -3.333333333331250e-01 2.750000000000000e-01
2.500000000000000e-01 -5.000000000000000e-01 2.750000000000000e-01
2.500000000000000e-01 -1.666666666665000e-01 2.750000000000000e-01
2.500000000000000e-01 -3.333333333331251e-01 1.500000000000000e-01
2.500000000000000e-01 -3.333333333331251e-01 4.000000000000000e-01
2.500000000000000e-01 -3.333333333331249e-01 2.750000000000000e-01
-5.000000000000000e-01 -1.666666666665000e-01 1.500000000000000e-01
0.000000000000000e+00 -1.666666666665000e-01 1.500000000000000e-01
0.000000000000000e+00 1.666666666665000e-01 1.500000000000000e-01
-5.000000000000000e-01 1.666666666665000e-01 1.500000000000000e-01
-5.000000000000000e-01 -1.666666666665000e-01 4.000000000000000e-01
0.000000000000000e+00 -1.666666666665000e-01 4.000000000000000e-01
0.000000000000000e+00 1.666666666665000e-01 4.000000000000000e-01
-5.000000000000000e-01 1.666666666665000e-01 4.000000000000000e-01
-2.500000000000000e-01 -1.666666666665000e-01 1.500000000000000e-01
0.000000000000000e+00 3.469446951953614e-17 1.500000000000000e-01
-2.500000000000000e-01 1.666666666665000e-01 1.500000000000000e-01
-5.000000000000001e-01 2.775557561562891e-17 1.500000000000000e-01
-2.500000000000000e-01 -1.666666666665000e-01 4.000000000000000e-01
0.000000000000000e+00 3.469446951953614e-17 4.000000000000001e-01
-2.500000000000000e-01 1.666666666665000e-01 4.000000000000000e-01
-5.000000000000001e-01 2.775557561562891e-17 4.000000000000001e-01
-5.000000000000000e-01 -1.666666666665000e-01 2.750000000000000e-01
0.000000000000000e+00 -1.666666666665000e-01 2.750000000000001e-01
0.000000000000000e+00 1.666666666665000e-01 2.750000000000001e-01
-5.000000000000000e-01 1.666666666665000e-01 2.750000000000000e-01
-5.000000000000000e-01 3.469446951953614e-17 2.750000000000000e-01
0.000000000000000e+00 3.469446951953614e-17 2.750000000000000e-01
-2.500000000000000e-01 -1.666666666665000e-01 2.750000000000000e-01
-2.500000000000000e-01 1.666666666665000e-01 2.750000000000000e-01
-2.500000000000000e-01 2.602085213965211e-17 1.500000000000000e-01
-2.500000000000000e-01 2.602085213965211e-17 4.000000000000000e-01
-2.500000000000000e-01 3.079134169858833e-17 2.750000000000001e-01
0.000000000000000e+00 -1.666666666665000e-01 1.500000000000000e-01
5.000000000000000e-01 -1.666666666665000e-01 1.500000000000000e-01
5.000000000000000e-01 1.666666666665000e-01 1.500000000000000e-01
0.000000000000000e+00 1.666666666665000e-01 1.500000000000000e-01
0.000000000000000e+00 -1.666666666665000e-01 4.000000000000000e-01
5.000000000000000e-01 -1.666666666665000e-01 4.000000000000000e-01
5.000000000000000e-01 1.666666666665000e-01 4.000000000000000e-01
0.000000000000000e+00 1.666666666665000e-01 4.000000000000000e-01
2.500000000000000e-01 -1.666666666665000e-01 1.500000000000000e-01
5.000000000000001e-01 2.775557561562891e-17 1.500000000000000e-01
2.500000000000000e-01 1.666666666665000e-01 1.500000000000000e-01
0.000000000000000e+00 3.469446951953614e-17 1.500000000000000e-01
2.500000000000000e-01 -1.666666666665000e-01 4.000000000000001e-01
5.000000000000001e-01 2.775557561562891e-17 4.000000000000001e-01
2.500000000000000e-01 1.666666666665000e-01 4.000000000000000e-01
0.000000000000000e+00 3.469446951953614e-17 4.000000000000001e-01
0.000000000000000e+00 -1.666666666665000e-01 2.750000000000001e-01
5.000000000000000e-01 -1.666666666665000e-01 2.750000000000000e-01
5.000000000000000e-01 1.666666666665000e-01 2.750000000000000e-01
0.000000000000000e+00 1.666666666665000e-01 2.750000000000001e-01
0.000000000000000e+00 3.469446951953614e-17 2.750000000000000e-01
5.000000000000000e-01 3.469446951953614e-17 2.750000000000000e-01
2.500000000000000e-01 -1.666666666665000e-01 2.750000000000000e-01
2.500000000000000e-01 1.666666666665000e-01 2.750000000000000e-01
2.500000000000000e-01 2.428612866367530e-17 1.500000000000000e-01
2.500000000000000e-01 2.428612866367530e-17 4.000000000000000e-01
2.500000000000000e-01 2.515349040166370e-17 2.750000000000001e-01
-5.000000000000000e-01 1.666666666665000e-01 1.500000000000000e-01
0.000000000000000e+00 1.666666666665000e-01 1.500000000000000e-01
0.000000000000000e+00 5.000000000000000e-01 1.500000000000000e-01
-5.000000000000000e-01 5.000000000000000e-01 1.500000000000000e-01
-5.000000000000000e-01 1.666666666665000e-01 4.000000000000000e-01
0.000000000000000e+00 1.666666666665000e-01 4.000000000000000e-01
0.000000000000000e+00 5.000000000000000e-01 4.000000000000000e-01
-5.000000000000000e-01 5.000000000000000e-01 4.000000000000000e-01
-2.500000000000000e-01 1.666666666665000e-01 1.500000000000000e-01
0.000000000000000e+00 3.333333333331250e-01 1.500000000000000e-01
-2.500000000000000e-01 5.000000000000000e-01 1.500000000000000e-01
-5.000000000000000e-01 3.333333333331250e-01 1.500000000000000e-01
-2.500000000000000e-01 1.666666666665000e-01 4.000000000000000e-01
0.000000000000000e+00 3.333333333331250e-01 4.000000000000000e-01
-2.500000000000000e-01 5.000000000000000e-01 4.000000000000000e-01
-5.000000000000000e-01 3.333333333331250e-01 4.000000000000001e-01
-5.000000000000000e-01 1.666666666665000e-01 2.750000000000000e-01
0.000000000000000e+00 1.666666666665000e-01 2.750000000000001e-01
0.000000000000000e+00 5.000000000000000e-01 2.750000000000000e-01
-5.000000000000000e-01 5.000000000000000e-01 2.750000000000000e-01
-5.000000000000000e-01 3.333333333331250e-01 2.750000000000001e-01
0.000000000000000e+00 3.333333333331250e-01 2.749999999999999e-01
-2.500000000000000e-01 1.666666666665000e-01 2.750000000000000e-01
-2.500000000000000e-01 5.000000000000000e-01 2.750000000000000e-01
-2.499999999999999e-01 3.333333333331250e-01 1.500000000000000e-01
-2.499999999999999e-01 3.333333333331250e-01 3.999999999999999e-01
-2.500000000000000e-01 3.333333333331249e-01 2.750000000000000e-01
0.000000000000000e+00 1.666666666665000e-01 1.500000000000000e-01
5.000000000000000e-01 1.666666666665000e-01 1.500000000000000e-01
5.000000000000000e-01 5.000000000000000e-01 1.500000000000000e-01
0.000000000000000e+00 5.000000000000000e-01 1.500000000000000e-01
0.000000000000000e+00 1.666666666665000e-01 4.000000000000000e-01
5.000000000000000e-01 1.666666666665000e-01 4.000000000000000e-01
5.000000000000000e-01 5.000000000000000e-01 4.000000000000000e-01
0.000000000000000e+00 5.000000000000000e-01 4.000000000000000e-01
2.500000000000000e-01 1.666666666665000e-01 1.500000000000000e-01
5.000000000000000e-01 3.333333333331250e-01 1.500000000000000e-01
2.500000000000000e-01 5.000000000000000e-01 1.500000000000000e-01
0.000000000000000e+00 3.333333333331250e-01 1.500000000000000e-01
2.500000000000000e-01 1.666666666665000e-01 4.000000000000000e-01
5.000000000000000e-01 3.333333333331250e-01 4.000000000000001e-01
2.500000000000000e-01 5.000000000000000e-01 4.000000000000000e-01
0.000000000000000e+00 3.333333333331250e-01 4.000000000000000e-01
0.000000000000000e+00 1.666666666665000e-01 2.750000000000001e-01
5.000000000000000e-01 1.666666666665000e-01 2.750000000000000e-01
5.000000000000000e-01 5.000000000000000e-01 2.750000000000000e-01
0.000000000000000e+00 5.000000000000000e-01 2.750000000000000e-01
0.000000000000000e+00 3.333333333331250e-01 2.749999999999999e-01
5.000000000000000e-01 3.333333333331250e-01 2.750000000000001e-01
2.500000000000000e-01 1.666666666665000e-01 2.750000000000000e-01
2.500000000000000e-01 5.000000000000000e-01 2.750000000000000e-01
2.499999999999999e-01 3.333333333331250e-01 1.500000000000000e-01
2.499999999999999e-01 3.333333333331250e-01 4.000000000000000e-01
2.500000000000000e-01 3.333333333331250e-01 2.750000000000001e-01
        </DataArray>
      </Points>

      <Cells>
        <DataArray type="Int32" Name="connectivity" format="ascii">
0 1 2 3 4 5 6 7 8 9 10 11 12 13 14 15 16 17 18 19 20 21 22 23 24 25 26 27 28 29 30 31 32 33 34 35 36 37 38 39 40 41 42 43 44 45 46 47 48 49 50 51 52 53 54 55 56 57 58 59 60 61 62 63 64 65 66 67 68 69 70 71 72 73 74 75 76 77 78 79 80 81 82 83 84 85 86 87 88 89 90 91 92 93 94 95 96 97 98 99 100 101 102 103 104 105 106 107 108 109 110 111 112 113 114 115 116 117 118 119 120 121 122 123 124 125 126 127 128 129 130 131 132 133 134 135 136 137 138 139 140 141 142 143 144 145 146 147 148 149 150 151 152 153 154 155 156 157 158 159 160 161 162 163 164 165 166 167 168 169 170 171 172 173 174 175 176 177 178 179 180 181 182 183 184 185 186 187 188 189 190 191 192 193 194 195 196 197 198 199 200 201 202 203 204 205 206 207 208 209 210 211 212 213 214 215 216 217 218 219 220 221 222 223 224 225 226 227 228 229 230 231 232 233 234 235 236 237 238 239 240 241 242 243 244 245 246 247 248 249 250 251 252 253 254 255 256 257 258 259 260 261 262 263 264 265 266 267 268 269 270 271 272 273 274 275 276 277 278 279 280 281 282 283 284 285 286 287 288 289 290 291 292 293 294 295 296 297 298 299 300 301 302 303 304 305 306 307 308 309 310 311 312 313 314 315 316 317 318 319 320 321 322 323 
        </DataArray>
        <DataArray type="Int32" Name="offsets" format="ascii">
27 54 81 108 135 162 189 216 243 270 297 324 
        </DataArray>
        <DataArray type="UInt8" Name="types" format="ascii">
29 29 29 29 29 29 29 29 29 29 29 29 
        </DataArray>
      </Cells>

  <PointData>
        <DataArray type="Float64" Name="displacement" NumberOfComponents="3" format="ascii">
0.000000000000000e+00 0.000000000000000e+00 0.000000000000000e+00
0.000000000000000e+00 0.000000000000000e+00 0.000000000000000e+00
0.000000000000000e+00 0.000000000000000e+00 0.000000000000000e+00
0.000000000000000e+00 0.000000000000000e+00 0.000000000000000e+00
0.000000000000000e+00 0.000000000000000e+00 0.000000000000000e+00
0.000000000000000e+00 0.000000000000000e+00 0.000000000000000e+00
0.000000000000000e+00 0.000000000000000e+00 0.000000000000000e+00
0.000000000000000e+00 0.000000000000000e+00 0.000000000000000e+00
0.000000000000000e+00 0.000000000000000e+00 0.000000000000000e+00
0.000000000000000e+00 0.000000000000000e+00 0.000000000000000e+00
0.000000000000000e+00 0.000000000000000e+00 0.000000000000000e+00
0.000000000000000e+00 0.000000000000000e+00 0.000000000000000e+00
0.000000000000000e+00 0.000000000000000e+00 0.000000000000000e+00
0.000000000000000e+00 0.000000000000000e+00 0.000000000000000e+00
0.000000000000000e+00 0.000000000000000e+00 0.000000000000000e+00
0.000000000000000e+00 0.000000000000000e+00 0.000000000000000e+00
0.000000000000000e+00 0.000000000000000e+00 0.000000000000000e+00
0.000000000000000e+00 0.000000000000000e+00 0.000000000000000e+00
0.000000000000000e+00 0.000000000000000e+00 0.000000000000000e+00
0.000000000000000e+00 0.000000000000000e+00 0.000000000000000e+00
0.000000000000000e+00 0.000000000000000e+00 0.000000000000000e+00
0.000000000000000e+00 0.000000000000000e+00 0.000000000000000e+00
0.000000000000000e+00 0.000000000000000e+00 0.000000000000000e+00
0.000000000000000e+00 0.000000000000000e+00 0.000000000000000e+00
0.000000000000000e+00 0.000000000000000e+00 0.000000000000000e+00
0.000000000000000e+00 0.000000000000000e+00 0.000000000000000e+00
0.000000000000000e+00 0.000000000000000e+00 0.000000000000000e+00
0.000000000000000e+00 0.000000000000000e+00 0.000000000000000e+00
0.000000000000000e+00 0.000000000000000e+00 0.000000000000000e+00
0.000000000000000e+00 0.000000000000000e+00 0.000000000000000e+00
0.000000000000000e+00 0.000000000000000e+00 0.000000000000000e+00
0.000000000000000e+00 0.000000000000000e+00 0.000000000000000e+00
0.000000000000000e+00 0.000000000000000e+00 0.000000000000000e+00
0.000000000000000e+00 0.000000000000000e+00 0.000000000000000e+00
0.000000000000000e+00 0.000000000000000e+00 0.000000000000000e+00
0.000000000000000e+00 0.000000000000000e+00 0.000000000000000e+00
0.000000000000000e+00 0.000000000000000e+00 0.000000000000000e+00
0.000000000000000e+00 0.000000000000000e+00 0.000000000000000e+00
0.000000000000000e+00 0.000000000000000e+00 0.000000000000000e+00
0.000000000000000e+00 0.000000000000000e+00 0.000000000000000e+00
0.000000000000000e+00 0.000000000000000e+00 0.000000000000000e+00
0.000000000000000e+00 0.000000000000000e+00 0.000000000000000e+00
0.000000000000000e+00 0.000000000000000e+00 0.000000000000000e+00
0.000000000000000e+00 0.000000000000000e+00 0.000000000000000e+00
0.000000000000000e+00 0.000000000000000e+00 0.000000000000000e+00
0.000000000000000e+00 0.000000000000000e+00 0.000000000000000e+00
0.000000000000000e+00 0.000000000000000e+00 0.000000000000000e+00
0.000000000000000e+00 0.000000000000000e+00 0.000000000000000e+00
0.000000000000000e+00 0.000000000000000e+00 0.000000000000000e+00
0.000000000000000e+00 0.000000000000000e+00 0.000000000000000e+00
0.000000000000000e+00 0.000000000000000e+00 0.000000000000000e+00
0.000000000000000e+00 0.000000000000000e+00 0.000000000000000e+00
0.000000000000000e+00 0.000000000000000e+00 0.000000000000000e+00
0.000000000000000e+00 0.000000000000000e+00 0.000000000000000e+00
0.000000000000000e+00 0.000000000000000e+00 0.000000000000000e+00
0.000000000000000e+00 0.000000000000000e+00 0.000000000000000e+00
0.000000000000000e+00 0.000000000000000e+00 0.000000000000000e+00
0.000000000000000e+00 0.000000000000000e+00 0.000000000000000e+00
0.000000000000000e+00 0.000000000000000e+00 0.000000000000000e+00
0.000000000000000e+00 0.000000000000000e+00 0.000000000000000e+00
0.000000000000000e+00 0.000000000000000e+00 0.000000000000000e+00
0.000000000000000e+00 0.000000000000000e+00 0.000000000000000e+00
0.000000000000000e+00 0.000000000000000e+00 0.000000000000000e+00
0.000000000000000e+00 0.000000000000000e+00 0.000000000000000e+00
0.000000000000000e+00 0.000000000000000e+00 0.000000000000000e+00
0.000000000000000e+00 0.000000000000000e+00 0.000000000000000e+00
0.000000000000000e+00 0.000000000000000e+00 0.000000000000000e+00
0.000000000000000e+00 0.000000000000000e+00 0.000000000000000e+00
0.000000000000000e+00 0.000000000000000e+00 0.000000000000000e+00
0.000000000000000e+00 0.000000000000000e+00 0.000000000000000e+00
0.000000000000000e+00 0.000000000000000e+00 0.000000000000000e+00
0.000000000000000e+00 0.000000000000000e+00 0.000000000000000e+00
0.000000000000000e+00 0.000000000000000e+00 0.000000000000000e+00
0.000000000000000e+00 0.000000000000000e+00 0.000000000000000e+00
0.000000000000000e+00 0.000000000000000e+00 0.000000000000000e+00
0.000000000000000e+00 0.000000000000000e+00 0.000000000000000e+00
0.000000000000000e+00 0.000000000000000e+00 0.000000000000000e+00
0.000000000000000e+00 0.000000000000000e+00 0.000000000000000e+00
0.000000000000000e+00 0.000000000000000e+00 0.000000000000000e+00
0.000000000000000e+00 0.000000000000000e+00 0.000000000000000e+00
0.000000000000000e+00 0.000000000000000e+00 0.000000000000000e+00
0.000000000000000e+00 0.000000000000000e+00 0.000000000000000e+00
0.000000000000000e+00 0.000000000000000e+00 0.000000000000000e+00
0.000000000000000e+00 0.000000000000000e+00 0.000000000000000e+00
0.000000000000000e+00 0.000000000000000e+00 0.000000000000000e+00
0.000000000000000e+00 0.000000000000000e+00 0.000000000000000e+00
0.000000000000000e+00 0.000000000000000e+00 0.000000000000000e+00
0.000000000000000e+00 0.000000000000000e+00 0.000000000000000e+00
0.000000000000000e+00 0.000000000000000e+00 0.000000000000000e+00
0.000000000000000e+00 0.000000000000000e+00 0.000000000000000e+00
0.000000000000000e+00 0.000000000000000e+00 0.000000000000000e+00
0.000000000000000e+00 0.000000000000000e+00 0.000000000000000e+00
0.000000000000000e+00 0.000000000000000e+00 0.000000000000000e+00
0.000000000000000e+00 0.000000000000000e+00 0.000000000000000e+00
0.000000000000000e+00 0.000000000000000e+00 0.000000000000000e+00
0.000000000000000e+00 0.000000000000000e+00 0.000000000000000e+00
0.000000000000000e+00 0.000000000000000e+00 0.000000000000000e+00
0.000000000000000e+00 0.000000000000000e+00 0.000000000000000e+00
0.000000000000000e+00 0.000000000000000e+00 0.000000000000000e+00
0.000000000000000e+00 0.000000000000000e+00 0.000000000000000e+00
0.000000000000000e+00 0.000000000000000e+00 0.000000000000000e+00
0.000000000000000e+00 0.000000000000000e+00 0.000000000000000e+00
0.000000000000000e+00 0.000000000000000e+00 0.000000000000000e+00
0.000000000000000e+00 0.000000000000000e+00 0.000000000000000e+00
0.000000000000000e+00 0.000000000000000e+00 0.000000000000000e+00
0.000000000000000e+00 0.000000000000000e+00 0.000000000000000e+00
0.000000000000000e+00 0.000000000000000e+00 0.000000000000000e+00
0.000000000000000e+00 0.000000000000000e+00 0.000000000000000e+00
0.000000000000000e+00 0.000000000000000e+00 0.000000000000000e+00
0.000000000000000e+00 0.000000000000000e+00 0.000000000000000e+00
0.000000000000000e+00 0.000000000000000e+00 0.000000000000000e+00
0.000000000000000e+00 0.000000000000000e+00 0.000000000000000e+00
0.000000000000000e+00 0.000000000000000e+00 0.000000000000000e+00
0.000000000000000e+00 0.000000000000000e+00 0.000000000000000e+00
0.000000000000000e+00 0.000000000000000e+00 0.000000000000000e+00
0.000000000000000e+00 0.000000000000000e+00 0.000000000000000e+00
0.000000000000000e+00 0.000000000000000e+00 0.000000000000000e+00
0.000000000000000e+00 0.000000000000000e+00 0.000000000000000e+00
0.000000000000000e+00 0.000000000000000e+00 0.000000000000000e+00
0.000000000000000e+00 0.000000000000000e+00 0.000000000000000e+00
0.000000000000000e+00 0.000000000000000e+00 0.000000000000000e+00
0.000000000000000e+00 0.000000000000000e+00 0.000000000000000e+00
0.000000000000000e+00 0.000000000000000e+00 0.000000000000000e+00
0.000000000000000e+00 0.000000000000000e+00 0.000000000000000e+00
0.000000000000000e+00 0.000000000000000e+00 0.000000000000000e+00
0.000000000000000e+00 0.000000000000000e+00 0.000000000000000e+00
0.000000000000000e+00 0.000000000000000e+00 0.000000000000000e+00
0.000000000000000e+00 0.000000000000000e+00 0.000000000000000e+00
0.000000000000000e+00 0.000000000000000e+00 0.000000000000000e+00
0.000000000000000e+00 0.000000000000000e+00 0.000000000000000e+00
0.000000000000000e+00 0.000000000000000e+00 0.000000000000000e+00
0.000000000000000e+00 0.000000000000000e+00 0.000000000000000e+00
0.000000000000000e+00 0.000000000000000e+00 0.000000000000000e+00
0.000000000000000e+00 0.000000000000000e+00 0.000000000000000e+00
0.000000000000000e+00 0.000000000000000e+00 0.000000000000000e+00
0.000000000000000e+00 0.000000000000000e+00 0.000000000000000e+00
0.000000000000000e+00 0.000000000000000e+00 0.000000000000000e+00
0.000000000000000e+00 0.000000000000000e+00 0.000000000000000e+00
0.000000000000000e+00 0.000000000000000e+00 0.000000000000000e+00
0.000000000000000e+00 0.000000000000000e+00 0.000000000000000e+00
0.000000000000000e+00 0.000000000000000e+00 0.000000000000000e+00
0.000000000000000e+00 0.000000000000000e+00 0.000000000000000e+00
0.000000000000000e+00 0.000000000000000e+00 0.000000000000000e+00
0.000000000000000e+00 0.000000000000000e+00 0.000000000000000e+00
0.000000000000000e+00 0.000000000000000e+00 0.000000000000000e+00
0.000000000000000e+00 0.000000000000000e+00 0.000000000000000e+00
0.000000000000000e+00 0.000000000000000e+00 0.000000000000000e+00
0.000000000000000e+00 0.000000000000000e+00 0.000000000000000e+00
0.000000000000000e+00 0.000000000000000e+00 0.000000000000000e+00
0.000000000000000e+00 0.000000000000000e+00 0.000000000000000e+00
0.000000000000000e+00 0.000000000000000e+00 0.000000000000000e+00
0.000000000000000e+00 0.000000000000000e+00 0.000000000000000e+00
0.000000000000000e+00 0.000000000000000e+00 0.000000000000000e+00
0.000000000000000e+00 0.000000000000000e+00 0.000000000000000e+00
0.000000000000000e+00 0.000000000000000e+00 0.000000000000000e+00
0.000000000000000e+00 0.000000000000000e+00 0.000000000000000e+00
0.000000000000000e+00 0.000000000000000e+00 0.000000000000000e+00
0.000000000000000e+00 0.000000000000000e+00 0.000000000000000e+00
0.000000000000000e+00 0.000000000000000e+00 0.000000000000000e+00
0.000000000000000e+00 0.000000000000000e+00 0.000000000000000e+00
0.000000000000000e+00 0.000000000000000e+00 0.000000000000000e+00
0.000000000000000e+00 0.000000000000000e+00 0.000000000000000e+00
0.000000000000000e+00 0.000000000000000e+00 0.000000000000000e+00
0.000000000000000e+00 0.000000000000000e+00 0.000000000000000e+00
0.000000000000000e+00 0.000000000000000e+00 0.000000000000000e+00
0.000000000000000e+00 0.000000000000000e+00 0.000000000000000e+00
0.000000000000000e+00 0.000000000000000e+00 0.000000000000000e+00
0.000000000000000e+00 0.000000000000000e+00 0.000000000000000e+00
0.000000000000000e+00 0.000000000000000e+00 0.000000000000000e+00
0.000000000000000e+00 0.000000000000000e+00 0.000000000000000e+00
0.000000000000000e+00 0.000000000000000e+00 0.000000000000000e+00
0.000000000000000e+00 0.000000000000000e+00 0.000000000000000e+00
0.000000000000000e+00 0.000000000000000e+00 0.000000000000000e+00
0.000000000000000e+00 0.000000000000000e+00 0.000000000000000e+00
0.000000000000000e+00 0.000000000000000e+00 0.000000000000000e+00
0.000000000000000e+00 0.000000000000000e+00 0.000000000000000e+00
0.000000000000000e+00 0.000000000000000e+00 0.000000000000000e+00
0.000000000000000e+00 0.000000000000000e+00 0.000000000000000e+00
0.000000000000000e+00 0.000000000000000e+00 0.000000000000000e+00
0.000000000000000e+00 0.000000000000000e+00 0.000000000000000e+00
0.000000000000000e+00 0.000000000000000e+00 0.000000000000000e+00
0.000000000000000e+00 0.000000000000000e+00 0.000000000000000e+00
0.000000000000000e+00 0.000000000000000e+00 0.000000000000000e+00
0.000000000000000e+00 0.000000000000000e+00 0.000000000000000e+00
0.000000000000000e+00 0.000000000000000e+00 0.000000000000000e+00
0.000000000000000e+00 0.000000000000000e+00 0.000000000000000e+00
0.000000000000000e+00 0.000000000000000e+00 0.000000000000000e+00
0.000000000000000e+00 0.000000000000000e+00 0.000000000000000e+00
0.000000000000000e+00 0.000000000000000e+00 0.000000000000000e+00
0.000000000000000e+00 0.000000000000000e+00 0.000000000000000e+00
0.000000000000000e+00 0.000000000000000e+00 0.000000000000000e+00
0.000000000000000e+00 0.000000000000000e+00 0.000000000000000e+00
0.000000000000000e+00 0.000000000000000e+00 0.000000000000000e+00
0.000000000000000e+00 0.000000000000000e+00 0.000000000000000e+00
0.000000000000000e+00 0.000000000000000e+00 0.000000000000000e+00
0.000000000000000e+00 0.000000000000000e+00 0.000000000000000e+00
0.000000000000000e+00 0.000000000000000e+00 0.000000000000000e+00
0.000000000000000e+00 0.000000000000000e+00 0.000000000000000e+00
0.000000000000000e+00 0.000000000000000e+00 0.000000000000000e+00
0.000000000000000e+00 0.000000000000000e+00 0.000000000000000e+00
0.000000000000000e+00 0.000000000000000e+00 0.000000000000000e+00
0.000000000000000e+00 0.000000000000000e+00 0.000000000000000e+00
0.000000000000000e+00 0.000000000000000e+00 0.000000000000000e+00
0.000000000000000e+00 0.000000000000000e+00 0.000000000000000e+00
0.000000000000000e+00 0.000000000000000e+00 0.000000000000000e+00
0.000000000000000e+00 0.000000000000000e+00 0.000000000000000e+00
0.000000000000000e+00 0.000000000000000e+00 0.000000000000000e+00
0.000000000000000e+00 0.000000000000000e+00 0.000000000000000e+00
0.000000000000000e+00 0.000000000000000e+00 0.000000000000000e+00
0.000000000000000e+00 0.000000000000000e+00 0.000000000000000e+00
0.000000000000000e+00 0.000000000000000e+00 0.000000000000000e+00
0.000000000000000e+00 0.000000000000000e+00 0.000000000000000e+00
0.000000000000000e+00 0.000000000000000e+00 0.000000000000000e+00
0.000000000000000e+00 0.000000000000000e+00 0.000000000000000e+00
0.000000000000000e+00 0.000000000000000e+00 0.000000000000000e+00
0.000000000000000e+00 0.000000000000000e+00 0.000000000000000e+00
0.000000000000000e+00 0.000000000000000e+00 0.000000000000000e+00
0.000000000000000e+00 0.000000000000000e+00 0.000000000000000e+00
0.000000000000000e+00 0.000000000000000e+00 0.000000000000000e+00
0.000000000000000e+00 0.000000000000000e+00 0.000000000000000e+00
0.000000000000000e+00 0.000000000000000e+00 0.000000000000000e+00
0.000000000000000e+00 0.000000000000000e+00 0.000000000000000e+00
0.000000000000000e+00 0.000000000000000e+00 0.000000000000000e+00
0.000000000000000e+00 0.000000000000000e+00 0.000000000000000e+00
0.000000000000000e+00 0.000000000000000e+00 0.000000000000000e+00
0.000000000000000e+00 0.000000000000000e+00 0.000000000000000e+00
0.000000000000000e+00 0.000000000000000e+00 0.000000000000000e+00
0.000000000000000e+00 0.000000000000000e+00 0.000000000000000e+00
0.000000000000000e+00 0.000000000000000e+00 0.000000000000000e+00
0.000000000000000e+00 0.000000000000000e+00 0.000000000000000e+00
0.000000000000000e+00 0.000000000000000e+00 0.000000000000000e+00
0.000000000000000e+00 0.000000000000000e+00 0.000000000000000e+00
0.000000000000000e+00 0.000000000000000e+00 0.000000000000000e+00
0.000000000000000e+00 0.000000000000000e+00 0.000000000000000e+00
0.000000000000000e+00 0.000000000000000e+00 0.000000000000000e+00
0.000000000000000e+00 0.000000000000000e+00 0.000000000000000e+00
0.000000000000000e+00 0.000000000000000e+00 0.000000000000000e+00
0.000000000000000e+00 0.000000000000000e+00 0.000000000000000e+00
0.000000000000000e+00 0.000000000000000e+00 0.000000000000000e+00
0.000000000000000e+00 0.000000000000000e+00 0.000000000000000e+00
0.000000000000000e+00 0.000000000000000e+00 0.000000000000000e+00
0.000000000000000e+00 0.000000000000000e+00 0.000000000000000e+00
0.000000000000000e+00 0.000000000000000e+00 0.000000000000000e+00
0.000000000000000e+00 0.000000000000000e+00 0.000000000000000e+00
0.000000000000000e+00 0.000000000000000e+00 0.000000000000000e+00
0.000000000000000e+00 0.000000000000000e+00 0.000000000000000e+00
0.000000000000000e+00 0.000000000000000e+00 0.000000000000000e+00
0.000000000000000e+00 0.000000000000000e+00 0.000000000000000e+00
0.000000000000000e+00 0.000000000000000e+00 0.000000000000000e+00
0.000000000000000e+00 0.000000000000000e+00 0.000000000000000e+00
0.000000000000000e+00 0.000000000000000e+00 0.000000000000000e+00
0.000000000000000e+00 0.000000000000000e+00 0.000000000000000e+00
0.000000000000000e+00 0.000000000000000e+00 0.000000000000000e+00
0.000000000000000e+00 0.000000000000000e+00 0.000000000000000e+00
0.000000000000000e+00 0.000000000000000e+00 0.000000000000000e+00
0.000000000000000e+00 0.000000000000000e+00 0.000000000000000e+00
0.000000000000000e+00 0.000000000000000e+00 0.000000000000000e+00
0.000000000000000e+00 0.000000000000000e+00 0.000000000000000e+00
0.000000000000000e+00 0.000000000000000e+00 0.000000000000000e+00
0.000000000000000e+00 0.000000000000000e+00 0.000000000000000e+00
0.000000000000000e+00 0.000000000000000e+00 0.000000000000000e+00
0.000000000000000e+00 0.000000000000000e+00 0.000000000000000e+00
0.000000000000000e+00 0.000000000000000e+00 0.000000000000000e+00
0.000000000000000e+00 0.000000000000000e+00 0.000000000000000e+00
0.000000000000000e+00 0.000000000000000e+00 0.000000000000000e+00
0.000000000000000e+00 0.000000000000000e+00 0.000000000000000e+00
0.000000000000000e+00 0.000000000000000e+00 0.000000000000000e+00
0.000000000000000e+00 0.000000000000000e+00 0.000000000000000e+00
0.000000000000000e+00 0.000000000000000e+00 0.000000000000000e+00
0.000000000000000e+00 0.000000000000000e+00 0.000000000000000e+00
0.000000000000000e+00 0.000000000000000e+00 0.000000000000000e+00
0.000000000000000e+00 0.000000000000000e+00 0.000000000000000e+00
0.000000000000000e+00 0.000000000000000e+00 0.000000000000000e+00
0.000000000000000e+00 0.000000000000000e+00 0.000000000000000e+00
0.000000000000000e+00 0.000000000000000e+00 0.000000000000000e+00
0.000000000000000e+00 0.000000000000000e+00 0.000000000000000e+00
0.000000000000000e+00 0.000000000000000e+00 0.000000000000000e+00
0.000000000000000e+00 0.000000000000000e+00 0.000000000000000e+00
0.000000000000000e+00 0.000000000000000e+00 0.000000000000000e+00
0.000000000000000e+00 0.000000000000000e+00 0.000000000000000e+00
0.000000000000000e+00 0.000000000000000e+00 0.000000000000000e+00
0.000000000000000e+00 0.000000000000000e+00 0.000000000000000e+00
0.000000000000000e+00 0.000000000000000e+00 0.000000000000000e+00
0.000000000000000e+00 0.000000000000000e+00 0.000000000000000e+00
0.000000000000000e+00 0.000000000000000e+00 0.000000000000000e+00
0.000000000000000e+00 0.000000000000000e+00 0.000000000000000e+00
0.000000000000000e+00 0.000000000000000e+00 0.000000000000000e+00
0.000000000000000e+00 0.000000000000000e+00 0.000000000000000e+00
0.000000000000000e+00 0.000000000000000e+00 0.000000000000000e+00
0.000000000000000e+00 0.000000000000000e+00 0.000000000000000e+00
0.000000000000000e+00 0.000000000000000e+00 0.000000000000000e+00
0.000000000000000e+00 0.000000000000000e+00 0.000000000000000e+00
0.000000000000000e+00 0.000000000000000e+00 0.000000000000000e+00
0.000000000000000e+00 0.000000000000000e+00 0.000000000000000e+00
0.000000000000000e+00 0.000000000000000e+00 0.000000000000000e+00
0.000000000000000e+00 0.000000000000000e+00 0.000000000000000e+00
0.000000000000000e+00 0.000000000000000e+00 0.000000000000000e+00
0.000000000000000e+00 0.000000000000000e+00 0.000000000000000e+00
0.000000000000000e+00 0.000000000000000e+00 0.000000000000000e+00
0.000000000000000e+00 0.000000000000000e+00 0.000000000000000e+00
0.000000000000000e+00 0.000000000000000e+00 0.000000000000000e+00
0.000000000000000e+00 0.000000000000000e+00 0.000000000000000e+00
0.000000000000000e+00 0.000000000000000e+00 0.000000000000000e+00
0.000000000000000e+00 0.000000000000000e+00 0.000000000000000e+00
0.000000000000000e+00 0.000000000000000e+00 0.000000000000000e+00
0.000000000000000e+00 0.000000000000000e+00 0.000000000000000e+00
0.000000000000000e+00 0.000000000000000e+00 0.000000000000000e+00
0.000000000000000e+00 0.000000000000000e+00 0.000000000000000e+00
0.000000000000000e+00 0.000000000000000e+00 0.000000000000000e+00
0.000000000000000e+00 0.000000000000000e+00 0.000000000000000e+00
0.000000000000000e+00 0.000000000000000e+00 0.000000000000000e+00
0.000000000000000e+00 0.000000000000000e+00 0.000000000000000e+00
0.000000000000000e+00 0.000000000000000e+00 0.000000000000000e+00
0.000000000000000e+00 0.000000000000000e+00 0.000000000000000e+00
0.000000000000000e+00 0.000000000000000e+00 0.000000000000000e+00
0.000000000000000e+00 0.000000000000000e+00 0.000000000000000e+00
0.000000000000000e+00 0.000000000000000e+00 0.000000000000000e+00
0.000000000000000e+00 0.000000000000000e+00 0.000000000000000e+00
0.000000000000000e+00 0.000000000000000e+00 0.000000000000000e+00
0.000000000000000e+00 0.000000000000000e+00 0.000000000000000e+00
0.000000000000000e+00 0.000000000000000e+00 0.000000000000000e+00
0.000000000000000e+00 0.000000000000000e+00 0.000000000000000e+00
0.000000000000000e+00 0.000000000000000e+00 0.000000000000000e+00
0.000000000000000e+00 0.000000000000000e+00 0.000000000000000e+00
        </DataArray>
        <DataArray type="Float64" Name="nodal_GL_strains_xyz" NumberOfComponents="6" format="ascii">
5.212004026437348e-16 -2.697992262072128e-15 7.509797667449089e-16 1.097071791175340e-16 2.244062436625875e-16 7.482072573556392e-16
2.622783562409741e-15 -4.955638308578472e-15 -9.668885821251089e-16 5.572733574453320e-16 -2.260871203725954e-17 1.541805840130647e-15
3.237107340129988e-16 -4.160084380687000e-16 1.462752993359454e-16 2.895140337987098e-16 7.183771166111235e-16 3.082741132701708e-16
1.247899557812242e-15 1.588969210026904e-15 4.782876094004643e-16 4.063475002721903e-16 6.782740425104387e-16 4.935217779728428e-16
-1.542902792595153e-15 -2.723586832644668e-15 1.686403957057560e-15 -3.444025645383932e-16 6.630745357782346e-16 4.725595379627922e-16
9.781054357738405e-16 -3.702331417044795e-16 3.424677217960386e-16 4.618694206193639e-16 -5.407722883435981e-17 1.148713548928222e-15
-1.016144331594425e-15 6.188187256773737e-16 3.301810218138506e-16 2.968888043942835e-16 1.303803228412094e-16 -7.606829872019156e-16
5.500888244199538e-16 1.592577626337212e-15 1.299827184658648e-15 5.817079855766281e-16 5.140960196105408e-16 -8.284726115388384e-16
-1.825038803184613e-15 1.535886174598914e-15 -3.408990682730121e-16 -1.395173357220807e-16 6.600762505776737e-16 -7.998939084906166e-16
-2.792179048153983e-16 7.677422610411565e-16 3.923087773523729e-16 -2.471505426528818e-16 -1.076314167887458e-15 2.300953589827775e-16
-3.327396882120616e-16 2.605032398899068e-16 -4.684586242872709e-16 -2.255528970903181e-16 -1.561737922885546e-17 -3.739481179278853e-16
-4.430901819143018e-16 2.176695527977799e-16 -4.522943928652402e-16 -1.184661161609285e-17 -6.595133853478158e-16 -3.989099469819319e-16
-4.485133585149074e-16 6.309626241115162e-16 -8.428916756845866e-16 -7.091827742716075e-17 -9.735011567649800e-17 -8.785184151932027e-16
-5.103378356492290e-17 1.364872091684948e-15 -7.513281891113138e-16 -1.089637917559603e-16 -3.960646027322924e-16 5.005720474762634e-16
5.953374624218677e-16 -9.325281008608178e-16 -5.727090567029440e-16 -2.756000511405047e-16 -4.634696655711906e-17 4.689732784655914e-16
-4.349189150856470e-16 9.238635133161941e-16 -1.379125261740802e-15 1.293108510544807e-17 -8.928368848671715e-16 1.141762407944193e-16
1.422562292765216e-15 2.387696457074558e-15 -5.671840749158737e-16 8.250648829273703e-16 -7.157992255394287e-16 -9.546683876644573e-16
7.279926034191612e-16 -4.163774324075725e-16 5.581360686540912e-16 3.535005931671960e-16 1.375010111746028e-17 -8.985315293573306e-16
1.935558784383330e-15 -1.206723956726552e-15 1.256301298274936e-15 -3.219540777647758e-17 -9.065439779483481e-16 -3.321146589267682e-16
-2.813175754643053e-17 -5.007995868887134e-16 -4.654018723424796e-16 -1.744505998713929e-16 -5.167206756037989e-16 -4.079862294543816e-16
-3.065972985002692e-16 -8.559546325135315e-16 7.318475444769376e-16 -3.708187454948492e-16 7.452580517896882e-16 8.344458807869778e-16
-1.347844024766765e-15 -6.622935169945262e-16 -4.952166173772941e-16 -1.256013842051881e-16 7.768932859133766e-16 5.705272320395473e-17
-2.261933310109635e-16 1.177971590659169e-16 2.856034513442854e-16 -3.222259034114995e-16 -1.076697113641441e-16 7.518194119252563e-16
-5.371705105281569e-16 1.213104482188235e-15 -1.340670176596045e-16 8.852793126092277e-17 2.843982517444434e-16 2.208595218854949e-16
4.584244563329120e-16 -7.300519616554362e-16 2.541204128847587e-16 1.207422614094302e-16 2.373819749141418e-16 4.584098264197093e-17
2.098542385203152e-17 -4.504465216754851e-16 9.372357114059736e-16 4.808851682915773e-17 2.888232147225569e-16 -3.126355013378738e-16
3.666556685327549e-16 2.172642974611529e-16 -2.736650459622155e-16 8.831354830108284e-17 -2.502454430974857e-16 -1.029728654081572e-16
-1.825038803184613e-15 1.535886174598914e-15 -3.408990682730121e-16 -1.395173357220807e-16 6.600762505776737e-16 -7.998939084906166e-16
-4.003215084317653e-15 4.081489045585302e-15 4.159941225563793e-15 -3.005967179791050e-15 -3.747866947102018e-15 -5.736716826416787e-16
-2.716507927504808e-16 -2.663275624046545e-15 -1.646538308237881e-15 -1.485516963410871e-15 -3.302390406477247e-15 9.487426447565055e-16
-3.327396882120616e-16 2.605032398899068e-16 -4.684586242872709e-16 -2.255528970903181e-16 -1.561737922885546e-17 -3.739481179278853e-16
-4.485133585149074e-16 6.309626241115162e-16 -8.428916756845866e-16 -7.091827742716075e-17 -9.735011567649800e-17 -8.785184151932027e-16
-2.383336189615398e-15 -8.698037412721409e-16 7.381349619892524e-16 -1.229421720738114e-15 1.905979637997596e-15 8.689193288551161e-17
2.348928969039555e-15 -3.242823177479141e-15 -3.625809908874048e-15 1.207329833032523e-16 -1.261509684207815e-16 -1.289738062803770e-15
5.953374624218677e-16 -9.325281008608178e-16 -5.727090567029440e-16 -2.756000511405047e-16 -4.634696655711906e-17 4.689732784655914e-16
2.622783562409741e-15 -4.955638308578472e-15 -9.668885821251089e-16 5.572733574453320e-16 -2.260871203725954e-17 1.541805840130647e-15
2.223358905682588e-16 2.832561336442594e-15 -1.540838857637194e-15 1.192057022937700e-15 2.229456548046086e-15 -1.524766869342334e-15
3.237107340129988e-16 -4.160084380687000e-16 1.462752993359454e-16 2.895140337987098e-16 7.183771166111235e-16 3.082741132701708e-16
4.584244563329120e-16 -7.300519616554362e-16 2.541204128847587e-16 1.207422614094302e-16 2.373819749141418e-16 4.584098264197093e-17
9.781054357738405e-16 -3.702331417044795e-16 3.424677217960386e-16 4.618694206193639e-16 -5.407722883435981e-17 1.148713548928222e-15
-6.924414552020414e-16 2.916082532013557e-15 5.307908015619899e-16 -7.456922314948684e-17 1.729502178829918e-16 6.504254163118841e-16
-1.016144331594425e-15 6.188187256773737e-16 3.301810218138506e-16 2.968888043942835e-16 1.303803228412094e-16 -7.606829872019156e-16
2.098542385203152e-17 -4.504465216754851e-16 9.372357114059736e-16 4.808851682915773e-17 2.888232147225569e-16 -3.126355013378738e-16
-2.261933310109635e-16 1.177971590659169e-16 2.856034513442854e-16 -3.222259034114995e-16 -1.076697113641441e-16 7.518194119252563e-16
1.677230719798486e-16 5.622040638469555e-15 -1.444583597569739e-15 4.792708993859834e-16 -2.090296614448372e-15 -6.288766787351717e-16
-2.472014312116402e-15 1.021067781404025e-14 1.125901604430519e-15 -1.088581720125145e-16 8.878809365210776e-16 1.074056193192492e-15
-5.371705105281569e-16 1.213104482188235e-15 -1.340670176596045e-16 8.852793126092277e-17 2.843982517444434e-16 2.208595218854949e-16
3.666556685327549e-16 2.172642974611529e-16 -2.736650459622155e-16 8.831354830108284e-17 -2.502454430974857e-16 -1.029728654081572e-16
2.062423341714304e-15 -6.428322638507926e-15 1.224174717788240e-15 2.181520585539676e-16 -4.193248859593068e-16 -3.798415394500439e-16
7.279926034191612e-16 -4.163774324075725e-16 5.581360686540912e-16 3.535005931671960e-16 1.375010111746028e-17 -8.985315293573306e-16
1.935558784383330e-15 -1.206723956726552e-15 1.256301298274936e-15 -3.219540777647758e-17 -9.065439779483481e-16 -3.321146589267682e-16
-2.792179048153983e-16 7.677422610411565e-16 3.923087773523729e-16 -2.471505426528818e-16 -1.076314167887458e-15 2.300953589827775e-16
-5.103378356492290e-17 1.364872091684948e-15 -7.513281891113138e-16 -1.089637917559603e-16 -3.960646027322924e-16 5.005720474762634e-16
-1.347844024766765e-15 -6.622935169945262e-16 -4.952166173772941e-16 -1.256013842051881e-16 7.768932859133766e-16 5.705272320395473e-17
-4.430901819143018e-16 2.176695527977799e-16 -4.522943928652402e-16 -1.184661161609285e-17 -6.595133853478158e-16 -3.989099469819319e-16
-2.792179048153983e-16 7.677422610411565e-16 3.923087773523729e-16 -2.471505426528818e-16 -1.076314167887458e-15 2.300953589827775e-16
-1.793350725398932e-15 1.003934978662054e-15 -2.406281651569633e-15 -9.735262322105251e-16 -9.581568574652297e-16 7.637740027770153e-16
-3.037007394672761e-15 -1.941708298249775e-16 -7.195060739059710e-17 -9.108653266639236e-16 -1.723549704648233e-16 -3.107947753314600e-16
-4.349189150856470e-16 9.238635133161941e-16 -1.379125261740802e-15 1.293108510544807e-17 -8.928368848671715e-16 1.141762407944193e-16
-5.103378356492290e-17 1.364872091684948e-15 -7.513281891113138e-16 -1.089637917559603e-16 -3.960646027322924e-16 5.005720474762634e-16
-1.774535691320532e-15 -3.290952063102278e-15 1.645833004102701e-16 7.611546475228936e-17 -2.063921632009412e-15 8.046986647294504e-16
-2.379050751180376e-15 -2.087422774351757e-16 -1.557660968576909e-15 -2.992017690832338e-16 3.669089543600938e-16 1.586223258779337e-15
4.584244563329120e-16 -7.300519616554362e-16 2.541204128847587e-16 1.207422614094302e-16 2.373819749141418e-16 4.584098264197093e-17
3.237107340129988e-16 -4.160084380687000e-16 1.462752993359454e-16 2.895140337987098e-16 7.183771166111235e-16 3.082741132701708e-16
4.331331303668648e-17 -1.699026292086968e-15 1.199788984792603e-15 6.470948794566986e-16 8.266146386335776e-16 -4.779675258443210e-16
1.247899557812242e-15 1.588969210026904e-15 4.782876094004643e-16 4.063475002721903e-16 6.782740425104387e-16 4.935217779728428e-16
2.098542385203152e-17 -4.504465216754851e-16 9.372357114059736e-16 4.808851682915773e-17 2.888232147225569e-16 -3.126355013378738e-16
-1.016144331594425e-15 6.188187256773737e-16 3.301810218138506e-16 2.968888043942835e-16 1.303803228412094e-16 -7.606829872019156e-16
1.792214365224417e-16 1.995116684685700e-15 -6.075756780323169e-17 2.361889481884322e-16 9.908712435888431e-16 -8.344082273800577e-16
5.500888244199538e-16 1.592577626337212e-15 1.299827184658648e-15 5.817079855766281e-16 5.140960196105408e-16 -8.284726115388384e-16
-3.065972985002692e-16 -8.559546325135315e-16 7.318475444769376e-16 -3.708187454948492e-16 7.452580517896882e-16 8.344458807869778e-16
-1.347844024766765e-15 -6.622935169945262e-16 -4.952166173772941e-16 -1.256013842051881e-16 7.768932859133766e-16 5.705272320395473e-17
1.099569582872678e-15 8.876810080180288e-16 -1.358912493773099e-15 3.959641722786408e-16 2.162412144361543e-15 3.378623217989813e-16
2.162800315075318e-15 4.900861732459763e-16 -2.291822185530110e-16 3.784305093164985e-16 -1.583924013194320e-16 -5.049425285346516e-16
-2.813175754643053e-17 -5.007995868887134e-16 -4.654018723424796e-16 -1.744505998713929e-16 -5.167206756037989e-16 -4.079862294543816e-16
1.935558784383330e-15 -1.206723956726552e-15 1.256301298274936e-15 -3.219540777647758e-17 -9.065439779483481e-16 -3.321146589267682e-16
3.666556685327549e-16 2.172642974611529e-16 -2.736650459622155e-16 8.831354830108284e-17 -2.502454430974857e-16 -1.029728654081572e-16
-6.352978222424378e-16 -1.202412908439218e-15 6.738882348455665e-16 -4.102227537697762e-16 -1.132566326923292e-15 9.193064865370924e-17
-3.327396882120616e-16 2.605032398899068e-16 -4.684586242872709e-16 -2.255528970903181e-16 -1.561737922885546e-17 -3.739481179278853e-16
5.953374624218677e-16 -9.325281008608178e-16 -5.727090567029440e-16 -2.756000511405047e-16 -4.634696655711906e-17 4.689732784655914e-16
-5.371705105281569e-16 1.213104482188235e-15 -1.340670176596045e-16 8.852793126092277e-17 2.843982517444434e-16 2.208595218854949e-16
4.584244563329120e-16 -7.300519616554362e-16 2.541204128847587e-16 1.207422614094302e-16 2.373819749141418e-16 4.584098264197093e-17
2.223358905682588e-16 2.832561336442594e-15 -1.540838857637194e-15 1.192057022937700e-15 2.229456548046086e-15 -1.524766869342334e-15
-3.702543641850823e-15 4.623680737604539e-15 5.809409991749903e-15 4.994164568992139e-16 4.159535890052565e-15 2.613075818975355e-15
4.331331303668648e-17 -1.699026292086968e-15 1.199788984792603e-15 6.470948794566986e-16 8.266146386335776e-16 -4.779675258443210e-16
2.098542385203152e-17 -4.504465216754851e-16 9.372357114059736e-16 4.808851682915773e-17 2.888232147225569e-16 -3.126355013378738e-16
-6.924414552020414e-16 2.916082532013557e-15 5.307908015619899e-16 -7.456922314948684e-17 1.729502178829918e-16 6.504254163118841e-16
-2.414604794465423e-15 1.133198751120923e-14 8.755047244585180e-15 -1.917659394473831e-15 1.404241033848368e-15 4.263312538053250e-15
1.792214365224417e-16 1.995116684685700e-15 -6.075756780323169e-17 2.361889481884322e-16 9.908712435888431e-16 -8.344082273800577e-16
-2.792179048153983e-16 7.677422610411565e-16 3.923087773523729e-16 -2.471505426528818e-16 -1.076314167887458e-15 2.300953589827775e-16
-2.716507927504808e-16 -2.663275624046545e-15 -1.646538308237881e-15 -1.485516963410871e-15 -3.302390406477247e-15 9.487426447565055e-16
-1.793350725398932e-15 1.003934978662054e-15 -2.406281651569633e-15 -9.735262322105251e-16 -9.581568574652297e-16 7.637740027770153e-16
-3.327396882120616e-16 2.605032398899068e-16 -4.684586242872709e-16 -2.255528970903181e-16 -1.561737922885546e-17 -3.739481179278853e-16
-5.103378356492290e-17 1.364872091684948e-15 -7.513281891113138e-16 -1.089637917559603e-16 -3.960646027322924e-16 5.005720474762634e-16
2.348928969039555e-15 -3.242823177479141e-15 -3.625809908874048e-15 1.207329833032523e-16 -1.261509684207815e-16 -1.289738062803770e-15
-1.774535691320532e-15 -3.290952063102278e-15 1.645833004102701e-16 7.611546475228936e-17 -2.063921632009412e-15 8.046986647294504e-16
5.953374624218677e-16 -9.325281008608178e-16 -5.727090567029440e-16 -2.756000511405047e-16 -4.634696655711906e-17 4.689732784655914e-16
3.666556685327549e-16 2.172642974611529e-16 -2.736650459622155e-16 8.831354830108284e-17 -2.502454430974857e-16 -1.029728654081572e-16
2.062423341714304e-15 -6.428322638507926e-15 1.224174717788240e-15 2.181520585539676e-16 -4.193248859593068e-16 -3.798415394500439e-16
2.058846988700776e-15 -8.405105187049496e-15 -3.161010861734821e-15 2.804608724526828e-17 -2.451017584445366e-15 -3.352159506671638e-15
-6.352978222424378e-16 -1.202412908439218e-15 6.738882348455665e-16 -4.102227537697762e-16 -1.132566326923292e-15 9.193064865370924e-17
-5.371705105281569e-16 1.213104482188235e-15 -1.340670176596045e-16 8.852793126092277e-17 2.843982517444434e-16 2.208595218854949e-16
-2.472014312116402e-15 1.021067781404025e-14 1.125901604430519e-15 -1.088581720125145e-16 8.878809365210776e-16 1.074056193192492e-15
-1.347844024766765e-15 -6.622935169945262e-16 -4.952166173772941e-16 -1.256013842051881e-16 7.768932859133766e-16 5.705272320395473e-17
1.099569582872678e-15 8.876810080180288e-16 -1.358912493773099e-15 3.959641722786408e-16 2.162412144361543e-15 3.378623217989813e-16
3.237107340129988e-16 -4.160084380687000e-16 1.462752993359454e-16 2.895140337987098e-16 7.183771166111235e-16 3.082741132701708e-16
-1.016144331594425e-15 6.188187256773737e-16 3.301810218138506e-16 2.968888043942835e-16 1.303803228412094e-16 -7.606829872019156e-16
1.935558784383330e-15 -1.206723956726552e-15 1.256301298274936e-15 -3.219540777647758e-17 -9.065439779483481e-16 -3.321146589267682e-16
1.247899557812242e-15 1.588969210026904e-15 4.782876094004643e-16 4.063475002721903e-16 6.782740425104387e-16 4.935217779728428e-16
3.237107340129988e-16 -4.160084380687000e-16 1.462752993359454e-16 2.895140337987098e-16 7.183771166111235e-16 3.082741132701708e-16
-5.097981631141461e-15 -9.618794240156474e-16 3.925811418833253e-16 1.040438540181155e-16 -2.501999922539143e-15 6.554928629380336e-15
-1.201409048961333e-15 -3.621269035628108e-15 -1.303863177803849e-16 1.770663729702769e-15 -9.190567934183810e-16 9.865798526463921e-16
5.500888244199538e-16 1.592577626337212e-15 1.299827184658648e-15 5.817079855766281e-16 5.140960196105408e-16 -8.284726115388384e-16
-1.016144331594425e-15 6.188187256773737e-16 3.301810218138506e-16 2.968888043942835e-16 1.303803228412094e-16 -7.606829872019156e-16
-6.410298327236766e-15 6.418491885385253e-15 -1.206591144925018e-16 1.454771263670427e-16 5.548669381249686e-15 3.025199287367738e-15
-1.301707360516875e-15 -1.259731558636957e-15 -6.602632078328631e-16 1.175706799605584e-15 -2.374019399745194e-15 -1.634639038798925e-15
-3.327396882120616e-16 2.605032398899068e-16 -4.684586242872709e-16 -2.255528970903181e-16 -1.561737922885546e-17 -3.739481179278853e-16
-1.793350725398932e-15 1.003934978662054e-15 -2.406281651569633e-15 -9.735262322105251e-16 -9.581568574652297e-16 7.637740027770153e-16
3.242418601109552e-15 4.114185852084376e-15 -1.486822169023988e-15 -1.922635594563888e-16 8.119812509725665e-16 -2.446323146096172e-15
-3.037007394672761e-15 -1.941708298249775e-16 -7.195060739059710e-17 -9.108653266639236e-16 -1.723549704648233e-16 -3.107947753314600e-16
5.953374624218677e-16 -9.325281008608178e-16 -5.727090567029440e-16 -2.756000511405047e-16 -4.634696655711906e-17 4.689732784655914e-16
-1.774535691320532e-15 -3.290952063102278e-15 1.645833004102701e-16 7.611546475228936e-17 -2.063921632009412e-15 8.046986647294504e-16
3.434081701811246e-15 -1.584384873475890e-15 1.267258415448451e-15 -3.954412428418978e-16 -2.068562043496321e-15 -6.373796530552818e-16
-2.379050751180376e-15 -2.087422774351757e-16 -1.557660968576909e-15 -2.992017690832338e-16 3.669089543600938e-16 1.586223258779337e-15
-2.813175754643053e-17 -5.007995868887134e-16 -4.654018723424796e-16 -1.744505998713929e-16 -5.167206756037989e-16 -4.079862294543816e-16
1.935558784383330e-15 -1.206723956726552e-15 1.256301298274936e-15 -3.219540777647758e-17 -9.065439779483481e-16 -3.321146589267682e-16
1.232706102989612e-15 1.679278771867800e-16 5.464853611182688e-15 -7.260338475926223e-16 -5.378799280277639e-15 -4.565681889501569e-15
-5.208477939343004e-17 1.452249125681087e-15 6.493312756311636e-16 -1.577959840477552e-15 2.057894010143914e-15 -2.642815295246602e-16
2.162800315075318e-15 4.900861732459763e-16 -2.291822185530110e-16 3.784305093164985e-16 -1.583924013194320e-16 -5.049425285346516e-16
1.099569582872678e-15 8.876810080180288e-16 -1.358912493773099e-15 3.959641722786408e-16 2.162412144361543e-15 3.378623217989813e-16
-5.371705105281569e-16 1.213104482188235e-15 -1.340670176596045e-16 8.852793126092277e-17 2.843982517444434e-16 2.208595218854949e-16
-9.714190197935645e-16 -1.477079648950333e-15 -2.635093543803573e-15 5.157647543701755e-16 1.691905907433233e-15 1.514366183897507e-15
4.331331303668648e-17 -1.699026292086968e-15 1.199788984792603e-15 6.470948794566986e-16 8.266146386335776e-16 -4.779675258443210e-16
1.792214365224417e-16 1.995116684685700e-15 -6.075756780323169e-17 2.361889481884322e-16 9.908712435888431e-16 -8.344082273800577e-16
-6.352978222424378e-16 -1.202412908439218e-15 6.738882348455665e-16 -4.102227537697762e-16 -1.132566326923292e-15 9.193064865370924e-17
-3.327396882120616e-16 2.605032398899068e-16 -4.684586242872709e-16 -2.255528970903181e-16 -1.561737922885546e-17 -3.739481179278853e-16
-2.716507927504808e-16 -2.663275624046545e-15 -1.646538308237881e-15 -1.485516963410871e-15 -3.302390406477247e-15 9.487426447565055e-16
2.537288851099338e-15 -5.243217379723020e-15 -1.890215231906130e-14 -1.291775443431924e-15 -1.910777105995511e-14 -1.547298425541623e-14
3.242418601109552e-15 4.114185852084376e-15 -1.486822169023988e-15 -1.922635594563888e-16 8.119812509725665e-16 -2.446323146096172e-15
5.953374624218677e-16 -9.325281008608178e-16 -5.727090567029440e-16 -2.756000511405047e-16 -4.634696655711906e-17 4.689732784655914e-16
2.348928969039555e-15 -3.242823177479141e-15 -3.625809908874048e-15 1.207329833032523e-16 -1.261509684207815e-16 -1.289738062803770e-15
1.306947638376412e-14 -1.298314703697626e-14 -2.435038609044427e-14 -6.603956605616633e-16 -1.540939638481866e-14 -1.111480886847943e-14
3.434081701811246e-15 -1.584384873475890e-15 1.267258415448451e-15 -3.954412428418978e-16 -2.068562043496321e-15 -6.373796530552818e-16
3.237107340129988e-16 -4.160084380687000e-16 1.462752993359454e-16 2.895140337987098e-16 7.183771166111235e-16 3.082741132701708e-16
-3.702543641850823e-15 4.623680737604539e-15 5.809409991749903e-15 4.994164568992139e-16 4.159535890052565e-15 2.613075818975355e-15
-5.097981631141461e-15 -9.618794240156474e-16 3.925811418833253e-16 1.040438540181155e-16 -2.501999922539143e-15 6.554928629380336e-15
4.331331303668648e-17 -1.699026292086968e-15 1.199788984792603e-15 6.470948794566986e-16 8.266146386335776e-16 -4.779675258443210e-16
-1.016144331594425e-15 6.188187256773737e-16 3.301810218138506e-16 2.968888043942835e-16 1.303803228412094e-16 -7.606829872019156e-16
-2.414604794465423e-15 1.133198751120923e-14 8.755047244585180e-15 -1.917659394473831e-15 1.404241033848368e-15 4.263312538053250e-15
-6.410298327236766e-15 6.418491885385253e-15 -1.206591144925018e-16 1.454771263670427e-16 5.548669381249686e-15 3.025199287367738e-15
1.792214365224417e-16 1.995116684685700e-15 -6.075756780323169e-17 2.361889481884322e-16 9.908712435888431e-16 -8.344082273800577e-16
-5.371705105281569e-16 1.213104482188235e-15 -1.340670176596045e-16 8.852793126092277e-17 2.843982517444434e-16 2.208595218854949e-16
-2.472014312116402e-15 1.021067781404025e-14 1.125901604430519e-15 -1.088581720125145e-16 8.878809365210776e-16 1.074056193192492e-15
-3.579984151729968e-15 9.167685780222945e-15 1.078631935630153e-14 3.088600766241485e-15 1.837651290396611e-14 1.309956672579631e-14
-9.714190197935645e-16 -1.477079648950333e-15 -2.635093543803573e-15 5.157647543701755e-16 1.691905907433233e-15 1.514366183897507e-15
-6.352978222424378e-16 -1.202412908439218e-15 6.738882348455665e-16 -4.102227537697762e-16 -1.132566326923292e-15 9.193064865370924e-17
2.058846988700776e-15 -8.405105187049496e-15 -3.161010861734821e-15 2.804608724526828e-17 -2.451017584445366e-15 -3.352159506671638e-15
1.935558784383330e-15 -1.206723956726552e-15 1.256301298274936e-15 -3.219540777647758e-17 -9.065439779483481e-16 -3.321146589267682e-16
1.232706102989612e-15 1.679278771867800e-16 5.464853611182688e-15 -7.260338475926223e-16 -5.378799280277639e-15 -4.565681889501569e-15
-1.793350725398932e-15 1.003934978662054e-15 -2.406281651569633e-15 -9.735262322105251e-16 -9.581568574652297e-16 7.637740027770153e-16
-1.774535691320532e-15 -3.290952063102278e-15 1.645833004102701e-16 7.611546475228936e-17 -2.063921632009412e-15 8.046986647294504e-16
1.099569582872678e-15 8.876810080180288e-16 -1.358912493773099e-15 3.959641722786408e-16 2.162412144361543e-15 3.378623217989813e-16
1.422562292765216e-15 2.387696457074558e-15 -5.671840749158737e-16 8.250648829273703e-16 -7.157992255394287e-16 -9.546683876644573e-16
7.279926034191612e-16 -4.163774324075725e-16 5.581360686540912e-16 3.535005931671960e-16 1.375010111746028e-17 -8.985315293573306e-16
1.935558784383330e-15 -1.206723956726552e-15 1.256301298274936e-15 -3.219540777647758e-17 -9.065439779483481e-16 -3.321146589267682e-16
-2.813175754643053e-17 -5.007995868887134e-16 -4.654018723424796e-16 -1.744505998713929e-16 -5.167206756037989e-16 -4.079862294543816e-16
-2.285927985902081e-15 -2.197706756512563e-15 2.623427646467002e-15 -7.530346334202791e-16 3.976809648969372e-16 -7.391305624166252e-16
-1.427292645523754e-15 -5.134581399672035e-15 4.588556857240642e-15 -8.668659921944671e-16 1.053394037408987e-15 -1.454632059897057e-16
-1.775150972630942e-15 -8.913067177858460e-15 -1.217213001031588e-16 -1.825089938184573e-17 1.112715240725118e-15 -1.167296565953332e-15
-2.089365471654062e-15 -7.659707672889065e-15 1.547767838468936e-15 -1.437764567267560e-16 1.895062721870620e-15 -9.782784738311758e-16
-2.261933310109635e-16 1.177971590659169e-16 2.856034513442854e-16 -3.222259034114995e-16 -1.076697113641441e-16 7.518194119252563e-16
-1.347844024766765e-15 -6.622935169945262e-16 -4.952166173772941e-16 -1.256013842051881e-16 7.768932859133766e-16 5.705272320395473e-17
-5.371705105281569e-16 1.213104482188235e-15 -1.340670176596045e-16 8.852793126092277e-17 2.843982517444434e-16 2.208595218854949e-16
-3.065972985002692e-16 -8.559546325135315e-16 7.318475444769376e-16 -3.708187454948492e-16 7.452580517896882e-16 8.344458807869778e-16
6.787480163619938e-17 3.576690984183165e-15 -3.375586211798303e-15 5.373637041217115e-16 -4.659488020219197e-16 2.006079064100852e-16
3.247952972047409e-15 6.456454847480064e-15 2.048097467397096e-15 -4.951969840236169e-18 -6.495053151174847e-16 1.065655748865078e-15
3.778163983193334e-16 5.474483203831067e-15 -1.416594094528904e-15 2.346883445421771e-16 -6.386822972712093e-16 7.217225244470352e-16
1.648856096098100e-15 4.505464997126530e-15 -1.352720765703062e-15 1.029947248569824e-16 -1.161805563985926e-15 9.610246215069375e-16
-1.542902792595153e-15 -2.723586832644668e-15 1.686403957057560e-15 -3.444025645383932e-16 6.630745357782346e-16 4.725595379627922e-16
9.781054357738405e-16 -3.702331417044795e-16 3.424677217960386e-16 4.618694206193639e-16 -5.407722883435981e-17 1.148713548928222e-15
-1.016144331594425e-15 6.188187256773737e-16 3.301810218138506e-16 2.968888043942835e-16 1.303803228412094e-16 -7.606829872019156e-16
5.500888244199538e-16 1.592577626337212e-15 1.299827184658648e-15 5.817079855766281e-16 5.140960196105408e-16 -8.284726115388384e-16
-4.349189150856470e-16 9.238635133161941e-16 -1.379125261740802e-15 1.293108510544807e-17 -8.928368848671715e-16 1.141762407944193e-16
-5.103378356492290e-17 1.364872091684948e-15 -7.513281891113138e-16 -1.089637917559603e-16 -3.960646027322924e-16 5.005720474762634e-16
-4.485133585149074e-16 6.309626241115162e-16 -8.428916756845866e-16 -7.091827742716075e-17 -9.735011567649800e-17 -8.785184151932027e-16
5.953374624218677e-16 -9.325281008608178e-16 -5.727090567029440e-16 -2.756000511405047e-16 -4.634696655711906e-17 4.689732784655914e-16
3.666556685327549e-16 2.172642974611529e-16 -2.736650459622155e-16 8.831354830108284e-17 -2.502454430974857e-16 -1.029728654081572e-16
-9.362585122154398e-16 -4.068759123197290e-15 -8.079560848460161e-17 -1.450711004743834e-16 3.184296083437473e-16 -6.715421762964689e-16
2.098542385203152e-17 -4.504465216754851e-16 9.372357114059736e-16 4.808851682915773e-17 2.888232147225569e-16 -3.126355013378738e-16
-2.261933310109635e-16 1.177971590659169e-16 2.856034513442854e-16 -3.222259034114995e-16 -1.076697113641441e-16 7.518194119252563e-16
1.677230719798486e-16 5.622040638469555e-15 -1.444583597569739e-15 4.792708993859834e-16 -2.090296614448372e-15 -6.288766787351717e-16
-2.472014312116402e-15 1.021067781404025e-14 1.125901604430519e-15 -1.088581720125145e-16 8.878809365210776e-16 1.074056193192492e-15
-5.371705105281569e-16 1.213104482188235e-15 -1.340670176596045e-16 8.852793126092277e-17 2.843982517444434e-16 2.208595218854949e-16
6.787480163619938e-17 3.576690984183165e-15 -3.375586211798303e-15 5.373637041217115e-16 -4.659488020219197e-16 2.006079064100852e-16
2.260348378374019e-15 3.232823002747631e-15 1.227366543606449e-15 -6.185048888674182e-16 -4.182325736634328e-15 1.516349086719422e-15
3.240396415773443e-15 -7.854588986707418e-15 1.442234779837151e-14 -3.687829042590588e-15 1.979910130657270e-16 8.479631269263659e-16
3.778163983193334e-16 5.474483203831067e-15 -1.416594094528904e-15 2.346883445421771e-16 -6.386822972712093e-16 7.217225244470352e-16
7.279926034191612e-16 -4.163774324075725e-16 5.581360686540912e-16 3.535005931671960e-16 1.375010111746028e-17 -8.985315293573306e-16
2.062423341714304e-15 -6.428322638507926e-15 1.224174717788240e-15 2.181520585539676e-16 -4.193248859593068e-16 -3.798415394500439e-16
1.935558784383330e-15 -1.206723956726552e-15 1.256301298274936e-15 -3.219540777647758e-17 -9.065439779483481e-16 -3.321146589267682e-16
3.666556685327549e-16 2.172642974611529e-16 -2.736650459622155e-16 8.831354830108284e-17 -2.502454430974857e-16 -1.029728654081572e-16
-1.427292645523754e-15 -5.134581399672035e-15 4.588556857240642e-15 -8.668659921944671e-16 1.053394037408987e-15 -1.454632059897057e-16
-1.206482430869329e-15 4.537648491365645e-15 -1.656261862569070e-14 2.858660558575405e-15 1.783773764130112e-15 -6.427320642524209e-16
-1.775150972630942e-15 -8.913067177858460e-15 -1.217213001031588e-16 -1.825089938184573e-17 1.112715240725118e-15 -1.167296565953332e-15
-9.362585122154398e-16 -4.068759123197290e-15 -8.079560848460161e-17 -1.450711004743834e-16 3.184296083437473e-16 -6.715421762964689e-16
-4.485133585149074e-16 6.309626241115162e-16 -8.428916756845866e-16 -7.091827742716075e-17 -9.735011567649800e-17 -8.785184151932027e-16
-2.383336189615398e-15 -8.698037412721409e-16 7.381349619892524e-16 -1.229421720738114e-15 1.905979637997596e-15 8.689193288551161e-17
2.348928969039555e-15 -3.242823177479141e-15 -3.625809908874048e-15 1.207329833032523e-16 -1.261509684207815e-16 -1.289738062803770e-15
5.953374624218677e-16 -9.325281008608178e-16 -5.727090567029440e-16 -2.756000511405047e-16 -4.634696655711906e-17 4.689732784655914e-16
2.098542385203152e-17 -4.504465216754851e-16 9.372357114059736e-16 4.808851682915773e-17 2.888232147225569e-16 -3.126355013378738e-16
-6.924414552020414e-16 2.916082532013557e-15 5.307908015619899e-16 -7.456922314948684e-17 1.729502178829918e-16 6.504254163118841e-16
9.781054357738405e-16 -3.702331417044795e-16 3.424677217960386e-16 4.618694206193639e-16 -5.407722883435981e-17 1.148713548928222e-15
-1.016144331594425e-15 6.188187256773737e-16 3.301810218138506e-16 2.968888043942835e-16 1.303803228412094e-16 -7.606829872019156e-16
-1.347844024766765e-15 -6.622935169945262e-16 -4.952166173772941e-16 -1.256013842051881e-16 7.768932859133766e-16 5.705272320395473e-17
3.247952972047409e-15 6.456454847480064e-15 2.048097467397096e-15 -4.951969840236169e-18 -6.495053151174847e-16 1.065655748865078e-15
-5.103378356492290e-17 1.364872091684948e-15 -7.513281891113138e-16 -1.089637917559603e-16 -3.960646027322924e-16 5.005720474762634e-16
-3.065972985002692e-16 -8.559546325135315e-16 7.318475444769376e-16 -3.708187454948492e-16 7.452580517896882e-16 8.344458807869778e-16
-1.347844024766765e-15 -6.622935169945262e-16 -4.952166173772941e-16 -1.256013842051881e-16 7.768932859133766e-16 5.705272320395473e-17
1.099569582872678e-15 8.876810080180288e-16 -1.358912493773099e-15 3.959641722786408e-16 2.162412144361543e-15 3.378623217989813e-16
2.162800315075318e-15 4.900861732459763e-16 -2.291822185530110e-16 3.784305093164985e-16 -1.583924013194320e-16 -5.049425285346516e-16
1.648856096098100e-15 4.505464997126530e-15 -1.352720765703062e-15 1.029947248569824e-16 -1.161805563985926e-15 9.610246215069375e-16
3.247952972047409e-15 6.456454847480064e-15 2.048097467397096e-15 -4.951969840236169e-18 -6.495053151174847e-16 1.065655748865078e-15
3.123064534605232e-15 3.343596710146120e-15 4.212788550399773e-15 -6.018890516779657e-16 3.990582498267992e-16 2.881789921025773e-15
3.666813815538775e-16 2.618015347961248e-15 -5.535427444720042e-16 -2.964723215992921e-16 -3.301350707186581e-15 9.073794078940146e-16
3.666556685327549e-16 2.172642974611529e-16 -2.736650459622155e-16 8.831354830108284e-17 -2.502454430974857e-16 -1.029728654081572e-16
1.935558784383330e-15 -1.206723956726552e-15 1.256301298274936e-15 -3.219540777647758e-17 -9.065439779483481e-16 -3.321146589267682e-16
-6.352978222424378e-16 -1.202412908439218e-15 6.738882348455665e-16 -4.102227537697762e-16 -1.132566326923292e-15 9.193064865370924e-17
-2.813175754643053e-17 -5.007995868887134e-16 -4.654018723424796e-16 -1.744505998713929e-16 -5.167206756037989e-16 -4.079862294543816e-16
-9.362585122154398e-16 -4.068759123197290e-15 -8.079560848460161e-17 -1.450711004743834e-16 3.184296083437473e-16 -6.715421762964689e-16
-1.775150972630942e-15 -8.913067177858460e-15 -1.217213001031588e-16 -1.825089938184573e-17 1.112715240725118e-15 -1.167296565953332e-15
-1.139190991885581e-15 -2.446218468107944e-15 -7.927171261247629e-16 2.476383528207646e-16 1.993536109229756e-15 -1.181536161436300e-15
-2.089365471654062e-15 -7.659707672889065e-15 1.547767838468936e-15 -1.437764567267560e-16 1.895062721870620e-15 -9.782784738311758e-16
-4.349189150856470e-16 9.238635133161941e-16 -1.379125261740802e-15 1.293108510544807e-17 -8.928368848671715e-16 1.141762407944193e-16
-5.103378356492290e-17 1.364872091684948e-15 -7.513281891113138e-16 -1.089637917559603e-16 -3.960646027322924e-16 5.005720474762634e-16
-1.774535691320532e-15 -3.290952063102278e-15 1.645833004102701e-16 7.611546475228936e-17 -2.063921632009412e-15 8.046986647294504e-16
-2.379050751180376e-15 -2.087422774351757e-16 -1.557660968576909e-15 -2.992017690832338e-16 3.669089543600938e-16 1.586223258779337e-15
5.500888244199538e-16 1.592577626337212e-15 1.299827184658648e-15 5.817079855766281e-16 5.140960196105408e-16 -8.284726115388384e-16
-1.016144331594425e-15 6.188187256773737e-16 3.301810218138506e-16 2.968888043942835e-16 1.303803228412094e-16 -7.606829872019156e-16
2.098542385203152e-17 -4.504465216754851e-16 9.372357114059736e-16 4.808851682915773e-17 2.888232147225569e-16 -3.126355013378738e-16
1.792214365224417e-16 1.995116684685700e-15 -6.075756780323169e-17 2.361889481884322e-16 9.908712435888431e-16 -8.344082273800577e-16
-5.371705105281569e-16 1.213104482188235e-15 -1.340670176596045e-16 8.852793126092277e-17 2.843982517444434e-16 2.208595218854949e-16
3.778163983193334e-16 5.474483203831067e-15 -1.416594094528904e-15 2.346883445421771e-16 -6.386822972712093e-16 7.217225244470352e-16
5.953374624218677e-16 -9.325281008608178e-16 -5.727090567029440e-16 -2.756000511405047e-16 -4.634696655711906e-17 4.689732784655914e-16
3.666556685327549e-16 2.172642974611529e-16 -2.736650459622155e-16 8.831354830108284e-17 -2.502454430974857e-16 -1.029728654081572e-16
2.062423341714304e-15 -6.428322638507926e-15 1.224174717788240e-15 2.181520585539676e-16 -4.193248859593068e-16 -3.798415394500439e-16
2.058846988700776e-15 -8.405105187049496e-15 -3.161010861734821e-15 2.804608724526828e-17 -2.451017584445366e-15 -3.352159506671638e-15
-6.352978222424378e-16 -1.202412908439218e-15 6.738882348455665e-16 -4.102227537697762e-16 -1.132566326923292e-15 9.193064865370924e-17
-9.362585122154398e-16 -4.068759123197290e-15 -8.079560848460161e-17 -1.450711004743834e-16 3.184296083437473e-16 -6.715421762964689e-16
-1.206482430869329e-15 4.537648491365645e-15 -1.656261862569070e-14 2.858660558575405e-15 1.783773764130112e-15 -6.427320642524209e-16
-2.039978159965154e-15 8.278426883130340e-15 -4.773974258793865e-15 1.758609519878500e-15 -8.794021662708440e-15 -2.883710955457400e-15
-1.139190991885581e-15 -2.446218468107944e-15 -7.927171261247629e-16 2.476383528207646e-16 1.993536109229756e-15 -1.181536161436300e-15
-1.347844024766765e-15 -6.622935169945262e-16 -4.952166173772941e-16 -1.256013842051881e-16 7.768932859133766e-16 5.705272320395473e-17
-2.472014312116402e-15 1.021067781404025e-14 1.125901604430519e-15 -1.088581720125145e-16 8.878809365210776e-16 1.074056193192492e-15
1.099569582872678e-15 8.876810080180288e-16 -1.358912493773099e-15 3.959641722786408e-16 2.162412144361543e-15 3.378623217989813e-16
-5.371705105281569e-16 1.213104482188235e-15 -1.340670176596045e-16 8.852793126092277e-17 2.843982517444434e-16 2.208595218854949e-16
3.247952972047409e-15 6.456454847480064e-15 2.048097467397096e-15 -4.951969840236169e-18 -6.495053151174847e-16 1.065655748865078e-15
3.240396415773443e-15 -7.854588986707418e-15 1.442234779837151e-14 -3.687829042590588e-15 1.979910130657270e-16 8.479631269263659e-16
3.123064534605232e-15 3.343596710146120e-15 4.212788550399773e-15 -6.018890516779657e-16 3.990582498267992e-16 2.881789921025773e-15
3.778163983193334e-16 5.474483203831067e-15 -1.416594094528904e-15 2.346883445421771e-16 -6.386822972712093e-16 7.217225244470352e-16
2.098542385203152e-17 -4.504465216754851e-16 9.372357114059736e-16 4.808851682915773e-17 2.888232147225569e-16 -3.126355013378738e-16
-6.924414552020414e-16 2.916082532013557e-15 5.307908015619899e-16 -7.456922314948684e-17 1.729502178829918e-16 6.504254163118841e-16
-2.414604794465423e-15 1.133198751120923e-14 8.755047244585180e-15 -1.917659394473831e-15 1.404241033848368e-15 4.263312538053250e-15
1.792214365224417e-16 1.995116684685700e-15 -6.075756780323169e-17 2.361889481884322e-16 9.908712435888431e-16 -8.344082273800577e-16
5.953374624218677e-16 -9.325281008608178e-16 -5.727090567029440e-16 -2.756000511405047e-16 -4.634696655711906e-17 4.689732784655914e-16
2.348928969039555e-15 -3.242823177479141e-15 -3.625809908874048e-15 1.207329833032523e-16 -1.261509684207815e-16 -1.289738062803770e-15
-5.103378356492290e-17 1.364872091684948e-15 -7.513281891113138e-16 -1.089637917559603e-16 -3.960646027322924e-16 5.005720474762634e-16
-1.774535691320532e-15 -3.290952063102278e-15 1.645833004102701e-16 7.611546475228936e-17 -2.063921632009412e-15 8.046986647294504e-16
1.935558784383330e-15 -1.206723956726552e-15 1.256301298274936e-15 -3.219540777647758e-17 -9.065439779483481e-16 -3.321146589267682e-16
-1.775150972630942e-15 -8.913067177858460e-15 -1.217213001031588e-16 -1.825089938184573e-17 1.112715240725118e-15 -1.167296565953332e-15
-1.016144331594425e-15 6.188187256773737e-16 3.301810218138506e-16 2.968888043942835e-16 1.303803228412094e-16 -7.606829872019156e-16
-2.813175754643053e-17 -5.007995868887134e-16 -4.654018723424796e-16 -1.744505998713929e-16 -5.167206756037989e-16 -4.079862294543816e-16
1.935558784383330e-15 -1.206723956726552e-15 1.256301298274936e-15 -3.219540777647758e-17 -9.065439779483481e-16 -3.321146589267682e-16
1.232706102989612e-15 1.679278771867800e-16 5.464853611182688e-15 -7.260338475926223e-16 -5.378799280277639e-15 -4.565681889501569e-15
-5.208477939343004e-17 1.452249125681087e-15 6.493312756311636e-16 -1.577959840477552e-15 2.057894010143914e-15 -2.642815295246602e-16
-2.089365471654062e-15 -7.659707672889065e-15 1.547767838468936e-15 -1.437764567267560e-16 1.895062721870620e-15 -9.782784738311758e-16
-1.775150972630942e-15 -8.913067177858460e-15 -1.217213001031588e-16 -1.825089938184573e-17 1.112715240725118e-15 -1.167296565953332e-15
4.338396485951702e-15 5.652171610975684e-15 6.420465126141541e-15 4.893527655274717e-16 6.973202305919577e-15 -6.457275689283364e-16
3.926993759100787e-15 -1.224201160768932e-15 1.153909526169867e-14 1.470683954585823e-15 8.872882584961657e-15 -6.978830739840173e-16
-5.371705105281569e-16 1.213104482188235e-15 -1.340670176596045e-16 8.852793126092277e-17 2.843982517444434e-16 2.208595218854949e-16
1.099569582872678e-15 8.876810080180288e-16 -1.358912493773099e-15 3.959641722786408e-16 2.162412144361543e-15 3.378623217989813e-16
-9.714190197935645e-16 -1.477079648950333e-15 -2.635093543803573e-15 5.157647543701755e-16 1.691905907433233e-15 1.514366183897507e-15
2.162800315075318e-15 4.900861732459763e-16 -2.291822185530110e-16 3.784305093164985e-16 -1.583924013194320e-16 -5.049425285346516e-16
3.778163983193334e-16 5.474483203831067e-15 -1.416594094528904e-15 2.346883445421771e-16 -6.386822972712093e-16 7.217225244470352e-16
3.123064534605232e-15 3.343596710146120e-15 4.212788550399773e-15 -6.018890516779657e-16 3.990582498267992e-16 2.881789921025773e-15
-2.107215356057636e-15 -1.852599901341527e-15 -4.120581259898461e-15 -2.546298284851387e-16 -8.347626200161868e-15 -9.770941959728401e-16
3.666813815538775e-16 2.618015347961248e-15 -5.535427444720042e-16 -2.964723215992921e-16 -3.301350707186581e-15 9.073794078940146e-16
5.500888244199538e-16 1.592577626337212e-15 1.299827184658648e-15 5.817079855766281e-16 5.140960196105408e-16 -8.284726115388384e-16
-1.016144331594425e-15 6.188187256773737e-16 3.301810218138506e-16 2.968888043942835e-16 1.303803228412094e-16 -7.606829872019156e-16
-6.410298327236766e-15 6.418491885385253e-15 -1.206591144925018e-16 1.454771263670427e-16 5.548669381249686e-15 3.025199287367738e-15
-1.301707360516875e-15 -1.259731558636957e-15 -6.602632078328631e-16 1.175706799605584e-15 -2.374019399745194e-15 -1.634639038798925e-15
-2.379050751180376e-15 -2.087422774351757e-16 -1.557660968576909e-15 -2.992017690832338e-16 3.669089543600938e-16 1.586223258779337e-15
-1.774535691320532e-15 -3.290952063102278e-15 1.645833004102701e-16 7.611546475228936e-17 -2.063921632009412e-15 8.046986647294504e-16
5.953374624218677e-16 -9.325281008608178e-16 -5.727090567029440e-16 -2.756000511405047e-16 -4.634696655711906e-17 4.689732784655914e-16
3.434081701811246e-15 -1.584384873475890e-15 1.267258415448451e-15 -3.954412428418978e-16 -2.068562043496321e-15 -6.373796530552818e-16
-6.352978222424378e-16 -1.202412908439218e-15 6.738882348455665e-16 -4.102227537697762e-16 -1.132566326923292e-15 9.193064865370924e-17
-1.139190991885581e-15 -2.446218468107944e-15 -7.927171261247629e-16 2.476383528207646e-16 1.993536109229756e-15 -1.181536161436300e-15
1.792214365224417e-16 1.995116684685700e-15 -6.075756780323169e-17 2.361889481884322e-16 9.908712435888431e-16 -8.344082273800577e-16
-5.371705105281569e-16 1.213104482188235e-15 -1.340670176596045e-16 8.852793126092277e-17 2.843982517444434e-16 2.208595218854949e-16
-2.472014312116402e-15 1.021067781404025e-14 1.125901604430519e-15 -1.088581720125145e-16 8.878809365210776e-16 1.074056193192492e-15
-3.579984151729968e-15 9.167685780222945e-15 1.078631935630153e-14 3.088600766241485e-15 1.837651290396611e-14 1.309956672579631e-14
-9.714190197935645e-16 -1.477079648950333e-15 -2.635093543803573e-15 5.157647543701755e-16 1.691905907433233e-15 1.514366183897507e-15
3.778163983193334e-16 5.474483203831067e-15 -1.416594094528904e-15 2.346883445421771e-16 -6.386822972712093e-16 7.217225244470352e-16
3.240396415773443e-15 -7.854588986707418e-15 1.442234779837151e-14 -3.687829042590588e-15 1.979910130657270e-16 8.479631269263659e-16
2.914021146060788e-14 5.570064119415399e-15 -1.346013498645796e-14 -3.125446763124858e-15 2.028899606982146e-14 -1.312365641915184e-15
-2.107215356057636e-15 -1.852599901341527e-15 -4.120581259898461e-15 -2.546298284851387e-16 -8.347626200161868e-15 -9.770941959728401e-16
1.935558784383330e-15 -1.206723956726552e-15 1.256301298274936e-15 -3.219540777647758e-17 -9.065439779483481e-16 -3.321146589267682e-16
2.058846988700776e-15 -8.405105187049496e-15 -3.161010861734821e-15 2.804608724526828e-17 -2.451017584445366e-15 -3.352159506671638e-15
1.232706102989612e-15 1.679278771867800e-16 5.464853611182688e-15 -7.260338475926223e-16 -5.378799280277639e-15 -4.565681889501569e-15
-6.352978222424378e-16 -1.202412908439218e-15 6.738882348455665e-16 -4.102227537697762e-16 -1.132566326923292e-15 9.193064865370924e-17
-1.775150972630942e-15 -8.913067177858460e-15 -1.217213001031588e-16 -1.825089938184573e-17 1.112715240725118e-15 -1.167296565953332e-15
-2.039978159965154e-15 8.278426883130340e-15 -4.773974258793865e-15 1.758609519878500e-15 -8.794021662708440e-15 -2.883710955457400e-15
4.338396485951702e-15 5.652171610975684e-15 6.420465126141541e-15 4.893527655274717e-16 6.973202305919577e-15 -6.457275689283364e-16
-1.139190991885581e-15 -2.446218468107944e-15 -7.927171261247629e-16 2.476383528207646e-16 1.993536109229756e-15 -1.181536161436300e-15
5.953374624218677e-16 -9.325281008608178e-16 -5.727090567029440e-16 -2.756000511405047e-16 -4.634696655711906e-17 4.689732784655914e-16
2.348928969039555e-15 -3.242823177479141e-15 -3.625809908874048e-15 1.207329833032523e-16 -1.261509684207815e-16 -1.289738062803770e-15
1.306947638376412e-14 -1.298314703697626e-14 -2.435038609044427e-14 -6.603956605616633e-16 -1.540939638481866e-14 -1.111480886847943e-14
3.434081701811246e-15 -1.584384873475890e-15 1.267258415448451e-15 -3.954412428418978e-16 -2.068562043496321e-15 -6.373796530552818e-16
1.792214365224417e-16 1.995116684685700e-15 -6.075756780323169e-17 2.361889481884322e-16 9.908712435888431e-16 -8.344082273800577e-16
-2.414604794465423e-15 1.133198751120923e-14 8.755047244585180e-15 -1.917659394473831e-15 1.404241033848368e-15 4.263312538053250e-15
-1.016144331594425e-15 6.188187256773737e-16 3.301810218138506e-16 2.968888043942835e-16 1.303803228412094e-16 -7.606829872019156e-16
-6.410298327236766e-15 6.418491885385253e-15 -1.206591144925018e-16 1.454771263670427e-16 5.548669381249686e-15 3.025199287367738e-15
1.099569582872678e-15 8.876810080180288e-16 -1.358912493773099e-15 3.959641722786408e-16 2.162412144361543e-15 3.378623217989813e-16
3.123064534605232e-15 3.343596710146120e-15 4.212788550399773e-15 -6.018890516779657e-16 3.990582498267992e-16 2.881789921025773e-15
-1.774535691320532e-15 -3.290952063102278e-15 1.645833004102701e-16 7.611546475228936e-17 -2.063921632009412e-15 8.046986647294504e-16
        </DataArray>
        <DataArray type="Float64" Name="nodal_cauchy_stresses_xyz" NumberOfComponents="6" format="ascii">
-4.216605129760597e-16 -2.897962562757492e-15 -2.449071559751566e-16 8.439013778271817e-17 1.726201874327597e-16 5.755440441197227e-16
1.138277432225839e-16 -5.715727542152958e-15 -2.647458521804223e-15 4.286718134194859e-16 -1.739131695173953e-17 1.186004492408189e-15
2.801491772870627e-16 -2.888655704680906e-16 1.436603813816372e-16 2.227031029220844e-16 5.525977820085560e-16 2.371339332847466e-16
2.872512954416884e-15 3.134874225351240e-15 2.280503763330900e-15 3.125750002093769e-16 5.217492634695681e-16 3.796321369021870e-16
-2.675359264409115e-15 -3.583577756754897e-15 -1.912771492916417e-16 -2.649250496449189e-16 5.100573352140268e-16 3.635073368944562e-16
1.300661882825300e-15 2.634783616881332e-16 8.117097951500699e-16 3.552841697072028e-16 -4.159786833412424e-17 8.836258068678634e-16
-8.203867459014037e-16 4.372771443076734e-16 2.152481413357319e-16 2.283760033802180e-16 1.002925560316990e-16 -5.851407593860882e-16
2.409199269986013e-15 3.211113732999287e-15 2.985921085554238e-15 4.474676812127914e-16 3.954584766234924e-16 -6.372866242606440e-16
-1.767367366022035e-15 8.179595399652923e-16 -6.257214160900350e-16 -1.073210274785235e-16 5.077509619828261e-16 -6.153030065312433e-16
2.933899579755384e-16 1.098743931711351e-15 8.099489442584387e-16 -1.901158020406783e-16 -8.279339752980441e-16 1.769964299867522e-16
-5.678930712839468e-16 -1.115523573593557e-16 -6.722922528802614e-16 -1.735022285310141e-16 -1.201336863758097e-17 -2.876523984060658e-16
-7.318280372312495e-16 -2.235513182219542e-16 -7.389081995012012e-16 -9.112778166225274e-18 -5.073179887290889e-16 -3.068538053707173e-16
-7.260347431391466e-16 1.043313973427171e-16 -1.029402679423516e-15 -5.455252109781586e-17 -7.488470436653674e-17 -6.757833963024639e-16
2.852683120704687e-16 1.374426677647295e-15 -2.534196921959868e-16 -8.381830135073868e-17 -3.046650790248392e-16 3.850554211355870e-16
-6.699023764196327e-17 -1.242271440167108e-15 -9.654875600456653e-16 -2.120000393388499e-16 -3.565151273624544e-17 3.607486757427622e-16
-8.481187790141084e-16 1.970984736026950e-16 -1.574431353364226e-15 9.946988542651900e-18 -6.867976037439780e-16 8.782787753416727e-17
2.965283306890876e-15 3.707694202513448e-15 1.434709177905423e-15 6.346652945595166e-16 -5.506147888764840e-16 -7.343602982034295e-16
1.061773871668016e-15 1.814892287243743e-16 9.311149987718066e-16 2.719235332055361e-16 1.057700085958516e-17 -6.911780995056393e-16
2.634162214486243e-15 2.170216444017172e-16 2.111656455941324e-15 -2.476569828959814e-17 -6.973415214987294e-16 -2.554728145590530e-16
-5.952935924074220e-16 -9.588842303630237e-16 -9.316552191736131e-16 -1.341927691318405e-16 -3.974774427721531e-16 -3.138355611187565e-16
-4.843273756945489e-16 -9.069099403201385e-16 3.144763496725320e-16 -2.852451888421917e-16 5.732754244536065e-16 6.418814467592153e-16
-2.482199726246696e-15 -1.954853181806512e-15 -1.826332489793255e-15 -9.661644938860625e-17 5.976102199333663e-16 4.388671015688851e-17
-7.175990112425688e-17 1.928481681656522e-16 3.219299314567041e-16 -2.478660795473078e-16 -8.282285489549540e-17 5.783226245578895e-16
-1.005925346367703e-16 1.245772844375839e-15 2.094870752621159e-16 6.809840866224829e-17 2.187678859572643e-16 1.698919399119195e-16
3.425339515419909e-16 -5.716786776798161e-16 1.853769950434113e-16 9.287866262263871e-17 1.826015191647243e-16 3.526229433997777e-17
3.090895261837858e-16 -5.355043191430374e-17 1.013897439686819e-15 3.699116679165983e-17 2.221717036327360e-16 -2.404888471829797e-16
4.610360450434795e-16 3.461196057576325e-16 -3.151835072188237e-17 6.793349869314064e-17 -1.924964946903738e-16 -7.920989646781355e-17
-1.767367366022035e-15 8.179595399652923e-16 -6.257214160900350e-16 -1.073210274785235e-16 5.077509619828261e-16 -6.153030065312433e-16
-6.342720724569752e-16 5.584731104391439e-15 5.645078935144133e-15 -2.312282445993115e-15 -2.882974574693853e-15 -4.412859097243659e-16
-2.852114874251276e-15 -4.691826282940556e-15 -3.909720655395432e-15 -1.142705356469902e-15 -2.540300312674805e-15 7.298020344280804e-16
-5.678930712839468e-16 -1.115523573593557e-16 -6.722922528802614e-16 -1.735022285310141e-16 -1.201336863758097e-17 -2.876523984060658e-16
-7.260347431391466e-16 1.043313973427171e-16 -1.029402679423516e-15 -5.455252109781586e-17 -7.488470436653674e-17 -6.757833963024639e-16
-3.284299935607010e-15 -2.120044206112202e-15 -8.831682805265099e-16 -9.457090159523950e-16 1.466138183075076e-15 6.683994837347218e-17
-8.006531684197419e-16 -5.102000973434136e-15 -5.396606151430213e-15 9.287152561788597e-17 -9.703920647752360e-17 -9.921062021567474e-16
-6.699023764196327e-17 -1.242271440167108e-15 -9.654875600456653e-16 -2.120000393388499e-16 -3.565151273624544e-17 3.607486757427622e-16
1.138277432225839e-16 -5.715727542152958e-15 -2.647458521804223e-15 4.286718134194859e-16 -1.739131695173953e-17 1.186004492408189e-15
1.044522821229617e-15 3.052388548825262e-15 -3.117654466207317e-16 9.169669407213077e-16 1.714966575420066e-15 -1.172897591801797e-15
2.801491772870627e-16 -2.888655704680906e-16 1.436603813816372e-16 2.227031029220844e-16 5.525977820085560e-16 2.371339332847466e-16
3.425339515419909e-16 -5.716786776798161e-16 1.853769950434113e-16 9.287866262263871e-17 1.826015191647243e-16 3.526229433997777e-17
1.300661882825300e-15 2.634783616881332e-16 8.117097951500699e-16 3.552841697072028e-16 -4.159786833412424e-17 8.836258068678634e-16
1.056448041213911e-15 3.832235723687452e-15 1.997395931032399e-15 -5.736094088422114e-17 1.330386291407626e-16 5.003272433168331e-16
-8.203867459014037e-16 4.372771443076734e-16 2.152481413357319e-16 2.283760033802180e-16 1.002925560316990e-16 -5.851407593860882e-16
3.090895261837858e-16 -5.355043191430374e-17 1.013897439686819e-15 3.699116679165983e-17 2.221717036327360e-16 -2.404888471829797e-16
-7.175990112425688e-17 1.928481681656522e-16 3.219299314567041e-16 -2.478660795473078e-16 -8.282285489549540e-17 5.783226245578895e-16
2.635852428184307e-15 6.831481325484083e-15 1.395616528530774e-15 3.686699226046022e-16 -1.607920472652598e-15 -4.837512913347482e-16
3.212622705884125e-15 1.296853972600463e-14 5.980250333997145e-15 -8.373705539424076e-17 6.829853357854444e-16 8.261970716865323e-16
-1.005925346367703e-16 1.245772844375839e-15 2.094870752621159e-16 6.809840866224829e-17 2.187678859572643e-16 1.698919399119195e-16
4.610360450434795e-16 3.461196057576325e-16 -3.151835072188237e-17 6.793349869314064e-17 -1.924964946903738e-16 -7.920989646781355e-17
-2.260539173382522e-16 -6.757396979047668e-15 -8.708605511275338e-16 1.678092758107437e-16 -3.225576045840818e-16 -2.921857995769559e-16
1.061773871668016e-15 1.814892287243743e-16 9.311149987718066e-16 2.719235332055361e-16 1.057700085958516e-17 -6.911780995056393e-16
2.634162214486243e-15 2.170216444017172e-16 2.111656455941324e-15 -2.476569828959814e-17 -6.973415214987294e-16 -2.554728145590530e-16
2.933899579755384e-16 1.098743931711351e-15 8.099489442584387e-16 -1.901158020406783e-16 -8.279339752980441e-16 1.769964299867522e-16
2.852683120704687e-16 1.374426677647295e-15 -2.534196921959868e-16 -8.381830135073868e-17 -3.046650790248392e-16 3.850554211355870e-16
-2.482199726246696e-15 -1.954853181806512e-15 -1.826332489793255e-15 -9.661644938860625e-17 5.976102199333663e-16 4.388671015688851e-17
-7.318280372312495e-16 -2.235513182219542e-16 -7.389081995012012e-16 -9.112778166225274e-18 -5.073179887290889e-16 -3.068538053707173e-16
2.933899579755384e-16 1.098743931711351e-15 8.099489442584387e-16 -1.901158020406783e-16 -8.279339752980441e-16 1.769964299867522e-16
-3.223172133945238e-15 -1.071413900052175e-15 -3.694657461768858e-15 -7.488663324696343e-16 -7.370437365117161e-16 5.875184636746260e-16
-4.241810783530008e-15 -2.055013425954793e-15 -1.960997870236038e-15 -7.006656358953258e-16 -1.325807465114026e-16 -2.390729041011229e-16
-8.481187790141084e-16 1.970984736026950e-16 -1.574431353364226e-15 9.946988542651900e-18 -6.867976037439780e-16 8.782787753416727e-17
2.852683120704687e-16 1.374426677647295e-15 -2.534196921959868e-16 -8.381830135073868e-17 -3.046650790248392e-16 3.850554211355870e-16
-4.192472332176872e-15 -5.358946464316682e-15 -2.700842338537795e-15 5.855035750176157e-17 -1.587632024622626e-15 6.189989728688074e-16
-4.221647114672860e-15 -2.552179057945786e-15 -3.589808820362502e-15 -2.301552069871024e-16 2.822376572000719e-16 1.220171737522567e-15
3.425339515419909e-16 -5.716786776798161e-16 1.853769950434113e-16 9.287866262263871e-17 1.826015191647243e-16 3.526229433997777e-17
2.801491772870627e-16 -2.888655704680906e-16 1.436603813816372e-16 2.227031029220844e-16 5.525977820085560e-16 2.371339332847466e-16
-2.297151405050557e-16 -1.569976375215559e-15 6.598815300764178e-16 4.977652918897680e-16 6.358574143335219e-16 -3.676673275725551e-16
2.872512954416884e-15 3.134874225351240e-15 2.280503763330900e-15 3.125750002093769e-16 5.217492634695681e-16 3.796321369021870e-16
3.090895261837858e-16 -5.355043191430374e-17 1.013897439686819e-15 3.699116679165983e-17 2.221717036327360e-16 -2.404888471829797e-16
-8.203867459014037e-16 4.372771443076734e-16 2.152481413357319e-16 2.283760033802180e-16 1.002925560316990e-16 -5.851407593860882e-16
1.357236039673939e-15 2.754078538261064e-15 1.172636805577269e-15 1.816838062987937e-16 7.622086489144953e-16 -6.418524826000445e-16
2.409199269986013e-15 3.211113732999287e-15 2.985921085554238e-15 4.474676812127914e-16 3.954584766234924e-16 -6.372866242606440e-16
-4.843273756945489e-16 -9.069099403201385e-16 3.144763496725320e-16 -2.852451888421917e-16 5.732754244536065e-16 6.418814467592153e-16
-2.482199726246696e-15 -1.954853181806512e-15 -1.826332489793255e-15 -9.661644938860625e-17 5.976102199333663e-16 4.388671015688851e-17
1.208325504392985e-15 1.045334292966336e-15 -6.828145545653026e-16 3.045878248297230e-16 1.663393957201188e-15 2.598940936915243e-16
3.061983474924253e-15 1.775280288901685e-15 1.221996910594769e-15 2.911003917819215e-16 -1.218403087072553e-16 -3.884173296420401e-16
-5.952935924074220e-16 -9.588842303630237e-16 -9.316552191736131e-16 -1.341927691318405e-16 -3.974774427721531e-16 -3.138355611187565e-16
2.634162214486243e-15 2.170216444017172e-16 2.111656455941324e-15 -2.476569828959814e-17 -6.973415214987294e-16 -2.554728145590530e-16
4.610360450434795e-16 3.461196057576325e-16 -3.151835072188237e-17 6.793349869314064e-17 -1.924964946903738e-16 -7.920989646781355e-17
-1.160126687784233e-15 -1.596369061781760e-15 -1.530604900242303e-16 -3.155559644382890e-16 -8.712048668640709e-16 7.071588357977640e-17
-5.678930712839468e-16 -1.115523573593557e-16 -6.722922528802614e-16 -1.735022285310141e-16 -1.201336863758097e-17 -2.876523984060658e-16
-6.699023764196327e-17 -1.242271440167108e-15 -9.654875600456653e-16 -2.120000393388499e-16 -3.565151273624544e-17 3.607486757427622e-16
-1.005925346367703e-16 1.245772844375839e-15 2.094870752621159e-16 6.809840866224829e-17 2.187678859572643e-16 1.698919399119195e-16
3.425339515419909e-16 -5.716786776798161e-16 1.853769950434113e-16 9.287866262263871e-17 1.826015191647243e-16 3.526229433997777e-17
1.044522821229617e-15 3.052388548825262e-15 -3.117654466207317e-16 9.169669407213077e-16 1.714966575420066e-15 -1.172897591801797e-15
1.034897441366838e-15 7.439685425563267e-15 8.351784851828932e-15 3.841665053070869e-16 3.199642992348129e-15 2.010058322288736e-15
-2.297151405050557e-16 -1.569976375215559e-15 6.598815300764178e-16 4.977652918897680e-16 6.358574143335219e-16 -3.676673275725551e-16
3.090895261837858e-16 -5.355043191430374e-17 1.013897439686819e-15 3.699116679165983e-17 2.221717036327360e-16 -2.404888471829797e-16
1.056448041213911e-15 3.832235723687452e-15 1.997395931032399e-15 -5.736094088422114e-17 1.330386291407626e-16 5.003272433168331e-16
8.338244366562546e-15 1.891254614015845e-14 1.693028439660148e-14 -1.475122611133717e-15 1.080185410652592e-15 3.279471183117886e-15
1.357236039673939e-15 2.754078538261064e-15 1.172636805577269e-15 1.816838062987937e-16 7.622086489144953e-16 -6.418524826000445e-16
2.933899579755384e-16 1.098743931711351e-15 8.099489442584387e-16 -1.901158020406783e-16 -8.279339752980441e-16 1.769964299867522e-16
-2.852114874251276e-15 -4.691826282940556e-15 -3.909720655395432e-15 -1.142705356469902e-15 -2.540300312674805e-15 7.298020344280804e-16
-3.223172133945238e-15 -1.071413900052175e-15 -3.694657461768858e-15 -7.488663324696343e-16 -7.370437365117161e-16 5.875184636746260e-16
-5.678930712839468e-16 -1.115523573593557e-16 -6.722922528802614e-16 -1.735022285310141e-16 -1.201336863758097e-17 -2.876523984060658e-16
2.852683120704687e-16 1.374426677647295e-15 -2.534196921959868e-16 -8.381830135073868e-17 -3.046650790248392e-16 3.850554211355870e-16
-8.006531684197419e-16 -5.102000973434136e-15 -5.396606151430213e-15 9.287152561788597e-17 -9.703920647752360e-17 -9.921062021567474e-16
-4.192472332176872e-15 -5.358946464316682e-15 -2.700842338537795e-15 5.855035750176157e-17 -1.587632024622626e-15 6.189989728688074e-16
-6.699023764196327e-17 -1.242271440167108e-15 -9.654875600456653e-16 -2.120000393388499e-16 -3.565151273624544e-17 3.607486757427622e-16
4.610360450434795e-16 3.461196057576325e-16 -3.151835072188237e-17 6.793349869314064e-17 -1.924964946903738e-16 -7.920989646781355e-17
-2.260539173382522e-16 -6.757396979047668e-15 -8.708605511275338e-16 1.678092758107437e-16 -3.225576045840818e-16 -2.921857995769559e-16
-3.901234466432211e-15 -1.195042844777858e-14 -7.916509735998058e-15 2.157391326559185e-17 -1.885398141881052e-15 -2.578584235901260e-15
-1.160126687784233e-15 -1.596369061781760e-15 -1.530604900242303e-16 -3.155559644382890e-16 -8.712048668640709e-16 7.071588357977640e-17
-1.005925346367703e-16 1.245772844375839e-15 2.094870752621159e-16 6.809840866224829e-17 2.187678859572643e-16 1.698919399119195e-16
3.212622705884125e-15 1.296853972600463e-14 5.980250333997145e-15 -8.373705539424076e-17 6.829853357854444e-16 8.261970716865323e-16
-2.482199726246696e-15 -1.954853181806512e-15 -1.826332489793255e-15 -9.661644938860625e-17 5.976102199333663e-16 4.388671015688851e-17
1.208325504392985e-15 1.045334292966336e-15 -6.828145545653026e-16 3.045878248297230e-16 1.663393957201188e-15 2.598940936915243e-16
2.801491772870627e-16 -2.888655704680906e-16 1.436603813816372e-16 2.227031029220844e-16 5.525977820085560e-16 2.371339332847466e-16
-8.203867459014037e-16 4.372771443076734e-16 2.152481413357319e-16 2.283760033802180e-16 1.002925560316990e-16 -5.851407593860882e-16
2.634162214486243e-15 2.170216444017172e-16 2.111656455941324e-15 -2.476569828959814e-17 -6.973415214987294e-16 -2.554728145590530e-16
2.872512954416884e-15 3.134874225351240e-15 2.280503763330900e-15 3.125750002093769e-16 5.217492634695681e-16 3.796321369021870e-16
2.801491772870627e-16 -2.888655704680906e-16 1.436603813816372e-16 2.227031029220844e-16 5.525977820085560e-16 2.371339332847466e-16
-7.191108896997537e-15 -4.009491814593063e-15 -2.967599071593861e-15 8.003373386009137e-17 -1.924615325030105e-15 5.042252791831029e-15
-3.781697962106696e-15 -5.643128721081133e-15 -2.957834322736737e-15 1.362049022848285e-15 -7.069667641679843e-16 7.589075789587626e-16
2.409199269986013e-15 3.211113732999287e-15 2.985921085554238e-15 4.474676812127914e-16 3.954584766234924e-16 -6.372866242606440e-16
-8.203867459014037e-16 4.372771443076734e-16 2.152481413357319e-16 2.283760033802180e-16 1.002925560316990e-16 -5.851407593860882e-16
-4.995882688072903e-15 4.872417475482497e-15 -1.576986782696234e-16 1.119054818208035e-16 4.268207216345919e-15 2.327076374898260e-15
-2.859987658274536e-15 -2.827698579905365e-15 -2.366569079286832e-15 9.043898458504500e-16 -1.826168769034763e-15 -1.257414645229944e-15
-5.678930712839468e-16 -1.115523573593557e-16 -6.722922528802614e-16 -1.735022285310141e-16 -1.201336863758097e-17 -2.876523984060658e-16
-3.223172133945238e-15 -1.071413900052175e-15 -3.694657461768858e-15 -7.488663324696343e-16 -7.370437365117161e-16 5.875184636746260e-16
5.880581010951546e-15 6.551171204009102e-15 2.242703495464210e-15 -1.478950457356857e-16 6.246009622865869e-16 -1.881787035458594e-15
-4.241810783530008e-15 -2.055013425954793e-15 -1.960997870236038e-15 -7.006656358953258e-16 -1.325807465114026e-16 -2.390729041011229e-16
-6.699023764196327e-17 -1.242271440167108e-15 -9.654875600456653e-16 -2.120000393388499e-16 -3.565151273624544e-17 3.607486757427622e-16
-4.192472332176872e-15 -5.358946464316682e-15 -2.700842338537795e-15 5.855035750176157e-17 -1.587632024622626e-15 6.189989728688074e-16
4.439844718960849e-15 5.794858148938184e-16 2.773057575604853e-15 -3.041855714168452e-16 -1.591201571920249e-15 -4.902920408117550e-16
-4.221647114672860e-15 -2.552179057945786e-15 -3.589808820362502e-15 -2.301552069871024e-16 2.822376572000719e-16 1.220171737522567e-15
-5.952935924074220e-16 -9.588842303630237e-16 -9.316552191736131e-16 -1.341927691318405e-16 -3.974774427721531e-16 -3.138355611187565e-16
2.634162214486243e-15 2.170216444017172e-16 2.111656455941324e-15 -2.476569828959814e-17 -6.973415214987294e-16 -2.554728145590530e-16
4.909093689622245e-15 4.090033515927757e-15 8.164591772847693e-15 -5.584875750712492e-16 -4.137537907905882e-15 -3.512062991924283e-15
1.142336105419760e-15 2.299516032400153e-15 1.681886916977137e-15 -1.213815261905810e-15 1.582995392418393e-15 -2.032934842497370e-16
3.061983474924253e-15 1.775280288901685e-15 1.221996910594769e-15 2.911003917819215e-16 -1.218403087072553e-16 -3.884173296420401e-16
1.208325504392985e-15 1.045334292966336e-15 -6.828145545653026e-16 3.045878248297230e-16 1.663393957201188e-15 2.598940936915243e-16
-1.005925346367703e-16 1.245772844375839e-15 2.094870752621159e-16 6.809840866224829e-17 2.187678859572643e-16 1.698919399119195e-16
-3.680087060926282e-15 -4.069056775662258e-15 -4.959836694780137e-15 3.967421187462896e-16 1.301466082640950e-15 1.164897064536543e-15
-2.297151405050557e-16 -1.569976375215559e-15 6.598815300764178e-16 4.977652918897680e-16 6.358574143335219e-16 -3.676673275725551e-16
1.357236039673939e-15 2.754078538261064e-15 1.172636805577269e-15 1.816838062987937e-16 7.622086489144953e-16 -6.418524826000445e-16
-1.160126687784233e-15 -1.596369061781760e-15 -1.530604900242303e-16 -3.155559644382890e-16 -8.712048668640709e-16 7.071588357977640e-17
-5.678930712839468e-16 -1.115523573593557e-16 -6.722922528802614e-16 -1.735022285310141e-16 -1.201336863758097e-17 -2.876523984060658e-16
-2.852114874251276e-15 -4.691826282940556e-15 -3.909720655395432e-15 -1.142705356469902e-15 -2.540300312674805e-15 7.298020344280804e-16
-1.051443983435724e-14 -1.649944462729749e-14 -2.700631765755772e-14 -9.936734180245574e-16 -1.469828543073471e-14 -1.190229558108942e-14
5.880581010951546e-15 6.551171204009102e-15 2.242703495464210e-15 -1.478950457356857e-16 6.246009622865869e-16 -1.881787035458594e-15
-6.699023764196327e-17 -1.242271440167108e-15 -9.654875600456653e-16 -2.120000393388499e-16 -3.565151273624544e-17 3.607486757427622e-16
-8.006531684197419e-16 -5.102000973434136e-15 -5.396606151430213e-15 9.287152561788597e-17 -9.703920647752360e-17 -9.921062021567474e-16
-3.945050903060155e-15 -2.398553045747582e-14 -3.272956049860506e-14 -5.079966619705114e-16 -1.185338183447590e-14 -8.549852975753410e-15
4.439844718960849e-15 5.794858148938184e-16 2.773057575604853e-15 -3.041855714168452e-16 -1.591201571920249e-15 -4.902920408117550e-16
2.801491772870627e-16 -2.888655704680906e-16 1.436603813816372e-16 2.227031029220844e-16 5.525977820085560e-16 2.371339332847466e-16
1.034897441366838e-15 7.439685425563267e-15 8.351784851828932e-15 3.841665053070869e-16 3.199642992348129e-15 2.010058322288736e-15
-7.191108896997537e-15 -4.009491814593063e-15 -2.967599071593861e-15 8.003373386009137e-17 -1.924615325030105e-15 5.042252791831029e-15
-2.297151405050557e-16 -1.569976375215559e-15 6.598815300764178e-16 4.977652918897680e-16 6.358574143335219e-16 -3.676673275725551e-16
-8.203867459014037e-16 4.372771443076734e-16 2.152481413357319e-16 2.283760033802180e-16 1.002925560316990e-16 -5.851407593860882e-16
8.338244366562546e-15 1.891254614015845e-14 1.693028439660148e-14 -1.475122611133717e-15 1.080185410652592e-15 3.279471183117886e-15
-4.995882688072903e-15 4.872417475482497e-15 -1.576986782696234e-16 1.119054818208035e-16 4.268207216345919e-15 2.327076374898260e-15
1.357236039673939e-15 2.754078538261064e-15 1.172636805577269e-15 1.816838062987937e-16 7.622086489144953e-16 -6.418524826000445e-16
-1.005925346367703e-16 1.245772844375839e-15 2.094870752621159e-16 6.809840866224829e-17 2.187678859572643e-16 1.698919399119195e-16
3.212622705884125e-15 1.296853972600463e-14 5.980250333997145e-15 -8.373705539424076e-17 6.829853357854444e-16 8.261970716865323e-16
6.692716605281477e-15 1.649861655293755e-14 1.774371930376723e-14 2.375846743262681e-15 1.413577915689701e-14 1.007658978907409e-14
-3.680087060926282e-15 -4.069056775662258e-15 -4.959836694780137e-15 3.967421187462896e-16 1.301466082640950e-15 1.164897064536543e-15
-1.160126687784233e-15 -1.596369061781760e-15 -1.530604900242303e-16 -3.155559644382890e-16 -8.712048668640709e-16 7.071588357977640e-17
-3.901234466432211e-15 -1.195042844777858e-14 -7.916509735998058e-15 2.157391326559185e-17 -1.885398141881052e-15 -2.578584235901260e-15
2.634162214486243e-15 2.170216444017172e-16 2.111656455941324e-15 -2.476569828959814e-17 -6.973415214987294e-16 -2.554728145590530e-16
4.909093689622245e-15 4.090033515927757e-15 8.164591772847693e-15 -5.584875750712492e-16 -4.137537907905882e-15 -3.512062991924283e-15
-3.223172133945238e-15 -1.071413900052175e-15 -3.694657461768858e-15 -7.488663324696343e-16 -7.370437365117161e-16 5.875184636746260e-16
-4.192472332176872e-15 -5.358946464316682e-15 -2.700842338537795e-15 5.855035750176157e-17 -1.587632024622626e-15 6.189989728688074e-16
1.208325504392985e-15 1.045334292966336e-15 -6.828145545653026e-16 3.045878248297230e-16 1.663393957201188e-15 2.598940936915243e-16
2.965283306890876e-15 3.707694202513448e-15 1.434709177905423e-15 6.346652945595166e-16 -5.506147888764840e-16 -7.343602982034295e-16
1.061773871668016e-15 1.814892287243743e-16 9.311149987718066e-16 2.719235332055361e-16 1.057700085958516e-17 -6.911780995056393e-16
2.634162214486243e-15 2.170216444017172e-16 2.111656455941324e-15 -2.476569828959814e-17 -6.973415214987294e-16 -2.554728145590530e-16
-5.952935924074220e-16 -9.588842303630237e-16 -9.316552191736131e-16 -1.341927691318405e-16 -3.974774427721531e-16 -3.138355611187565e-16
-2.831602544509854e-15 -2.763740060364071e-15 9.448248650048215e-16 -5.792574103232881e-16 3.059084345361047e-16 -5.685619710897104e-16
-2.236369643453931e-15 -5.088130223567990e-15 2.391206897134065e-15 -6.668199939957413e-16 8.103031056992240e-16 -1.118947738382355e-16
-7.602004277365657e-15 -1.309270905061760e-14 -6.330135298498130e-15 -1.403915337064955e-17 8.559348005577832e-16 -8.979204353487192e-16
-6.338726500930541e-15 -1.062360511726516e-14 -3.540931646989774e-15 -1.105972744051970e-16 1.457740555285091e-15 -7.525219029470577e-16
-7.175990112425688e-17 1.928481681656522e-16 3.219299314567041e-16 -2.478660795473078e-16 -8.282285489549540e-17 5.783226245578895e-16
-2.482199726246696e-15 -1.954853181806512e-15 -1.826332489793255e-15 -9.661644938860625e-17 5.976102199333663e-16 4.388671015688851e-17
-1.005925346367703e-16 1.245772844375839e-15 2.094870752621159e-16 6.809840866224829e-17 2.187678859572643e-16 1.698919399119195e-16
-4.843273756945489e-16 -9.069099403201385e-16 3.144763496725320e-16 -2.852451888421917e-16 5.732754244536065e-16 6.418814467592153e-16
2.073919093476882e-16 2.906481280537658e-15 -2.441424254832699e-15 4.133566954782378e-16 -3.584221554014772e-16 1.543137741616046e-16
9.278716874800641e-15 1.174679524051807e-14 8.355751101992700e-15 -3.809207569414017e-18 -4.996194731672963e-16 8.197351914346767e-16
2.849688868488810e-15 6.770201795805528e-15 1.469373104759398e-15 1.805294958016741e-16 -4.912940748240070e-16 5.551711726515668e-16
4.038504878260980e-15 6.235896340590541e-15 1.729599599952394e-15 7.922671142844731e-17 -8.936965876814803e-16 7.392497088514894e-16
-2.675359264409115e-15 -3.583577756754897e-15 -1.912771492916417e-16 -2.649250496449189e-16 5.100573352140268e-16 3.635073368944562e-16
1.300661882825300e-15 2.634783616881332e-16 8.117097951500699e-16 3.552841697072028e-16 -4.159786833412424e-17 8.836258068678634e-16
-8.203867459014037e-16 4.372771443076734e-16 2.152481413357319e-16 2.283760033802180e-16 1.002925560316990e-16 -5.851407593860882e-16
2.409199269986013e-15 3.211113732999287e-15 2.985921085554238e-15 4.474676812127914e-16 3.954584766234924e-16 -6.372866242606440e-16
-8.481187790141084e-16 1.970984736026950e-16 -1.574431353364226e-15 9.946988542651900e-18 -6.867976037439780e-16 8.782787753416727e-17
2.852683120704687e-16 1.374426677647295e-15 -2.534196921959868e-16 -8.381830135073868e-17 -3.046650790248392e-16 3.850554211355870e-16
-7.260347431391466e-16 1.043313973427171e-16 -1.029402679423516e-15 -5.455252109781586e-17 -7.488470436653674e-17 -6.757833963024639e-16
-6.699023764196327e-17 -1.242271440167108e-15 -9.654875600456653e-16 -2.120000393388499e-16 -3.565151273624544e-17 3.607486757427622e-16
4.610360450434795e-16 3.461196057576325e-16 -3.151835072188237e-17 6.793349869314064e-17 -1.924964946903738e-16 -7.920989646781355e-17
-3.654321880875720e-15 -6.063937735477143e-15 -2.996273493390457e-15 -1.115931542110632e-16 2.449458525721133e-16 -5.165709048434387e-16
3.090895261837858e-16 -5.355043191430374e-17 1.013897439686819e-15 3.699116679165983e-17 2.221717036327360e-16 -2.404888471829797e-16
-7.175990112425688e-17 1.928481681656522e-16 3.219299314567041e-16 -2.478660795473078e-16 -8.282285489549540e-17 5.783226245578895e-16
2.635852428184307e-15 6.831481325484083e-15 1.395616528530774e-15 3.686699226046022e-16 -1.607920472652598e-15 -4.837512913347482e-16
3.212622705884125e-15 1.296853972600463e-14 5.980250333997145e-15 -8.373705539424076e-17 6.829853357854444e-16 8.261970716865323e-16
-1.005925346367703e-16 1.245772844375839e-15 2.094870752621159e-16 6.809840866224829e-17 2.187678859572643e-16 1.698919399119195e-16
2.073919093476882e-16 2.906481280537658e-15 -2.441424254832699e-15 4.133566954782378e-16 -3.584221554014772e-16 1.543137741616046e-16
5.615962939938538e-15 6.364020343302854e-15 4.821361528578873e-15 -4.757729914364787e-16 -3.217173643564875e-15 1.166422374399557e-15
8.151163720270460e-15 -3.834404354840471e-16 1.675266478380744e-14 -2.836791571223532e-15 1.523007792813225e-16 6.522793284048987e-16
2.849688868488810e-15 6.770201795805528e-15 1.469373104759398e-15 1.805294958016741e-16 -4.912940748240070e-16 5.551711726515668e-16
1.061773871668016e-15 1.814892287243743e-16 9.311149987718066e-16 2.719235332055361e-16 1.057700085958516e-17 -6.911780995056393e-16
-2.260539173382522e-16 -6.757396979047668e-15 -8.708605511275338e-16 1.678092758107437e-16 -3.225576045840818e-16 -2.921857995769559e-16
2.634162214486243e-15 2.170216444017172e-16 2.111656455941324e-15 -2.476569828959814e-17 -6.973415214987294e-16 -2.554728145590530e-16
4.610360450434795e-16 3.461196057576325e-16 -3.151835072188237e-17 6.793349869314064e-17 -1.924964946903738e-16 -7.920989646781355e-17
-2.236369643453931e-15 -5.088130223567990e-15 2.391206897134065e-15 -6.668199939957413e-16 8.103031056992240e-16 -1.118947738382355e-16
-8.561593734434704e-15 -4.143031486561651e-15 -2.037400619198960e-14 2.198969660442619e-15 1.372133664715472e-15 -4.944092801941694e-16
-7.602004277365657e-15 -1.309270905061760e-14 -6.330135298498130e-15 -1.403915337064955e-17 8.559348005577832e-16 -8.979204353487192e-16
-3.654321880875720e-15 -6.063937735477143e-15 -2.996273493390457e-15 -1.115931542110632e-16 2.449458525721133e-16 -5.165709048434387e-16
-7.260347431391466e-16 1.043313973427171e-16 -1.029402679423516e-15 -5.455252109781586e-17 -7.488470436653674e-17 -6.757833963024639e-16
-3.284299935607010e-15 -2.120044206112202e-15 -8.831682805265099e-16 -9.457090159523950e-16 1.466138183075076e-15 6.683994837347218e-17
-8.006531684197419e-16 -5.102000973434136e-15 -5.396606151430213e-15 9.287152561788597e-17 -9.703920647752360e-17 -9.921062021567474e-16
-6.699023764196327e-17 -1.242271440167108e-15 -9.654875600456653e-16 -2.120000393388499e-16 -3.565151273624544e-17 3.607486757427622e-16
3.090895261837858e-16 -5.355043191430374e-17 1.013897439686819e-15 3.699116679165983e-17 2.221717036327360e-16 -2.404888471829797e-16
1.056448041213911e-15 3.832235723687452e-15 1.997395931032399e-15 -5.736094088422114e-17 1.330386291407626e-16 5.003272433168331e-16
1.300661882825300e-15 2.634783616881332e-16 8.117097951500699e-16 3.552841697072028e-16 -4.159786833412424e-17 8.836258068678634e-16
-8.203867459014037e-16 4.372771443076734e-16 2.152481413357319e-16 2.283760033802180e-16 1.002925560316990e-16 -5.851407593860882e-16
-2.482199726246696e-15 -1.954853181806512e-15 -1.826332489793255e-15 -9.661644938860625e-17 5.976102199333663e-16 4.388671015688851e-17
9.278716874800641e-15 1.174679524051807e-14 8.355751101992700e-15 -3.809207569414017e-18 -4.996194731672963e-16 8.197351914346767e-16
2.852683120704687e-16 1.374426677647295e-15 -2.534196921959868e-16 -8.381830135073868e-17 -3.046650790248392e-16 3.850554211355870e-16
-4.843273756945489e-16 -9.069099403201385e-16 3.144763496725320e-16 -2.852451888421917e-16 5.732754244536065e-16 6.418814467592153e-16
-2.482199726246696e-15 -1.954853181806512e-15 -1.826332489793255e-15 -9.661644938860625e-17 5.976102199333663e-16 4.388671015688851e-17
1.208325504392985e-15 1.045334292966336e-15 -6.828145545653026e-16 3.045878248297230e-16 1.663393957201188e-15 2.598940936915243e-16
3.061983474924253e-15 1.775280288901685e-15 1.221996910594769e-15 2.911003917819215e-16 -1.218403087072553e-16 -3.884173296420401e-16
4.038504878260980e-15 6.235896340590541e-15 1.729599599952394e-15 7.922671142844731e-17 -8.936965876814803e-16 7.392497088514894e-16
9.278716874800641e-15 1.174679524051807e-14 8.355751101992700e-15 -3.809207569414017e-18 -4.996194731672963e-16 8.197351914346767e-16
8.563578369975824e-15 8.733218505007272e-15 9.401827612894700e-15 -4.629915782138207e-16 3.069678844821524e-16 2.216761477712136e-15
1.684651438720160e-15 3.416446797495060e-15 9.767867263925734e-16 -2.280556319994559e-16 -2.539500543989677e-15 6.979841599184735e-16
4.610360450434795e-16 3.461196057576325e-16 -3.151835072188237e-17 6.793349869314064e-17 -1.924964946903738e-16 -7.920989646781355e-17
2.634162214486243e-15 2.170216444017172e-16 2.111656455941324e-15 -2.476569828959814e-17 -6.973415214987294e-16 -2.554728145590530e-16
-1.160126687784233e-15 -1.596369061781760e-15 -1.530604900242303e-16 -3.155559644382890e-16 -8.712048668640709e-16 7.071588357977640e-17
-5.952935924074220e-16 -9.588842303630237e-16 -9.316552191736131e-16 -1.341927691318405e-16 -3.974774427721531e-16 -3.138355611187565e-16
-3.654321880875720e-15 -6.063937735477143e-15 -2.996273493390457e-15 -1.115931542110632e-16 2.449458525721133e-16 -5.165709048434387e-16
-7.602004277365657e-15 -1.309270905061760e-14 -6.330135298498130e-15 -1.403915337064955e-17 8.559348005577832e-16 -8.979204353487192e-16
-3.402143024210995e-15 -4.407548775151274e-15 -3.135624665933447e-15 1.904910406313578e-16 1.533489314792120e-15 -9.088739703356179e-16
-6.338726500930541e-15 -1.062360511726516e-14 -3.540931646989774e-15 -1.105972744051970e-16 1.457740555285091e-15 -7.525219029470577e-16
-8.481187790141084e-16 1.970984736026950e-16 -1.574431353364226e-15 9.946988542651900e-18 -6.867976037439780e-16 8.782787753416727e-17
2.852683120704687e-16 1.374426677647295e-15 -2.534196921959868e-16 -8.381830135073868e-17 -3.046650790248392e-16 3.850554211355870e-16
-4.192472332176872e-15 -5.358946464316682e-15 -2.700842338537795e-15 5.855035750176157e-17 -1.587632024622626e-15 6.189989728688074e-16
-4.221647114672860e-15 -2.552179057945786e-15 -3.589808820362502e-15 -2.301552069871024e-16 2.822376572000719e-16 1.220171737522567e-15
2.409199269986013e-15 3.211113732999287e-15 2.985921085554238e-15 4.474676812127914e-16 3.954584766234924e-16 -6.372866242606440e-16
-8.203867459014037e-16 4.372771443076734e-16 2.152481413357319e-16 2.283760033802180e-16 1.002925560316990e-16 -5.851407593860882e-16
3.090895261837858e-16 -5.355043191430374e-17 1.013897439686819e-15 3.699116679165983e-17 2.221717036327360e-16 -2.404888471829797e-16
1.357236039673939e-15 2.754078538261064e-15 1.172636805577269e-15 1.816838062987937e-16 7.622086489144953e-16 -6.418524826000445e-16
-1.005925346367703e-16 1.245772844375839e-15 2.094870752621159e-16 6.809840866224829e-17 2.187678859572643e-16 1.698919399119195e-16
2.849688868488810e-15 6.770201795805528e-15 1.469373104759398e-15 1.805294958016741e-16 -4.912940748240070e-16 5.551711726515668e-16
-6.699023764196327e-17 -1.242271440167108e-15 -9.654875600456653e-16 -2.120000393388499e-16 -3.565151273624544e-17 3.607486757427622e-16
4.610360450434795e-16 3.461196057576325e-16 -3.151835072188237e-17 6.793349869314064e-17 -1.924964946903738e-16 -7.920989646781355e-17
-2.260539173382522e-16 -6.757396979047668e-15 -8.708605511275338e-16 1.678092758107437e-16 -3.225576045840818e-16 -2.921857995769559e-16
-3.901234466432211e-15 -1.195042844777858e-14 -7.916509735998058e-15 2.157391326559185e-17 -1.885398141881052e-15 -2.578584235901260e-15
-1.160126687784233e-15 -1.596369061781760e-15 -1.530604900242303e-16 -3.155559644382890e-16 -8.712048668640709e-16 7.071588357977640e-17
-3.654321880875720e-15 -6.063937735477143e-15 -2.996273493390457e-15 -1.115931542110632e-16 2.449458525721133e-16 -5.165709048434387e-16
-8.561593734434704e-15 -4.143031486561651e-15 -2.037400619198960e-14 2.198969660442619e-15 1.372133664715472e-15 -4.944092801941694e-16
-7.243248551436001e-16 7.212909793391398e-15 -2.827398777319480e-15 1.352776553752691e-15 -6.764632048237249e-15 -2.218239196505696e-15
-3.402143024210995e-15 -4.407548775151274e-15 -3.135624665933447e-15 1.904910406313578e-16 1.533489314792120e-15 -9.088739703356179e-16
-2.482199726246696e-15 -1.954853181806512e-15 -1.826332489793255e-15 -9.661644938860625e-17 5.976102199333663e-16 4.388671015688851e-17
3.212622705884125e-15 1.296853972600463e-14 5.980250333997145e-15 -8.373705539424076e-17 6.829853357854444e-16 8.261970716865323e-16
1.208325504392985e-15 1.045334292966336e-15 -6.828145545653026e-16 3.045878248297230e-16 1.663393957201188e-15 2.598940936915243e-16
-1.005925346367703e-16 1.245772844375839e-15 2.094870752621159e-16 6.809840866224829e-17 2.187678859572643e-16 1.698919399119195e-16
9.278716874800641e-15 1.174679524051807e-14 8.355751101992700e-15 -3.809207569414017e-18 -4.996194731672963e-16 8.197351914346767e-16
8.151163720270460e-15 -3.834404354840471e-16 1.675266478380744e-14 -2.836791571223532e-15 1.523007792813225e-16 6.522793284048987e-16
8.563578369975824e-15 8.733218505007272e-15 9.401827612894700e-15 -4.629915782138207e-16 3.069678844821524e-16 2.216761477712136e-15
2.849688868488810e-15 6.770201795805528e-15 1.469373104759398e-15 1.805294958016741e-16 -4.912940748240070e-16 5.551711726515668e-16
3.090895261837858e-16 -5.355043191430374e-17 1.013897439686819e-15 3.699116679165983e-17 2.221717036327360e-16 -2.404888471829797e-16
1.056448041213911e-15 3.832235723687452e-15 1.997395931032399e-15 -5.736094088422114e-17 1.330386291407626e-16 5.003272433168331e-16
8.338244366562546e-15 1.891254614015845e-14 1.693028439660148e-14 -1.475122611133717e-15 1.080185410652592e-15 3.279471183117886e-15
1.357236039673939e-15 2.754078538261064e-15 1.172636805577269e-15 1.816838062987937e-16 7.622086489144953e-16 -6.418524826000445e-16
-6.699023764196327e-17 -1.242271440167108e-15 -9.654875600456653e-16 -2.120000393388499e-16 -3.565151273624544e-17 3.607486757427622e-16
-8.006531684197419e-16 -5.102000973434136e-15 -5.396606151430213e-15 9.287152561788597e-17 -9.703920647752360e-17 -9.921062021567474e-16
2.852683120704687e-16 1.374426677647295e-15 -2.534196921959868e-16 -8.381830135073868e-17 -3.046650790248392e-16 3.850554211355870e-16
-4.192472332176872e-15 -5.358946464316682e-15 -2.700842338537795e-15 5.855035750176157e-17 -1.587632024622626e-15 6.189989728688074e-16
2.634162214486243e-15 2.170216444017172e-16 2.111656455941324e-15 -2.476569828959814e-17 -6.973415214987294e-16 -2.554728145590530e-16
-7.602004277365657e-15 -1.309270905061760e-14 -6.330135298498130e-15 -1.403915337064955e-17 8.559348005577832e-16 -8.979204353487192e-16
-8.203867459014037e-16 4.372771443076734e-16 2.152481413357319e-16 2.283760033802180e-16 1.002925560316990e-16 -5.851407593860882e-16
-5.952935924074220e-16 -9.588842303630237e-16 -9.316552191736131e-16 -1.341927691318405e-16 -3.974774427721531e-16 -3.138355611187565e-16
2.634162214486243e-15 2.170216444017172e-16 2.111656455941324e-15 -2.476569828959814e-17 -6.973415214987294e-16 -2.554728145590530e-16
4.909093689622245e-15 4.090033515927757e-15 8.164591772847693e-15 -5.584875750712492e-16 -4.137537907905882e-15 -3.512062991924283e-15
1.142336105419760e-15 2.299516032400153e-15 1.681886916977137e-15 -1.213815261905810e-15 1.582995392418393e-15 -2.032934842497370e-16
-6.338726500930541e-15 -1.062360511726516e-14 -3.540931646989774e-15 -1.105972744051970e-16 1.457740555285091e-15 -7.525219029470577e-16
-7.602004277365657e-15 -1.309270905061760e-14 -6.330135298498130e-15 -1.403915337064955e-17 8.559348005577832e-16 -8.979204353487192e-16
1.280513184865646e-14 1.381572809867491e-14 1.440672311034094e-14 3.764252042518993e-16 5.364001773784287e-15 -4.967135145602624e-16
1.123723819547977e-14 7.274780564810746e-15 1.709270088978582e-14 1.131295349681401e-15 6.825294296124353e-15 -5.368331338338605e-16
-1.005925346367703e-16 1.245772844375839e-15 2.094870752621159e-16 6.809840866224829e-17 2.187678859572643e-16 1.698919399119195e-16
1.208325504392985e-15 1.045334292966336e-15 -6.828145545653026e-16 3.045878248297230e-16 1.663393957201188e-15 2.598940936915243e-16
-3.680087060926282e-15 -4.069056775662258e-15 -4.959836694780137e-15 3.967421187462896e-16 1.301466082640950e-15 1.164897064536543e-15
3.061983474924253e-15 1.775280288901685e-15 1.221996910594769e-15 2.911003917819215e-16 -1.218403087072553e-16 -3.884173296420401e-16
2.849688868488810e-15 6.770201795805528e-15 1.469373104759398e-15 1.805294958016741e-16 -4.912940748240070e-16 5.551711726515668e-16
8.563578369975824e-15 8.733218505007272e-15 9.401827612894700e-15 -4.629915782138207e-16 3.069678844821524e-16 2.216761477712136e-15
-6.282702110792969e-15 -6.086844068703656e-15 -7.831445113747438e-15 -1.958690988347216e-16 -6.421250923201437e-15 -7.516109199791048e-16
1.684651438720160e-15 3.416446797495060e-15 9.767867263925734e-16 -2.280556319994559e-16 -2.539500543989677e-15 6.979841599184735e-16
2.409199269986013e-15 3.211113732999287e-15 2.985921085554238e-15 4.474676812127914e-16 3.954584766234924e-16 -6.372866242606440e-16
-8.203867459014037e-16 4.372771443076734e-16 2.152481413357319e-16 2.283760033802180e-16 1.002925560316990e-16 -5.851407593860882e-16
-4.995882688072903e-15 4.872417475482497e-15 -1.576986782696234e-16 1.119054818208035e-16 4.268207216345919e-15 2.327076374898260e-15
-2.859987658274536e-15 -2.827698579905365e-15 -2.366569079286832e-15 9.043898458504500e-16 -1.826168769034763e-15 -1.257414645229944e-15
-4.221647114672860e-15 -2.552179057945786e-15 -3.589808820362502e-15 -2.301552069871024e-16 2.822376572000719e-16 1.220171737522567e-15
-4.192472332176872e-15 -5.358946464316682e-15 -2.700842338537795e-15 5.855035750176157e-17 -1.587632024622626e-15 6.189989728688074e-16
-6.699023764196327e-17 -1.242271440167108e-15 -9.654875600456653e-16 -2.120000393388499e-16 -3.565151273624544e-17 3.607486757427622e-16
4.439844718960849e-15 5.794858148938184e-16 2.773057575604853e-15 -3.041855714168452e-16 -1.591201571920249e-15 -4.902920408117550e-16
-1.160126687784233e-15 -1.596369061781760e-15 -1.530604900242303e-16 -3.155559644382890e-16 -8.712048668640709e-16 7.071588357977640e-17
-3.402143024210995e-15 -4.407548775151274e-15 -3.135624665933447e-15 1.904910406313578e-16 1.533489314792120e-15 -9.088739703356179e-16
1.357236039673939e-15 2.754078538261064e-15 1.172636805577269e-15 1.816838062987937e-16 7.622086489144953e-16 -6.418524826000445e-16
-1.005925346367703e-16 1.245772844375839e-15 2.094870752621159e-16 6.809840866224829e-17 2.187678859572643e-16 1.698919399119195e-16
3.212622705884125e-15 1.296853972600463e-14 5.980250333997145e-15 -8.373705539424076e-17 6.829853357854444e-16 8.261970716865323e-16
6.692716605281477e-15 1.649861655293755e-14 1.774371930376723e-14 2.375846743262681e-15 1.413577915689701e-14 1.007658978907409e-14
-3.680087060926282e-15 -4.069056775662258e-15 -4.959836694780137e-15 3.967421187462896e-16 1.301466082640950e-15 1.164897064536543e-15
2.849688868488810e-15 6.770201795805528e-15 1.469373104759398e-15 1.805294958016741e-16 -4.912940748240070e-16 5.551711726515668e-16
8.151163720270460e-15 -3.834404354840471e-16 1.675266478380744e-14 -2.836791571223532e-15 1.523007792813225e-16 6.522793284048987e-16
3.467524377367837e-14 1.654436120353029e-14 1.905746506704599e-15 -2.404189817788351e-15 1.560692005370879e-14 -1.009512032242441e-15
-6.282702110792969e-15 -6.086844068703656e-15 -7.831445113747438e-15 -1.958690988347216e-16 -6.421250923201437e-15 -7.516109199791048e-16
2.634162214486243e-15 2.170216444017172e-16 2.111656455941324e-15 -2.476569828959814e-17 -6.973415214987294e-16 -2.554728145590530e-16
-3.901234466432211e-15 -1.195042844777858e-14 -7.916509735998058e-15 2.157391326559185e-17 -1.885398141881052e-15 -2.578584235901260e-15
4.909093689622245e-15 4.090033515927757e-15 8.164591772847693e-15 -5.584875750712492e-16 -4.137537907905882e-15 -3.512062991924283e-15
-1.160126687784233e-15 -1.596369061781760e-15 -1.530604900242303e-16 -3.155559644382890e-16 -8.712048668640709e-16 7.071588357977640e-17
-7.602004277365657e-15 -1.309270905061760e-14 -6.330135298498130e-15 -1.403915337064955e-17 8.559348005577832e-16 -8.979204353487192e-16
-7.243248551436001e-16 7.212909793391398e-15 -2.827398777319480e-15 1.352776553752691e-15 -6.764632048237249e-15 -2.218239196505696e-15
1.280513184865646e-14 1.381572809867491e-14 1.440672311034094e-14 3.764252042518993e-16 5.364001773784287e-15 -4.967135145602624e-16
-3.402143024210995e-15 -4.407548775151274e-15 -3.135624665933447e-15 1.904910406313578e-16 1.533489314792120e-15 -9.088739703356179e-16
-6.699023764196327e-17 -1.242271440167108e-15 -9.654875600456653e-16 -2.120000393388499e-16 -3.565151273624544e-17 3.607486757427622e-16
-8.006531684197419e-16 -5.102000973434136e-15 -5.396606151430213e-15 9.287152561788597e-17 -9.703920647752360e-17 -9.921062021567474e-16
-3.945050903060155e-15 -2.398553045747582e-14 -3.272956049860506e-14 -5.079966619705114e-16 -1.185338183447590e-14 -8.549852975753410e-15
4.439844718960849e-15 5.794858148938184e-16 2.773057575604853e-15 -3.041855714168452e-16 -1.591201571920249e-15 -4.902920408117550e-16
1.357236039673939e-15 2.754078538261064e-15 1.172636805577269e-15 1.816838062987937e-16 7.622086489144953e-16 -6.418524826000445e-16
8.338244366562546e-15 1.891254614015845e-14 1.693028439660148e-14 -1.475122611133717e-15 1.080185410652592e-15 3.279471183117886e-15
-8.203867459014037e-16 4.372771443076734e-16 2.152481413357319e-16 2.283760033802180e-16 1.002925560316990e-16 -5.851407593860882e-16
-4.995882688072903e-15 4.872417475482497e-15 -1.576986782696234e-16 1.119054818208035e-16 4.268207216345919e-15 2.327076374898260e-15
1.208325504392985e-15 1.045334292966336e-15 -6.828145545653026e-16 3.045878248297230e-16 1.663393957201188e-15 2.598940936915243e-16
8.563578369975824e-15 8.733218505007272e-15 9.401827612894700e-15 -4.629915782138207e-16 3.069678844821524e-16 2.216761477712136e-15
-4.192472332176872e-15 -5.358946464316682e-15 -2.700842338537795e-15 5.855035750176157e-17 -1.587632024622626e-15 6.189989728688074e-16
        </DataArray>
  </PointData>
  <CellData>
        <DataArray type="Float64" Name="element_GL_strains_xyz" NumberOfComponents="6" format="ascii">
2.055968564120660e-17 8.223874256482641e-18 2.055968564120660e-17 -3.211854821216390e-18 8.289566367280819e-18 1.087427172003198e-17
-1.644774851296528e-17 -8.223874256482641e-18 -5.756711979537848e-17 -5.332323375690934e-18 2.240940168267082e-17 5.422422584006329e-19
4.111937128241320e-18 4.111937128241320e-17 4.523130841065452e-17 -1.039293740485706e-18 5.027273871214488e-18 -2.890758748128070e-18
-1.233581138472396e-17 3.289549702593056e-17 2.055968564120660e-17 5.793124984792590e-18 9.175954974991790e-18 -1.300708499542299e-17
0.000000000000000e+00 3.289549702593056e-17 1.644774851296528e-17 -2.767549963052274e-17 -1.647833581383836e-17 1.092068598838245e-17
0.000000000000000e+00 1.233581138472396e-17 5.756711979537848e-17 -5.366675267440690e-18 1.487609456513015e-18 9.231153288721198e-18
-1.233581138472396e-17 9.457455394955037e-17 -1.644774851296528e-17 -5.265399929960188e-18 -3.851945070820203e-18 -4.952946730092919e-18
-2.467162276944792e-17 6.167905692361981e-17 -2.467162276944792e-17 1.958904862683445e-17 6.303650565057135e-18 -7.835650822324418e-18
-5.345518266713716e-17 -1.233581138472396e-17 -4.523130841065452e-17 -1.686190056678668e-17 -1.042393253640845e-17 2.150671553362287e-17
4.111937128241320e-18 1.644774851296528e-17 1.644774851296528e-17 -4.824589866993256e-18 2.779974681524870e-17 -2.001256510046163e-18
1.644774851296528e-17 -4.111937128241320e-18 -3.700743415417188e-17 -8.459004328322307e-18 -1.067907768307583e-17 -1.374944663051011e-17
7.401486830834377e-17 -2.467162276944792e-17 0.000000000000000e+00 -1.305114639447554e-17 1.381855824468790e-18 -6.359711597529119e-18
        </DataArray>
        <DataArray type="Float64" Name="element_cauchy_stresses_xyz" NumberOfComponents="6" format="ascii">
4.428239984259885e-17 3.479331416204205e-17 4.428239984259875e-17 -2.470657554781833e-18 6.376589513292950e-18 8.364824400024616e-18
-6.009754264352698e-17 -5.377148552315557e-17 -9.172782824538333e-17 -4.101787212069964e-18 1.723800129436214e-17 4.171094295389467e-19
5.535299980324858e-17 8.382025684491920e-17 8.698328540510482e-17 -7.994567234505461e-19 3.867133747088065e-18 -2.223660575483146e-18
1.423362852083533e-17 4.902694268287730e-17 3.953785700232033e-17 4.456249988301987e-18 7.058426903839836e-18 -1.000544999647923e-17
2.846725704167074e-17 5.377148552315586e-17 4.111937128241316e-17 -2.128884586963288e-17 -1.267564293372182e-17 8.400527683371132e-18
4.032861414236681e-17 4.981769982292375e-17 8.461101398496563e-17 -4.128211744185112e-18 1.144314966548467e-18 7.100887145170166e-18
2.846725704167070e-17 1.107059996064973e-16 2.530422848148502e-17 -4.050307638430878e-18 -2.963034669861723e-18 -3.809959023148417e-18
-1.186135710069611e-17 5.456224266320225e-17 -1.186135710069612e-17 1.506849894371879e-17 4.848961973120846e-18 -6.027423709480305e-18
-1.051706996261722e-16 -7.354041402431590e-17 -9.884464250580102e-17 -1.297069274368206e-17 -8.018409643391106e-18 1.654362733355604e-17
2.451347134143866e-17 3.400255702199555e-17 3.400255702199554e-17 -3.711222974610200e-18 2.138442062711439e-17 -1.539428084650890e-18
-1.581514280092821e-18 -1.739665708102092e-17 -4.270088556250602e-17 -6.506926406401797e-18 -8.214675140827553e-18 -1.057649740808470e-17
8.540177112501207e-17 9.489085680556911e-18 2.846725704167068e-17 -1.003934338036579e-17 1.062966018822158e-18 -4.892085844253174e-18
        </DataArray>
        <DataArray type="Float64" Name="element_owner" format="ascii">
0.000000000000000e+00
0.000000000000000e+00
0.000000000000000e+00
0.000000000000000e+00
0.000000000000000e+00
0.000000000000000e+00
0.000000000000000e+00
0.000000000000000e+00
0.000000000000000e+00
0.000000000000000e+00
0.000000000000000e+00
0.000000000000000e+00
        </DataArray>
      </CellData>

    </Piece>
  </UnstructuredGrid>
</VTKFile>
